LAMMPS (22 Jul 2025 - Update 5)
  using 1 OpenMP thread(s) per MPI task
Reading data file ...
  orthogonal box = (0 0 0) to (80 30 116.47666)
  1 by 1 by 1 MPI processor grid
  reading atoms ...
  19487 atoms
  scanning bonds ...
  2 = max bonds/atom
  scanning angles ...
  1 = max angles/atom
  orthogonal box = (0 0 0) to (80 30 116.47666)
  1 by 1 by 1 MPI processor grid
  reading bonds ...
  9176 bonds
  reading angles ...
  4588 angles
Finding 1-2 1-3 1-4 neighbors ...
  special bond factors lj:    0        0        0       
  special bond factors coul:  0        0        0       
     2 = max # of 1-2 neighbors
     1 = max # of 1-3 neighbors
     1 = max # of 1-4 neighbors
     2 = max # of special neighbors
  special bonds CPU = 0.007 seconds
  read_data CPU = 0.106 seconds
Setting atom values ...
  776 settings made for charge
Setting atom values ...
  776 settings made for charge
Setting atom values ...
  1920 settings made for charge
Setting atom values ...
  1920 settings made for charge
Setting atom values ...
  331 settings made for charge
13764 atoms in group watr
15316 atoms in group liq
331 atoms in group gas
15647 atoms in group mobile
1920 atoms in group bot
1920 atoms in group top
3840 atoms in group elec
Finding SHAKE clusters ...
       0 = # of size 2 clusters
       0 = # of size 3 clusters
       0 = # of size 4 clusters
    4588 = # of frozen angles
  find clusters CPU = 0.006 seconds

CITE-CITE-CITE-CITE-CITE-CITE-CITE-CITE-CITE-CITE-CITE-CITE-CITE

Your simulation uses code contributions which should be cited:
- kspace_style pppm/electrode command:
The log file lists these citations in BibTeX format.

CITE-CITE-CITE-CITE-CITE-CITE-CITE-CITE-CITE-CITE-CITE-CITE-CITE

PPPM/electrode initialization ...
  using 12-bit tables for long-range coulomb
  G vector (1/distance) = 0.29673526
  grid = 60 30 180
  stencil order = 5
  estimated absolute RMS force accuracy = 0.0035825588
  estimated relative force accuracy = 1.0788769e-05
  using double precision FFTW3
  3d grid and FFT values/proc = 453657 324000
Generated 21 of 21 mixed pair_coeff terms from geometric mixing rule
WARNING: Should not use fix nve/limit with fix shake or fix rattle (src/lammps/src/fix_nve_limit.cpp:76)
WARNING: Neighbor exclusions used with KSpace solver may give inconsistent Coulombic energies (src/lammps/src/neighbor.cpp:671)
Neighbor list info ...
  update: every = 1 steps, delay = 0 steps, check = yes
  max neighbors/atom: 2000, page size: 100000
  master list distance cutoff = 12
  ghost atom cutoff = 12
  binsize = 6, bins = 14 5 20
  1 neighbor lists, perpetual/occasional/extra = 1 0 0
  (1) pair lj/cut/coul/long, perpetual
      attributes: half, newton on
      pair build: half/bin/newton
      stencil: half/bin/3d
      bin: standard
Setting up Verlet run ...
  Unit style    : real
  Current step  : 0
  Time step     : 0.2
Per MPI rank memory allocation (min/avg/max) = 89.39 | 89.39 | 89.39 Mbytes
   Step          Temp          PotEng         Press     
         0   247.16834      23094.144      12938.119    
       400   676.1203      -113356.96      4576.5006    
Loop time of 126.154 on 1 procs for 400 steps with 19487 atoms

Performance: 0.055 ns/day, 438.035 hours/ns, 3.171 timesteps/s, 61.788 katom-step/s
98.6% CPU use with 1 MPI tasks x 1 OpenMP threads

MPI task timing breakdown:
Section |  min time  |  avg time  |  max time  |%varavg| %total
---------------------------------------------------------------
Pair    | 44.886     | 44.886     | 44.886     |   0.0 | 35.58
Bond    | 0.0018503  | 0.0018503  | 0.0018503  |   0.0 |  0.00
Kspace  | 75.23      | 75.23      | 75.23      |   0.0 | 59.63
Neigh   | 3.8487     | 3.8487     | 3.8487     |   0.0 |  3.05
Comm    | 0.34688    | 0.34688    | 0.34688    |   0.0 |  0.27
Output  | 0.00023895 | 0.00023895 | 0.00023895 |   0.0 |  0.00
Modify  | 1.567      | 1.567      | 1.567      |   0.0 |  1.24
Other   |            | 0.2732     |            |       |  0.22

Nlocal:          19487 ave       19487 max       19487 min
Histogram: 1 0 0 0 0 0 0 0 0 0
Nghost:          26576 ave       26576 max       26576 min
Histogram: 1 0 0 0 0 0 0 0 0 0
Neighs:     4.8484e+06 ave  4.8484e+06 max  4.8484e+06 min
Histogram: 1 0 0 0 0 0 0 0 0 0

Total # of neighbors = 4848397
Ave neighs/atom = 248.80161
Ave special neighs/atom = 1.4126341
Neighbor list builds = 13
Dangerous builds = 0
PPPM/electrode initialization ...
  using 12-bit tables for long-range coulomb
  G vector (1/distance) = 0.29673526
  grid = 60 30 180
  stencil order = 5
  estimated absolute RMS force accuracy = 0.0035825588
  estimated relative force accuracy = 1.0788769e-05
  using double precision FFTW3
  3d grid and FFT values/proc = 453657 324000
Generated 21 of 21 mixed pair_coeff terms from geometric mixing rule
WARNING: Neighbor exclusions used with KSpace solver may give inconsistent Coulombic energies (src/lammps/src/neighbor.cpp:671)
Setting up Verlet run ...
  Unit style    : real
  Current step  : 400
  Time step     : 1
Per MPI rank memory allocation (min/avg/max) = 89.39 | 89.39 | 89.39 Mbytes
   Step          Temp          PotEng         Press     
       400   676.1203      -113356.96      4635.0356    
       600   546.46868     -128090.76      3091.9241    
Loop time of 68.6183 on 1 procs for 200 steps with 19487 atoms

Performance: 0.252 ns/day, 95.303 hours/ns, 2.915 timesteps/s, 56.798 katom-step/s
98.4% CPU use with 1 MPI tasks x 1 OpenMP threads

MPI task timing breakdown:
Section |  min time  |  avg time  |  max time  |%varavg| %total
---------------------------------------------------------------
Pair    | 22.888     | 22.888     | 22.888     |   0.0 | 33.36
Bond    | 0.00090299 | 0.00090299 | 0.00090299 |   0.0 |  0.00
Kspace  | 37.831     | 37.831     | 37.831     |   0.0 | 55.13
Neigh   | 6.8301     | 6.8301     | 6.8301     |   0.0 |  9.95
Comm    | 0.18117    | 0.18117    | 0.18117    |   0.0 |  0.26
Output  | 0.00025817 | 0.00025817 | 0.00025817 |   0.0 |  0.00
Modify  | 0.76483    | 0.76483    | 0.76483    |   0.0 |  1.11
Other   |            | 0.1223     |            |       |  0.18

Nlocal:          19487 ave       19487 max       19487 min
Histogram: 1 0 0 0 0 0 0 0 0 0
Nghost:          26356 ave       26356 max       26356 min
Histogram: 1 0 0 0 0 0 0 0 0 0
Neighs:    4.86058e+06 ave 4.86058e+06 max 4.86058e+06 min
Histogram: 1 0 0 0 0 0 0 0 0 0

Total # of neighbors = 4860583
Ave neighs/atom = 249.42695
Ave special neighs/atom = 1.4126341
Neighbor list builds = 21
Dangerous builds = 0
3840 atoms in group conp_group

CITE-CITE-CITE-CITE-CITE-CITE-CITE-CITE-CITE-CITE-CITE-CITE-CITE

Your simulation uses code contributions which should be cited:
- fix electrode command:
The log file lists these citations in BibTeX format.

CITE-CITE-CITE-CITE-CITE-CITE-CITE-CITE-CITE-CITE-CITE-CITE-CITE

PPPM/electrode initialization ...
  using 12-bit tables for long-range coulomb
  G vector (1/distance) = 0.29673526
  grid = 60 30 180
  stencil order = 5
  estimated absolute RMS force accuracy = 0.0035825588
  estimated relative force accuracy = 1.0788769e-05
  using double precision FFTW3
  3d grid and FFT values/proc = 453657 324000
Generated 21 of 21 mixed pair_coeff terms from geometric mixing rule
WARNING: Neighbor exclusions used with KSpace solver may give inconsistent Coulombic energies (src/lammps/src/neighbor.cpp:671)
Neighbor list info ...
  update: every = 1 steps, delay = 0 steps, check = yes
  max neighbors/atom: 2000, page size: 100000
  master list distance cutoff = 12
  ghost atom cutoff = 12
  binsize = 6, bins = 14 5 20
  2 neighbor lists, perpetual/occasional/extra = 2 0 0
  (1) pair lj/cut/coul/long, perpetual
      attributes: half, newton on
      pair build: half/bin/newton
      stencil: half/bin/3d
      bin: standard
  (2) fix electrode/conp, perpetual, copy from (1)
      attributes: half, newton on
      pair build: copy
      stencil: none
      bin: none
Setting up Verlet run ...
  Unit style    : real
  Current step  : 600
  Time step     : 1
Per MPI rank memory allocation (min/avg/max) = 221.9 | 221.9 | 221.9 Mbytes
   Step          Temp          c_sqb          c_sqt          PotEng         Press     
       600   546.46868     -0.76614864     0.76614864    -128176.22      3133.3409    
       800   384.3291      -3.0777704      3.0777704     -135240.61      389.15457    
Loop time of 102.849 on 1 procs for 200 steps with 19487 atoms

Performance: 0.168 ns/day, 142.846 hours/ns, 1.945 timesteps/s, 37.894 katom-step/s
98.8% CPU use with 1 MPI tasks x 1 OpenMP threads

MPI task timing breakdown:
Section |  min time  |  avg time  |  max time  |%varavg| %total
---------------------------------------------------------------
Pair    | 22.78      | 22.78      | 22.78      |   0.0 | 22.15
Bond    | 0.00094701 | 0.00094701 | 0.00094701 |   0.0 |  0.00
Kspace  | 36.421     | 36.421     | 36.421     |   0.0 | 35.41
Neigh   | 5.3167     | 5.3167     | 5.3167     |   0.0 |  5.17
Comm    | 0.21898    | 0.21898    | 0.21898    |   0.0 |  0.21
Output  | 0.00032522 | 0.00032522 | 0.00032522 |   0.0 |  0.00
Modify  | 37.983     | 37.983     | 37.983     |   0.0 | 36.93
Other   |            | 0.1283     |            |       |  0.12

Nlocal:          19487 ave       19487 max       19487 min
Histogram: 1 0 0 0 0 0 0 0 0 0
Nghost:          26323 ave       26323 max       26323 min
Histogram: 1 0 0 0 0 0 0 0 0 0
Neighs:    4.85193e+06 ave 4.85193e+06 max 4.85193e+06 min
Histogram: 1 0 0 0 0 0 0 0 0 0

Total # of neighbors = 4851927
Ave neighs/atom = 248.98276
Ave special neighs/atom = 1.4126341
Neighbor list builds = 17
Dangerous builds = 0
PPPM/electrode initialization ...
  using 12-bit tables for long-range coulomb
  G vector (1/distance) = 0.29673526
  grid = 60 30 180
  stencil order = 5
  estimated absolute RMS force accuracy = 0.0035827679
  estimated relative force accuracy = 1.0789399e-05
  using double precision FFTW3
  3d grid and FFT values/proc = 453657 324000
Generated 21 of 21 mixed pair_coeff terms from geometric mixing rule
WARNING: Neighbor exclusions used with KSpace solver may give inconsistent Coulombic energies (src/lammps/src/neighbor.cpp:671)
Setting up Verlet run ...
  Unit style    : real
  Current step  : 0
  Time step     : 1
Per MPI rank memory allocation (min/avg/max) = 225.3 | 225.3 | 225.3 Mbytes
   Step          Temp          c_sqb          c_sqt          PotEng         Press     
         0   384.3291      -3.0777704      3.0777704     -135240.61      387.15854    
       200   305.88251     -3.6781712      3.6781712     -140488.64     -687.06189    
Loop time of 101.626 on 1 procs for 200 steps with 19487 atoms

Performance: 0.170 ns/day, 141.147 hours/ns, 1.968 timesteps/s, 38.350 katom-step/s
100.0% CPU use with 1 MPI tasks x 1 OpenMP threads

MPI task timing breakdown:
Section |  min time  |  avg time  |  max time  |%varavg| %total
---------------------------------------------------------------
Pair    | 22.466     | 22.466     | 22.466     |   0.0 | 22.11
Bond    | 0.0010476  | 0.0010476  | 0.0010476  |   0.0 |  0.00
Kspace  | 35.859     | 35.859     | 35.859     |   0.0 | 35.28
Neigh   | 4.272      | 4.272      | 4.272      |   0.0 |  4.20
Comm    | 0.20106    | 0.20106    | 0.20106    |   0.0 |  0.20
Output  | 0.00066538 | 0.00066538 | 0.00066538 |   0.0 |  0.00
Modify  | 38.697     | 38.697     | 38.697     |   0.0 | 38.08
Other   |            | 0.1301     |            |       |  0.13

Nlocal:          19487 ave       19487 max       19487 min
Histogram: 1 0 0 0 0 0 0 0 0 0
Nghost:          26285 ave       26285 max       26285 min
Histogram: 1 0 0 0 0 0 0 0 0 0
Neighs:    4.84396e+06 ave 4.84396e+06 max 4.84396e+06 min
Histogram: 1 0 0 0 0 0 0 0 0 0

Total # of neighbors = 4843957
Ave neighs/atom = 248.57377
Ave special neighs/atom = 1.4126341
Neighbor list builds = 14
Dangerous builds = 0
DONE bn1
Total wall time: 0:17:33
