LAMMPS (22 Jul 2025 - Update 5)
  using 1 OpenMP thread(s) per MPI task
Reading data file ...
  orthogonal box = (0 0 0) to (80 30 116.47666)
  4 by 1 by 1 MPI processor grid
  reading atoms ...
  19487 atoms
  scanning bonds ...
  2 = max bonds/atom
  scanning angles ...
  1 = max angles/atom
  orthogonal box = (0 0 0) to (80 30 116.47666)
  4 by 1 by 1 MPI processor grid
  reading bonds ...
  9176 bonds
  reading angles ...
  4588 angles
Finding 1-2 1-3 1-4 neighbors ...
  special bond factors lj:    0        0        0       
  special bond factors coul:  0        0        0       
     2 = max # of 1-2 neighbors
     1 = max # of 1-3 neighbors
     1 = max # of 1-4 neighbors
     2 = max # of special neighbors
  special bonds CPU = 0.003 seconds
  read_data CPU = 0.126 seconds
Setting atom values ...
  776 settings made for charge
Setting atom values ...
  776 settings made for charge
Setting atom values ...
  1920 settings made for charge
Setting atom values ...
  1920 settings made for charge
Setting atom values ...
  331 settings made for charge
13764 atoms in group watr
15316 atoms in group liq
331 atoms in group gas
15647 atoms in group mobile
1920 atoms in group bot
1920 atoms in group top
3840 atoms in group elec
Finding SHAKE clusters ...
       0 = # of size 2 clusters
       0 = # of size 3 clusters
       0 = # of size 4 clusters
    4588 = # of frozen angles
  find clusters CPU = 0.003 seconds

CITE-CITE-CITE-CITE-CITE-CITE-CITE-CITE-CITE-CITE-CITE-CITE-CITE

Your simulation uses code contributions which should be cited:
- kspace_style pppm/electrode command:
The log file lists these citations in BibTeX format.

CITE-CITE-CITE-CITE-CITE-CITE-CITE-CITE-CITE-CITE-CITE-CITE-CITE

PPPM/electrode initialization ...
  using 12-bit tables for long-range coulomb
  G vector (1/distance) = 0.29673526
  grid = 60 30 180
  stencil order = 5
  estimated absolute RMS force accuracy = 0.0035825588
  estimated relative force accuracy = 1.0788769e-05
  using double precision FFTW3
  3d grid and FFT values/proc = 148962 81000
Generated 21 of 21 mixed pair_coeff terms from geometric mixing rule
WARNING: Should not use fix nve/limit with fix shake or fix rattle (src/lammps/src/fix_nve_limit.cpp:76)
WARNING: Neighbor exclusions used with KSpace solver may give inconsistent Coulombic energies (src/lammps/src/neighbor.cpp:671)
Neighbor list info ...
  update: every = 1 steps, delay = 0 steps, check = yes
  max neighbors/atom: 2000, page size: 100000
  master list distance cutoff = 12
  ghost atom cutoff = 12
  binsize = 6, bins = 14 5 20
  1 neighbor lists, perpetual/occasional/extra = 1 0 0
  (1) pair lj/cut/coul/long, perpetual
      attributes: half, newton on
      pair build: half/bin/newton
      stencil: half/bin/3d
      bin: standard
Setting up Verlet run ...
  Unit style    : real
  Current step  : 0
  Time step     : 0.2
Per MPI rank memory allocation (min/avg/max) = 32.63 | 33.32 | 33.82 Mbytes
   Step          Temp          PotEng         Press     
         0   247.16834      23094.144      12938.119    
       400   678.80928     -113048.81      4819.6775    
Loop time of 58.0181 on 4 procs for 400 steps with 19487 atoms

Performance: 0.119 ns/day, 201.452 hours/ns, 6.894 timesteps/s, 134.351 katom-step/s
89.7% CPU use with 4 MPI tasks x 1 OpenMP threads

MPI task timing breakdown:
Section |  min time  |  avg time  |  max time  |%varavg| %total
---------------------------------------------------------------
Pair    | 11.879     | 13.216     | 14.347     |  30.2 | 22.78
Bond    | 0.0020696  | 0.0022233  | 0.0025317  |   0.4 |  0.00
Kspace  | 40.654     | 41.789     | 43.141     |  17.1 | 72.03
Neigh   | 1.332      | 1.3346     | 1.3367     |   0.2 |  2.30
Comm    | 0.59142    | 0.60611    | 0.61652    |   1.2 |  1.04
Output  | 0.00087884 | 0.0018241  | 0.002803   |   1.8 |  0.00
Modify  | 0.7406     | 0.75839    | 0.78217    |   2.1 |  1.31
Other   |            | 0.3101     |            |       |  0.53

Nlocal:        4871.75 ave        5184 max        4546 min
Histogram: 1 1 0 0 0 0 0 0 0 2
Nghost:          14212 ave       14622 max       13846 min
Histogram: 2 0 0 0 0 0 0 0 1 1
Neighs:    1.21248e+06 ave 1.33028e+06 max 1.08394e+06 min
Histogram: 1 1 0 0 0 0 0 0 0 2

Total # of neighbors = 4849921
Ave neighs/atom = 248.87982
Ave special neighs/atom = 1.4126341
Neighbor list builds = 13
Dangerous builds = 0
PPPM/electrode initialization ...
  using 12-bit tables for long-range coulomb
  G vector (1/distance) = 0.29673526
  grid = 60 30 180
  stencil order = 5
  estimated absolute RMS force accuracy = 0.0035825588
  estimated relative force accuracy = 1.0788769e-05
  using double precision FFTW3
  3d grid and FFT values/proc = 148962 81000
Generated 21 of 21 mixed pair_coeff terms from geometric mixing rule
WARNING: Neighbor exclusions used with KSpace solver may give inconsistent Coulombic energies (src/lammps/src/neighbor.cpp:671)
Setting up Verlet run ...
  Unit style    : real
  Current step  : 400
  Time step     : 1
Per MPI rank memory allocation (min/avg/max) = 33.02 | 33.42 | 33.82 Mbytes
   Step          Temp          PotEng         Press     
       400   678.80928     -113048.81      5059.8373    
       600   551.00977     -128117.95      2936.3349    
Loop time of 30.7733 on 4 procs for 200 steps with 19487 atoms

Performance: 0.562 ns/day, 42.741 hours/ns, 6.499 timesteps/s, 126.649 katom-step/s
90.3% CPU use with 4 MPI tasks x 1 OpenMP threads

MPI task timing breakdown:
Section |  min time  |  avg time  |  max time  |%varavg| %total
---------------------------------------------------------------
Pair    | 6.0863     | 6.7536     | 7.377      |  21.3 | 21.95
Bond    | 0.0010013  | 0.0011852  | 0.0015562  |   0.6 |  0.00
Kspace  | 20.514     | 21.139     | 21.813     |  12.1 | 68.69
Neigh   | 1.971      | 1.9748     | 1.9772     |   0.2 |  6.42
Comm    | 0.33942    | 0.34751    | 0.35627    |   1.0 |  1.13
Output  | 0.00010986 | 0.00015473 | 0.00026935 |   0.0 |  0.00
Modify  | 0.46642    | 0.46833    | 0.47027    |   0.2 |  1.52
Other   |            | 0.08906    |            |       |  0.29

Nlocal:        4871.75 ave        5165 max        4551 min
Histogram: 1 1 0 0 0 0 0 0 0 2
Nghost:        14276.8 ave       14675 max       13932 min
Histogram: 2 0 0 0 0 0 0 1 0 1
Neighs:    1.21682e+06 ave 1.33522e+06 max 1.08634e+06 min
Histogram: 1 1 0 0 0 0 0 0 0 2

Total # of neighbors = 4867285
Ave neighs/atom = 249.77087
Ave special neighs/atom = 1.4126341
Neighbor list builds = 20
Dangerous builds = 0
3840 atoms in group conp_group

CITE-CITE-CITE-CITE-CITE-CITE-CITE-CITE-CITE-CITE-CITE-CITE-CITE

Your simulation uses code contributions which should be cited:
- fix electrode command:
The log file lists these citations in BibTeX format.

CITE-CITE-CITE-CITE-CITE-CITE-CITE-CITE-CITE-CITE-CITE-CITE-CITE

PPPM/electrode initialization ...
  using 12-bit tables for long-range coulomb
  G vector (1/distance) = 0.29673526
  grid = 60 30 180
  stencil order = 5
  estimated absolute RMS force accuracy = 0.0035825588
  estimated relative force accuracy = 1.0788769e-05
  using double precision FFTW3
  3d grid and FFT values/proc = 148962 81000
Generated 21 of 21 mixed pair_coeff terms from geometric mixing rule
WARNING: Neighbor exclusions used with KSpace solver may give inconsistent Coulombic energies (src/lammps/src/neighbor.cpp:671)
Neighbor list info ...
  update: every = 1 steps, delay = 0 steps, check = yes
  max neighbors/atom: 2000, page size: 100000
  master list distance cutoff = 12
  ghost atom cutoff = 12
  binsize = 6, bins = 14 5 20
  2 neighbor lists, perpetual/occasional/extra = 2 0 0
  (1) pair lj/cut/coul/long, perpetual
      attributes: half, newton on
      pair build: half/bin/newton
      stencil: half/bin/3d
      bin: standard
  (2) fix electrode/conp, perpetual, copy from (1)
      attributes: half, newton on
      pair build: copy
      stencil: none
      bin: none
Setting up Verlet run ...
  Unit style    : real
  Current step  : 600
  Time step     : 1
Per MPI rank memory allocation (min/avg/max) = 150.8 | 151.6 | 152.4 Mbytes
   Step          Temp          c_sqb          c_sqt          PotEng         Press     
       600   551.00977     -0.75121201     0.75121201    -128208.55      2973.5185    
       800   387.78875     -3.3425186      3.3425186     -135492.34      469.65243    
Loop time of 47.8637 on 4 procs for 200 steps with 19487 atoms

Performance: 0.361 ns/day, 66.477 hours/ns, 4.179 timesteps/s, 81.427 katom-step/s
90.4% CPU use with 4 MPI tasks x 1 OpenMP threads

MPI task timing breakdown:
Section |  min time  |  avg time  |  max time  |%varavg| %total
---------------------------------------------------------------
Pair    | 5.9624     | 6.6011     | 7.211      |  21.3 | 13.79
Bond    | 0.0010188  | 0.0011161  | 0.0012775  |   0.3 |  0.00
Kspace  | 20.172     | 20.782     | 21.42      |  12.0 | 43.42
Neigh   | 1.5842     | 1.5851     | 1.5861     |   0.1 |  3.31
Comm    | 0.34642    | 0.34998    | 0.3552     |   0.6 |  0.73
Output  | 0.00025446 | 0.00029753 | 0.00040815 |   0.0 |  0.00
Modify  | 18.452     | 18.458     | 18.464     |   0.1 | 38.56
Other   |            | 0.0858     |            |       |  0.18

Nlocal:        4871.75 ave        5144 max        4567 min
Histogram: 1 1 0 0 0 0 0 0 0 2
Nghost:        14277.5 ave       14710 max       13961 min
Histogram: 2 0 0 0 0 0 1 0 0 1
Neighs:    1.21424e+06 ave 1.33446e+06 max 1.08973e+06 min
Histogram: 1 1 0 0 0 0 0 0 1 1

Total # of neighbors = 4856959
Ave neighs/atom = 249.24098
Ave special neighs/atom = 1.4126341
Neighbor list builds = 16
Dangerous builds = 0
PPPM/electrode initialization ...
  using 12-bit tables for long-range coulomb
  G vector (1/distance) = 0.29673526
  grid = 60 30 180
  stencil order = 5
  estimated absolute RMS force accuracy = 0.0035827554
  estimated relative force accuracy = 1.0789361e-05
  using double precision FFTW3
  3d grid and FFT values/proc = 148962 81000
Generated 21 of 21 mixed pair_coeff terms from geometric mixing rule
WARNING: Neighbor exclusions used with KSpace solver may give inconsistent Coulombic energies (src/lammps/src/neighbor.cpp:671)
Setting up Verlet run ...
  Unit style    : real
  Current step  : 0
  Time step     : 1
Per MPI rank memory allocation (min/avg/max) = 153.5 | 154.3 | 155 Mbytes
   Step          Temp          c_sqb          c_sqt          PotEng         Press     
         0   387.78875     -3.3425186      3.3425186     -135492.34      467.61253    
       200   303.36963     -4.5706179      4.5706179     -140458.86     -746.98792    
Loop time of 47.7712 on 4 procs for 200 steps with 19487 atoms

Performance: 0.362 ns/day, 66.349 hours/ns, 4.187 timesteps/s, 81.585 katom-step/s
90.5% CPU use with 4 MPI tasks x 1 OpenMP threads

MPI task timing breakdown:
Section |  min time  |  avg time  |  max time  |%varavg| %total
---------------------------------------------------------------
Pair    | 5.9565     | 6.7247     | 7.3279     |  22.1 | 14.08
Bond    | 0.0010702  | 0.0011962  | 0.0013642  |   0.3 |  0.00
Kspace  | 20.192     | 20.796     | 21.567     |  12.6 | 43.53
Neigh   | 1.379      | 1.381      | 1.3822     |   0.1 |  2.89
Comm    | 0.35409    | 0.35765    | 0.36301    |   0.6 |  0.75
Output  | 0.00018516 | 0.00024962 | 0.00041259 |   0.0 |  0.00
Modify  | 18.416     | 18.421     | 18.424     |   0.1 | 38.56
Other   |            | 0.08968    |            |       |  0.19

Nlocal:        4871.75 ave        5129 max        4565 min
Histogram: 1 1 0 0 0 0 0 0 0 2
Nghost:        14282.2 ave       14726 max       13952 min
Histogram: 2 0 0 0 0 0 1 0 0 1
Neighs:    1.21237e+06 ave 1.32697e+06 max 1.08391e+06 min
Histogram: 1 0 1 0 0 0 0 0 1 1

Total # of neighbors = 4849496
Ave neighs/atom = 248.85801
Ave special neighs/atom = 1.4126341
Neighbor list builds = 14
Dangerous builds = 0
DONE bn4
Total wall time: 0:06:31
