LAMMPS (22 Jul 2025 - Update 5)
  using 1 OpenMP thread(s) per MPI task
Reading data file ...
  orthogonal box = (0 0 0) to (80 30 116.47666)
  4 by 2 by 1 MPI processor grid
  reading atoms ...
  19487 atoms
  scanning bonds ...
  2 = max bonds/atom
  scanning angles ...
  1 = max angles/atom
  orthogonal box = (0 0 0) to (80 30 116.47666)
  4 by 2 by 1 MPI processor grid
  reading bonds ...
  9176 bonds
  reading angles ...
  4588 angles
Finding 1-2 1-3 1-4 neighbors ...
  special bond factors lj:    0        0        0       
  special bond factors coul:  0        0        0       
     2 = max # of 1-2 neighbors
     1 = max # of 1-3 neighbors
     1 = max # of 1-4 neighbors
     2 = max # of special neighbors
  special bonds CPU = 0.007 seconds
  read_data CPU = 0.190 seconds
Setting atom values ...
  776 settings made for charge
Setting atom values ...
  776 settings made for charge
Setting atom values ...
  1920 settings made for charge
Setting atom values ...
  1920 settings made for charge
Setting atom values ...
  331 settings made for charge
13764 atoms in group watr
15316 atoms in group liq
331 atoms in group gas
15647 atoms in group mobile
1920 atoms in group bot
1920 atoms in group top
3840 atoms in group elec
Finding SHAKE clusters ...
       0 = # of size 2 clusters
       0 = # of size 3 clusters
       0 = # of size 4 clusters
    4588 = # of frozen angles
  find clusters CPU = 0.007 seconds

CITE-CITE-CITE-CITE-CITE-CITE-CITE-CITE-CITE-CITE-CITE-CITE-CITE

Your simulation uses code contributions which should be cited:
- kspace_style pppm/electrode command:
The log file lists these citations in BibTeX format.

CITE-CITE-CITE-CITE-CITE-CITE-CITE-CITE-CITE-CITE-CITE-CITE-CITE

PPPM/electrode initialization ...
  using 12-bit tables for long-range coulomb
  G vector (1/distance) = 0.29673526
  grid = 60 30 180
  stencil order = 5
  estimated absolute RMS force accuracy = 0.0035825588
  estimated relative force accuracy = 1.0788769e-05
  using double precision FFTW3
  3d grid and FFT values/proc = 88572 41400
Generated 21 of 21 mixed pair_coeff terms from geometric mixing rule
WARNING: Should not use fix nve/limit with fix shake or fix rattle (src/lammps/src/fix_nve_limit.cpp:76)
WARNING: Neighbor exclusions used with KSpace solver may give inconsistent Coulombic energies (src/lammps/src/neighbor.cpp:671)
Neighbor list info ...
  update: every = 1 steps, delay = 0 steps, check = yes
  max neighbors/atom: 2000, page size: 100000
  master list distance cutoff = 12
  ghost atom cutoff = 12
  binsize = 6, bins = 14 5 20
  1 neighbor lists, perpetual/occasional/extra = 1 0 0
  (1) pair lj/cut/coul/long, perpetual
      attributes: half, newton on
      pair build: half/bin/newton
      stencil: half/bin/3d
      bin: standard
Setting up Verlet run ...
  Unit style    : real
  Current step  : 0
  Time step     : 0.2
Per MPI rank memory allocation (min/avg/max) = 17.91 | 18.22 | 18.81 Mbytes
   Step          Temp          PotEng         Press     
         0   247.16834      23094.144      12938.119    
       400   682.83966     -113136.66      4872.9482    
Loop time of 37.0251 on 8 procs for 400 steps with 19487 atoms

Performance: 0.187 ns/day, 128.559 hours/ns, 10.803 timesteps/s, 210.528 katom-step/s
89.2% CPU use with 8 MPI tasks x 1 OpenMP threads

MPI task timing breakdown:
Section |  min time  |  avg time  |  max time  |%varavg| %total
---------------------------------------------------------------
Pair    | 5.2376     | 6.1704     | 7.0798     |  28.6 | 16.67
Bond    | 0.0015682  | 0.0021698  | 0.004868   |   2.2 |  0.01
Kspace  | 27.258     | 28.184     | 29.185     |  13.9 | 76.12
Neigh   | 0.71106    | 0.71638    | 0.72121    |   0.4 |  1.93
Comm    | 0.86298    | 0.93999    | 1.0087     |   5.3 |  2.54
Output  | 0.0001477  | 0.00067133 | 0.00093949 |   0.0 |  0.00
Modify  | 0.56632    | 0.65628    | 0.72072    |   6.0 |  1.77
Other   |            | 0.355      |            |       |  0.96

Nlocal:        2435.88 ave        2659 max        2211 min
Histogram: 2 0 1 1 0 0 1 1 1 1
Nghost:        11475.4 ave       11937 max       11074 min
Histogram: 2 1 1 0 0 0 1 1 1 1
Neighs:         606130 ave      678102 max      531982 min
Histogram: 1 2 1 0 0 0 0 0 3 1

Total # of neighbors = 4849044
Ave neighs/atom = 248.83481
Ave special neighs/atom = 1.4126341
Neighbor list builds = 13
Dangerous builds = 0
PPPM/electrode initialization ...
  using 12-bit tables for long-range coulomb
  G vector (1/distance) = 0.29673526
  grid = 60 30 180
  stencil order = 5
  estimated absolute RMS force accuracy = 0.0035825588
  estimated relative force accuracy = 1.0788769e-05
  using double precision FFTW3
  3d grid and FFT values/proc = 88572 41400
Generated 21 of 21 mixed pair_coeff terms from geometric mixing rule
WARNING: Neighbor exclusions used with KSpace solver may give inconsistent Coulombic energies (src/lammps/src/neighbor.cpp:671)
Setting up Verlet run ...
  Unit style    : real
  Current step  : 400
  Time step     : 1
Per MPI rank memory allocation (min/avg/max) = 17.91 | 18.22 | 18.81 Mbytes
   Step          Temp          PotEng         Press     
       400   682.83966     -113136.66      4781.4348    
       600   548.82797     -127870.5       3225.6757    
Loop time of 19.9595 on 8 procs for 200 steps with 19487 atoms

Performance: 0.866 ns/day, 27.722 hours/ns, 10.020 timesteps/s, 195.265 katom-step/s
90.0% CPU use with 8 MPI tasks x 1 OpenMP threads

MPI task timing breakdown:
Section |  min time  |  avg time  |  max time  |%varavg| %total
---------------------------------------------------------------
Pair    | 2.5053     | 3.1861     | 3.6145     |  20.9 | 15.96
Bond    | 0.00080687 | 0.00089764 | 0.0010592  |   0.0 |  0.00
Kspace  | 14.126     | 14.585     | 15.269     |   9.8 | 73.07
Neigh   | 1.1007     | 1.1073     | 1.115      |   0.5 |  5.55
Comm    | 0.4451     | 0.48122    | 0.51699    |   4.0 |  2.41
Output  | 0.00019027 | 0.00036166 | 0.000602   |   0.0 |  0.00
Modify  | 0.47694    | 0.49006    | 0.50358    |   1.4 |  2.46
Other   |            | 0.1081     |            |       |  0.54

Nlocal:        2435.88 ave        2632 max        2238 min
Histogram: 2 0 1 0 1 0 1 1 0 2
Nghost:        11505.5 ave       11952 max       11124 min
Histogram: 2 1 1 0 0 0 1 1 1 1
Neighs:         608436 ave      677665 max      532384 min
Histogram: 1 1 2 0 0 0 0 0 3 1

Total # of neighbors = 4867490
Ave neighs/atom = 249.78139
Ave special neighs/atom = 1.4126341
Neighbor list builds = 20
Dangerous builds = 0
3840 atoms in group conp_group

CITE-CITE-CITE-CITE-CITE-CITE-CITE-CITE-CITE-CITE-CITE-CITE-CITE

Your simulation uses code contributions which should be cited:
- fix electrode command:
The log file lists these citations in BibTeX format.

CITE-CITE-CITE-CITE-CITE-CITE-CITE-CITE-CITE-CITE-CITE-CITE-CITE

PPPM/electrode initialization ...
  using 12-bit tables for long-range coulomb
  G vector (1/distance) = 0.29673526
  grid = 60 30 180
  stencil order = 5
  estimated absolute RMS force accuracy = 0.0035825588
  estimated relative force accuracy = 1.0788769e-05
  using double precision FFTW3
  3d grid and FFT values/proc = 88572 41400
Generated 21 of 21 mixed pair_coeff terms from geometric mixing rule
WARNING: Neighbor exclusions used with KSpace solver may give inconsistent Coulombic energies (src/lammps/src/neighbor.cpp:671)
Neighbor list info ...
  update: every = 1 steps, delay = 0 steps, check = yes
  max neighbors/atom: 2000, page size: 100000
  master list distance cutoff = 12
  ghost atom cutoff = 12
  binsize = 6, bins = 14 5 20
  2 neighbor lists, perpetual/occasional/extra = 2 0 0
  (1) pair lj/cut/coul/long, perpetual
      attributes: half, newton on
      pair build: half/bin/newton
      stencil: half/bin/3d
      bin: standard
  (2) fix electrode/conp, perpetual, copy from (1)
      attributes: half, newton on
      pair build: copy
      stencil: none
      bin: none
Setting up Verlet run ...
  Unit style    : real
  Current step  : 600
  Time step     : 1
Per MPI rank memory allocation (min/avg/max) = 133 | 133.5 | 134 Mbytes
   Step          Temp          c_sqb          c_sqt          PotEng         Press     
       600   548.82797     -0.88343813     0.88343813    -127964.52      3273.1806    
       800   384.32422     -3.2534197      3.2534197     -135195.03      557.13079    
Loop time of 31.2019 on 8 procs for 200 steps with 19487 atoms

Performance: 0.554 ns/day, 43.336 hours/ns, 6.410 timesteps/s, 124.909 katom-step/s
90.6% CPU use with 8 MPI tasks x 1 OpenMP threads

MPI task timing breakdown:
Section |  min time  |  avg time  |  max time  |%varavg| %total
---------------------------------------------------------------
Pair    | 2.8392     | 3.3234     | 4.0342     |  21.2 | 10.65
Bond    | 0.00092058 | 0.00098538 | 0.0010705  |   0.0 |  0.00
Kspace  | 13.316     | 14.04      | 14.523     |  10.3 | 45.00
Neigh   | 0.87423    | 0.87938    | 0.88308    |   0.4 |  2.82
Comm    | 0.4098     | 0.44316    | 0.48022    |   3.5 |  1.42
Output  | 0.0012325  | 0.0013535  | 0.0013846  |   0.1 |  0.00
Modify  | 12.393     | 12.416     | 12.442     |   0.4 | 39.79
Other   |            | 0.09788    |            |       |  0.31

Nlocal:        2435.88 ave        2633 max        2218 min
Histogram: 2 0 1 0 1 0 1 1 0 2
Nghost:        11513.6 ave       11937 max       11126 min
Histogram: 2 0 2 0 0 0 1 0 2 1
Neighs:         607319 ave      675701 max      531672 min
Histogram: 1 2 1 0 0 0 0 1 1 2

Total # of neighbors = 4858550
Ave neighs/atom = 249.32263
Ave special neighs/atom = 1.4126341
Neighbor list builds = 16
Dangerous builds = 0
PPPM/electrode initialization ...
  using 12-bit tables for long-range coulomb
  G vector (1/distance) = 0.29673526
  grid = 60 30 180
  stencil order = 5
  estimated absolute RMS force accuracy = 0.0035827564
  estimated relative force accuracy = 1.0789364e-05
  using double precision FFTW3
  3d grid and FFT values/proc = 88572 41400
Generated 21 of 21 mixed pair_coeff terms from geometric mixing rule
WARNING: Neighbor exclusions used with KSpace solver may give inconsistent Coulombic energies (src/lammps/src/neighbor.cpp:671)
Setting up Verlet run ...
  Unit style    : real
  Current step  : 0
  Time step     : 1
Per MPI rank memory allocation (min/avg/max) = 134.9 | 135.4 | 135.9 Mbytes
   Step          Temp          c_sqb          c_sqt          PotEng         Press     
         0   384.32422     -3.2534197      3.2534197     -135195.03      555.12125    
       200   304.83889     -4.2014359      4.2014359     -140381.64     -502.8046     
Loop time of 31.2882 on 8 procs for 200 steps with 19487 atoms

Performance: 0.552 ns/day, 43.456 hours/ns, 6.392 timesteps/s, 124.564 katom-step/s
90.3% CPU use with 8 MPI tasks x 1 OpenMP threads

MPI task timing breakdown:
Section |  min time  |  avg time  |  max time  |%varavg| %total
---------------------------------------------------------------
Pair    | 2.8776     | 3.366      | 3.8179     |  16.0 | 10.76
Bond    | 0.00077378 | 0.0015926  | 0.0057408  |   3.9 |  0.01
Kspace  | 13.417     | 13.869     | 14.363     |   7.9 | 44.33
Neigh   | 0.77249    | 0.77762    | 0.78305    |   0.4 |  2.49
Comm    | 0.41568    | 0.43081    | 0.44998    |   1.8 |  1.38
Output  | 0.00043451 | 0.00052062 | 0.00066791 |   0.0 |  0.00
Modify  | 12.749     | 12.762     | 12.776     |   0.2 | 40.79
Other   |            | 0.07988    |            |       |  0.26

Nlocal:        2435.88 ave        2633 max        2238 min
Histogram: 2 1 0 0 1 0 2 0 0 2
Nghost:        11486.8 ave       11911 max       11144 min
Histogram: 2 1 1 0 0 1 0 1 1 1
Neighs:         606401 ave      675246 max      530009 min
Histogram: 1 1 1 1 0 0 0 0 3 1

Total # of neighbors = 4851205
Ave neighs/atom = 248.94571
Ave special neighs/atom = 1.4126341
Neighbor list builds = 14
Dangerous builds = 0
DONE bn8
Total wall time: 0:04:11
