LAMMPS (22 Jul 2025 - Update 5)
  using 1 OpenMP thread(s) per MPI task
Reading data file ...
  orthogonal box = (0 0 0) to (80 30 116.47666)
  4 by 1 by 1 MPI processor grid
  reading atoms ...
  19487 atoms
  scanning bonds ...
  2 = max bonds/atom
  scanning angles ...
  1 = max angles/atom
  orthogonal box = (0 0 0) to (80 30 116.47666)
  4 by 1 by 1 MPI processor grid
  reading bonds ...
  9176 bonds
  reading angles ...
  4588 angles
Finding 1-2 1-3 1-4 neighbors ...
  special bond factors lj:    0        0        0       
  special bond factors coul:  0        0        0       
     2 = max # of 1-2 neighbors
     1 = max # of 1-3 neighbors
     1 = max # of 1-4 neighbors
     2 = max # of special neighbors
  special bonds CPU = 0.003 seconds
  read_data CPU = 0.138 seconds
Setting atom values ...
  776 settings made for charge
Setting atom values ...
  776 settings made for charge
Setting atom values ...
  1920 settings made for charge
Setting atom values ...
  1920 settings made for charge
Setting atom values ...
  331 settings made for charge
13764 atoms in group watr
15316 atoms in group liq
331 atoms in group gas
15647 atoms in group mobile
1920 atoms in group bot
1920 atoms in group top
3840 atoms in group elec
Finding SHAKE clusters ...
       0 = # of size 2 clusters
       0 = # of size 3 clusters
       0 = # of size 4 clusters
    4588 = # of frozen angles
  find clusters CPU = 0.009 seconds

CITE-CITE-CITE-CITE-CITE-CITE-CITE-CITE-CITE-CITE-CITE-CITE-CITE

Your simulation uses code contributions which should be cited:
- kspace_style pppm/electrode command:
The log file lists these citations in BibTeX format.

CITE-CITE-CITE-CITE-CITE-CITE-CITE-CITE-CITE-CITE-CITE-CITE-CITE

PPPM/electrode initialization ...
  using 12-bit tables for long-range coulomb
  G vector (1/distance) = 0.25781961
  grid = 36 18 120
  stencil order = 5
  estimated absolute RMS force accuracy = 0.031008078
  estimated relative force accuracy = 9.3379907e-05
  using double precision FFTW3
  3d grid and FFT values/proc = 42700 19440
Generated 21 of 21 mixed pair_coeff terms from geometric mixing rule
WARNING: Should not use fix nve/limit with fix shake or fix rattle (src/lammps/src/fix_nve_limit.cpp:76)
WARNING: Neighbor exclusions used with KSpace solver may give inconsistent Coulombic energies (src/lammps/src/neighbor.cpp:671)
Neighbor list info ...
  update: every = 1 steps, delay = 0 steps, check = yes
  max neighbors/atom: 2000, page size: 100000
  master list distance cutoff = 12
  ghost atom cutoff = 12
  binsize = 6, bins = 14 5 20
  1 neighbor lists, perpetual/occasional/extra = 1 0 0
  (1) pair lj/cut/coul/long, perpetual
      attributes: half, newton on
      pair build: half/bin/newton
      stencil: half/bin/3d
      bin: standard
Setting up Verlet run ...
  Unit style    : real
  Current step  : 0
  Time step     : 0.2
Per MPI rank memory allocation (min/avg/max) = 23.07 | 23.76 | 24.26 Mbytes
   Step          Temp          PotEng         Press     
         0   247.16834      23097.836      13039.118    
       400   672.70563     -113275.42      4319.998     
Loop time of 26.7273 on 4 procs for 400 steps with 19487 atoms

Performance: 0.259 ns/day, 92.803 hours/ns, 14.966 timesteps/s, 291.642 katom-step/s
95.5% CPU use with 4 MPI tasks x 1 OpenMP threads

MPI task timing breakdown:
Section |  min time  |  avg time  |  max time  |%varavg| %total
---------------------------------------------------------------
Pair    | 11.65      | 12.948     | 14.314     |  32.9 | 48.44
Bond    | 0.0019689  | 0.0021308  | 0.0024244  |   0.4 |  0.01
Kspace  | 9.4082     | 10.781     | 12.086     |  36.2 | 40.34
Neigh   | 1.3235     | 1.3267     | 1.3297     |   0.2 |  4.96
Comm    | 0.58739    | 0.60102    | 0.60776    |   1.0 |  2.25
Output  | 0.00031422 | 0.0012053  | 0.0019169  |   1.7 |  0.00
Modify  | 0.71256    | 0.74739    | 0.77577    |   2.7 |  2.80
Other   |            | 0.3197     |            |       |  1.20

Nlocal:        4871.75 ave        5177 max        4535 min
Histogram: 1 1 0 0 0 0 0 0 0 2
Nghost:        14222.8 ave       14664 max       13842 min
Histogram: 2 0 0 0 0 0 0 1 0 1
Neighs:    1.21238e+06 ave 1.33235e+06 max 1.08381e+06 min
Histogram: 1 1 0 0 0 0 0 0 0 2

Total # of neighbors = 4849515
Ave neighs/atom = 248.85898
Ave special neighs/atom = 1.4126341
Neighbor list builds = 13
Dangerous builds = 0
PPPM/electrode initialization ...
  using 12-bit tables for long-range coulomb
  G vector (1/distance) = 0.25781961
  grid = 36 18 120
  stencil order = 5
  estimated absolute RMS force accuracy = 0.031008078
  estimated relative force accuracy = 9.3379907e-05
  using double precision FFTW3
  3d grid and FFT values/proc = 42700 19440
Generated 21 of 21 mixed pair_coeff terms from geometric mixing rule
WARNING: Neighbor exclusions used with KSpace solver may give inconsistent Coulombic energies (src/lammps/src/neighbor.cpp:671)
Setting up Verlet run ...
  Unit style    : real
  Current step  : 400
  Time step     : 2
Per MPI rank memory allocation (min/avg/max) = 23.46 | 23.86 | 24.26 Mbytes
   Step          Temp          PotEng         Press     
       400   672.70563     -113275.42      4534.1973    
      1000   242.8463      -146626.59     -1101.455     
      1900   252.0737      -147423.56     -659.2719     
Loop time of 125.212 on 4 procs for 1500 steps with 19487 atoms

Performance: 2.070 ns/day, 11.594 hours/ns, 11.980 timesteps/s, 233.449 katom-step/s
96.0% CPU use with 4 MPI tasks x 1 OpenMP threads

MPI task timing breakdown:
Section |  min time  |  avg time  |  max time  |%varavg| %total
---------------------------------------------------------------
Pair    | 49.596     | 54.587     | 59.634     |  67.2 | 43.60
Bond    | 0.007362   | 0.0076734  | 0.0081028  |   0.3 |  0.01
Kspace  | 38.842     | 43.907     | 48.917     |  75.3 | 35.07
Neigh   | 19.956     | 19.982     | 19.995     |   0.3 | 15.96
Comm    | 2.4759     | 2.5165     | 2.5606     |   2.2 |  2.01
Output  | 0.00031555 | 0.00039092 | 0.00050791 |   0.0 |  0.00
Modify  | 3.5468     | 3.5579     | 3.5658     |   0.4 |  2.84
Other   |            | 0.6527     |            |       |  0.52

Nlocal:        4871.75 ave        5214 max        4540 min
Histogram: 2 0 0 0 0 0 0 0 0 2
Nghost:        14293.5 ave       14660 max       13929 min
Histogram: 2 0 0 0 0 0 0 0 0 2
Neighs:    1.22768e+06 ave 1.36118e+06 max 1.09748e+06 min
Histogram: 2 0 0 0 0 0 0 0 0 2

Total # of neighbors = 4910726
Ave neighs/atom = 252.0001
Ave special neighs/atom = 1.4126341
Neighbor list builds = 185
Dangerous builds = 0
3840 atoms in group conp_group

CITE-CITE-CITE-CITE-CITE-CITE-CITE-CITE-CITE-CITE-CITE-CITE-CITE

Your simulation uses code contributions which should be cited:
- fix electrode command:
The log file lists these citations in BibTeX format.

CITE-CITE-CITE-CITE-CITE-CITE-CITE-CITE-CITE-CITE-CITE-CITE-CITE

PPPM/electrode initialization ...
  using 12-bit tables for long-range coulomb
  G vector (1/distance) = 0.25781961
  grid = 36 18 120
  stencil order = 5
  estimated absolute RMS force accuracy = 0.031008078
  estimated relative force accuracy = 9.3379907e-05
  using double precision FFTW3
  3d grid and FFT values/proc = 42700 19440
Generated 21 of 21 mixed pair_coeff terms from geometric mixing rule
WARNING: Neighbor exclusions used with KSpace solver may give inconsistent Coulombic energies (src/lammps/src/neighbor.cpp:671)
Neighbor list info ...
  update: every = 1 steps, delay = 0 steps, check = yes
  max neighbors/atom: 2000, page size: 100000
  master list distance cutoff = 12
  ghost atom cutoff = 12
  binsize = 6, bins = 14 5 20
  2 neighbor lists, perpetual/occasional/extra = 2 0 0
  (1) pair lj/cut/coul/long, perpetual
      attributes: half, newton on
      pair build: half/bin/newton
      stencil: half/bin/3d
      bin: standard
  (2) fix electrode/conp, perpetual, copy from (1)
      attributes: half, newton on
      pair build: copy
      stencil: none
      bin: none
Setting up Verlet run ...
  Unit style    : real
  Current step  : 1900
  Time step     : 2
Per MPI rank memory allocation (min/avg/max) = 141.3 | 142 | 142.8 Mbytes
   Step          Temp          c_sqb          c_sqt          PotEng         Press     
      1900   252.0737      -0.12005712     0.12005712    -147448.44     -662.45601    
      2000   244.5668      -0.1313003      0.1313003     -147609.73     -589.70071    
      3000   245.08725     -1.3625358      1.3625358     -147833.29     -364.96863    
      3400   249.34187     -1.5798266      1.5798266     -148328.08     -253.3404     
Loop time of 198.611 on 4 procs for 1500 steps with 19487 atoms

Performance: 1.305 ns/day, 18.390 hours/ns, 7.552 timesteps/s, 147.175 katom-step/s
96.2% CPU use with 4 MPI tasks x 1 OpenMP threads

MPI task timing breakdown:
Section |  min time  |  avg time  |  max time  |%varavg| %total
---------------------------------------------------------------
Pair    | 47.026     | 53.918     | 60.225     |  83.7 | 27.15
Bond    | 0.0073017  | 0.0077438  | 0.0081057  |   0.3 |  0.00
Kspace  | 37.205     | 43.514     | 50.421     |  93.3 | 21.91
Neigh   | 17.935     | 17.953     | 17.98      |   0.4 |  9.04
Comm    | 2.603      | 2.6596     | 2.7051     |   2.6 |  1.34
Output  | 0.0011472  | 0.0012675  | 0.0015764  |   0.5 |  0.00
Modify  | 79.869     | 79.902     | 79.925     |   0.3 | 40.23
Other   |            | 0.6548     |            |       |  0.33

Nlocal:        4871.75 ave        5321 max        4451 min
Histogram: 2 0 0 0 0 0 0 0 0 2
Nghost:          14301 ave       14850 max       13704 min
Histogram: 1 1 0 0 0 0 0 0 0 2
Neighs:    1.25435e+06 ave 1.41517e+06 max 1.08516e+06 min
Histogram: 2 0 0 0 0 0 0 0 0 2

Total # of neighbors = 5017395
Ave neighs/atom = 257.47396
Ave special neighs/atom = 1.4126341
Neighbor list builds = 166
Dangerous builds = 0
PPPM/electrode initialization ...
  using 12-bit tables for long-range coulomb
  G vector (1/distance) = 0.25781961
  grid = 36 18 120
  stencil order = 5
  estimated absolute RMS force accuracy = 0.031009031
  estimated relative force accuracy = 9.3382775e-05
  using double precision FFTW3
  3d grid and FFT values/proc = 42700 19440
Generated 21 of 21 mixed pair_coeff terms from geometric mixing rule
WARNING: Neighbor exclusions used with KSpace solver may give inconsistent Coulombic energies (src/lammps/src/neighbor.cpp:671)
Setting up Verlet run ...
  Unit style    : real
  Current step  : 0
  Time step     : 2
Per MPI rank memory allocation (min/avg/max) = 143.9 | 145.1 | 146.3 Mbytes
   Step          Temp          c_sqb          c_sqt          PotEng         Press     
         0   249.34187     -1.5798266      1.5798266     -148328.08     -253.32734    
       200   247.50984     -1.5332013      1.5332013     -148355.09     -431.68086    
Loop time of 26.1743 on 4 procs for 200 steps with 19487 atoms

Performance: 1.320 ns/day, 18.177 hours/ns, 7.641 timesteps/s, 148.902 katom-step/s
96.1% CPU use with 4 MPI tasks x 1 OpenMP threads

MPI task timing breakdown:
Section |  min time  |  avg time  |  max time  |%varavg| %total
---------------------------------------------------------------
Pair    | 5.9294     | 6.8746     | 7.8586     |  34.1 | 26.26
Bond    | 0.0010197  | 0.0011391  | 0.0013555  |   0.4 |  0.00
Kspace  | 4.7321     | 5.7156     | 6.6623     |  37.5 | 21.84
Neigh   | 2.2498     | 2.2521     | 2.2549     |   0.2 |  8.60
Comm    | 0.35679    | 0.36006    | 0.36458    |   0.5 |  1.38
Output  | 0.0001539  | 0.00018319 | 0.00025236 |   0.0 |  0.00
Modify  | 10.882     | 10.885     | 10.889     |   0.1 | 41.59
Other   |            | 0.08555    |            |       |  0.33

Nlocal:        4871.75 ave        5344 max        4411 min
Histogram: 2 0 0 0 0 0 0 0 0 2
Nghost:          14295 ave       14807 max       13729 min
Histogram: 1 1 0 0 0 0 0 0 0 2
Neighs:      1.257e+06 ave 1.42868e+06 max  1.0725e+06 min
Histogram: 2 0 0 0 0 0 0 0 0 2

Total # of neighbors = 5027986
Ave neighs/atom = 258.01745
Ave special neighs/atom = 1.4126341
Neighbor list builds = 22
Dangerous builds = 0
DONE dt2
Total wall time: 0:09:35
