LAMMPS (22 Jul 2025 - Update 5)
  using 1 OpenMP thread(s) per MPI task
Reading data file ...
  orthogonal box = (0 0 0) to (80 30 116.47666)
  1 by 1 by 1 MPI processor grid
  reading atoms ...
  19487 atoms
  scanning bonds ...
  2 = max bonds/atom
  scanning angles ...
  1 = max angles/atom
  orthogonal box = (0 0 0) to (80 30 116.47666)
  1 by 1 by 1 MPI processor grid
  reading bonds ...
  9176 bonds
  reading angles ...
  4588 angles
Finding 1-2 1-3 1-4 neighbors ...
  special bond factors lj:    0        0        0       
  special bond factors coul:  0        0        0       
     2 = max # of 1-2 neighbors
     1 = max # of 1-3 neighbors
     1 = max # of 1-4 neighbors
     2 = max # of special neighbors
  special bonds CPU = 0.004 seconds
  read_data CPU = 0.097 seconds
Setting atom values ...
  776 settings made for charge
Setting atom values ...
  776 settings made for charge
Setting atom values ...
  1920 settings made for charge
Setting atom values ...
  1920 settings made for charge
Setting atom values ...
  331 settings made for charge
13764 atoms in group watr
15316 atoms in group liq
331 atoms in group gas
15647 atoms in group mobile
1920 atoms in group bot
1920 atoms in group top
3840 atoms in group elec
Finding SHAKE clusters ...
       0 = # of size 2 clusters
       0 = # of size 3 clusters
       0 = # of size 4 clusters
    4588 = # of frozen angles
  find clusters CPU = 0.005 seconds

CITE-CITE-CITE-CITE-CITE-CITE-CITE-CITE-CITE-CITE-CITE-CITE-CITE

Your simulation uses code contributions which should be cited:
- kspace_style pppm/electrode command:
The log file lists these citations in BibTeX format.

CITE-CITE-CITE-CITE-CITE-CITE-CITE-CITE-CITE-CITE-CITE-CITE-CITE

PPPM/electrode initialization ...
  using 12-bit tables for long-range coulomb
  G vector (1/distance) = 0.29673526
  grid = 60 30 180
  stencil order = 5
  estimated absolute RMS force accuracy = 0.0035825588
  estimated relative force accuracy = 1.0788769e-05
  using double precision FFTW3
  3d grid and FFT values/proc = 453657 324000
Generated 21 of 21 mixed pair_coeff terms from geometric mixing rule
WARNING: Should not use fix nve/limit with fix shake or fix rattle (src/lammps/src/fix_nve_limit.cpp:76)
WARNING: Neighbor exclusions used with KSpace solver may give inconsistent Coulombic energies (src/lammps/src/neighbor.cpp:671)
Neighbor list info ...
  update: every = 1 steps, delay = 0 steps, check = yes
  max neighbors/atom: 2000, page size: 100000
  master list distance cutoff = 12
  ghost atom cutoff = 12
  binsize = 6, bins = 14 5 20
  1 neighbor lists, perpetual/occasional/extra = 1 0 0
  (1) pair lj/cut/coul/long, perpetual
      attributes: half, newton on
      pair build: half/bin/newton
      stencil: half/bin/3d
      bin: standard
Setting up Verlet run ...
  Unit style    : real
  Current step  : 0
  Time step     : 0.2
Per MPI rank memory allocation (min/avg/max) = 89.39 | 89.39 | 89.39 Mbytes
   Step          Temp          PotEng         Press     
         0   247.16834      23094.144      12938.119    
      1000   309.22668     -136544.35     -952.91704    
      2000   257.81144     -142567.04     -2194.5101    
Loop time of 615.659 on 1 procs for 2000 steps with 19487 atoms

Performance: 0.056 ns/day, 427.541 hours/ns, 3.249 timesteps/s, 63.304 katom-step/s
99.9% CPU use with 1 MPI tasks x 1 OpenMP threads

MPI task timing breakdown:
Section |  min time  |  avg time  |  max time  |%varavg| %total
---------------------------------------------------------------
Pair    | 222.35     | 222.35     | 222.35     |   0.0 | 36.12
Bond    | 0.0097675  | 0.0097675  | 0.0097675  |   0.0 |  0.00
Kspace  | 371.81     | 371.81     | 371.81     |   0.0 | 60.39
Neigh   | 10.752     | 10.752     | 10.752     |   0.0 |  1.75
Comm    | 1.6168     | 1.6168     | 1.6168     |   0.0 |  0.26
Output  | 0.00048265 | 0.00048265 | 0.00048265 |   0.0 |  0.00
Modify  | 7.8952     | 7.8952     | 7.8952     |   0.0 |  1.28
Other   |            | 1.225      |            |       |  0.20

Nlocal:          19487 ave       19487 max       19487 min
Histogram: 1 0 0 0 0 0 0 0 