ITEM: TIMESTEP
0
ITEM: NUMBER OF ATOMS
19487
ITEM: BOX BOUNDS pp pp ff
0.0000000000000000e+00 8.0000000000000000e+01
0.0000000000000000e+00 3.0000000000000000e+01
0.0000000000000000e+00 1.1647665900000000e+02
ITEM: ATOMS id type x y z
1 5 0 0 0
2 5 1.24592 2.158 0
3 5 0 4.316 0
4 5 1.24592 6.474 0
5 5 0 8.632 0
6 5 1.24592 10.79 0
7 5 0 12.948 0
8 5 1.24592 15.106 0
9 5 0 17.264 0
10 5 1.24592 19.422 0
11 5 0 21.58 0
12 5 1.24592 23.738 0
13 5 2.49184 0 0
14 5 3.73777 2.158 0
15 5 2.49184 4.316 0
16 5 3.73777 6.474 0
17 5 2.49184 8.632 0
18 5 3.73777 10.79 0
19 5 2.49184 12.948 0
20 5 3.73777 15.106 0
21 5 2.49184 17.264 0
22 5 3.73777 19.422 0
23 5 2.49184 21.58 0
24 5 3.73777 23.738 0
25 5 4.98369 0 0
26 5 6.22961 2.158 0
27 5 4.98369 4.316 0
28 5 6.22961 6.474 0
29 5 4.98369 8.632 0
30 5 6.22961 10.79 0
31 5 4.98369 12.948 0
32 5 6.22961 15.106 0
33 5 4.98369 17.264 0
34 5 6.22961 19.422 0
35 5 4.98369 21.58 0
36 5 6.22961 23.738 0
37 5 7.47553 0 0
38 5 8.72146 2.158 0
39 5 7.47553 4.316 0
40 5 8.72146 6.474 0
41 5 7.47553 8.632 0
42 5 8.72146 10.79 0
43 5 7.47553 12.948 0
44 5 8.72146 15.106 0
45 5 7.47553 17.264 0
46 5 8.72146 19.422 0
47 5 7.47553 21.58 0
48 5 8.72146 23.738 0
49 5 9.96738 0 0
50 5 11.2133 2.158 0
51 5 9.96738 4.316 0
52 5 11.2133 6.474 0
53 5 9.96738 8.632 0
54 5 11.2133 10.79 0
55 5 9.96738 12.948 0
56 5 11.2133 15.106 0
57 5 9.96738 17.264 0
58 5 11.2133 19.422 0
59 5 9.96738 21.58 0
60 5 11.2133 23.738 0
61 5 12.4592 0 0
62 5 13.7051 2.158 0
63 5 12.4592 4.316 0
64 5 13.7051 6.474 0
65 5 12.4592 8.632 0
66 5 13.7051 10.79 0
67 5 12.4592 12.948 0
68 5 13.7051 15.106 0
69 5 12.4592 17.264 0
70 5 13.7051 19.422 0
71 5 12.4592 21.58 0
72 5 13.7051 23.738 0
73 5 14.9511 0 0
74 5 16.197 2.158 0
75 5 14.9511 4.316 0
76 5 16.197 6.474 0
77 5 14.9511 8.632 0
78 5 16.197 10.79 0
79 5 14.9511 12.948 0
80 5 16.197 15.106 0
81 5 14.9511 17.264 0
82 5 16.197 19.422 0
83 5 14.9511 21.58 0
84 5 16.197 23.738 0
85 5 17.4429 0 0
86 5 18.6888 2.158 0
87 5 17.4429 4.316 0
88 5 18.6888 6.474 0
89 5 17.4429 8.632 0
90 5 18.6888 10.79 0
91 5 17.4429 12.948 0
92 5 18.6888 15.106 0
93 5 17.4429 17.264 0
94 5 18.6888 19.422 0
95 5 17.4429 21.58 0
96 5 18.6888 23.738 0
97 5 19.9348 0 0
98 5 21.1807 2.158 0
99 5 19.9348 4.316 0
100 5 21.1807 6.474 0
101 5 19.9348 8.632 0
102 5 21.1807 10.79 0
103 5 19.9348 12.948 0
104 5 21.1807 15.106 0
105 5 19.9348 17.264 0
106 5 21.1807 19.422 0
107 5 19.9348 21.58 0
108 5 21.1807 23.738 0
109 5 22.4266 0 0
110 5 23.6725 2.158 0
111 5 22.4266 4.316 0
112 5 23.6725 6.474 0
113 5 22.4266 8.632 0
114 5 23.6725 10.79 0
115 5 22.4266 12.948 0
116 5 23.6725 15.106 0
117 5 22.4266 17.264 0
118 5 23.6725 19.422 0
119 5 22.4266 21.58 0
120 5 23.6725 23.738 0
121 5 24.9184 0 0
122 5 26.1644 2.158 0
123 5 24.9184 4.316 0
124 5 26.1644 6.474 0
125 5 24.9184 8.632 0
126 5 26.1644 10.79 0
127 5 24.9184 12.948 0
128 5 26.1644 15.106 0
129 5 24.9184 17.264 0
130 5 26.1644 19.422 0
131 5 24.9184 21.58 0
132 5 26.1644 23.738 0
133 5 27.4103 0 0
134 5 28.6562 2.158 0
135 5 27.4103 4.316 0
136 5 28.6562 6.474 0
137 5 27.4103 8.632 0
138 5 28.6562 10.79 0
139 5 27.4103 12.948 0
140 5 28.6562 15.106 0
141 5 27.4103 17.264 0
142 5 28.6562 19.422 0
143 5 27.4103 21.58 0
144 5 28.6562 23.738 0
145 5 29.9021 0 0
146 5 31.1481 2.158 0
147 5 29.9021 4.316 0
148 5 31.1481 6.474 0
149 5 29.9021 8.632 0
150 5 31.1481 10.79 0
151 5 29.9021 12.948 0
152 5 31.1481 15.106 0
153 5 29.9021 17.264 0
154 5 31.1481 19.422 0
155 5 29.9021 21.58 0
156 5 31.1481 23.738 0
157 5 32.394 0 0
158 5 33.6399 2.158 0
159 5 32.394 4.316 0
160 5 33.6399 6.474 0
161 5 32.394 8.632 0
162 5 33.6399 10.79 0
163 5 32.394 12.948 0
164 5 33.6399 15.106 0
165 5 32.394 17.264 0
166 5 33.6399 19.422 0
167 5 32.394 21.58 0
168 5 33.6399 23.738 0
169 5 34.8858 0 0
170 5 36.1317 2.158 0
171 5 34.8858 4.316 0
172 5 36.1317 6.474 0
173 5 34.8858 8.632 0
174 5 36.1317 10.79 0
175 5 34.8858 12.948 0
176 5 36.1317 15.106 0
177 5 34.8858 17.264 0
178 5 36.1317 19.422 0
179 5 34.8858 21.58 0
180 5 36.1317 23.738 0
181 5 37.3777 0 0
182 5 38.6236 2.158 0
183 5 37.3777 4.316 0
184 5 38.6236 6.474 0
185 5 37.3777 8.632 0
186 5 38.6236 10.79 0
187 5 37.3777 12.948 0
188 5 38.6236 15.106 0
189 5 37.3777 17.264 0
190 5 38.6236 19.422 0
191 5 37.3777 21.58 0
192 5 38.6236 23.738 0
193 5 39.8695 0 0
194 5 41.1154 2.158 0
195 5 39.8695 4.316 0
196 5 41.1154 6.474 0
197 5 39.8695 8.632 0
198 5 41.1154 10.79 0
199 5 39.8695 12.948 0
200 5 41.1154 15.106 0
201 5 39.8695 17.264 0
202 5 41.1154 19.422 0
203 5 39.8695 21.58 0
204 5 41.1154 23.738 0
205 5 42.3614 0 0
206 5 43.6073 2.158 0
207 5 42.3614 4.316 0
208 5 43.6073 6.474 0
209 5 42.3614 8.632 0
210 5 43.6073 10.79 0
211 5 42.3614 12.948 0
212 5 43.6073 15.106 0
213 5 42.3614 17.264 0
214 5 43.6073 19.422 0
215 5 42.3614 21.58 0
216 5 43.6073 23.738 0
217 5 44.8532 0 0
218 5 46.0991 2.158 0
219 5 44.8532 4.316 0
220 5 46.0991 6.474 0
221 5 44.8532 8.632 0
222 5 46.0991 10.79 0
223 5 44.8532 12.948 0
224 5 46.0991 15.106 0
225 5 44.8532 17.264 0
226 5 46.0991 19.422 0
227 5 44.8532 21.58 0
228 5 46.0991 23.738 0
229 5 47.345 0 0
230 5 48.591 2.158 0
231 5 47.345 4.316 0
232 5 48.591 6.474 0
233 5 47.345 8.632 0
234 5 48.591 10.79 0
235 5 47.345 12.948 0
236 5 48.591 15.106 0
237 5 47.345 17.264 0
238 5 48.591 19.422 0
239 5 47.345 21.58 0
240 5 48.591 23.738 0
241 5 49.8369 0 0
242 5 51.0828 2.158 0
243 5 49.8369 4.316 0
244 5 51.0828 6.474 0
245 5 49.8369 8.632 0
246 5 51.0828 10.79 0
247 5 49.8369 12.948 0
248 5 51.0828 15.106 0
249 5 49.8369 17.264 0
250 5 51.0828 19.422 0
251 5 49.8369 21.58 0
252 5 51.0828 23.738 0
253 5 52.3287 0 0
254 5 53.5746 2.158 0
255 5 52.3287 4.316 0
256 5 53.5746 6.474 0
257 5 52.3287 8.632 0
258 5 53.5746 10.79 0
259 5 52.3287 12.948 0
260 5 53.5746 15.106 0
261 5 52.3287 17.264 0
262 5 53.5746 19.422 0
263 5 52.3287 21.58 0
264 5 53.5746 23.738 0
265 5 54.8206 0 0
266 5 56.0665 2.158 0
267 5 54.8206 4.316 0
268 5 56.0665 6.474 0
269 5 54.8206 8.632 0
270 5 56.0665 10.79 0
271 5 54.8206 12.948 0
272 5 56.0665 15.106 0
273 5 54.8206 17.264 0
274 5 56.0665 19.422 0
275 5 54.8206 21.58 0
276 5 56.0665 23.738 0
277 5 57.3124 0 0
278 5 58.5583 2.158 0
279 5 57.3124 4.316 0
280 5 58.5583 6.474 0
281 5 57.3124 8.632 0
282 5 58.5583 10.79 0
283 5 57.3124 12.948 0
284 5 58.5583 15.106 0
285 5 57.3124 17.264 0
286 5 58.5583 19.422 0
287 5 57.3124 21.58 0
288 5 58.5583 23.738 0
289 5 59.8043 0 0
290 5 61.0502 2.158 0
291 5 59.8043 4.316 0
292 5 61.0502 6.474 0
293 5 59.8043 8.632 0
294 5 61.0502 10.79 0
295 5 59.8043 12.948 0
296 5 61.0502 15.106 0
297 5 59.8043 17.264 0
298 5 61.0502 19.422 0
299 5 59.8043 21.58 0
300 5 61.0502 23.738 0
301 5 62.2961 0 0
302 5 63.542 2.158 0
303 5 62.2961 4.316 0
304 5 63.542 6.474 0
305 5 62.2961 8.632 0
306 5 63.542 10.79 0
307 5 62.2961 12.948 0
308 5 63.542 15.106 0
309 5 62.2961 17.264 0
310 5 63.542 19.422 0
311 5 62.2961 21.58 0
312 5 63.542 23.738 0
313 5 64.7879 0 0
314 5 66.0339 2.158 0
315 5 64.7879 4.316 0
316 5 66.0339 6.474 0
317 5 64.7879 8.632 0
318 5 66.0339 10.79 0
319 5 64.7879 12.948 0
320 5 66.0339 15.106 0
321 5 64.7879 17.264 0
322 5 66.0339 19.422 0
323 5 64.7879 21.58 0
324 5 66.0339 23.738 0
325 5 67.2798 0 0
326 5 68.5257 2.158 0
327 5 67.2798 4.316 0
328 5 68.5257 6.474 0
329 5 67.2798 8.632 0
330 5 68.5257 10.79 0
331 5 67.2798 12.948 0
332 5 68.5257 15.106 0
333 5 67.2798 17.264 0
334 5 68.5257 19.422 0
335 5 67.2798 21.58 0
336 5 68.5257 23.738 0
337 5 69.7716 0 0
338 5 71.0176 2.158 0
339 5 69.7716 4.316 0
340 5 71.0176 6.474 0
341 5 69.7716 8.632 0
342 5 71.0176 10.79 0
343 5 69.7716 12.948 0
344 5 71.0176 15.106 0
345 5 69.7716 17.264 0
346 5 71.0176 19.422 0
347 5 69.7716 21.58 0
348 5 71.0176 23.738 0
349 5 72.2635 0 0
350 5 73.5094 2.158 0
351 5 72.2635 4.316 0
352 5 73.5094 6.474 0
353 5 72.2635 8.632 0
354 5 73.5094 10.79 0
355 5 72.2635 12.948 0
356 5 73.5094 15.106 0
357 5 72.2635 17.264 0
358 5 73.5094 19.422 0
359 5 72.2635 21.58 0
360 5 73.5094 23.738 0
361 5 74.7553 0 0
362 5 76.0012 2.158 0
363 5 74.7553 4.316 0
364 5 76.0012 6.474 0
365 5 74.7553 8.632 0
366 5 76.0012 10.79 0
367 5 74.7553 12.948 0
368 5 76.0012 15.106 0
369 5 74.7553 17.264 0
370 5 76.0012 19.422 0
371 5 74.7553 21.58 0
372 5 76.0012 23.738 0
373 5 77.2472 0 0
374 5 78.4931 2.158 0
375 5 77.2472 4.316 0
376 5 78.4931 6.474 0
377 5 77.2472 8.632 0
378 5 78.4931 10.79 0
379 5 77.2472 12.948 0
380 5 78.4931 15.106 0
381 5 77.2472 17.264 0
382 5 78.4931 19.422 0
383 5 77.2472 21.58 0
384 5 78.4931 23.738 0
385 5 0.83061 1.43867 2.03458
386 5 2.07654 3.59667 2.03458
387 5 0.83061 5.75467 2.03458
388 5 2.07654 7.91267 2.03458
389 5 0.83061 10.0707 2.03458
390 5 2.07654 12.2287 2.03458
391 5 0.83061 14.3867 2.03458
392 5 2.07654 16.5447 2.03458
393 5 0.83061 18.7027 2.03458
394 5 2.07654 20.8607 2.03458
395 5 0.83061 23.0187 2.03458
396 5 2.07654 25.1767 2.03458
397 5 3.32246 1.43867 2.03458
398 5 4.56838 3.59667 2.03458
399 5 3.32246 5.75467 2.03458
400 5 4.56838 7.91267 2.03458
401 5 3.32246 10.0707 2.03458
402 5 4.56838 12.2287 2.03458
403 5 3.32246 14.3867 2.03458
404 5 4.56838 16.5447 2.03458
405 5 3.32246 18.7027 2.03458
406 5 4.56838 20.8607 2.03458
407 5 3.32246 23.0187 2.03458
408 5 4.56838 25.1767 2.03458
409 5 5.8143 1.43867 2.03458
410 5 7.06023 3.59667 2.03458
411 5 5.8143 5.75467 2.03458
412 5 7.06023 7.91267 2.03458
413 5 5.8143 10.0707 2.03458
414 5 7.06023 12.2287 2.03458
415 5 5.8143 14.3867 2.03458
416 5 7.06023 16.5447 2.03458
417 5 5.8143 18.7027 2.03458
418 5 7.06023 20.8607 2.03458
419 5 5.8143 23.0187 2.03458
420 5 7.06023 25.1767 2.03458
421 5 8.30615 1.43867 2.03458
422 5 9.55207 3.59667 2.03458
423 5 8.30615 5.75467 2.03458
424 5 9.55207 7.91267 2.03458
425 5 8.30615 10.0707 2.03458
426 5 9.55207 12.2287 2.03458
427 5 8.30615 14.3867 2.03458
428 5 9.55207 16.5447 2.03458
429 5 8.30615 18.7027 2.03458
430 5 9.55207 20.8607 2.03458
431 5 8.30615 23.0187 2.03458
432 5 9.55207 25.1767 2.03458
433 5 10.798 1.43867 2.03458
434 5 12.0439 3.59667 2.03458
435 5 10.798 5.75467 2.03458
436 5 12.0439 7.91267 2.03458
437 5 10.798 10.0707 2.03458
438 5 12.0439 12.2287 2.03458
439 5 10.798 14.3867 2.03458
440 5 12.0439 16.5447 2.03458
441 5 10.798 18.7027 2.03458
442 5 12.0439 20.8607 2.03458
443 5 10.798 23.0187 2.03458
444 5 12.0439 25.1767 2.03458
445 5 13.2898 1.43867 2.03458
446 5 14.5358 3.59667 2.03458
447 5 13.2898 5.75467 2.03458
448 5 14.5358 7.91267 2.03458
449 5 13.2898 10.0707 2.03458
450 5 14.5358 12.2287 2.03458
451 5 13.2898 14.3867 2.03458
452 5 14.5358 16.5447 2.03458
453 5 13.2898 18.7027 2.03458
454 5 14.5358 20.8607 2.03458
455 5 13.2898 23.0187 2.03458
456 5 14.5358 25.1767 2.03458
457 5 15.7817 1.43867 2.03458
458 5 17.0276 3.59667 2.03458
459 5 15.7817 5.75467 2.03458
460 5 17.0276 7.91267 2.03458
461 5 15.7817 10.0707 2.03458
462 5 17.0276 12.2287 2.03458
463 5 15.7817 14.3867 2.03458
464 5 17.0276 16.5447 2.03458
465 5 15.7817 18.7027 2.03458
466 5 17.0276 20.8607 2.03458
467 5 15.7817 23.0187 2.03458
468 5 17.0276 25.1767 2.03458
469 5 18.2735 1.43867 2.03458
470 5 19.5194 3.59667 2.03458
471 5 18.2735 5.75467 2.03458
472 5 19.5194 7.91267 2.03458
473 5 18.2735 10.0707 2.03458
474 5 19.5194 12.2287 2.03458
475 5 18.2735 14.3867 2.03458
476 5 19.5194 16.5447 2.03458
477 5 18.2735 18.7027 2.03458
478 5 19.5194 20.8607 2.03458
479 5 18.2735 23.0187 2.03458
480 5 19.5194 25.1767 2.03458
481 5 20.7654 1.43867 2.03458
482 5 22.0113 3.59667 2.03458
483 5 20.7654 5.75467 2.03458
484 5 22.0113 7.91267 2.03458
485 5 20.7654 10.0707 2.03458
486 5 22.0113 12.2287 2.03458
487 5 20.7654 14.3867 2.03458
488 5 22.0113 16.5447 2.03458
489 5 20.7654 18.7027 2.03458
490 5 22.0113 20.8607 2.03458
491 5 20.7654 23.0187 2.03458
492 5 22.0113 25.1767 2.03458
493 5 23.2572 1.43867 2.03458
494 5 24.5031 3.59667 2.03458
495 5 23.2572 5.75467 2.03458
496 5 24.5031 7.91267 2.03458
497 5 23.2572 10.0707 2.03458
498 5 24.5031 12.2287 2.03458
499 5 23.2572 14.3867 2.03458
500 5 24.5031 16.5447 2.03458
501 5 23.2572 18.7027 2.03458
502 5 24.5031 20.8607 2.03458
503 5 23.2572 23.0187 2.03458
504 5 24.5031 25.1767 2.03458
505 5 25.7491 1.43867 2.03458
506 5 26.995 3.59667 2.03458
507 5 25.7491 5.75467 2.03458
508 5 26.995 7.91267 2.03458
509 5 25.7491 10.0707 2.03458
510 5 26.995 12.2287 2.03458
511 5 25.7491 14.3867 2.03458
512 5 26.995 16.5447 2.03458
513 5 25.7491 18.7027 2.03458
514 5 26.995 20.8607 2.03458
515 5 25.7491 23.0187 2.03458
516 5 26.995 25.1767 2.03458
517 5 28.2409 1.43867 2.03458
518 5 29.4868 3.59667 2.03458
519 5 28.2409 5.75467 2.03458
520 5 29.4868 7.91267 2.03458
521 5 28.2409 10.0707 2.03458
522 5 29.4868 12.2287 2.03458
523 5 28.2409 14.3867 2.03458
524 5 29.4868 16.5447 2.03458
525 5 28.2409 18.7027 2.03458
526 5 29.4868 20.8607 2.03458
527 5 28.2409 23.0187 2.03458
528 5 29.4868 25.1767 2.03458
529 5 30.7327 1.43867 2.03458
530 5 31.9787 3.59667 2.03458
531 5 30.7327 5.75467 2.03458
532 5 31.9787 7.91267 2.03458
533 5 30.7327 10.0707 2.03458
534 5 31.9787 12.2287 2.03458
535 5 30.7327 14.3867 2.03458
536 5 31.9787 16.5447 2.03458
537 5 30.7327 18.7027 2.03458
538 5 31.9787 20.8607 2.03458
539 5 30.7327 23.0187 2.03458
540 5 31.9787 25.1767 2.03458
541 5 33.2246 1.43867 2.03458
542 5 34.4705 3.59667 2.03458
543 5 33.2246 5.75467 2.03458
544 5 34.4705 7.91267 2.03458
545 5 33.2246 10.0707 2.03458
546 5 34.4705 12.2287 2.03458
547 5 33.2246 14.3867 2.03458
548 5 34.4705 16.5447 2.03458
549 5 33.2246 18.7027 2.03458
550 5 34.4705 20.8607 2.03458
551 5 33.2246 23.0187 2.03458
552 5 34.4705 25.1767 2.03458
553 5 35.7164 1.43867 2.03458
554 5 36.9624 3.59667 2.03458
555 5 35.7164 5.75467 2.03458
556 5 36.9624 7.91267 2.03458
557 5 35.7164 10.0707 2.03458
558 5 36.9624 12.2287 2.03458
559 5 35.7164 14.3867 2.03458
560 5 36.9624 16.5447 2.03458
561 5 35.7164 18.7027 2.03458
562 5 36.9624 20.8607 2.03458
563 5 35.7164 23.0187 2.03458
564 5 36.9624 25.1767 2.03458
565 5 38.2083 1.43867 2.03458
566 5 39.4542 3.59667 2.03458
567 5 38.2083 5.75467 2.03458
568 5 39.4542 7.91267 2.03458
569 5 38.2083 10.0707 2.03458
570 5 39.4542 12.2287 2.03458
571 5 38.2083 14.3867 2.03458
572 5 39.4542 16.5447 2.03458
573 5 38.2083 18.7027 2.03458
574 5 39.4542 20.8607 2.03458
575 5 38.2083 23.0187 2.03458
576 5 39.4542 25.1767 2.03458
577 5 40.7001 1.43867 2.03458
578 5 41.946 3.59667 2.03458
579 5 40.7001 5.75467 2.03458
580 5 41.946 7.91267 2.03458
581 5 40.7001 10.0707 2.03458
582 5 41.946 12.2287 2.03458
583 5 40.7001 14.3867 2.03458
584 5 41.946 16.5447 2.03458
585 5 40.7001 18.7027 2.03458
586 5 41.946 20.8607 2.03458
587 5 40.7001 23.0187 2.03458
588 5 41.946 25.1767 2.03458
589 5 43.192 1.43867 2.03458
590 5 44.4379 3.59667 2.03458
591 5 43.192 5.75467 2.03458
592 5 44.4379 7.91267 2.03458
593 5 43.192 10.0707 2.03458
594 5 44.4379 12.2287 2.03458
595 5 43.192 14.3867 2.03458
596 5 44.4379 16.5447 2.03458
597 5 43.192 18.7027 2.03458
598 5 44.4379 20.8607 2.03458
599 5 43.192 23.0187 2.03458
600 5 44.4379 25.1767 2.03458
601 5 45.6838 1.43867 2.03458
602 5 46.9297 3.59667 2.03458
603 5 45.6838 5.75467 2.03458
604 5 46.9297 7.91267 2.03458
605 5 45.6838 10.0707 2.03458
606 5 46.9297 12.2287 2.03458
607 5 45.6838 14.3867 2.03458
608 5 46.9297 16.5447 2.03458
609 5 45.6838 18.7027 2.03458
610 5 46.9297 20.8607 2.03458
611 5 45.6838 23.0187 2.03458
612 5 46.9297 25.1767 2.03458
613 5 48.1757 1.43867 2.03458
614 5 49.4216 3.59667 2.03458
615 5 48.1757 5.75467 2.03458
616 5 49.4216 7.91267 2.03458
617 5 48.1757 10.0707 2.03458
618 5 49.4216 12.2287 2.03458
619 5 48.1757 14.3867 2.03458
620 5 49.4216 16.5447 2.03458
621 5 48.1757 18.7027 2.03458
622 5 49.4216 20.8607 2.03458
623 5 48.1757 23.0187 2.03458
624 5 49.4216 25.1767 2.03458
625 5 50.6675 1.43867 2.03458
626 5 51.9134 3.59667 2.03458
627 5 50.6675 5.75467 2.03458
628 5 51.9134 7.91267 2.03458
629 5 50.6675 10.0707 2.03458
630 5 51.9134 12.2287 2.03458
631 5 50.6675 14.3867 2.03458
632 5 51.9134 16.5447 2.03458
633 5 50.6675 18.7027 2.03458
634 5 51.9134 20.8607 2.03458
635 5 50.6675 23.0187 2.03458
636 5 51.9134 25.1767 2.03458
637 5 53.1594 1.43867 2.03458
638 5 54.4053 3.59667 2.03458
639 5 53.1594 5.75467 2.03458
640 5 54.4053 7.91267 2.03458
641 5 53.1594 10.0707 2.03458
642 5 54.4053 12.2287 2.03458
643 5 53.1594 14.3867 2.03458
644 5 54.4053 16.5447 2.03458
645 5 53.1594 18.7027 2.03458
646 5 54.4053 20.8607 2.03458
647 5 53.1594 23.0187 2.03458
648 5 54.4053 25.1767 2.03458
649 5 55.6512 1.43867 2.03458
650 5 56.8971 3.59667 2.03458
651 5 55.6512 5.75467 2.03458
652 5 56.8971 7.91267 2.03458
653 5 55.6512 10.0707 2.03458
654 5 56.8971 12.2287 2.03458
655 5 55.6512 14.3867 2.03458
656 5 56.8971 16.5447 2.03458
657 5 55.6512 18.7027 2.03458
658 5 56.8971 20.8607 2.03458
659 5 55.6512 23.0187 2.03458
660 5 56.8971 25.1767 2.03458
661 5 58.143 1.43867 2.03458
662 5 59.389 3.59667 2.03458
663 5 58.143 5.75467 2.03458
664 5 59.389 7.91267 2.03458
665 5 58.143 10.0707 2.03458
666 5 59.389 12.2287 2.03458
667 5 58.143 14.3867 2.03458
668 5 59.389 16.5447 2.03458
669 5 58.143 18.7027 2.03458
670 5 59.389 20.8607 2.03458
671 5 58.143 23.0187 2.03458
672 5 59.389 25.1767 2.03458
673 5 60.6349 1.43867 2.03458
674 5 61.8808 3.59667 2.03458
675 5 60.6349 5.75467 2.03458
676 5 61.8808 7.91267 2.03458
677 5 60.6349 10.0707 2.03458
678 5 61.8808 12.2287 2.03458
679 5 60.6349 14.3867 2.03458
680 5 61.8808 16.5447 2.03458
681 5 60.6349 18.7027 2.03458
682 5 61.8808 20.8607 2.03458
683 5 60.6349 23.0187 2.03458
684 5 61.8808 25.1767 2.03458
685 5 63.1267 1.43867 2.03458
686 5 64.3726 3.59667 2.03458
687 5 63.1267 5.75467 2.03458
688 5 64.3726 7.91267 2.03458
689 5 63.1267 10.0707 2.03458
690 5 64.3726 12.2287 2.03458
691 5 63.1267 14.3867 2.03458
692 5 64.3726 16.5447 2.03458
693 5 63.1267 18.7027 2.03458
694 5 64.3726 20.8607 2.03458
695 5 63.1267 23.0187 2.03458
696 5 64.3726 25.1767 2.03458
697 5 65.6186 1.43867 2.03458
698 5 66.8645 3.59667 2.03458
699 5 65.6186 5.75467 2.03458
700 5 66.8645 7.91267 2.03458
701 5 65.6186 10.0707 2.03458
702 5 66.8645 12.2287 2.03458
703 5 65.6186 14.3867 2.03458
704 5 66.8645 16.5447 2.03458
705 5 65.6186 18.7027 2.03458
706 5 66.8645 20.8607 2.03458
707 5 65.6186 23.0187 2.03458
708 5 66.8645 25.1767 2.03458
709 5 68.1104 1.43867 2.03458
710 5 69.3563 3.59667 2.03458
711 5 68.1104 5.75467 2.03458
712 5 69.3563 7.91267 2.03458
713 5 68.1104 10.0707 2.03458
714 5 69.3563 12.2287 2.03458
715 5 68.1104 14.3867 2.03458
716 5 69.3563 16.5447 2.03458
717 5 68.1104 18.7027 2.03458
718 5 69.3563 20.8607 2.03458
719 5 68.1104 23.0187 2.03458
720 5 69.3563 25.1767 2.03458
721 5 70.6023 1.43867 2.03458
722 5 71.8482 3.59667 2.03458
723 5 70.6023 5.75467 2.03458
724 5 71.8482 7.91267 2.03458
725 5 70.6023 10.0707 2.03458
726 5 71.8482 12.2287 2.03458
727 5 70.6023 14.3867 2.03458
728 5 71.8482 16.5447 2.03458
729 5 70.6023 18.7027 2.03458
730 5 71.8482 20.8607 2.03458
731 5 70.6023 23.0187 2.03458
732 5 71.8482 25.1767 2.03458
733 5 73.0941 1.43867 2.03458
734 5 74.34 3.59667 2.03458
735 5 73.0941 5.75467 2.03458
736 5 74.34 7.91267 2.03458
737 5 73.0941 10.0707 2.03458
738 5 74.34 12.2287 2.03458
739 5 73.0941 14.3867 2.03458
740 5 74.34 16.5447 2.03458
741 5 73.0941 18.7027 2.03458
742 5 74.34 20.8607 2.03458
743 5 73.0941 23.0187 2.03458
744 5 74.34 25.1767 2.03458
745 5 75.5859 1.43867 2.03458
746 5 76.8319 3.59667 2.03458
747 5 75.5859 5.75467 2.03458
748 5 76.8319 7.91267 2.03458
749 5 75.5859 10.0707 2.03458
750 5 76.8319 12.2287 2.03458
751 5 75.5859 14.3867 2.03458
752 5 76.8319 16.5447 2.03458
753 5 75.5859 18.7027 2.03458
754 5 76.8319 20.8607 2.03458
755 5 75.5859 23.0187 2.03458
756 5 76.8319 25.1767 2.03458
757 5 78.0778 1.43867 2.03458
758 5 79.3237 3.59667 2.03458
759 5 78.0778 5.75467 2.03458
760 5 79.3237 7.91267 2.03458
761 5 78.0778 10.0707 2.03458
762 5 79.3237 12.2287 2.03458
763 5 78.0778 14.3867 2.03458
764 5 79.3237 16.5447 2.03458
765 5 78.0778 18.7027 2.03458
766 5 79.3237 20.8607 2.03458
767 5 78.0778 23.0187 2.03458
768 5 79.3237 25.1767 2.03458
769 5 1.66123 2.87733 4.06916
770 5 2.90715 5.03533 4.06916
771 5 1.66123 7.19333 4.06916
772 5 2.90715 9.35134 4.06916
773 5 1.66123 11.5093 4.06916
774 5 2.90715 13.6673 4.06916
775 5 1.66123 15.8253 4.06916
776 5 2.90715 17.9833 4.06916
777 5 1.66123 20.1413 4.06916
778 5 2.90715 22.2993 4.06916
779 5 1.66123 24.4573 4.06916
780 5 2.90715 26.6153 4.06916
781 5 4.15307 2.87733 4.06916
782 5 5.399 5.03533 4.06916
783 5 4.15307 7.19333 4.06916
784 5 5.399 9.35134 4.06916
785 5 4.15307 11.5093 4.06916
786 5 5.399 13.6673 4.06916
787 5 4.15307 15.8253 4.06916
788 5 5.399 17.9833 4.06916
789 5 4.15307 20.1413 4.06916
790 5 5.399 22.2993 4.06916
791 5 4.15307 24.4573 4.06916
792 5 5.399 26.6153 4.06916
793 5 6.64492 2.87733 4.06916
794 5 7.89084 5.03533 4.06916
795 5 6.64492 7.19333 4.06916
796 5 7.89084 9.35134 4.06916
797 5 6.64492 11.5093 4.06916
798 5 7.89084 13.6673 4.06916
799 5 6.64492 15.8253 4.06916
800 5 7.89084 17.9833 4.06916
801 5 6.64492 20.1413 4.06916
802 5 7.89084 22.2993 4.06916
803 5 6.64492 24.4573 4.06916
804 5 7.89084 26.6153 4.06916
805 5 9.13676 2.87733 4.06916
806 5 10.3827 5.03533 4.06916
807 5 9.13676 7.19333 4.06916
808 5 10.3827 9.35134 4.06916
809 5 9.13676 11.5093 4.06916
810 5 10.3827 13.6673 4.06916
811 5 9.13676 15.8253 4.06916
812 5 10.3827 17.9833 4.06916
813 5 9.13676 20.1413 4.06916
814 5 10.3827 22.2993 4.06916
815 5 9.13676 24.4573 4.06916
816 5 10.3827 26.6153 4.06916
817 5 11.6286 2.87733 4.06916
818 5 12.8745 5.03533 4.06916
819 5 11.6286 7.19333 4.06916
820 5 12.8745 9.35134 4.06916
821 5 11.6286 11.5093 4.06916
822 5 12.8745 13.6673 4.06916
823 5 11.6286 15.8253 4.06916
824 5 12.8745 17.9833 4.06916
825 5 11.6286 20.1413 4.06916
826 5 12.8745 22.2993 4.06916
827 5 11.6286 24.4573 4.06916
828 5 12.8745 26.6153 4.06916
829 5 14.1204 2.87733 4.06916
830 5 15.3664 5.03533 4.06916
831 5 14.1204 7.19333 4.06916
832 5 15.3664 9.35134 4.06916
833 5 14.1204 11.5093 4.06916
834 5 15.3664 13.6673 4.06916
835 5 14.1204 15.8253 4.06916
836 5 15.3664 17.9833 4.06916
837 5 14.1204 20.1413 4.06916
838 5 15.3664 22.2993 4.06916
839 5 14.1204 24.4573 4.06916
840 5 15.3664 26.6153 4.06916
841 5 16.6123 2.87733 4.06916
842 5 17.8582 5.03533 4.06916
843 5 16.6123 7.19333 4.06916
844 5 17.8582 9.35134 4.06916
845 5 16.6123 11.5093 4.06916
846 5 17.8582 13.6673 4.06916
847 5 16.6123 15.8253 4.06916
848 5 17.8582 17.9833 4.06916
849 5 16.6123 20.1413 4.06916
850 5 17.8582 22.2993 4.06916
851 5 16.6123 24.4573 4.06916
852 5 17.8582 26.6153 4.06916
853 5 19.1041 2.87733 4.06916
854 5 20.3501 5.03533 4.06916
855 5 19.1041 7.19333 4.06916
856 5 20.3501 9.35134 4.06916
857 5 19.1041 11.5093 4.06916
858 5 20.3501 13.6673 4.06916
859 5 19.1041 15.8253 4.06916
860 5 20.3501 17.9833 4.06916
861 5 19.1041 20.1413 4.06916
862 5 20.3501 22.2993 4.06916
863 5 19.1041 24.4573 4.06916
864 5 20.3501 26.6153 4.06916
865 5 21.596 2.87733 4.06916
866 5 22.8419 5.03533 4.06916
867 5 21.596 7.19333 4.06916
868 5 22.8419 9.35134 4.06916
869 5 21.596 11.5093 4.06916
870 5 22.8419 13.6673 4.06916
871 5 21.596 15.8253 4.06916
872 5 22.8419 17.9833 4.06916
873 5 21.596 20.1413 4.06916
874 5 22.8419 22.2993 4.06916
875 5 21.596 24.4573 4.06916
876 5 22.8419 26.6153 4.06916
877 5 24.0878 2.87733 4.06916
878 5 25.3337 5.03533 4.06916
879 5 24.0878 7.19333 4.06916
880 5 25.3337 9.35134 4.06916
881 5 24.0878 11.5093 4.06916
882 5 25.3337 13.6673 4.06916
883 5 24.0878 15.8253 4.06916
884 5 25.3337 17.9833 4.06916
885 5 24.0878 20.1413 4.06916
886 5 25.3337 22.2993 4.06916
887 5 24.0878 24.4573 4.06916
888 5 25.3337 26.6153 4.06916
889 5 26.5797 2.87733 4.06916
890 5 27.8256 5.03533 4.06916
891 5 26.5797 7.19333 4.06916
892 5 27.8256 9.35134 4.06916
893 5 26.5797 11.5093 4.06916
894 5 27.8256 13.6673 4.06916
895 5 26.5797 15.8253 4.06916
896 5 27.8256 17.9833 4.06916
897 5 26.5797 20.1413 4.06916
898 5 27.8256 22.2993 4.06916
899 5 26.5797 24.4573 4.06916
900 5 27.8256 26.6153 4.06916
901 5 29.0715 2.87733 4.06916
902 5 30.3174 5.03533 4.06916
903 5 29.0715 7.19333 4.06916
904 5 30.3174 9.35134 4.06916
905 5 29.0715 11.5093 4.06916
906 5 30.3174 13.6673 4.06916
907 5 29.0715 15.8253 4.06916
908 5 30.3174 17.9833 4.06916
909 5 29.0715 20.1413 4.06916
910 5 30.3174 22.2993 4.06916
911 5 29.0715 24.4573 4.06916
912 5 30.3174 26.6153 4.06916
913 5 31.5634 2.87733 4.06916
914 5 32.8093 5.03533 4.06916
915 5 31.5634 7.19333 4.06916
916 5 32.8093 9.35134 4.06916
917 5 31.5634 11.5093 4.06916
918 5 32.8093 13.6673 4.06916
919 5 31.5634 15.8253 4.06916
920 5 32.8093 17.9833 4.06916
921 5 31.5634 20.1413 4.06916
922 5 32.8093 22.2993 4.06916
923 5 31.5634 24.4573 4.06916
924 5 32.8093 26.6153 4.06916
925 5 34.0552 2.87733 4.06916
926 5 35.3011 5.03533 4.06916
927 5 34.0552 7.19333 4.06916
928 5 35.3011 9.35134 4.06916
929 5 34.0552 11.5093 4.06916
930 5 35.3011 13.6673 4.06916
931 5 34.0552 15.8253 4.06916
932 5 35.3011 17.9833 4.06916
933 5 34.0552 20.1413 4.06916
934 5 35.3011 22.2993 4.06916
935 5 34.0552 24.4573 4.06916
936 5 35.3011 26.6153 4.06916
937 5 36.547 2.87733 4.06916
938 5 37.793 5.03533 4.06916
939 5 36.547 7.19333 4.06916
940 5 37.793 9.35134 4.06916
941 5 36.547 11.5093 4.06916
942 5 37.793 13.6673 4.06916
943 5 36.547 15.8253 4.06916
944 5 37.793 17.9833 4.06916
945 5 36.547 20.1413 4.06916
946 5 37.793 22.2993 4.06916
947 5 36.547 24.4573 4.06916
948 5 37.793 26.6153 4.06916
949 5 39.0389 2.87733 4.06916
950 5 40.2848 5.03533 4.06916
951 5 39.0389 7.19333 4.06916
952 5 40.2848 9.35134 4.06916
953 5 39.0389 11.5093 4.06916
954 5 40.2848 13.6673 4.06916
955 5 39.0389 15.8253 4.06916
956 5 40.2848 17.9833 4.06916
957 5 39.0389 20.1413 4.06916
958 5 40.2848 22.2993 4.06916
959 5 39.0389 24.4573 4.06916
960 5 40.2848 26.6153 4.06916
961 5 41.5307 2.87733 4.06916
962 5 42.7767 5.03533 4.06916
963 5 41.5307 7.19333 4.06916
964 5 42.7767 9.35134 4.06916
965 5 41.5307 11.5093 4.06916
966 5 42.7767 13.6673 4.06916
967 5 41.5307 15.8253 4.06916
968 5 42.7767 17.9833 4.06916
969 5 41.5307 20.1413 4.06916
970 5 42.7767 22.2993 4.06916
971 5 41.5307 24.4573 4.06916
972 5 42.7767 26.6153 4.06916
973 5 44.0226 2.87733 4.06916
974 5 45.2685 5.03533 4.06916
975 5 44.0226 7.19333 4.06916
976 5 45.2685 9.35134 4.06916
977 5 44.0226 11.5093 4.06916
978 5 45.2685 13.6673 4.06916
979 5 44.0226 15.8253 4.06916
980 5 45.2685 17.9833 4.06916
981 5 44.0226 20.1413 4.06916
982 5 45.2685 22.2993 4.06916
983 5 44.0226 24.4573 4.06916
984 5 45.2685 26.6153 4.06916
985 5 46.5144 2.87733 4.06916
986 5 47.7604 5.03533 4.06916
987 5 46.5144 7.19333 4.06916
988 5 47.7604 9.35134 4.06916
989 5 46.5144 11.5093 4.06916
990 5 47.7604 13.6673 4.06916
991 5 46.5144 15.8253 4.06916
992 5 47.7604 17.9833 4.06916
993 5 46.5144 20.1413 4.06916
994 5 47.7604 22.2993 4.06916
995 5 46.5144 24.4573 4.06916
996 5 47.7604 26.6153 4.06916
997 5 49.0063 2.87733 4.06916
998 5 50.2522 5.03533 4.06916
999 5 49.0063 7.19333 4.06916
1000 5 50.2522 9.35134 4.06916
1001 5 49.0063 11.5093 4.06916
1002 5 50.2522 13.6673 4.06916
1003 5 49.0063 15.8253 4.06916
1004 5 50.2522 17.9833 4.06916
1005 5 49.0063 20.1413 4.06916
1006 5 50.2522 22.2993 4.06916
1007 5 49.0063 24.4573 4.06916
1008 5 50.2522 26.6153 4.06916
1009 5 51.4981 2.87733 4.06916
1010 5 52.744 5.03533 4.06916
1011 5 51.4981 7.19333 4.06916
1012 5 52.744 9.35134 4.06916
1013 5 51.4981 11.5093 4.06916
1014 5 52.744 13.6673 4.06916
1015 5 51.4981 15.8253 4.06916
1016 5 52.744 17.9833 4.06916
1017 5 51.4981 20.1413 4.06916
1018 5 52.744 22.2993 4.06916
1019 5 51.4981 24.4573 4.06916
1020 5 52.744 26.6153 4.06916
1021 5 53.99 2.87733 4.06916
1022 5 55.2359 5.03533 4.06916
1023 5 53.99 7.19333 4.06916
1024 5 55.2359 9.35134 4.06916
1025 5 53.99 11.5093 4.06916
1026 5 55.2359 13.6673 4.06916
1027 5 53.99 15.8253 4.06916
1028 5 55.2359 17.9833 4.06916
1029 5 53.99 20.1413 4.06916
1030 5 55.2359 22.2993 4.06916
1031 5 53.99 24.4573 4.06916
1032 5 55.2359 26.6153 4.06916
1033 5 56.4818 2.87733 4.06916
1034 5 57.7277 5.03533 4.06916
1035 5 56.4818 7.19333 4.06916
1036 5 57.7277 9.35134 4.06916
1037 5 56.4818 11.5093 4.06916
1038 5 57.7277 13.6673 4.06916
1039 5 56.4818 15.8253 4.06916
1040 5 57.7277 17.9833 4.06916
1041 5 56.4818 20.1413 4.06916
1042 5 57.7277 22.2993 4.06916
1043 5 56.4818 24.4573 4.06916
1044 5 57.7277 26.6153 4.06916
1045 5 58.9736 2.87733 4.06916
1046 5 60.2196 5.03533 4.06916
1047 5 58.9736 7.19333 4.06916
1048 5 60.2196 9.35134 4.06916
1049 5 58.9736 11.5093 4.06916
1050 5 60.2196 13.6673 4.06916
1051 5 58.9736 15.8253 4.06916
1052 5 60.2196 17.9833 4.06916
1053 5 58.9736 20.1413 4.06916
1054 5 60.2196 22.2993 4.06916
1055 5 58.9736 24.4573 4.06916
1056 5 60.2196 26.6153 4.06916
1057 5 61.4655 2.87733 4.06916
1058 5 62.7114 5.03533 4.06916
1059 5 61.4655 7.19333 4.06916
1060 5 62.7114 9.35134 4.06916
1061 5 61.4655 11.5093 4.06916
1062 5 62.7114 13.6673 4.06916
1063 5 61.4655 15.8253 4.06916
1064 5 62.7114 17.9833 4.06916
1065 5 61.4655 20.1413 4.06916
1066 5 62.7114 22.2993 4.06916
1067 5 61.4655 24.4573 4.06916
1068 5 62.7114 26.6153 4.06916
1069 5 63.9573 2.87733 4.06916
1070 5 65.2033 5.03533 4.06916
1071 5 63.9573 7.19333 4.06916
1072 5 65.2033 9.35134 4.06916
1073 5 63.9573 11.5093 4.06916
1074 5 65.2033 13.6673 4.06916
1075 5 63.9573 15.8253 4.06916
1076 5 65.2033 17.9833 4.06916
1077 5 63.9573 20.1413 4.06916
1078 5 65.2033 22.2993 4.06916
1079 5 63.9573 24.4573 4.06916
1080 5 65.2033 26.6153 4.06916
1081 5 66.4492 2.87733 4.06916
1082 5 67.6951 5.03533 4.06916
1083 5 66.4492 7.19333 4.06916
1084 5 67.6951 9.35134 4.06916
1085 5 66.4492 11.5093 4.06916
1086 5 67.6951 13.6673 4.06916
1087 5 66.4492 15.8253 4.06916
1088 5 67.6951 17.9833 4.06916
1089 5 66.4492 20.1413 4.06916
1090 5 67.6951 22.2993 4.06916
1091 5 66.4492 24.4573 4.06916
1092 5 67.6951 26.6153 4.06916
1093 5 68.941 2.87733 4.06916
1094 5 70.1869 5.03533 4.06916
1095 5 68.941 7.19333 4.06916
1096 5 70.1869 9.35134 4.06916
1097 5 68.941 11.5093 4.06916
1098 5 70.1869 13.6673 4.06916
1099 5 68.941 15.8253 4.06916
1100 5 70.1869 17.9833 4.06916
1101 5 68.941 20.1413 4.06916
1102 5 70.1869 22.2993 4.06916
1103 5 68.941 24.4573 4.06916
1104 5 70.1869 26.6153 4.06916
1105 5 71.4329 2.87733 4.06916
1106 5 72.6788 5.03533 4.06916
1107 5 71.4329 7.19333 4.06916
1108 5 72.6788 9.35134 4.06916
1109 5 71.4329 11.5093 4.06916
1110 5 72.6788 13.6673 4.06916
1111 5 71.4329 15.8253 4.06916
1112 5 72.6788 17.9833 4.06916
1113 5 71.4329 20.1413 4.06916
1114 5 72.6788 22.2993 4.06916
1115 5 71.4329 24.4573 4.06916
1116 5 72.6788 26.6153 4.06916
1117 5 73.9247 2.87733 4.06916
1118 5 75.1706 5.03533 4.06916
1119 5 73.9247 7.19333 4.06916
1120 5 75.1706 9.35134 4.06916
1121 5 73.9247 11.5093 4.06916
1122 5 75.1706 13.6673 4.06916
1123 5 73.9247 15.8253 4.06916
1124 5 75.1706 17.9833 4.06916
1125 5 73.9247 20.1413 4.06916
1126 5 75.1706 22.2993 4.06916
1127 5 73.9247 24.4573 4.06916
1128 5 75.1706 26.6153 4.06916
1129 5 76.4166 2.87733 4.06916
1130 5 77.6625 5.03533 4.06916
1131 5 76.4166 7.19333 4.06916
1132 5 77.6625 9.35134 4.06916
1133 5 76.4166 11.5093 4.06916
1134 5 77.6625 13.6673 4.06916
1135 5 76.4166 15.8253 4.06916
1136 5 77.6625 17.9833 4.06916
1137 5 76.4166 20.1413 4.06916
1138 5 77.6625 22.2993 4.06916
1139 5 76.4166 24.4573 4.06916
1140 5 77.6625 26.6153 4.06916
1141 5 78.9084 2.87733 4.06916
1142 5 0.15432 5.03533 4.06916
1143 5 78.9084 7.19333 4.06916
1144 5 0.15432 9.35134 4.06916
1145 5 78.9084 11.5093 4.06916
1146 5 0.15432 13.6673 4.06916
1147 5 78.9084 15.8253 4.06916
1148 5 0.15432 17.9833 4.06916
1149 5 78.9084 20.1413 4.06916
1150 5 0.15432 22.2993 4.06916
1151 5 78.9084 24.4573 4.06916
1152 5 0.15432 26.6153 4.06916
1153 5 0 0 6.10375
1154 5 1.24592 2.158 6.10375
1155 5 0 4.316 6.10375
1156 5 1.24592 6.474 6.10375
1157 5 0 8.632 6.10375
1158 5 1.24592 10.79 6.10375
1159 5 0 12.948 6.10375
1160 5 1.24592 15.106 6.10375
1161 5 0 17.264 6.10375
1162 5 1.24592 19.422 6.10375
1163 5 0 21.58 6.10375
1164 5 1.24592 23.738 6.10375
1165 5 2.49184 0 6.10375
1166 5 3.73777 2.158 6.10375
1167 5 2.49184 4.316 6.10375
1168 5 3.73777 6.474 6.10375
1169 5 2.49184 8.632 6.10375
1170 5 3.73777 10.79 6.10375
1171 5 2.49184 12.948 6.10375
1172 5 3.73777 15.106 6.10375
1173 5 2.49184 17.264 6.10375
1174 5 3.73777 19.422 6.10375
1175 5 2.49184 21.58 6.10375
1176 5 3.73777 23.738 6.10375
1177 5 4.98369 0 6.10375
1178 5 6.22961 2.158 6.10375
1179 5 4.98369 4.316 6.10375
1180 5 6.22961 6.474 6.10375
1181 5 4.98369 8.632 6.10375
1182 5 6.22961 10.79 6.10375
1183 5 4.98369 12.948 6.10375
1184 5 6.22961 15.106 6.10375
1185 5 4.98369 17.264 6.10375
1186 5 6.22961 19.422 6.10375
1187 5 4.98369 21.58 6.10375
1188 5 6.22961 23.738 6.10375
1189 5 7.47553 0 6.10375
1190 5 8.72146 2.158 6.10375
1191 5 7.47553 4.316 6.10375
1192 5 8.72146 6.474 6.10375
1193 5 7.47553 8.632 6.10375
1194 5 8.72146 10.79 6.10375
1195 5 7.47553 12.948 6.10375
1196 5 8.72146 15.106 6.10375
1197 5 7.47553 17.264 6.10375
1198 5 8.72146 19.422 6.10375
1199 5 7.47553 21.58 6.10375
1200 5 8.72146 23.738 6.10375
1201 5 9.96738 0 6.10375
1202 5 11.2133 2.158 6.10375
1203 5 9.96738 4.316 6.10375
1204 5 11.2133 6.474 6.10375
1205 5 9.96738 8.632 6.10375
1206 5 11.2133 10.79 6.10375
1207 5 9.96738 12.948 6.10375
1208 5 11.2133 15.106 6.10375
1209 5 9.96738 17.264 6.10375
1210 5 11.2133 19.422 6.10375
1211 5 9.96738 21.58 6.10375
1212 5 11.2133 23.738 6.10375
1213 5 12.4592 0 6.10375
1214 5 13.7051 2.158 6.10375
1215 5 12.4592 4.316 6.10375
1216 5 13.7051 6.474 6.10375
1217 5 12.4592 8.632 6.10375
1218 5 13.7051 10.79 6.10375
1219 5 12.4592 12.948 6.10375
1220 5 13.7051 15.106 6.10375
1221 5 12.4592 17.264 6.10375
1222 5 13.7051 19.422 6.10375
1223 5 12.4592 21.58 6.10375
1224 5 13.7051 23.738 6.10375
1225 5 14.9511 0 6.10375
1226 5 16.197 2.158 6.10375
1227 5 14.9511 4.316 6.10375
1228 5 16.197 6.474 6.10375
1229 5 14.9511 8.632 6.10375
1230 5 16.197 10.79 6.10375
1231 5 14.9511 12.948 6.10375
1232 5 16.197 15.106 6.10375
1233 5 14.9511 17.264 6.10375
1234 5 16.197 19.422 6.10375
1235 5 14.9511 21.58 6.10375
1236 5 16.197 23.738 6.10375
1237 5 17.4429 0 6.10375
1238 5 18.6888 2.158 6.10375
1239 5 17.4429 4.316 6.10375
1240 5 18.6888 6.474 6.10375
1241 5 17.4429 8.632 6.10375
1242 5 18.6888 10.79 6.10375
1243 5 17.4429 12.948 6.10375
1244 5 18.6888 15.106 6.10375
1245 5 17.4429 17.264 6.10375
1246 5 18.6888 19.422 6.10375
1247 5 17.4429 21.58 6.10375
1248 5 18.6888 23.738 6.10375
1249 5 19.9348 0 6.10375
1250 5 21.1807 2.158 6.10375
1251 5 19.9348 4.316 6.10375
1252 5 21.1807 6.474 6.10375
1253 5 19.9348 8.632 6.10375
1254 5 21.1807 10.79 6.10375
1255 5 19.9348 12.948 6.10375
1256 5 21.1807 15.106 6.10375
1257 5 19.9348 17.264 6.10375
1258 5 21.1807 19.422 6.10375
1259 5 19.9348 21.58 6.10375
1260 5 21.1807 23.738 6.10375
1261 5 22.4266 0 6.10375
1262 5 23.6725 2.158 6.10375
1263 5 22.4266 4.316 6.10375
1264 5 23.6725 6.474 6.10375
1265 5 22.4266 8.632 6.10375
1266 5 23.6725 10.79 6.10375
1267 5 22.4266 12.948 6.10375
1268 5 23.6725 15.106 6.10375
1269 5 22.4266 17.264 6.10375
1270 5 23.6725 19.422 6.10375
1271 5 22.4266 21.58 6.10375
1272 5 23.6725 23.738 6.10375
1273 5 24.9184 0 6.10375
1274 5 26.1644 2.158 6.10375
1275 5 24.9184 4.316 6.10375
1276 5 26.1644 6.474 6.10375
1277 5 24.9184 8.632 6.10375
1278 5 26.1644 10.79 6.10375
1279 5 24.9184 12.948 6.10375
1280 5 26.1644 15.106 6.10375
1281 5 24.9184 17.264 6.10375
1282 5 26.1644 19.422 6.10375
1283 5 24.9184 21.58 6.10375
1284 5 26.1644 23.738 6.10375
1285 5 27.4103 0 6.10375
1286 5 28.6562 2.158 6.10375
1287 5 27.4103 4.316 6.10375
1288 5 28.6562 6.474 6.10375
1289 5 27.4103 8.632 6.10375
1290 5 28.6562 10.79 6.10375
1291 5 27.4103 12.948 6.10375
1292 5 28.6562 15.106 6.10375
1293 5 27.4103 17.264 6.10375
1294 5 28.6562 19.422 6.10375
1295 5 27.4103 21.58 6.10375
1296 5 28.6562 23.738 6.10375
1297 5 29.9021 0 6.10375
1298 5 31.1481 2.158 6.10375
1299 5 29.9021 4.316 6.10375
1300 5 31.1481 6.474 6.10375
1301 5 29.9021 8.632 6.10375
1302 5 31.1481 10.79 6.10375
1303 5 29.9021 12.948 6.10375
1304 5 31.1481 15.106 6.10375
1305 5 29.9021 17.264 6.10375
1306 5 31.1481 19.422 6.10375
1307 5 29.9021 21.58 6.10375
1308 5 31.1481 23.738 6.10375
1309 5 32.394 0 6.10375
1310 5 33.6399 2.158 6.10375
1311 5 32.394 4.316 6.10375
1312 5 33.6399 6.474 6.10375
1313 5 32.394 8.632 6.10375
1314 5 33.6399 10.79 6.10375
1315 5 32.394 12.948 6.10375
1316 5 33.6399 15.106 6.10375
1317 5 32.394 17.264 6.10375
1318 5 33.6399 19.422 6.10375
1319 5 32.394 21.58 6.10375
1320 5 33.6399 23.738 6.10375
1321 5 34.8858 0 6.10375
1322 5 36.1317 2.158 6.10375
1323 5 34.8858 4.316 6.10375
1324 5 36.1317 6.474 6.10375
1325 5 34.8858 8.632 6.10375
1326 5 36.1317 10.79 6.10375
1327 5 34.8858 12.948 6.10375
1328 5 36.1317 15.106 6.10375
1329 5 34.8858 17.264 6.10375
1330 5 36.1317 19.422 6.10375
1331 5 34.8858 21.58 6.10375
1332 5 36.1317 23.738 6.10375
1333 5 37.3777 0 6.10375
1334 5 38.6236 2.158 6.10375
1335 5 37.3777 4.316 6.10375
1336 5 38.6236 6.474 6.10375
1337 5 37.3777 8.632 6.10375
1338 5 38.6236 10.79 6.10375
1339 5 37.3777 12.948 6.10375
1340 5 38.6236 15.106 6.10375
1341 5 37.3777 17.264 6.10375
1342 5 38.6236 19.422 6.10375
1343 5 37.3777 21.58 6.10375
1344 5 38.6236 23.738 6.10375
1345 5 39.8695 0 6.10375
1346 5 41.1154 2.158 6.10375
1347 5 39.8695 4.316 6.10375
1348 5 41.1154 6.474 6.10375
1349 5 39.8695 8.632 6.10375
1350 5 41.1154 10.79 6.10375
1351 5 39.8695 12.948 6.10375
1352 5 41.1154 15.106 6.10375
1353 5 39.8695 17.264 6.10375
1354 5 41.1154 19.422 6.10375
1355 5 39.8695 21.58 6.10375
1356 5 41.1154 23.738 6.10375
1357 5 42.3614 0 6.10375
1358 5 43.6073 2.158 6.10375
1359 5 42.3614 4.316 6.10375
1360 5 43.6073 6.474 6.10375
1361 5 42.3614 8.632 6.10375
1362 5 43.6073 10.79 6.10375
1363 5 42.3614 12.948 6.10375
1364 5 43.6073 15.106 6.10375
1365 5 42.3614 17.264 6.10375
1366 5 43.6073 19.422 6.10375
1367 5 42.3614 21.58 6.10375
1368 5 43.6073 23.738 6.10375
1369 5 44.8532 0 6.10375
1370 5 46.0991 2.158 6.10375
1371 5 44.8532 4.316 6.10375
1372 5 46.0991 6.474 6.10375
1373 5 44.8532 8.632 6.10375
1374 5 46.0991 10.79 6.10375
1375 5 44.8532 12.948 6.10375
1376 5 46.0991 15.106 6.10375
1377 5 44.8532 17.264 6.10375
1378 5 46.0991 19.422 6.10375
1379 5 44.8532 21.58 6.10375
1380 5 46.0991 23.738 6.10375
1381 5 47.345 0 6.10375
1382 5 48.591 2.158 6.10375
1383 5 47.345 4.316 6.10375
1384 5 48.591 6.474 6.10375
1385 5 47.345 8.632 6.10375
1386 5 48.591 10.79 6.10375
1387 5 47.345 12.948 6.10375
1388 5 48.591 15.106 6.10375
1389 5 47.345 17.264 6.10375
1390 5 48.591 19.422 6.10375
1391 5 47.345 21.58 6.10375
1392 5 48.591 23.738 6.10375
1393 5 49.8369 0 6.10375
1394 5 51.0828 2.158 6.10375
1395 5 49.8369 4.316 6.10375
1396 5 51.0828 6.474 6.10375
1397 5 49.8369 8.632 6.10375
1398 5 51.0828 10.79 6.10375
1399 5 49.8369 12.948 6.10375
1400 5 51.0828 15.106 6.10375
1401 5 49.8369 17.264 6.10375
1402 5 51.0828 19.422 6.10375
1403 5 49.8369 21.58 6.10375
1404 5 51.0828 23.738 6.10375
1405 5 52.3287 0 6.10375
1406 5 53.5746 2.158 6.10375
1407 5 52.3287 4.316 6.10375
1408 5 53.5746 6.474 6.10375
1409 5 52.3287 8.632 6.10375
1410 5 53.5746 10.79 6.10375
1411 5 52.3287 12.948 6.10375
1412 5 53.5746 15.106 6.10375
1413 5 52.3287 17.264 6.10375
1414 5 53.5746 19.422 6.10375
1415 5 52.3287 21.58 6.10375
1416 5 53.5746 23.738 6.10375
1417 5 54.8206 0 6.10375
1418 5 56.0665 2.158 6.10375
1419 5 54.8206 4.316 6.10375
1420 5 56.0665 6.474 6.10375
1421 5 54.8206 8.632 6.10375
1422 5 56.0665 10.79 6.10375
1423 5 54.8206 12.948 6.10375
1424 5 56.0665 15.106 6.10375
1425 5 54.8206 17.264 6.10375
1426 5 56.0665 19.422 6.10375
1427 5 54.8206 21.58 6.10375
1428 5 56.0665 23.738 6.10375
1429 5 57.3124 0 6.10375
1430 5 58.5583 2.158 6.10375
1431 5 57.3124 4.316 6.10375
1432 5 58.5583 6.474 6.10375
1433 5 57.3124 8.632 6.10375
1434 5 58.5583 10.79 6.10375
1435 5 57.3124 12.948 6.10375
1436 5 58.5583 15.106 6.10375
1437 5 57.3124 17.264 6.10375
1438 5 58.5583 19.422 6.10375
1439 5 57.3124 21.58 6.10375
1440 5 58.5583 23.738 6.10375
1441 5 59.8043 0 6.10375
1442 5 61.0502 2.158 6.10375
1443 5 59.8043 4.316 6.10375
1444 5 61.0502 6.474 6.10375
1445 5 59.8043 8.632 6.10375
1446 5 61.0502 10.79 6.10375
1447 5 59.8043 12.948 6.10375
1448 5 61.0502 15.106 6.10375
1449 5 59.8043 17.264 6.10375
1450 5 61.0502 19.422 6.10375
1451 5 59.8043 21.58 6.10375
1452 5 61.0502 23.738 6.10375
1453 5 62.2961 0 6.10375
1454 5 63.542 2.158 6.10375
1455 5 62.2961 4.316 6.10375
1456 5 63.542 6.474 6.10375
1457 5 62.2961 8.632 6.10375
1458 5 63.542 10.79 6.10375
1459 5 62.2961 12.948 6.10375
1460 5 63.542 15.106 6.10375
1461 5 62.2961 17.264 6.10375
1462 5 63.542 19.422 6.10375
1463 5 62.2961 21.58 6.10375
1464 5 63.542 23.738 6.10375
1465 5 64.7879 0 6.10375
1466 5 66.0339 2.158 6.10375
1467 5 64.7879 4.316 6.10375
1468 5 66.0339 6.474 6.10375
1469 5 64.7879 8.632 6.10375
1470 5 66.0339 10.79 6.10375
1471 5 64.7879 12.948 6.10375
1472 5 66.0339 15.106 6.10375
1473 5 64.7879 17.264 6.10375
1474 5 66.0339 19.422 6.10375
1475 5 64.7879 21.58 6.10375
1476 5 66.0339 23.738 6.10375
1477 5 67.2798 0 6.10375
1478 5 68.5257 2.158 6.10375
1479 5 67.2798 4.316 6.10375
1480 5 68.5257 6.474 6.10375
1481 5 67.2798 8.632 6.10375
1482 5 68.5257 10.79 6.10375
1483 5 67.2798 12.948 6.10375
1484 5 68.5257 15.106 6.10375
1485 5 67.2798 17.264 6.10375
1486 5 68.5257 19.422 6.10375
1487 5 67.2798 21.58 6.10375
1488 5 68.5257 23.738 6.10375
1489 5 69.7716 0 6.10375
1490 5 71.0176 2.158 6.10375
1491 5 69.7716 4.316 6.10375
1492 5 71.0176 6.474 6.10375
1493 5 69.7716 8.632 6.10375
1494 5 71.0176 10.79 6.10375
1495 5 69.7716 12.948 6.10375
1496 5 71.0176 15.106 6.10375
1497 5 69.7716 17.264 6.10375
1498 5 71.0176 19.422 6.10375
1499 5 69.7716 21.58 6.10375
1500 5 71.0176 23.738 6.10375
1501 5 72.2635 0 6.10375
1502 5 73.5094 2.158 6.10375
1503 5 72.2635 4.316 6.10375
1504 5 73.5094 6.474 6.10375
1505 5 72.2635 8.632 6.10375
1506 5 73.5094 10.79 6.10375
1507 5 72.2635 12.948 6.10375
1508 5 73.5094 15.106 6.10375
1509 5 72.2635 17.264 6.10375
1510 5 73.5094 19.422 6.10375
1511 5 72.2635 21.58 6.10375
1512 5 73.5094 23.738 6.10375
1513 5 74.7553 0 6.10375
1514 5 76.0012 2.158 6.10375
1515 5 74.7553 4.316 6.10375
1516 5 76.0012 6.474 6.10375
1517 5 74.7553 8.632 6.10375
1518 5 76.0012 10.79 6.10375
1519 5 74.7553 12.948 6.10375
1520 5 76.0012 15.106 6.10375
1521 5 74.7553 17.264 6.10375
1522 5 76.0012 19.422 6.10375
1523 5 74.7553 21.58 6.10375
1524 5 76.0012 23.738 6.10375
1525 5 77.2472 0 6.10375
1526 5 78.4931 2.158 6.10375
1527 5 77.2472 4.316 6.10375
1528 5 78.4931 6.474 6.10375
1529 5 77.2472 8.632 6.10375
1530 5 78.4931 10.79 6.10375
1531 5 77.2472 12.948 6.10375
1532 5 78.4931 15.106 6.10375
1533 5 77.2472 17.264 6.10375
1534 5 78.4931 19.422 6.10375
1535 5 77.2472 21.58 6.10375
1536 5 78.4931 23.738 6.10375
1537 5 0.83061 1.43867 8.13833
1538 5 2.07654 3.59667 8.13833
1539 5 0.83061 5.75467 8.13833
1540 5 2.07654 7.91267 8.13833
1541 5 0.83061 10.0707 8.13833
1542 5 2.07654 12.2287 8.13833
1543 5 0.83061 14.3867 8.13833
1544 5 2.07654 16.5447 8.13833
1545 5 0.83061 18.7027 8.13833
1546 5 2.07654 20.8607 8.13833
1547 5 0.83061 23.0187 8.13833
1548 5 2.07654 25.1767 8.13833
1549 5 3.32246 1.43867 8.13833
1550 5 4.56838 3.59667 8.13833
1551 5 3.32246 5.75467 8.13833
1552 5 4.56838 7.91267 8.13833
1553 5 3.32246 10.0707 8.13833
1554 5 4.56838 12.2287 8.13833
1555 5 3.32246 14.3867 8.13833
1556 5 4.56838 16.5447 8.13833
1557 5 3.32246 18.7027 8.13833
1558 5 4.56838 20.8607 8.13833
1559 5 3.32246 23.0187 8.13833
1560 5 4.56838 25.1767 8.13833
1561 5 5.8143 1.43867 8.13833
1562 5 7.06023 3.59667 8.13833
1563 5 5.8143 5.75467 8.13833
1564 5 7.06023 7.91267 8.13833
1565 5 5.8143 10.0707 8.13833
1566 5 7.06023 12.2287 8.13833
1567 5 5.8143 14.3867 8.13833
1568 5 7.06023 16.5447 8.13833
1569 5 5.8143 18.7027 8.13833
1570 5 7.06023 20.8607 8.13833
1571 5 5.8143 23.0187 8.13833
1572 5 7.06023 25.1767 8.13833
1573 5 8.30615 1.43867 8.13833
1574 5 9.55207 3.59667 8.13833
1575 5 8.30615 5.75467 8.13833
1576 5 9.55207 7.91267 8.13833
1577 5 8.30615 10.0707 8.13833
1578 5 9.55207 12.2287 8.13833
1579 5 8.30615 14.3867 8.13833
1580 5 9.55207 16.5447 8.13833
1581 5 8.30615 18.7027 8.13833
1582 5 9.55207 20.8607 8.13833
1583 5 8.30615 23.0187 8.13833
1584 5 9.55207 25.1767 8.13833
1585 5 10.798 1.43867 8.13833
1586 5 12.0439 3.59667 8.13833
1587 5 10.798 5.75467 8.13833
1588 5 12.0439 7.91267 8.13833
1589 5 10.798 10.0707 8.13833
1590 5 12.0439 12.2287 8.13833
1591 5 10.798 14.3867 8.13833
1592 5 12.0439 16.5447 8.13833
1593 5 10.798 18.7027 8.13833
1594 5 12.0439 20.8607 8.13833
1595 5 10.798 23.0187 8.13833
1596 5 12.0439 25.1767 8.13833
1597 5 13.2898 1.43867 8.13833
1598 5 14.5358 3.59667 8.13833
1599 5 13.2898 5.75467 8.13833
1600 5 14.5358 7.91267 8.13833
1601 5 13.2898 10.0707 8.13833
1602 5 14.5358 12.2287 8.13833
1603 5 13.2898 14.3867 8.13833
1604 5 14.5358 16.5447 8.13833
1605 5 13.2898 18.7027 8.13833
1606 5 14.5358 20.8607 8.13833
1607 5 13.2898 23.0187 8.13833
1608 5 14.5358 25.1767 8.13833
1609 5 15.7817 1.43867 8.13833
1610 5 17.0276 3.59667 8.13833
1611 5 15.7817 5.75467 8.13833
1612 5 17.0276 7.91267 8.13833
1613 5 15.7817 10.0707 8.13833
1614 5 17.0276 12.2287 8.13833
1615 5 15.7817 14.3867 8.13833
1616 5 17.0276 16.5447 8.13833
1617 5 15.7817 18.7027 8.13833
1618 5 17.0276 20.8607 8.13833
1619 5 15.7817 23.0187 8.13833
1620 5 17.0276 25.1767 8.13833
1621 5 18.2735 1.43867 8.13833
1622 5 19.5194 3.59667 8.13833
1623 5 18.2735 5.75467 8.13833
1624 5 19.5194 7.91267 8.13833
1625 5 18.2735 10.0707 8.13833
1626 5 19.5194 12.2287 8.13833
1627 5 18.2735 14.3867 8.13833
1628 5 19.5194 16.5447 8.13833
1629 5 18.2735 18.7027 8.13833
1630 5 19.5194 20.8607 8.13833
1631 5 18.2735 23.0187 8.13833
1632 5 19.5194 25.1767 8.13833
1633 5 20.7654 1.43867 8.13833
1634 5 22.0113 3.59667 8.13833
1635 5 20.7654 5.75467 8.13833
1636 5 22.0113 7.91267 8.13833
1637 5 20.7654 10.0707 8.13833
1638 5 22.0113 12.2287 8.13833
1639 5 20.7654 14.3867 8.13833
1640 5 22.0113 16.5447 8.13833
1641 5 20.7654 18.7027 8.13833
1642 5 22.0113 20.8607 8.13833
1643 5 20.7654 23.0187 8.13833
1644 5 22.0113 25.1767 8.13833
1645 5 23.2572 1.43867 8.13833
1646 5 24.5031 3.59667 8.13833
1647 5 23.2572 5.75467 8.13833
1648 5 24.5031 7.91267 8.13833
1649 5 23.2572 10.0707 8.13833
1650 5 24.5031 12.2287 8.13833
1651 5 23.2572 14.3867 8.13833
1652 5 24.5031 16.5447 8.13833
1653 5 23.2572 18.7027 8.13833
1654 5 24.5031 20.8607 8.13833
1655 5 23.2572 23.0187 8.13833
1656 5 24.5031 25.1767 8.13833
1657 5 25.7491 1.43867 8.13833
1658 5 26.995 3.59667 8.13833
1659 5 25.7491 5.75467 8.13833
1660 5 26.995 7.91267 8.13833
1661 5 25.7491 10.0707 8.13833
1662 5 26.995 12.2287 8.13833
1663 5 25.7491 14.3867 8.13833
1664 5 26.995 16.5447 8.13833
1665 5 25.7491 18.7027 8.13833
1666 5 26.995 20.8607 8.13833
1667 5 25.7491 23.0187 8.13833
1668 5 26.995 25.1767 8.13833
1669 5 28.2409 1.43867 8.13833
1670 5 29.4868 3.59667 8.13833
1671 5 28.2409 5.75467 8.13833
1672 5 29.4868 7.91267 8.13833
1673 5 28.2409 10.0707 8.13833
1674 5 29.4868 12.2287 8.13833
1675 5 28.2409 14.3867 8.13833
1676 5 29.4868 16.5447 8.13833
1677 5 28.2409 18.7027 8.13833
1678 5 29.4868 20.8607 8.13833
1679 5 28.2409 23.0187 8.13833
1680 5 29.4868 25.1767 8.13833
1681 5 30.7327 1.43867 8.13833
1682 5 31.9787 3.59667 8.13833
1683 5 30.7327 5.75467 8.13833
1684 5 31.9787 7.91267 8.13833
1685 5 30.7327 10.0707 8.13833
1686 5 31.9787 12.2287 8.13833
1687 5 30.7327 14.3867 8.13833
1688 5 31.9787 16.5447 8.13833
1689 5 30.7327 18.7027 8.13833
1690 5 31.9787 20.8607 8.13833
1691 5 30.7327 23.0187 8.13833
1692 5 31.9787 25.1767 8.13833
1693 5 33.2246 1.43867 8.13833
1694 5 34.4705 3.59667 8.13833
1695 5 33.2246 5.75467 8.13833
1696 5 34.4705 7.91267 8.13833
1697 5 33.2246 10.0707 8.13833
1698 5 34.4705 12.2287 8.13833
1699 5 33.2246 14.3867 8.13833
1700 5 34.4705 16.5447 8.13833
1701 5 33.2246 18.7027 8.13833
1702 5 34.4705 20.8607 8.13833
1703 5 33.2246 23.0187 8.13833
1704 5 34.4705 25.1767 8.13833
1705 5 35.7164 1.43867 8.13833
1706 5 36.9624 3.59667 8.13833
1707 5 35.7164 5.75467 8.13833
1708 5 36.9624 7.91267 8.13833
1709 5 35.7164 10.0707 8.13833
1710 5 36.9624 12.2287 8.13833
1711 5 35.7164 14.3867 8.13833
1712 5 36.9624 16.5447 8.13833
1713 5 35.7164 18.7027 8.13833
1714 5 36.9624 20.8607 8.13833
1715 5 35.7164 23.0187 8.13833
1716 5 36.9624 25.1767 8.13833
1717 5 38.2083 1.43867 8.13833
1718 5 39.4542 3.59667 8.13833
1719 5 38.2083 5.75467 8.13833
1720 5 39.4542 7.91267 8.13833
1721 5 38.2083 10.0707 8.13833
1722 5 39.4542 12.2287 8.13833
1723 5 38.2083 14.3867 8.13833
1724 5 39.4542 16.5447 8.13833
1725 5 38.2083 18.7027 8.13833
1726 5 39.4542 20.8607 8.13833
1727 5 38.2083 23.0187 8.13833
1728 5 39.4542 25.1767 8.13833
1729 5 40.7001 1.43867 8.13833
1730 5 41.946 3.59667 8.13833
1731 5 40.7001 5.75467 8.13833
1732 5 41.946 7.91267 8.13833
1733 5 40.7001 10.0707 8.13833
1734 5 41.946 12.2287 8.13833
1735 5 40.7001 14.3867 8.13833
1736 5 41.946 16.5447 8.13833
1737 5 40.7001 18.7027 8.13833
1738 5 41.946 20.8607 8.13833
1739 5 40.7001 23.0187 8.13833
1740 5 41.946 25.1767 8.13833
1741 5 43.192 1.43867 8.13833
1742 5 44.4379 3.59667 8.13833
1743 5 43.192 5.75467 8.13833
1744 5 44.4379 7.91267 8.13833
1745 5 43.192 10.0707 8.13833
1746 5 44.4379 12.2287 8.13833
1747 5 43.192 14.3867 8.13833
1748 5 44.4379 16.5447 8.13833
1749 5 43.192 18.7027 8.13833
1750 5 44.4379 20.8607 8.13833
1751 5 43.192 23.0187 8.13833
1752 5 44.4379 25.1767 8.13833
1753 5 45.6838 1.43867 8.13833
1754 5 46.9297 3.59667 8.13833
1755 5 45.6838 5.75467 8.13833
1756 5 46.9297 7.91267 8.13833
1757 5 45.6838 10.0707 8.13833
1758 5 46.9297 12.2287 8.13833
1759 5 45.6838 14.3867 8.13833
1760 5 46.9297 16.5447 8.13833
1761 5 45.6838 18.7027 8.13833
1762 5 46.9297 20.8607 8.13833
1763 5 45.6838 23.0187 8.13833
1764 5 46.9297 25.1767 8.13833
1765 5 48.1757 1.43867 8.13833
1766 5 49.4216 3.59667 8.13833
1767 5 48.1757 5.75467 8.13833
1768 5 49.4216 7.91267 8.13833
1769 5 48.1757 10.0707 8.13833
1770 5 49.4216 12.2287 8.13833
1771 5 48.1757 14.3867 8.13833
1772 5 49.4216 16.5447 8.13833
1773 5 48.1757 18.7027 8.13833
1774 5 49.4216 20.8607 8.13833
1775 5 48.1757 23.0187 8.13833
1776 5 49.4216 25.1767 8.13833
1777 5 50.6675 1.43867 8.13833
1778 5 51.9134 3.59667 8.13833
1779 5 50.6675 5.75467 8.13833
1780 5 51.9134 7.91267 8.13833
1781 5 50.6675 10.0707 8.13833
1782 5 51.9134 12.2287 8.13833
1783 5 50.6675 14.3867 8.13833
1784 5 51.9134 16.5447 8.13833
1785 5 50.6675 18.7027 8.13833
1786 5 51.9134 20.8607 8.13833
1787 5 50.6675 23.0187 8.13833
1788 5 51.9134 25.1767 8.13833
1789 5 53.1594 1.43867 8.13833
1790 5 54.4053 3.59667 8.13833
1791 5 53.1594 5.75467 8.13833
1792 5 54.4053 7.91267 8.13833
1793 5 53.1594 10.0707 8.13833
1794 5 54.4053 12.2287 8.13833
1795 5 53.1594 14.3867 8.13833
1796 5 54.4053 16.5447 8.13833
1797 5 53.1594 18.7027 8.13833
1798 5 54.4053 20.8607 8.13833
1799 5 53.1594 23.0187 8.13833
1800 5 54.4053 25.1767 8.13833
1801 5 55.6512 1.43867 8.13833
1802 5 56.8971 3.59667 8.13833
1803 5 55.6512 5.75467 8.13833
1804 5 56.8971 7.91267 8.13833
1805 5 55.6512 10.0707 8.13833
1806 5 56.8971 12.2287 8.13833
1807 5 55.6512 14.3867 8.13833
1808 5 56.8971 16.5447 8.13833
1809 5 55.6512 18.7027 8.13833
1810 5 56.8971 20.8607 8.13833
1811 5 55.6512 23.0187 8.13833
1812 5 56.8971 25.1767 8.13833
1813 5 58.143 1.43867 8.13833
1814 5 59.389 3.59667 8.13833
1815 5 58.143 5.75467 8.13833
1816 5 59.389 7.91267 8.13833
1817 5 58.143 10.0707 8.13833
1818 5 59.389 12.2287 8.13833
1819 5 58.143 14.3867 8.13833
1820 5 59.389 16.5447 8.13833
1821 5 58.143 18.7027 8.13833
1822 5 59.389 20.8607 8.13833
1823 5 58.143 23.0187 8.13833
1824 5 59.389 25.1767 8.13833
1825 5 60.6349 1.43867 8.13833
1826 5 61.8808 3.59667 8.13833
1827 5 60.6349 5.75467 8.13833
1828 5 61.8808 7.91267 8.13833
1829 5 60.6349 10.0707 8.13833
1830 5 61.8808 12.2287 8.13833
1831 5 60.6349 14.3867 8.13833
1832 5 61.8808 16.5447 8.13833
1833 5 60.6349 18.7027 8.13833
1834 5 61.8808 20.8607 8.13833
1835 5 60.6349 23.0187 8.13833
1836 5 61.8808 25.1767 8.13833
1837 5 63.1267 1.43867 8.13833
1838 5 64.3726 3.59667 8.13833
1839 5 63.1267 5.75467 8.13833
1840 5 64.3726 7.91267 8.13833
1841 5 63.1267 10.0707 8.13833
1842 5 64.3726 12.2287 8.13833
1843 5 63.1267 14.3867 8.13833
1844 5 64.3726 16.5447 8.13833
1845 5 63.1267 18.7027 8.13833
1846 5 64.3726 20.8607 8.13833
1847 5 63.1267 23.0187 8.13833
1848 5 64.3726 25.1767 8.13833
1849 5 65.6186 1.43867 8.13833
1850 5 66.8645 3.59667 8.13833
1851 5 65.6186 5.75467 8.13833
1852 5 66.8645 7.91267 8.13833
1853 5 65.6186 10.0707 8.13833
1854 5 66.8645 12.2287 8.13833
1855 5 65.6186 14.3867 8.13833
1856 5 66.8645 16.5447 8.13833
1857 5 65.6186 18.7027 8.13833
1858 5 66.8645 20.8607 8.13833
1859 5 65.6186 23.0187 8.13833
1860 5 66.8645 25.1767 8.13833
1861 5 68.1104 1.43867 8.13833
1862 5 69.3563 3.59667 8.13833
1863 5 68.1104 5.75467 8.13833
1864 5 69.3563 7.91267 8.13833
1865 5 68.1104 10.0707 8.13833
1866 5 69.3563 12.2287 8.13833
1867 5 68.1104 14.3867 8.13833
1868 5 69.3563 16.5447 8.13833
1869 5 68.1104 18.7027 8.13833
1870 5 69.3563 20.8607 8.13833
1871 5 68.1104 23.0187 8.13833
1872 5 69.3563 25.1767 8.13833
1873 5 70.6023 1.43867 8.13833
1874 5 71.8482 3.59667 8.13833
1875 5 70.6023 5.75467 8.13833
1876 5 71.8482 7.91267 8.13833
1877 5 70.6023 10.0707 8.13833
1878 5 71.8482 12.2287 8.13833
1879 5 70.6023 14.3867 8.13833
1880 5 71.8482 16.5447 8.13833
1881 5 70.6023 18.7027 8.13833
1882 5 71.8482 20.8607 8.13833
1883 5 70.6023 23.0187 8.13833
1884 5 71.8482 25.1767 8.13833
1885 5 73.0941 1.43867 8.13833
1886 5 74.34 3.59667 8.13833
1887 5 73.0941 5.75467 8.13833
1888 5 74.34 7.91267 8.13833
1889 5 73.0941 10.0707 8.13833
1890 5 74.34 12.2287 8.13833
1891 5 73.0941 14.3867 8.13833
1892 5 74.34 16.5447 8.13833
1893 5 73.0941 18.7027 8.13833
1894 5 74.34 20.8607 8.13833
1895 5 73.0941 23.0187 8.13833
1896 5 74.34 25.1767 8.13833
1897 5 75.5859 1.43867 8.13833
1898 5 76.8319 3.59667 8.13833
1899 5 75.5859 5.75467 8.13833
1900 5 76.8319 7.91267 8.13833
1901 5 75.5859 10.0707 8.13833
1902 5 76.8319 12.2287 8.13833
1903 5 75.5859 14.3867 8.13833
1904 5 76.8319 16.5447 8.13833
1905 5 75.5859 18.7027 8.13833
1906 5 76.8319 20.8607 8.13833
1907 5 75.5859 23.0187 8.13833
1908 5 76.8319 25.1767 8.13833
1909 5 78.0778 1.43867 8.13833
1910 5 79.3237 3.59667 8.13833
1911 5 78.0778 5.75467 8.13833
1912 5 79.3237 7.91267 8.13833
1913 5 78.0778 10.0707 8.13833
1914 5 79.3237 12.2287 8.13833
1915 5 78.0778 14.3867 8.13833
1916 5 79.3237 16.5447 8.13833
1917 5 78.0778 18.7027 8.13833
1918 5 79.3237 20.8607 8.13833
1919 5 78.0778 23.0187 8.13833
1920 5 79.3237 25.1767 8.13833
1921 6 0 0 93.3383
1922 6 1.24592 2.158 93.3383
1923 6 0 4.316 93.3383
1924 6 1.24592 6.474 93.3383
1925 6 0 8.632 93.3383
1926 6 1.24592 10.79 93.3383
1927 6 0 12.948 93.3383
1928 6 1.24592 15.106 93.3383
1929 6 0 17.264 93.3383
1930 6 1.24592 19.422 93.3383
1931 6 0 21.58 93.3383
1932 6 1.24592 23.738 93.3383
1933 6 2.49184 0 93.3383
1934 6 3.73777 2.158 93.3383
1935 6 2.49184 4.316 93.3383
1936 6 3.73777 6.474 93.3383
1937 6 2.49184 8.632 93.3383
1938 6 3.73777 10.79 93.3383
1939 6 2.49184 12.948 93.3383
1940 6 3.73777 15.106 93.3383
1941 6 2.49184 17.264 93.3383
1942 6 3.73777 19.422 93.3383
1943 6 2.49184 21.58 93.3383
1944 6 3.73777 23.738 93.3383
1945 6 4.98369 0 93.3383
1946 6 6.22961 2.158 93.3383
1947 6 4.98369 4.316 93.3383
1948 6 6.22961 6.474 93.3383
1949 6 4.98369 8.632 93.3383
1950 6 6.22961 10.79 93.3383
1951 6 4.98369 12.948 93.3383
1952 6 6.22961 15.106 93.3383
1953 6 4.98369 17.264 93.3383
1954 6 6.22961 19.422 93.3383
1955 6 4.98369 21.58 93.3383
1956 6 6.22961 23.738 93.3383
1957 6 7.47553 0 93.3383
1958 6 8.72146 2.158 93.3383
1959 6 7.47553 4.316 93.3383
1960 6 8.72146 6.474 93.3383
1961 6 7.47553 8.632 93.3383
1962 6 8.72146 10.79 93.3383
1963 6 7.47553 12.948 93.3383
1964 6 8.72146 15.106 93.3383
1965 6 7.47553 17.264 93.3383
1966 6 8.72146 19.422 93.3383
1967 6 7.47553 21.58 93.3383
1968 6 8.72146 23.738 93.3383
1969 6 9.96738 0 93.3383
1970 6 11.2133 2.158 93.3383
1971 6 9.96738 4.316 93.3383
1972 6 11.2133 6.474 93.3383
1973 6 9.96738 8.632 93.3383
1974 6 11.2133 10.79 93.3383
1975 6 9.96738 12.948 93.3383
1976 6 11.2133 15.106 93.3383
1977 6 9.96738 17.264 93.3383
1978 6 11.2133 19.422 93.3383
1979 6 9.96738 21.58 93.3383
1980 6 11.2133 23.738 93.3383
1981 6 12.4592 0 93.3383
1982 6 13.7051 2.158 93.3383
1983 6 12.4592 4.316 93.3383
1984 6 13.7051 6.474 93.3383
1985 6 12.4592 8.632 93.3383
1986 6 13.7051 10.79 93.3383
1987 6 12.4592 12.948 93.3383
1988 6 13.7051 15.106 93.3383
1989 6 12.4592 17.264 93.3383
1990 6 13.7051 19.422 93.3383
1991 6 12.4592 21.58 93.3383
1992 6 13.7051 23.738 93.3383
1993 6 14.9511 0 93.3383
1994 6 16.197 2.158 93.3383
1995 6 14.9511 4.316 93.3383
1996 6 16.197 6.474 93.3383
1997 6 14.9511 8.632 93.3383
1998 6 16.197 10.79 93.3383
1999 6 14.9511 12.948 93.3383
2000 6 16.197 15.106 93.3383
2001 6 14.9511 17.264 93.3383
2002 6 16.197 19.422 93.3383
2003 6 14.9511 21.58 93.3383
2004 6 16.197 23.738 93.3383
2005 6 17.4429 0 93.3383
2006 6 18.6888 2.158 93.3383
2007 6 17.4429 4.316 93.3383
2008 6 18.6888 6.474 93.3383
2009 6 17.4429 8.632 93.3383
2010 6 18.6888 10.79 93.3383
2011 6 17.4429 12.948 93.3383
2012 6 18.6888 15.106 93.3383
2013 6 17.4429 17.264 93.3383
2014 6 18.6888 19.422 93.3383
2015 6 17.4429 21.58 93.3383
2016 6 18.6888 23.738 93.3383
2017 6 19.9348 0 93.3383
2018 6 21.1807 2.158 93.3383
2019 6 19.9348 4.316 93.3383
2020 6 21.1807 6.474 93.3383
2021 6 19.9348 8.632 93.3383
2022 6 21.1807 10.79 93.3383
2023 6 19.9348 12.948 93.3383
2024 6 21.1807 15.106 93.3383
2025 6 19.9348 17.264 93.3383
2026 6 21.1807 19.422 93.3383
2027 6 19.9348 21.58 93.3383
2028 6 21.1807 23.738 93.3383
2029 6 22.4266 0 93.3383
2030 6 23.6725 2.158 93.3383
2031 6 22.4266 4.316 93.3383
2032 6 23.6725 6.474 93.3383
2033 6 22.4266 8.632 93.3383
2034 6 23.6725 10.79 93.3383
2035 6 22.4266 12.948 93.3383
2036 6 23.6725 15.106 93.3383
2037 6 22.4266 17.264 93.3383
2038 6 23.6725 19.422 93.3383
2039 6 22.4266 21.58 93.3383
2040 6 23.6725 23.738 93.3383
2041 6 24.9184 0 93.3383
2042 6 26.1644 2.158 93.3383
2043 6 24.9184 4.316 93.3383
2044 6 26.1644 6.474 93.3383
2045 6 24.9184 8.632 93.3383
2046 6 26.1644 10.79 93.3383
2047 6 24.9184 12.948 93.3383
2048 6 26.1644 15.106 93.3383
2049 6 24.9184 17.264 93.3383
2050 6 26.1644 19.422 93.3383
2051 6 24.9184 21.58 93.3383
2052 6 26.1644 23.738 93.3383
2053 6 27.4103 0 93.3383
2054 6 28.6562 2.158 93.3383
2055 6 27.4103 4.316 93.3383
2056 6 28.6562 6.474 93.3383
2057 6 27.4103 8.632 93.3383
2058 6 28.6562 10.79 93.3383
2059 6 27.4103 12.948 93.3383
2060 6 28.6562 15.106 93.3383
2061 6 27.4103 17.264 93.3383
2062 6 28.6562 19.422 93.3383
2063 6 27.4103 21.58 93.3383
2064 6 28.6562 23.738 93.3383
2065 6 29.9021 0 93.3383
2066 6 31.1481 2.158 93.3383
2067 6 29.9021 4.316 93.3383
2068 6 31.1481 6.474 93.3383
2069 6 29.9021 8.632 93.3383
2070 6 31.1481 10.79 93.3383
2071 6 29.9021 12.948 93.3383
2072 6 31.1481 15.106 93.3383
2073 6 29.9021 17.264 93.3383
2074 6 31.1481 19.422 93.3383
2075 6 29.9021 21.58 93.3383
2076 6 31.1481 23.738 93.3383
2077 6 32.394 0 93.3383
2078 6 33.6399 2.158 93.3383
2079 6 32.394 4.316 93.3383
2080 6 33.6399 6.474 93.3383
2081 6 32.394 8.632 93.3383
2082 6 33.6399 10.79 93.3383
2083 6 32.394 12.948 93.3383
2084 6 33.6399 15.106 93.3383
2085 6 32.394 17.264 93.3383
2086 6 33.6399 19.422 93.3383
2087 6 32.394 21.58 93.3383
2088 6 33.6399 23.738 93.3383
2089 6 34.8858 0 93.3383
2090 6 36.1317 2.158 93.3383
2091 6 34.8858 4.316 93.3383
2092 6 36.1317 6.474 93.3383
2093 6 34.8858 8.632 93.3383
2094 6 36.1317 10.79 93.3383
2095 6 34.8858 12.948 93.3383
2096 6 36.1317 15.106 93.3383
2097 6 34.8858 17.264 93.3383
2098 6 36.1317 19.422 93.3383
2099 6 34.8858 21.58 93.3383
2100 6 36.1317 23.738 93.3383
2101 6 37.3777 0 93.3383
2102 6 38.6236 2.158 93.3383
2103 6 37.3777 4.316 93.3383
2104 6 38.6236 6.474 93.3383
2105 6 37.3777 8.632 93.3383
2106 6 38.6236 10.79 93.3383
2107 6 37.3777 12.948 93.3383
2108 6 38.6236 15.106 93.3383
2109 6 37.3777 17.264 93.3383
2110 6 38.6236 19.422 93.3383
2111 6 37.3777 21.58 93.3383
2112 6 38.6236 23.738 93.3383
2113 6 39.8695 0 93.3383
2114 6 41.1154 2.158 93.3383
2115 6 39.8695 4.316 93.3383
2116 6 41.1154 6.474 93.3383
2117 6 39.8695 8.632 93.3383
2118 6 41.1154 10.79 93.3383
2119 6 39.8695 12.948 93.3383
2120 6 41.1154 15.106 93.3383
2121 6 39.8695 17.264 93.3383
2122 6 41.1154 19.422 93.3383
2123 6 39.8695 21.58 93.3383
2124 6 41.1154 23.738 93.3383
2125 6 42.3614 0 93.3383
2126 6 43.6073 2.158 93.3383
2127 6 42.3614 4.316 93.3383
2128 6 43.6073 6.474 93.3383
2129 6 42.3614 8.632 93.3383
2130 6 43.6073 10.79 93.3383
2131 6 42.3614 12.948 93.3383
2132 6 43.6073 15.106 93.3383
2133 6 42.3614 17.264 93.3383
2134 6 43.6073 19.422 93.3383
2135 6 42.3614 21.58 93.3383
2136 6 43.6073 23.738 93.3383
2137 6 44.8532 0 93.3383
2138 6 46.0991 2.158 93.3383
2139 6 44.8532 4.316 93.3383
2140 6 46.0991 6.474 93.3383
2141 6 44.8532 8.632 93.3383
2142 6 46.0991 10.79 93.3383
2143 6 44.8532 12.948 93.3383
2144 6 46.0991 15.106 93.3383
2145 6 44.8532 17.264 93.3383
2146 6 46.0991 19.422 93.3383
2147 6 44.8532 21.58 93.3383
2148 6 46.0991 23.738 93.3383
2149 6 47.345 0 93.3383
2150 6 48.591 2.158 93.3383
2151 6 47.345 4.316 93.3383
2152 6 48.591 6.474 93.3383
2153 6 47.345 8.632 93.3383
2154 6 48.591 10.79 93.3383
2155 6 47.345 12.948 93.3383
2156 6 48.591 15.106 93.3383
2157 6 47.345 17.264 93.3383
2158 6 48.591 19.422 93.3383
2159 6 47.345 21.58 93.3383
2160 6 48.591 23.738 93.3383
2161 6 49.8369 0 93.3383
2162 6 51.0828 2.158 93.3383
2163 6 49.8369 4.316 93.3383
2164 6 51.0828 6.474 93.3383
2165 6 49.8369 8.632 93.3383
2166 6 51.0828 10.79 93.3383
2167 6 49.8369 12.948 93.3383
2168 6 51.0828 15.106 93.3383
2169 6 49.8369 17.264 93.3383
2170 6 51.0828 19.422 93.3383
2171 6 49.8369 21.58 93.3383
2172 6 51.0828 23.738 93.3383
2173 6 52.3287 0 93.3383
2174 6 53.5746 2.158 93.3383
2175 6 52.3287 4.316 93.3383
2176 6 53.5746 6.474 93.3383
2177 6 52.3287 8.632 93.3383
2178 6 53.5746 10.79 93.3383
2179 6 52.3287 12.948 93.3383
2180 6 53.5746 15.106 93.3383
2181 6 52.3287 17.264 93.3383
2182 6 53.5746 19.422 93.3383
2183 6 52.3287 21.58 93.3383
2184 6 53.5746 23.738 93.3383
2185 6 54.8206 0 93.3383
2186 6 56.0665 2.158 93.3383
2187 6 54.8206 4.316 93.3383
2188 6 56.0665 6.474 93.3383
2189 6 54.8206 8.632 93.3383
2190 6 56.0665 10.79 93.3383
2191 6 54.8206 12.948 93.3383
2192 6 56.0665 15.106 93.3383
2193 6 54.8206 17.264 93.3383
2194 6 56.0665 19.422 93.3383
2195 6 54.8206 21.58 93.3383
2196 6 56.0665 23.738 93.3383
2197 6 57.3124 0 93.3383
2198 6 58.5583 2.158 93.3383
2199 6 57.3124 4.316 93.3383
2200 6 58.5583 6.474 93.3383
2201 6 57.3124 8.632 93.3383
2202 6 58.5583 10.79 93.3383
2203 6 57.3124 12.948 93.3383
2204 6 58.5583 15.106 93.3383
2205 6 57.3124 17.264 93.3383
2206 6 58.5583 19.422 93.3383
2207 6 57.3124 21.58 93.3383
2208 6 58.5583 23.738 93.3383
2209 6 59.8043 0 93.3383
2210 6 61.0502 2.158 93.3383
2211 6 59.8043 4.316 93.3383
2212 6 61.0502 6.474 93.3383
2213 6 59.8043 8.632 93.3383
2214 6 61.0502 10.79 93.3383
2215 6 59.8043 12.948 93.3383
2216 6 61.0502 15.106 93.3383
2217 6 59.8043 17.264 93.3383
2218 6 61.0502 19.422 93.3383
2219 6 59.8043 21.58 93.3383
2220 6 61.0502 23.738 93.3383
2221 6 62.2961 0 93.3383
2222 6 63.542 2.158 93.3383
2223 6 62.2961 4.316 93.3383
2224 6 63.542 6.474 93.3383
2225 6 62.2961 8.632 93.3383
2226 6 63.542 10.79 93.3383
2227 6 62.2961 12.948 93.3383
2228 6 63.542 15.106 93.3383
2229 6 62.2961 17.264 93.3383
2230 6 63.542 19.422 93.3383
2231 6 62.2961 21.58 93.3383
2232 6 63.542 23.738 93.3383
2233 6 64.7879 0 93.3383
2234 6 66.0339 2.158 93.3383
2235 6 64.7879 4.316 93.3383
2236 6 66.0339 6.474 93.3383
2237 6 64.7879 8.632 93.3383
2238 6 66.0339 10.79 93.3383
2239 6 64.7879 12.948 93.3383
2240 6 66.0339 15.106 93.3383
2241 6 64.7879 17.264 93.3383
2242 6 66.0339 19.422 93.3383
2243 6 64.7879 21.58 93.3383
2244 6 66.0339 23.738 93.3383
2245 6 67.2798 0 93.3383
2246 6 68.5257 2.158 93.3383
2247 6 67.2798 4.316 93.3383
2248 6 68.5257 6.474 93.3383
2249 6 67.2798 8.632 93.3383
2250 6 68.5257 10.79 93.3383
2251 6 67.2798 12.948 93.3383
2252 6 68.5257 15.106 93.3383
2253 6 67.2798 17.264 93.3383
2254 6 68.5257 19.422 93.3383
2255 6 67.2798 21.58 93.3383
2256 6 68.5257 23.738 93.3383
2257 6 69.7716 0 93.3383
2258 6 71.0176 2.158 93.3383
2259 6 69.7716 4.316 93.3383
2260 6 71.0176 6.474 93.3383
2261 6 69.7716 8.632 93.3383
2262 6 71.0176 10.79 93.3383
2263 6 69.7716 12.948 93.3383
2264 6 71.0176 15.106 93.3383
2265 6 69.7716 17.264 93.3383
2266 6 71.0176 19.422 93.3383
2267 6 69.7716 21.58 93.3383
2268 6 71.0176 23.738 93.3383
2269 6 72.2635 0 93.3383
2270 6 73.5094 2.158 93.3383
2271 6 72.2635 4.316 93.3383
2272 6 73.5094 6.474 93.3383
2273 6 72.2635 8.632 93.3383
2274 6 73.5094 10.79 93.3383
2275 6 72.2635 12.948 93.3383
2276 6 73.5094 15.106 93.3383
2277 6 72.2635 17.264 93.3383
2278 6 73.5094 19.422 93.3383
2279 6 72.2635 21.58 93.3383
2280 6 73.5094 23.738 93.3383
2281 6 74.7553 0 93.3383
2282 6 76.0012 2.158 93.3383
2283 6 74.7553 4.316 93.3383
2284 6 76.0012 6.474 93.3383
2285 6 74.7553 8.632 93.3383
2286 6 76.0012 10.79 93.3383
2287 6 74.7553 12.948 93.3383
2288 6 76.0012 15.106 93.3383
2289 6 74.7553 17.264 93.3383
2290 6 76.0012 19.422 93.3383
2291 6 74.7553 21.58 93.3383
2292 6 76.0012 23.738 93.3383
2293 6 77.2472 0 93.3383
2294 6 78.4931 2.158 93.3383
2295 6 77.2472 4.316 93.3383
2296 6 78.4931 6.474 93.3383
2297 6 77.2472 8.632 93.3383
2298 6 78.4931 10.79 93.3383
2299 6 77.2472 12.948 93.3383
2300 6 78.4931 15.106 93.3383
2301 6 77.2472 17.264 93.3383
2302 6 78.4931 19.422 93.3383
2303 6 77.2472 21.58 93.3383
2304 6 78.4931 23.738 93.3383
2305 6 0.83061 1.43867 95.3729
2306 6 2.07654 3.59667 95.3729
2307 6 0.83061 5.75467 95.3729
2308 6 2.07654 7.91267 95.3729
2309 6 0.83061 10.0707 95.3729
2310 6 2.07654 12.2287 95.3729
2311 6 0.83061 14.3867 95.3729
2312 6 2.07654 16.5447 95.3729
2313 6 0.83061 18.7027 95.3729
2314 6 2.07654 20.8607 95.3729
2315 6 0.83061 23.0187 95.3729
2316 6 2.07654 25.1767 95.3729
2317 6 3.32246 1.43867 95.3729
2318 6 4.56838 3.59667 95.3729
2319 6 3.32246 5.75467 95.3729
2320 6 4.56838 7.91267 95.3729
2321 6 3.32246 10.0707 95.3729
2322 6 4.56838 12.2287 95.3729
2323 6 3.32246 14.3867 95.3729
2324 6 4.56838 16.5447 95.3729
2325 6 3.32246 18.7027 95.3729
2326 6 4.56838 20.8607 95.3729
2327 6 3.32246 23.0187 95.3729
2328 6 4.56838 25.1767 95.3729
2329 6 5.8143 1.43867 95.3729
2330 6 7.06023 3.59667 95.3729
2331 6 5.8143 5.75467 95.3729
2332 6 7.06023 7.91267 95.3729
2333 6 5.8143 10.0707 95.3729
2334 6 7.06023 12.2287 95.3729
2335 6 5.8143 14.3867 95.3729
2336 6 7.06023 16.5447 95.3729
2337 6 5.8143 18.7027 95.3729
2338 6 7.06023 20.8607 95.3729
2339 6 5.8143 23.0187 95.3729
2340 6 7.06023 25.1767 95.3729
2341 6 8.30615 1.43867 95.3729
2342 6 9.55207 3.59667 95.3729
2343 6 8.30615 5.75467 95.3729
2344 6 9.55207 7.91267 95.3729
2345 6 8.30615 10.0707 95.3729
2346 6 9.55207 12.2287 95.3729
2347 6 8.30615 14.3867 95.3729
2348 6 9.55207 16.5447 95.3729
2349 6 8.30615 18.7027 95.3729
2350 6 9.55207 20.8607 95.3729
2351 6 8.30615 23.0187 95.3729
2352 6 9.55207 25.1767 95.3729
2353 6 10.798 1.43867 95.3729
2354 6 12.0439 3.59667 95.3729
2355 6 10.798 5.75467 95.3729
2356 6 12.0439 7.91267 95.3729
2357 6 10.798 10.0707 95.3729
2358 6 12.0439 12.2287 95.3729
2359 6 10.798 14.3867 95.3729
2360 6 12.0439 16.5447 95.3729
2361 6 10.798 18.7027 95.3729
2362 6 12.0439 20.8607 95.3729
2363 6 10.798 23.0187 95.3729
2364 6 12.0439 25.1767 95.3729
2365 6 13.2898 1.43867 95.3729
2366 6 14.5358 3.59667 95.3729
2367 6 13.2898 5.75467 95.3729
2368 6 14.5358 7.91267 95.3729
2369 6 13.2898 10.0707 95.3729
2370 6 14.5358 12.2287 95.3729
2371 6 13.2898 14.3867 95.3729
2372 6 14.5358 16.5447 95.3729
2373 6 13.2898 18.7027 95.3729
2374 6 14.5358 20.8607 95.3729
2375 6 13.2898 23.0187 95.3729
2376 6 14.5358 25.1767 95.3729
2377 6 15.7817 1.43867 95.3729
2378 6 17.0276 3.59667 95.3729
2379 6 15.7817 5.75467 95.3729
2380 6 17.0276 7.91267 95.3729
2381 6 15.7817 10.0707 95.3729
2382 6 17.0276 12.2287 95.3729
2383 6 15.7817 14.3867 95.3729
2384 6 17.0276 16.5447 95.3729
2385 6 15.7817 18.7027 95.3729
2386 6 17.0276 20.8607 95.3729
2387 6 15.7817 23.0187 95.3729
2388 6 17.0276 25.1767 95.3729
2389 6 18.2735 1.43867 95.3729
2390 6 19.5194 3.59667 95.3729
2391 6 18.2735 5.75467 95.3729
2392 6 19.5194 7.91267 95.3729
2393 6 18.2735 10.0707 95.3729
2394 6 19.5194 12.2287 95.3729
2395 6 18.2735 14.3867 95.3729
2396 6 19.5194 16.5447 95.3729
2397 6 18.2735 18.7027 95.3729
2398 6 19.5194 20.8607 95.3729
2399 6 18.2735 23.0187 95.3729
2400 6 19.5194 25.1767 95.3729
2401 6 20.7654 1.43867 95.3729
2402 6 22.0113 3.59667 95.3729
2403 6 20.7654 5.75467 95.3729
2404 6 22.0113 7.91267 95.3729
2405 6 20.7654 10.0707 95.3729
2406 6 22.0113 12.2287 95.3729
2407 6 20.7654 14.3867 95.3729
2408 6 22.0113 16.5447 95.3729
2409 6 20.7654 18.7027 95.3729
2410 6 22.0113 20.8607 95.3729
2411 6 20.7654 23.0187 95.3729
2412 6 22.0113 25.1767 95.3729
2413 6 23.2572 1.43867 95.3729
2414 6 24.5031 3.59667 95.3729
2415 6 23.2572 5.75467 95.3729
2416 6 24.5031 7.91267 95.3729
2417 6 23.2572 10.0707 95.3729
2418 6 24.5031 12.2287 95.3729
2419 6 23.2572 14.3867 95.3729
2420 6 24.5031 16.5447 95.3729
2421 6 23.2572 18.7027 95.3729
2422 6 24.5031 20.8607 95.3729
2423 6 23.2572 23.0187 95.3729
2424 6 24.5031 25.1767 95.3729
2425 6 25.7491 1.43867 95.3729
2426 6 26.995 3.59667 95.3729
2427 6 25.7491 5.75467 95.3729
2428 6 26.995 7.91267 95.3729
2429 6 25.7491 10.0707 95.3729
2430 6 26.995 12.2287 95.3729
2431 6 25.7491 14.3867 95.3729
2432 6 26.995 16.5447 95.3729
2433 6 25.7491 18.7027 95.3729
2434 6 26.995 20.8607 95.3729
2435 6 25.7491 23.0187 95.3729
2436 6 26.995 25.1767 95.3729
2437 6 28.2409 1.43867 95.3729
2438 6 29.4868 3.59667 95.3729
2439 6 28.2409 5.75467 95.3729
2440 6 29.4868 7.91267 95.3729
2441 6 28.2409 10.0707 95.3729
2442 6 29.4868 12.2287 95.3729
2443 6 28.2409 14.3867 95.3729
2444 6 29.4868 16.5447 95.3729
2445 6 28.2409 18.7027 95.3729
2446 6 29.4868 20.8607 95.3729
2447 6 28.2409 23.0187 95.3729
2448 6 29.4868 25.1767 95.3729
2449 6 30.7327 1.43867 95.3729
2450 6 31.9787 3.59667 95.3729
2451 6 30.7327 5.75467 95.3729
2452 6 31.9787 7.91267 95.3729
2453 6 30.7327 10.0707 95.3729
2454 6 31.9787 12.2287 95.3729
2455 6 30.7327 14.3867 95.3729
2456 6 31.9787 16.5447 95.3729
2457 6 30.7327 18.7027 95.3729
2458 6 31.9787 20.8607 95.3729
2459 6 30.7327 23.0187 95.3729
2460 6 31.9787 25.1767 95.3729
2461 6 33.2246 1.43867 95.3729
2462 6 34.4705 3.59667 95.3729
2463 6 33.2246 5.75467 95.3729
2464 6 34.4705 7.91267 95.3729
2465 6 33.2246 10.0707 95.3729
2466 6 34.4705 12.2287 95.3729
2467 6 33.2246 14.3867 95.3729
2468 6 34.4705 16.5447 95.3729
2469 6 33.2246 18.7027 95.3729
2470 6 34.4705 20.8607 95.3729
2471 6 33.2246 23.0187 95.3729
2472 6 34.4705 25.1767 95.3729
2473 6 35.7164 1.43867 95.3729
2474 6 36.9624 3.59667 95.3729
2475 6 35.7164 5.75467 95.3729
2476 6 36.9624 7.91267 95.3729
2477 6 35.7164 10.0707 95.3729
2478 6 36.9624 12.2287 95.3729
2479 6 35.7164 14.3867 95.3729
2480 6 36.9624 16.5447 95.3729
2481 6 35.7164 18.7027 95.3729
2482 6 36.9624 20.8607 95.3729
2483 6 35.7164 23.0187 95.3729
2484 6 36.9624 25.1767 95.3729
2485 6 38.2083 1.43867 95.3729
2486 6 39.4542 3.59667 95.3729
2487 6 38.2083 5.75467 95.3729
2488 6 39.4542 7.91267 95.3729
2489 6 38.2083 10.0707 95.3729
2490 6 39.4542 12.2287 95.3729
2491 6 38.2083 14.3867 95.3729
2492 6 39.4542 16.5447 95.3729
2493 6 38.2083 18.7027 95.3729
2494 6 39.4542 20.8607 95.3729
2495 6 38.2083 23.0187 95.3729
2496 6 39.4542 25.1767 95.3729
2497 6 40.7001 1.43867 95.3729
2498 6 41.946 3.59667 95.3729
2499 6 40.7001 5.75467 95.3729
2500 6 41.946 7.91267 95.3729
2501 6 40.7001 10.0707 95.3729
2502 6 41.946 12.2287 95.3729
2503 6 40.7001 14.3867 95.3729
2504 6 41.946 16.5447 95.3729
2505 6 40.7001 18.7027 95.3729
2506 6 41.946 20.8607 95.3729
2507 6 40.7001 23.0187 95.3729
2508 6 41.946 25.1767 95.3729
2509 6 43.192 1.43867 95.3729
2510 6 44.4379 3.59667 95.3729
2511 6 43.192 5.75467 95.3729
2512 6 44.4379 7.91267 95.3729
2513 6 43.192 10.0707 95.3729
2514 6 44.4379 12.2287 95.3729
2515 6 43.192 14.3867 95.3729
2516 6 44.4379 16.5447 95.3729
2517 6 43.192 18.7027 95.3729
2518 6 44.4379 20.8607 95.3729
2519 6 43.192 23.0187 95.3729
2520 6 44.4379 25.1767 95.3729
2521 6 45.6838 1.43867 95.3729
2522 6 46.9297 3.59667 95.3729
2523 6 45.6838 5.75467 95.3729
2524 6 46.9297 7.91267 95.3729
2525 6 45.6838 10.0707 95.3729
2526 6 46.9297 12.2287 95.3729
2527 6 45.6838 14.3867 95.3729
2528 6 46.9297 16.5447 95.3729
2529 6 45.6838 18.7027 95.3729
2530 6 46.9297 20.8607 95.3729
2531 6 45.6838 23.0187 95.3729
2532 6 46.9297 25.1767 95.3729
2533 6 48.1757 1.43867 95.3729
2534 6 49.4216 3.59667 95.3729
2535 6 48.1757 5.75467 95.3729
2536 6 49.4216 7.91267 95.3729
2537 6 48.1757 10.0707 95.3729
2538 6 49.4216 12.2287 95.3729
2539 6 48.1757 14.3867 95.3729
2540 6 49.4216 16.5447 95.3729
2541 6 48.1757 18.7027 95.3729
2542 6 49.4216 20.8607 95.3729
2543 6 48.1757 23.0187 95.3729
2544 6 49.4216 25.1767 95.3729
2545 6 50.6675 1.43867 95.3729
2546 6 51.9134 3.59667 95.3729
2547 6 50.6675 5.75467 95.3729
2548 6 51.9134 7.91267 95.3729
2549 6 50.6675 10.0707 95.3729
2550 6 51.9134 12.2287 95.3729
2551 6 50.6675 14.3867 95.3729
2552 6 51.9134 16.5447 95.3729
2553 6 50.6675 18.7027 95.3729
2554 6 51.9134 20.8607 95.3729
2555 6 50.6675 23.0187 95.3729
2556 6 51.9134 25.1767 95.3729
2557 6 53.1594 1.43867 95.3729
2558 6 54.4053 3.59667 95.3729
2559 6 53.1594 5.75467 95.3729
2560 6 54.4053 7.91267 95.3729
2561 6 53.1594 10.0707 95.3729
2562 6 54.4053 12.2287 95.3729
2563 6 53.1594 14.3867 95.3729
2564 6 54.4053 16.5447 95.3729
2565 6 53.1594 18.7027 95.3729
2566 6 54.4053 20.8607 95.3729
2567 6 53.1594 23.0187 95.3729
2568 6 54.4053 25.1767 95.3729
2569 6 55.6512 1.43867 95.3729
2570 6 56.8971 3.59667 95.3729
2571 6 55.6512 5.75467 95.3729
2572 6 56.8971 7.91267 95.3729
2573 6 55.6512 10.0707 95.3729
2574 6 56.8971 12.2287 95.3729
2575 6 55.6512 14.3867 95.3729
2576 6 56.8971 16.5447 95.3729
2577 6 55.6512 18.7027 95.3729
2578 6 56.8971 20.8607 95.3729
2579 6 55.6512 23.0187 95.3729
2580 6 56.8971 25.1767 95.3729
2581 6 58.143 1.43867 95.3729
2582 6 59.389 3.59667 95.3729
2583 6 58.143 5.75467 95.3729
2584 6 59.389 7.91267 95.3729
2585 6 58.143 10.0707 95.3729
2586 6 59.389 12.2287 95.3729
2587 6 58.143 14.3867 95.3729
2588 6 59.389 16.5447 95.3729
2589 6 58.143 18.7027 95.3729
2590 6 59.389 20.8607 95.3729
2591 6 58.143 23.0187 95.3729
2592 6 59.389 25.1767 95.3729
2593 6 60.6349 1.43867 95.3729
2594 6 61.8808 3.59667 95.3729
2595 6 60.6349 5.75467 95.3729
2596 6 61.8808 7.91267 95.3729
2597 6 60.6349 10.0707 95.3729
2598 6 61.8808 12.2287 95.3729
2599 6 60.6349 14.3867 95.3729
2600 6 61.8808 16.5447 95.3729
2601 6 60.6349 18.7027 95.3729
2602 6 61.8808 20.8607 95.3729
2603 6 60.6349 23.0187 95.3729
2604 6 61.8808 25.1767 95.3729
2605 6 63.1267 1.43867 95.3729
2606 6 64.3726 3.59667 95.3729
2607 6 63.1267 5.75467 95.3729
2608 6 64.3726 7.91267 95.3729
2609 6 63.1267 10.0707 95.3729
2610 6 64.3726 12.2287 95.3729
2611 6 63.1267 14.3867 95.3729
2612 6 64.3726 16.5447 95.3729
2613 6 63.1267 18.7027 95.3729
2614 6 64.3726 20.8607 95.3729
2615 6 63.1267 23.0187 95.3729
2616 6 64.3726 25.1767 95.3729
2617 6 65.6186 1.43867 95.3729
2618 6 66.8645 3.59667 95.3729
2619 6 65.6186 5.75467 95.3729
2620 6 66.8645 7.91267 95.3729
2621 6 65.6186 10.0707 95.3729
2622 6 66.8645 12.2287 95.3729
2623 6 65.6186 14.3867 95.3729
2624 6 66.8645 16.5447 95.3729
2625 6 65.6186 18.7027 95.3729
2626 6 66.8645 20.8607 95.3729
2627 6 65.6186 23.0187 95.3729
2628 6 66.8645 25.1767 95.3729
2629 6 68.1104 1.43867 95.3729
2630 6 69.3563 3.59667 95.3729
2631 6 68.1104 5.75467 95.3729
2632 6 69.3563 7.91267 95.3729
2633 6 68.1104 10.0707 95.3729
2634 6 69.3563 12.2287 95.3729
2635 6 68.1104 14.3867 95.3729
2636 6 69.3563 16.5447 95.3729
2637 6 68.1104 18.7027 95.3729
2638 6 69.3563 20.8607 95.3729
2639 6 68.1104 23.0187 95.3729
2640 6 69.3563 25.1767 95.3729
2641 6 70.6023 1.43867 95.3729
2642 6 71.8482 3.59667 95.3729
2643 6 70.6023 5.75467 95.3729
2644 6 71.8482 7.91267 95.3729
2645 6 70.6023 10.0707 95.3729
2646 6 71.8482 12.2287 95.3729
2647 6 70.6023 14.3867 95.3729
2648 6 71.8482 16.5447 95.3729
2649 6 70.6023 18.7027 95.3729
2650 6 71.8482 20.8607 95.3729
2651 6 70.6023 23.0187 95.3729
2652 6 71.8482 25.1767 95.3729
2653 6 73.0941 1.43867 95.3729
2654 6 74.34 3.59667 95.3729
2655 6 73.0941 5.75467 95.3729
2656 6 74.34 7.91267 95.3729
2657 6 73.0941 10.0707 95.3729
2658 6 74.34 12.2287 95.3729
2659 6 73.0941 14.3867 95.3729
2660 6 74.34 16.5447 95.3729
2661 6 73.0941 18.7027 95.3729
2662 6 74.34 20.8607 95.3729
2663 6 73.0941 23.0187 95.3729
2664 6 74.34 25.1767 95.3729
2665 6 75.5859 1.43867 95.3729
2666 6 76.8319 3.59667 95.3729
2667 6 75.5859 5.75467 95.3729
2668 6 76.8319 7.91267 95.3729
2669 6 75.5859 10.0707 95.3729
2670 6 76.8319 12.2287 95.3729
2671 6 75.5859 14.3867 95.3729
2672 6 76.8319 16.5447 95.3729
2673 6 75.5859 18.7027 95.3729
2674 6 76.8319 20.8607 95.3729
2675 6 75.5859 23.0187 95.3729
2676 6 76.8319 25.1767 95.3729
2677 6 78.0778 1.43867 95.3729
2678 6 79.3237 3.59667 95.3729
2679 6 78.0778 5.75467 95.3729
2680 6 79.3237 7.91267 95.3729
2681 6 78.0778 10.0707 95.3729
2682 6 79.3237 12.2287 95.3729
2683 6 78.0778 14.3867 95.3729
2684 6 79.3237 16.5447 95.3729
2685 6 78.0778 18.7027 95.3729
2686 6 79.3237 20.8607 95.3729
2687 6 78.0778 23.0187 95.3729
2688 6 79.3237 25.1767 95.3729
2689 6 1.66123 2.87733 97.4075
2690 6 2.90715 5.03533 97.4075
2691 6 1.66123 7.19333 97.4075
2692 6 2.90715 9.35134 97.4075
2693 6 1.66123 11.5093 97.4075
2694 6 2.90715 13.6673 97.4075
2695 6 1.66123 15.8253 97.4075
2696 6 2.90715 17.9833 97.4075
2697 6 1.66123 20.1413 97.4075
2698 6 2.90715 22.2993 97.4075
2699 6 1.66123 24.4573 97.4075
2700 6 2.90715 26.6153 97.4075
2701 6 4.15307 2.87733 97.4075
2702 6 5.399 5.03533 97.4075
2703 6 4.15307 7.19333 97.4075
2704 6 5.399 9.35134 97.4075
2705 6 4.15307 11.5093 97.4075
2706 6 5.399 13.6673 97.4075
2707 6 4.15307 15.8253 97.4075
2708 6 5.399 17.9833 97.4075
2709 6 4.15307 20.1413 97.4075
2710 6 5.399 22.2993 97.4075
2711 6 4.15307 24.4573 97.4075
2712 6 5.399 26.6153 97.4075
2713 6 6.64492 2.87733 97.4075
2714 6 7.89084 5.03533 97.4075
2715 6 6.64492 7.19333 97.4075
2716 6 7.89084 9.35134 97.4075
2717 6 6.64492 11.5093 97.4075
2718 6 7.89084 13.6673 97.4075
2719 6 6.64492 15.8253 97.4075
2720 6 7.89084 17.9833 97.4075
2721 6 6.64492 20.1413 97.4075
2722 6 7.89084 22.2993 97.4075
2723 6 6.64492 24.4573 97.4075
2724 6 7.89084 26.6153 97.4075
2725 6 9.13676 2.87733 97.4075
2726 6 10.3827 5.03533 97.4075
2727 6 9.13676 7.19333 97.4075
2728 6 10.3827 9.35134 97.4075
2729 6 9.13676 11.5093 97.4075
2730 6 10.3827 13.6673 97.4075
2731 6 9.13676 15.8253 97.4075
2732 6 10.3827 17.9833 97.4075
2733 6 9.13676 20.1413 97.4075
2734 6 10.3827 22.2993 97.4075
2735 6 9.13676 24.4573 97.4075
2736 6 10.3827 26.6153 97.4075
2737 6 11.6286 2.87733 97.4075
2738 6 12.8745 5.03533 97.4075
2739 6 11.6286 7.19333 97.4075
2740 6 12.8745 9.35134 97.4075
2741 6 11.6286 11.5093 97.4075
2742 6 12.8745 13.6673 97.4075
2743 6 11.6286 15.8253 97.4075
2744 6 12.8745 17.9833 97.4075
2745 6 11.6286 20.1413 97.4075
2746 6 12.8745 22.2993 97.4075
2747 6 11.6286 24.4573 97.4075
2748 6 12.8745 26.6153 97.4075
2749 6 14.1204 2.87733 97.4075
2750 6 15.3664 5.03533 97.4075
2751 6 14.1204 7.19333 97.4075
2752 6 15.3664 9.35134 97.4075
2753 6 14.1204 11.5093 97.4075
2754 6 15.3664 13.6673 97.4075
2755 6 14.1204 15.8253 97.4075
2756 6 15.3664 17.9833 97.4075
2757 6 14.1204 20.1413 97.4075
2758 6 15.3664 22.2993 97.4075
2759 6 14.1204 24.4573 97.4075
2760 6 15.3664 26.6153 97.4075
2761 6 16.6123 2.87733 97.4075
2762 6 17.8582 5.03533 97.4075
2763 6 16.6123 7.19333 97.4075
2764 6 17.8582 9.35134 97.4075
2765 6 16.6123 11.5093 97.4075
2766 6 17.8582 13.6673 97.4075
2767 6 16.6123 15.8253 97.4075
2768 6 17.8582 17.9833 97.4075
2769 6 16.6123 20.1413 97.4075
2770 6 17.8582 22.2993 97.4075
2771 6 16.6123 24.4573 97.4075
2772 6 17.8582 26.6153 97.4075
2773 6 19.1041 2.87733 97.4075
2774 6 20.3501 5.03533 97.4075
2775 6 19.1041 7.19333 97.4075
2776 6 20.3501 9.35134 97.4075
2777 6 19.1041 11.5093 97.4075
2778 6 20.3501 13.6673 97.4075
2779 6 19.1041 15.8253 97.4075
2780 6 20.3501 17.9833 97.4075
2781 6 19.1041 20.1413 97.4075
2782 6 20.3501 22.2993 97.4075
2783 6 19.1041 24.4573 97.4075
2784 6 20.3501 26.6153 97.4075
2785 6 21.596 2.87733 97.4075
2786 6 22.8419 5.03533 97.4075
2787 6 21.596 7.19333 97.4075
2788 6 22.8419 9.35134 97.4075
2789 6 21.596 11.5093 97.4075
2790 6 22.8419 13.6673 97.4075
2791 6 21.596 15.8253 97.4075
2792 6 22.8419 17.9833 97.4075
2793 6 21.596 20.1413 97.4075
2794 6 22.8419 22.2993 97.4075
2795 6 21.596 24.4573 97.4075
2796 6 22.8419 26.6153 97.4075
2797 6 24.0878 2.87733 97.4075
2798 6 25.3337 5.03533 97.4075
2799 6 24.0878 7.19333 97.4075
2800 6 25.3337 9.35134 97.4075
2801 6 24.0878 11.5093 97.4075
2802 6 25.3337 13.6673 97.4075
2803 6 24.0878 15.8253 97.4075
2804 6 25.3337 17.9833 97.4075
2805 6 24.0878 20.1413 97.4075
2806 6 25.3337 22.2993 97.4075
2807 6 24.0878 24.4573 97.4075
2808 6 25.3337 26.6153 97.4075
2809 6 26.5797 2.87733 97.4075
2810 6 27.8256 5.03533 97.4075
2811 6 26.5797 7.19333 97.4075
2812 6 27.8256 9.35134 97.4075
2813 6 26.5797 11.5093 97.4075
2814 6 27.8256 13.6673 97.4075
2815 6 26.5797 15.8253 97.4075
2816 6 27.8256 17.9833 97.4075
2817 6 26.5797 20.1413 97.4075
2818 6 27.8256 22.2993 97.4075
2819 6 26.5797 24.4573 97.4075
2820 6 27.8256 26.6153 97.4075
2821 6 29.0715 2.87733 97.4075
2822 6 30.3174 5.03533 97.4075
2823 6 29.0715 7.19333 97.4075
2824 6 30.3174 9.35134 97.4075
2825 6 29.0715 11.5093 97.4075
2826 6 30.3174 13.6673 97.4075
2827 6 29.0715 15.8253 97.4075
2828 6 30.3174 17.9833 97.4075
2829 6 29.0715 20.1413 97.4075
2830 6 30.3174 22.2993 97.4075
2831 6 29.0715 24.4573 97.4075
2832 6 30.3174 26.6153 97.4075
2833 6 31.5634 2.87733 97.4075
2834 6 32.8093 5.03533 97.4075
2835 6 31.5634 7.19333 97.4075
2836 6 32.8093 9.35134 97.4075
2837 6 31.5634 11.5093 97.4075
2838 6 32.8093 13.6673 97.4075
2839 6 31.5634 15.8253 97.4075
2840 6 32.8093 17.9833 97.4075
2841 6 31.5634 20.1413 97.4075
2842 6 32.8093 22.2993 97.4075
2843 6 31.5634 24.4573 97.4075
2844 6 32.8093 26.6153 97.4075
2845 6 34.0552 2.87733 97.4075
2846 6 35.3011 5.03533 97.4075
2847 6 34.0552 7.19333 97.4075
2848 6 35.3011 9.35134 97.4075
2849 6 34.0552 11.5093 97.4075
2850 6 35.3011 13.6673 97.4075
2851 6 34.0552 15.8253 97.4075
2852 6 35.3011 17.9833 97.4075
2853 6 34.0552 20.1413 97.4075
2854 6 35.3011 22.2993 97.4075
2855 6 34.0552 24.4573 97.4075
2856 6 35.3011 26.6153 97.4075
2857 6 36.547 2.87733 97.4075
2858 6 37.793 5.03533 97.4075
2859 6 36.547 7.19333 97.4075
2860 6 37.793 9.35134 97.4075
2861 6 36.547 11.5093 97.4075
2862 6 37.793 13.6673 97.4075
2863 6 36.547 15.8253 97.4075
2864 6 37.793 17.9833 97.4075
2865 6 36.547 20.1413 97.4075
2866 6 37.793 22.2993 97.4075
2867 6 36.547 24.4573 97.4075
2868 6 37.793 26.6153 97.4075
2869 6 39.0389 2.87733 97.4075
2870 6 40.2848 5.03533 97.4075
2871 6 39.0389 7.19333 97.4075
2872 6 40.2848 9.35134 97.4075
2873 6 39.0389 11.5093 97.4075
2874 6 40.2848 13.6673 97.4075
2875 6 39.0389 15.8253 97.4075
2876 6 40.2848 17.9833 97.4075
2877 6 39.0389 20.1413 97.4075
2878 6 40.2848 22.2993 97.4075
2879 6 39.0389 24.4573 97.4075
2880 6 40.2848 26.6153 97.4075
2881 6 41.5307 2.87733 97.4075
2882 6 42.7767 5.03533 97.4075
2883 6 41.5307 7.19333 97.4075
2884 6 42.7767 9.35134 97.4075
2885 6 41.5307 11.5093 97.4075
2886 6 42.7767 13.6673 97.4075
2887 6 41.5307 15.8253 97.4075
2888 6 42.7767 17.9833 97.4075
2889 6 41.5307 20.1413 97.4075
2890 6 42.7767 22.2993 97.4075
2891 6 41.5307 24.4573 97.4075
2892 6 42.7767 26.6153 97.4075
2893 6 44.0226 2.87733 97.4075
2894 6 45.2685 5.03533 97.4075
2895 6 44.0226 7.19333 97.4075
2896 6 45.2685 9.35134 97.4075
2897 6 44.0226 11.5093 97.4075
2898 6 45.2685 13.6673 97.4075
2899 6 44.0226 15.8253 97.4075
2900 6 45.2685 17.9833 97.4075
2901 6 44.0226 20.1413 97.4075
2902 6 45.2685 22.2993 97.4075
2903 6 44.0226 24.4573 97.4075
2904 6 45.2685 26.6153 97.4075
2905 6 46.5144 2.87733 97.4075
2906 6 47.7604 5.03533 97.4075
2907 6 46.5144 7.19333 97.4075
2908 6 47.7604 9.35134 97.4075
2909 6 46.5144 11.5093 97.4075
2910 6 47.7604 13.6673 97.4075
2911 6 46.5144 15.8253 97.4075
2912 6 47.7604 17.9833 97.4075
2913 6 46.5144 20.1413 97.4075
2914 6 47.7604 22.2993 97.4075
2915 6 46.5144 24.4573 97.4075
2916 6 47.7604 26.6153 97.4075
2917 6 49.0063 2.87733 97.4075
2918 6 50.2522 5.03533 97.4075
2919 6 49.0063 7.19333 97.4075
2920 6 50.2522 9.35134 97.4075
2921 6 49.0063 11.5093 97.4075
2922 6 50.2522 13.6673 97.4075
2923 6 49.0063 15.8253 97.4075
2924 6 50.2522 17.9833 97.4075
2925 6 49.0063 20.1413 97.4075
2926 6 50.2522 22.2993 97.4075
2927 6 49.0063 24.4573 97.4075
2928 6 50.2522 26.6153 97.4075
2929 6 51.4981 2.87733 97.4075
2930 6 52.744 5.03533 97.4075
2931 6 51.4981 7.19333 97.4075
2932 6 52.744 9.35134 97.4075
2933 6 51.4981 11.5093 97.4075
2934 6 52.744 13.6673 97.4075
2935 6 51.4981 15.8253 97.4075
2936 6 52.744 17.9833 97.4075
2937 6 51.4981 20.1413 97.4075
2938 6 52.744 22.2993 97.4075
2939 6 51.4981 24.4573 97.4075
2940 6 52.744 26.6153 97.4075
2941 6 53.99 2.87733 97.4075
2942 6 55.2359 5.03533 97.4075
2943 6 53.99 7.19333 97.4075
2944 6 55.2359 9.35134 97.4075
2945 6 53.99 11.5093 97.4075
2946 6 55.2359 13.6673 97.4075
2947 6 53.99 15.8253 97.4075
2948 6 55.2359 17.9833 97.4075
2949 6 53.99 20.1413 97.4075
2950 6 55.2359 22.2993 97.4075
2951 6 53.99 24.4573 97.4075
2952 6 55.2359 26.6153 97.4075
2953 6 56.4818 2.87733 97.4075
2954 6 57.7277 5.03533 97.4075
2955 6 56.4818 7.19333 97.4075
2956 6 57.7277 9.35134 97.4075
2957 6 56.4818 11.5093 97.4075
2958 6 57.7277 13.6673 97.4075
2959 6 56.4818 15.8253 97.4075
2960 6 57.7277 17.9833 97.4075
2961 6 56.4818 20.1413 97.4075
2962 6 57.7277 22.2993 97.4075
2963 6 56.4818 24.4573 97.4075
2964 6 57.7277 26.6153 97.4075
2965 6 58.9736 2.87733 97.4075
2966 6 60.2196 5.03533 97.4075
2967 6 58.9736 7.19333 97.4075
2968 6 60.2196 9.35134 97.4075
2969 6 58.9736 11.5093 97.4075
2970 6 60.2196 13.6673 97.4075
2971 6 58.9736 15.8253 97.4075
2972 6 60.2196 17.9833 97.4075
2973 6 58.9736 20.1413 97.4075
2974 6 60.2196 22.2993 97.4075
2975 6 58.9736 24.4573 97.4075
2976 6 60.2196 26.6153 97.4075
2977 6 61.4655 2.87733 97.4075
2978 6 62.7114 5.03533 97.4075
2979 6 61.4655 7.19333 97.4075
2980 6 62.7114 9.35134 97.4075
2981 6 61.4655 11.5093 97.4075
2982 6 62.7114 13.6673 97.4075
2983 6 61.4655 15.8253 97.4075
2984 6 62.7114 17.9833 97.4075
2985 6 61.4655 20.1413 97.4075
2986 6 62.7114 22.2993 97.4075
2987 6 61.4655 24.4573 97.4075
2988 6 62.7114 26.6153 97.4075
2989 6 63.9573 2.87733 97.4075
2990 6 65.2033 5.03533 97.4075
2991 6 63.9573 7.19333 97.4075
2992 6 65.2033 9.35134 97.4075
2993 6 63.9573 11.5093 97.4075
2994 6 65.2033 13.6673 97.4075
2995 6 63.9573 15.8253 97.4075
2996 6 65.2033 17.9833 97.4075
2997 6 63.9573 20.1413 97.4075
2998 6 65.2033 22.2993 97.4075
2999 6 63.9573 24.4573 97.4075
3000 6 65.2033 26.6153 97.4075
3001 6 66.4492 2.87733 97.4075
3002 6 67.6951 5.03533 97.4075
3003 6 66.4492 7.19333 97.4075
3004 6 67.6951 9.35134 97.4075
3005 6 66.4492 11.5093 97.4075
3006 6 67.6951 13.6673 97.4075
3007 6 66.4492 15.8253 97.4075
3008 6 67.6951 17.9833 97.4075
3009 6 66.4492 20.1413 97.4075
3010 6 67.6951 22.2993 97.4075
3011 6 66.4492 24.4573 97.4075
3012 6 67.6951 26.6153 97.4075
3013 6 68.941 2.87733 97.4075
3014 6 70.1869 5.03533 97.4075
3015 6 68.941 7.19333 97.4075
3016 6 70.1869 9.35134 97.4075
3017 6 68.941 11.5093 97.4075
3018 6 70.1869 13.6673 97.4075
3019 6 68.941 15.8253 97.4075
3020 6 70.1869 17.9833 97.4075
3021 6 68.941 20.1413 97.4075
3022 6 70.1869 22.2993 97.4075
3023 6 68.941 24.4573 97.4075
3024 6 70.1869 26.6153 97.4075
3025 6 71.4329 2.87733 97.4075
3026 6 72.6788 5.03533 97.4075
3027 6 71.4329 7.19333 97.4075
3028 6 72.6788 9.35134 97.4075
3029 6 71.4329 11.5093 97.4075
3030 6 72.6788 13.6673 97.4075
3031 6 71.4329 15.8253 97.4075
3032 6 72.6788 17.9833 97.4075
3033 6 71.4329 20.1413 97.4075
3034 6 72.6788 22.2993 97.4075
3035 6 71.4329 24.4573 97.4075
3036 6 72.6788 26.6153 97.4075
3037 6 73.9247 2.87733 97.4075
3038 6 75.1706 5.03533 97.4075
3039 6 73.9247 7.19333 97.4075
3040 6 75.1706 9.35134 97.4075
3041 6 73.9247 11.5093 97.4075
3042 6 75.1706 13.6673 97.4075
3043 6 73.9247 15.8253 97.4075
3044 6 75.1706 17.9833 97.4075
3045 6 73.9247 20.1413 97.4075
3046 6 75.1706 22.2993 97.4075
3047 6 73.9247 24.4573 97.4075
3048 6 75.1706 26.6153 97.4075
3049 6 76.4166 2.87733 97.4075
3050 6 77.6625 5.03533 97.4075
3051 6 76.4166 7.19333 97.4075
3052 6 77.6625 9.35134 97.4075
3053 6 76.4166 11.5093 97.4075
3054 6 77.6625 13.6673 97.4075
3055 6 76.4166 15.8253 97.4075
3056 6 77.6625 17.9833 97.4075
3057 6 76.4166 20.1413 97.4075
3058 6 77.6625 22.2993 97.4075
3059 6 76.4166 24.4573 97.4075
3060 6 77.6625 26.6153 97.4075
3061 6 78.9084 2.87733 97.4075
3062 6 0.15432 5.03533 97.4075
3063 6 78.9084 7.19333 97.4075
3064 6 0.15432 9.35134 97.4075
3065 6 78.9084 11.5093 97.4075
3066 6 0.15432 13.6673 97.4075
3067 6 78.9084 15.8253 97.4075
3068 6 0.15432 17.9833 97.4075
3069 6 78.9084 20.1413 97.4075
3070 6 0.15432 22.2993 97.4075
3071 6 78.9084 24.4573 97.4075
3072 6 0.15432 26.6153 97.4075
3073 6 0 0 99.4421
3074 6 1.24592 2.158 99.4421
3075 6 0 4.316 99.4421
3076 6 1.24592 6.474 99.4421
3077 6 0 8.632 99.4421
3078 6 1.24592 10.79 99.4421
3079 6 0 12.948 99.4421
3080 6 1.24592 15.106 99.4421
3081 6 0 17.264 99.4421
3082 6 1.24592 19.422 99.4421
3083 6 0 21.58 99.4421
3084 6 1.24592 23.738 99.4421
3085 6 2.49184 0 99.4421
3086 6 3.73777 2.158 99.4421
3087 6 2.49184 4.316 99.4421
3088 6 3.73777 6.474 99.4421
3089 6 2.49184 8.632 99.4421
3090 6 3.73777 10.79 99.4421
3091 6 2.49184 12.948 99.4421
3092 6 3.73777 15.106 99.4421
3093 6 2.49184 17.264 99.4421
3094 6 3.73777 19.422 99.4421
3095 6 2.49184 21.58 99.4421
3096 6 3.73777 23.738 99.4421
3097 6 4.98369 0 99.4421
3098 6 6.22961 2.158 99.4421
3099 6 4.98369 4.316 99.4421
3100 6 6.22961 6.474 99.4421
3101 6 4.98369 8.632 99.4421
3102 6 6.22961 10.79 99.4421
3103 6 4.98369 12.948 99.4421
3104 6 6.22961 15.106 99.4421
3105 6 4.98369 17.264 99.4421
3106 6 6.22961 19.422 99.4421
3107 6 4.98369 21.58 99.4421
3108 6 6.22961 23.738 99.4421
3109 6 7.47553 0 99.4421
3110 6 8.72146 2.158 99.4421
3111 6 7.47553 4.316 99.4421
3112 6 8.72146 6.474 99.4421
3113 6 7.47553 8.632 99.4421
3114 6 8.72146 10.79 99.4421
3115 6 7.47553 12.948 99.4421
3116 6 8.72146 15.106 99.4421
3117 6 7.47553 17.264 99.4421
3118 6 8.72146 19.422 99.4421
3119 6 7.47553 21.58 99.4421
3120 6 8.72146 23.738 99.4421
3121 6 9.96738 0 99.4421
3122 6 11.2133 2.158 99.4421
3123 6 9.96738 4.316 99.4421
3124 6 11.2133 6.474 99.4421
3125 6 9.96738 8.632 99.4421
3126 6 11.2133 10.79 99.4421
3127 6 9.96738 12.948 99.4421
3128 6 11.2133 15.106 99.4421
3129 6 9.96738 17.264 99.4421
3130 6 11.2133 19.422 99.4421
3131 6 9.96738 21.58 99.4421
3132 6 11.2133 23.738 99.4421
3133 6 12.4592 0 99.4421
3134 6 13.7051 2.158 99.4421
3135 6 12.4592 4.316 99.4421
3136 6 13.7051 6.474 99.4421
3137 6 12.4592 8.632 99.4421
3138 6 13.7051 10.79 99.4421
3139 6 12.4592 12.948 99.4421
3140 6 13.7051 15.106 99.4421
3141 6 12.4592 17.264 99.4421
3142 6 13.7051 19.422 99.4421
3143 6 12.4592 21.58 99.4421
3144 6 13.7051 23.738 99.4421
3145 6 14.9511 0 99.4421
3146 6 16.197 2.158 99.4421
3147 6 14.9511 4.316 99.4421
3148 6 16.197 6.474 99.4421
3149 6 14.9511 8.632 99.4421
3150 6 16.197 10.79 99.4421
3151 6 14.9511 12.948 99.4421
3152 6 16.197 15.106 99.4421
3153 6 14.9511 17.264 99.4421
3154 6 16.197 19.422 99.4421
3155 6 14.9511 21.58 99.4421
3156 6 16.197 23.738 99.4421
3157 6 17.4429 0 99.4421
3158 6 18.6888 2.158 99.4421
3159 6 17.4429 4.316 99.4421
3160 6 18.6888 6.474 99.4421
3161 6 17.4429 8.632 99.4421
3162 6 18.6888 10.79 99.4421
3163 6 17.4429 12.948 99.4421
3164 6 18.6888 15.106 99.4421
3165 6 17.4429 17.264 99.4421
3166 6 18.6888 19.422 99.4421
3167 6 17.4429 21.58 99.4421
3168 6 18.6888 23.738 99.4421
3169 6 19.9348 0 99.4421
3170 6 21.1807 2.158 99.4421
3171 6 19.9348 4.316 99.4421
3172 6 21.1807 6.474 99.4421
3173 6 19.9348 8.632 99.4421
3174 6 21.1807 10.79 99.4421
3175 6 19.9348 12.948 99.4421
3176 6 21.1807 15.106 99.4421
3177 6 19.9348 17.264 99.4421
3178 6 21.1807 19.422 99.4421
3179 6 19.9348 21.58 99.4421
3180 6 21.1807 23.738 99.4421
3181 6 22.4266 0 99.4421
3182 6 23.6725 2.158 99.4421
3183 6 22.4266 4.316 99.4421
3184 6 23.6725 6.474 99.4421
3185 6 22.4266 8.632 99.4421
3186 6 23.6725 10.79 99.4421
3187 6 22.4266 12.948 99.4421
3188 6 23.6725 15.106 99.4421
3189 6 22.4266 17.264 99.4421
3190 6 23.6725 19.422 99.4421
3191 6 22.4266 21.58 99.4421
3192 6 23.6725 23.738 99.4421
3193 6 24.9184 0 99.4421
3194 6 26.1644 2.158 99.4421
3195 6 24.9184 4.316 99.4421
3196 6 26.1644 6.474 99.4421
3197 6 24.9184 8.632 99.4421
3198 6 26.1644 10.79 99.4421
3199 6 24.9184 12.948 99.4421
3200 6 26.1644 15.106 99.4421
3201 6 24.9184 17.264 99.4421
3202 6 26.1644 19.422 99.4421
3203 6 24.9184 21.58 99.4421
3204 6 26.1644 23.738 99.4421
3205 6 27.4103 0 99.4421
3206 6 28.6562 2.158 99.4421
3207 6 27.4103 4.316 99.4421
3208 6 28.6562 6.474 99.4421
3209 6 27.4103 8.632 99.4421
3210 6 28.6562 10.79 99.4421
3211 6 27.4103 12.948 99.4421
3212 6 28.6562 15.106 99.4421
3213 6 27.4103 17.264 99.4421
3214 6 28.6562 19.422 99.4421
3215 6 27.4103 21.58 99.4421
3216 6 28.6562 23.738 99.4421
3217 6 29.9021 0 99.4421
3218 6 31.1481 2.158 99.4421
3219 6 29.9021 4.316 99.4421
3220 6 31.1481 6.474 99.4421
3221 6 29.9021 8.632 99.4421
3222 6 31.1481 10.79 99.4421
3223 6 29.9021 12.948 99.4421
3224 6 31.1481 15.106 99.4421
3225 6 29.9021 17.264 99.4421
3226 6 31.1481 19.422 99.4421
3227 6 29.9021 21.58 99.4421
3228 6 31.1481 23.738 99.4421
3229 6 32.394 0 99.4421
3230 6 33.6399 2.158 99.4421
3231 6 32.394 4.316 99.4421
3232 6 33.6399 6.474 99.4421
3233 6 32.394 8.632 99.4421
3234 6 33.6399 10.79 99.4421
3235 6 32.394 12.948 99.4421
3236 6 33.6399 15.106 99.4421
3237 6 32.394 17.264 99.4421
3238 6 33.6399 19.422 99.4421
3239 6 32.394 21.58 99.4421
3240 6 33.6399 23.738 99.4421
3241 6 34.8858 0 99.4421
3242 6 36.1317 2.158 99.4421
3243 6 34.8858 4.316 99.4421
3244 6 36.1317 6.474 99.4421
3245 6 34.8858 8.632 99.4421
3246 6 36.1317 10.79 99.4421
3247 6 34.8858 12.948 99.4421
3248 6 36.1317 15.106 99.4421
3249 6 34.8858 17.264 99.4421
3250 6 36.1317 19.422 99.4421
3251 6 34.8858 21.58 99.4421
3252 6 36.1317 23.738 99.4421
3253 6 37.3777 0 99.4421
3254 6 38.6236 2.158 99.4421
3255 6 37.3777 4.316 99.4421
3256 6 38.6236 6.474 99.4421
3257 6 37.3777 8.632 99.4421
3258 6 38.6236 10.79 99.4421
3259 6 37.3777 12.948 99.4421
3260 6 38.6236 15.106 99.4421
3261 6 37.3777 17.264 99.4421
3262 6 38.6236 19.422 99.4421
3263 6 37.3777 21.58 99.4421
3264 6 38.6236 23.738 99.4421
3265 6 39.8695 0 99.4421
3266 6 41.1154 2.158 99.4421
3267 6 39.8695 4.316 99.4421
3268 6 41.1154 6.474 99.4421
3269 6 39.8695 8.632 99.4421
3270 6 41.1154 10.79 99.4421
3271 6 39.8695 12.948 99.4421
3272 6 41.1154 15.106 99.4421
3273 6 39.8695 17.264 99.4421
3274 6 41.1154 19.422 99.4421
3275 6 39.8695 21.58 99.4421
3276 6 41.1154 23.738 99.4421
3277 6 42.3614 0 99.4421
3278 6 43.6073 2.158 99.4421
3279 6 42.3614 4.316 99.4421
3280 6 43.6073 6.474 99.4421
3281 6 42.3614 8.632 99.4421
3282 6 43.6073 10.79 99.4421
3283 6 42.3614 12.948 99.4421
3284 6 43.6073 15.106 99.4421
3285 6 42.3614 17.264 99.4421
3286 6 43.6073 19.422 99.4421
3287 6 42.3614 21.58 99.4421
3288 6 43.6073 23.738 99.4421
3289 6 44.8532 0 99.4421
3290 6 46.0991 2.158 99.4421
3291 6 44.8532 4.316 99.4421
3292 6 46.0991 6.474 99.4421
3293 6 44.8532 8.632 99.4421
3294 6 46.0991 10.79 99.4421
3295 6 44.8532 12.948 99.4421
3296 6 46.0991 15.106 99.4421
3297 6 44.8532 17.264 99.4421
3298 6 46.0991 19.422 99.4421
3299 6 44.8532 21.58 99.4421
3300 6 46.0991 23.738 99.4421
3301 6 47.345 0 99.4421
3302 6 48.591 2.158 99.4421
3303 6 47.345 4.316 99.4421
3304 6 48.591 6.474 99.4421
3305 6 47.345 8.632 99.4421
3306 6 48.591 10.79 99.4421
3307 6 47.345 12.948 99.4421
3308 6 48.591 15.106 99.4421
3309 6 47.345 17.264 99.4421
3310 6 48.591 19.422 99.4421
3311 6 47.345 21.58 99.4421
3312 6 48.591 23.738 99.4421
3313 6 49.8369 0 99.4421
3314 6 51.0828 2.158 99.4421
3315 6 49.8369 4.316 99.4421
3316 6 51.0828 6.474 99.4421
3317 6 49.8369 8.632 99.4421
3318 6 51.0828 10.79 99.4421
3319 6 49.8369 12.948 99.4421
3320 6 51.0828 15.106 99.4421
3321 6 49.8369 17.264 99.4421
3322 6 51.0828 19.422 99.4421
3323 6 49.8369 21.58 99.4421
3324 6 51.0828 23.738 99.4421
3325 6 52.3287 0 99.4421
3326 6 53.5746 2.158 99.4421
3327 6 52.3287 4.316 99.4421
3328 6 53.5746 6.474 99.4421
3329 6 52.3287 8.632 99.4421
3330 6 53.5746 10.79 99.4421
3331 6 52.3287 12.948 99.4421
3332 6 53.5746 15.106 99.4421
3333 6 52.3287 17.264 99.4421
3334 6 53.5746 19.422 99.4421
3335 6 52.3287 21.58 99.4421
3336 6 53.5746 23.738 99.4421
3337 6 54.8206 0 99.4421
3338 6 56.0665 2.158 99.4421
3339 6 54.8206 4.316 99.4421
3340 6 56.0665 6.474 99.4421
3341 6 54.8206 8.632 99.4421
3342 6 56.0665 10.79 99.4421
3343 6 54.8206 12.948 99.4421
3344 6 56.0665 15.106 99.4421
3345 6 54.8206 17.264 99.4421
3346 6 56.0665 19.422 99.4421
3347 6 54.8206 21.58 99.4421
3348 6 56.0665 23.738 99.4421
3349 6 57.3124 0 99.4421
3350 6 58.5583 2.158 99.4421
3351 6 57.3124 4.316 99.4421
3352 6 58.5583 6.474 99.4421
3353 6 57.3124 8.632 99.4421
3354 6 58.5583 10.79 99.4421
3355 6 57.3124 12.948 99.4421
3356 6 58.5583 15.106 99.4421
3357 6 57.3124 17.264 99.4421
3358 6 58.5583 19.422 99.4421
3359 6 57.3124 21.58 99.4421
3360 6 58.5583 23.738 99.4421
3361 6 59.8043 0 99.4421
3362 6 61.0502 2.158 99.4421
3363 6 59.8043 4.316 99.4421
3364 6 61.0502 6.474 99.4421
3365 6 59.8043 8.632 99.4421
3366 6 61.0502 10.79 99.4421
3367 6 59.8043 12.948 99.4421
3368 6 61.0502 15.106 99.4421
3369 6 59.8043 17.264 99.4421
3370 6 61.0502 19.422 99.4421
3371 6 59.8043 21.58 99.4421
3372 6 61.0502 23.738 99.4421
3373 6 62.2961 0 99.4421
3374 6 63.542 2.158 99.4421
3375 6 62.2961 4.316 99.4421
3376 6 63.542 6.474 99.4421
3377 6 62.2961 8.632 99.4421
3378 6 63.542 10.79 99.4421
3379 6 62.2961 12.948 99.4421
3380 6 63.542 15.106 99.4421
3381 6 62.2961 17.264 99.4421
3382 6 63.542 19.422 99.4421
3383 6 62.2961 21.58 99.4421
3384 6 63.542 23.738 99.4421
3385 6 64.7879 0 99.4421
3386 6 66.0339 2.158 99.4421
3387 6 64.7879 4.316 99.4421
3388 6 66.0339 6.474 99.4421
3389 6 64.7879 8.632 99.4421
3390 6 66.0339 10.79 99.4421
3391 6 64.7879 12.948 99.4421
3392 6 66.0339 15.106 99.4421
3393 6 64.7879 17.264 99.4421
3394 6 66.0339 19.422 99.4421
3395 6 64.7879 21.58 99.4421
3396 6 66.0339 23.738 99.4421
3397 6 67.2798 0 99.4421
3398 6 68.5257 2.158 99.4421
3399 6 67.2798 4.316 99.4421
3400 6 68.5257 6.474 99.4421
3401 6 67.2798 8.632 99.4421
3402 6 68.5257 10.79 99.4421
3403 6 67.2798 12.948 99.4421
3404 6 68.5257 15.106 99.4421
3405 6 67.2798 17.264 99.4421
3406 6 68.5257 19.422 99.4421
3407 6 67.2798 21.58 99.4421
3408 6 68.5257 23.738 99.4421
3409 6 69.7716 0 99.4421
3410 6 71.0176 2.158 99.4421
3411 6 69.7716 4.316 99.4421
3412 6 71.0176 6.474 99.4421
3413 6 69.7716 8.632 99.4421
3414 6 71.0176 10.79 99.4421
3415 6 69.7716 12.948 99.4421
3416 6 71.0176 15.106 99.4421
3417 6 69.7716 17.264 99.4421
3418 6 71.0176 19.422 99.4421
3419 6 69.7716 21.58 99.4421
3420 6 71.0176 23.738 99.4421
3421 6 72.2635 0 99.4421
3422 6 73.5094 2.158 99.4421
3423 6 72.2635 4.316 99.4421
3424 6 73.5094 6.474 99.4421
3425 6 72.2635 8.632 99.4421
3426 6 73.5094 10.79 99.4421
3427 6 72.2635 12.948 99.4421
3428 6 73.5094 15.106 99.4421
3429 6 72.2635 17.264 99.4421
3430 6 73.5094 19.422 99.4421
3431 6 72.2635 21.58 99.4421
3432 6 73.5094 23.738 99.4421
3433 6 74.7553 0 99.4421
3434 6 76.0012 2.158 99.4421
3435 6 74.7553 4.316 99.4421
3436 6 76.0012 6.474 99.4421
3437 6 74.7553 8.632 99.4421
3438 6 76.0012 10.79 99.4421
3439 6 74.7553 12.948 99.4421
3440 6 76.0012 15.106 99.4421
3441 6 74.7553 17.264 99.4421
3442 6 76.0012 19.422 99.4421
3443 6 74.7553 21.58 99.4421
3444 6 76.0012 23.738 99.4421
3445 6 77.2472 0 99.4421
3446 6 78.4931 2.158 99.4421
3447 6 77.2472 4.316 99.4421
3448 6 78.4931 6.474 99.4421
3449 6 77.2472 8.632 99.4421
3450 6 78.4931 10.79 99.4421
3451 6 77.2472 12.948 99.4421
3452 6 78.4931 15.106 99.4421
3453 6 77.2472 17.264 99.4421
3454 6 78.4931 19.422 99.4421
3455 6 77.2472 21.58 99.4421
3456 6 78.4931 23.738 99.4421
3457 6 0.83061 1.43867 101.477
3458 6 2.07654 3.59667 101.477
3459 6 0.83061 5.75467 101.477
3460 6 2.07654 7.91267 101.477
3461 6 0.83061 10.0707 101.477
3462 6 2.07654 12.2287 101.477
3463 6 0.83061 14.3867 101.477
3464 6 2.07654 16.5447 101.477
3465 6 0.83061 18.7027 101.477
3466 6 2.07654 20.8607 101.477
3467 6 0.83061 23.0187 101.477
3468 6 2.07654 25.1767 101.477
3469 6 3.32246 1.43867 101.477
3470 6 4.56838 3.59667 101.477
3471 6 3.32246 5.75467 101.477
3472 6 4.56838 7.91267 101.477
3473 6 3.32246 10.0707 101.477
3474 6 4.56838 12.2287 101.477
3475 6 3.32246 14.3867 101.477
3476 6 4.56838 16.5447 101.477
3477 6 3.32246 18.7027 101.477
3478 6 4.56838 20.8607 101.477
3479 6 3.32246 23.0187 101.477
3480 6 4.56838 25.1767 101.477
3481 6 5.8143 1.43867 101.477
3482 6 7.06023 3.59667 101.477
3483 6 5.8143 5.75467 101.477
3484 6 7.06023 7.91267 101.477
3485 6 5.8143 10.0707 101.477
3486 6 7.06023 12.2287 101.477
3487 6 5.8143 14.3867 101.477
3488 6 7.06023 16.5447 101.477
3489 6 5.8143 18.7027 101.477
3490 6 7.06023 20.8607 101.477
3491 6 5.8143 23.0187 101.477
3492 6 7.06023 25.1767 101.477
3493 6 8.30615 1.43867 101.477
3494 6 9.55207 3.59667 101.477
3495 6 8.30615 5.75467 101.477
3496 6 9.55207 7.91267 101.477
3497 6 8.30615 10.0707 101.477
3498 6 9.55207 12.2287 101.477
3499 6 8.30615 14.3867 101.477
3500 6 9.55207 16.5447 101.477
3501 6 8.30615 18.7027 101.477
3502 6 9.55207 20.8607 101.477
3503 6 8.30615 23.0187 101.477
3504 6 9.55207 25.1767 101.477
3505 6 10.798 1.43867 101.477
3506 6 12.0439 3.59667 101.477
3507 6 10.798 5.75467 101.477
3508 6 12.0439 7.91267 101.477
3509 6 10.798 10.0707 101.477
3510 6 12.0439 12.2287 101.477
3511 6 10.798 14.3867 101.477
3512 6 12.0439 16.5447 101.477
3513 6 10.798 18.7027 101.477
3514 6 12.0439 20.8607 101.477
3515 6 10.798 23.0187 101.477
3516 6 12.0439 25.1767 101.477
3517 6 13.2898 1.43867 101.477
3518 6 14.5358 3.59667 101.477
3519 6 13.2898 5.75467 101.477
3520 6 14.5358 7.91267 101.477
3521 6 13.2898 10.0707 101.477
3522 6 14.5358 12.2287 101.477
3523 6 13.2898 14.3867 101.477
3524 6 14.5358 16.5447 101.477
3525 6 13.2898 18.7027 101.477
3526 6 14.5358 20.8607 101.477
3527 6 13.2898 23.0187 101.477
3528 6 14.5358 25.1767 101.477
3529 6 15.7817 1.43867 101.477
3530 6 17.0276 3.59667 101.477
3531 6 15.7817 5.75467 101.477
3532 6 17.0276 7.91267 101.477
3533 6 15.7817 10.0707 101.477
3534 6 17.0276 12.2287 101.477
3535 6 15.7817 14.3867 101.477
3536 6 17.0276 16.5447 101.477
3537 6 15.7817 18.7027 101.477
3538 6 17.0276 20.8607 101.477
3539 6 15.7817 23.0187 101.477
3540 6 17.0276 25.1767 101.477
3541 6 18.2735 1.43867 101.477
3542 6 19.5194 3.59667 101.477
3543 6 18.2735 5.75467 101.477
3544 6 19.5194 7.91267 101.477
3545 6 18.2735 10.0707 101.477
3546 6 19.5194 12.2287 101.477
3547 6 18.2735 14.3867 101.477
3548 6 19.5194 16.5447 101.477
3549 6 18.2735 18.7027 101.477
3550 6 19.5194 20.8607 101.477
3551 6 18.2735 23.0187 101.477
3552 6 19.5194 25.1767 101.477
3553 6 20.7654 1.43867 101.477
3554 6 22.0113 3.59667 101.477
3555 6 20.7654 5.75467 101.477
3556 6 22.0113 7.91267 101.477
3557 6 20.7654 10.0707 101.477
3558 6 22.0113 12.2287 101.477
3559 6 20.7654 14.3867 101.477
3560 6 22.0113 16.5447 101.477
3561 6 20.7654 18.7027 101.477
3562 6 22.0113 20.8607 101.477
3563 6 20.7654 23.0187 101.477
3564 6 22.0113 25.1767 101.477
3565 6 23.2572 1.43867 101.477
3566 6 24.5031 3.59667 101.477
3567 6 23.2572 5.75467 101.477
3568 6 24.5031 7.91267 101.477
3569 6 23.2572 10.0707 101.477
3570 6 24.5031 12.2287 101.477
3571 6 23.2572 14.3867 101.477
3572 6 24.5031 16.5447 101.477
3573 6 23.2572 18.7027 101.477
3574 6 24.5031 20.8607 101.477
3575 6 23.2572 23.0187 101.477
3576 6 24.5031 25.1767 101.477
3577 6 25.7491 1.43867 101.477
3578 6 26.995 3.59667 101.477
3579 6 25.7491 5.75467 101.477
3580 6 26.995 7.91267 101.477
3581 6 25.7491 10.0707 101.477
3582 6 26.995 12.2287 101.477
3583 6 25.7491 14.3867 101.477
3584 6 26.995 16.5447 101.477
3585 6 25.7491 18.7027 101.477
3586 6 26.995 20.8607 101.477
3587 6 25.7491 23.0187 101.477
3588 6 26.995 25.1767 101.477
3589 6 28.2409 1.43867 101.477
3590 6 29.4868 3.59667 101.477
3591 6 28.2409 5.75467 101.477
3592 6 29.4868 7.91267 101.477
3593 6 28.2409 10.0707 101.477
3594 6 29.4868 12.2287 101.477
3595 6 28.2409 14.3867 101.477
3596 6 29.4868 16.5447 101.477
3597 6 28.2409 18.7027 101.477
3598 6 29.4868 20.8607 101.477
3599 6 28.2409 23.0187 101.477
3600 6 29.4868 25.1767 101.477
3601 6 30.7327 1.43867 101.477
3602 6 31.9787 3.59667 101.477
3603 6 30.7327 5.75467 101.477
3604 6 31.9787 7.91267 101.477
3605 6 30.7327 10.0707 101.477
3606 6 31.9787 12.2287 101.477
3607 6 30.7327 14.3867 101.477
3608 6 31.9787 16.5447 101.477
3609 6 30.7327 18.7027 101.477
3610 6 31.9787 20.8607 101.477
3611 6 30.7327 23.0187 101.477
3612 6 31.9787 25.1767 101.477
3613 6 33.2246 1.43867 101.477
3614 6 34.4705 3.59667 101.477
3615 6 33.2246 5.75467 101.477
3616 6 34.4705 7.91267 101.477
3617 6 33.2246 10.0707 101.477
3618 6 34.4705 12.2287 101.477
3619 6 33.2246 14.3867 101.477
3620 6 34.4705 16.5447 101.477
3621 6 33.2246 18.7027 101.477
3622 6 34.4705 20.8607 101.477
3623 6 33.2246 23.0187 101.477
3624 6 34.4705 25.1767 101.477
3625 6 35.7164 1.43867 101.477
3626 6 36.9624 3.59667 101.477
3627 6 35.7164 5.75467 101.477
3628 6 36.9624 7.91267 101.477
3629 6 35.7164 10.0707 101.477
3630 6 36.9624 12.2287 101.477
3631 6 35.7164 14.3867 101.477
3632 6 36.9624 16.5447 101.477
3633 6 35.7164 18.7027 101.477
3634 6 36.9624 20.8607 101.477
3635 6 35.7164 23.0187 101.477
3636 6 36.9624 25.1767 101.477
3637 6 38.2083 1.43867 101.477
3638 6 39.4542 3.59667 101.477
3639 6 38.2083 5.75467 101.477
3640 6 39.4542 7.91267 101.477
3641 6 38.2083 10.0707 101.477
3642 6 39.4542 12.2287 101.477
3643 6 38.2083 14.3867 101.477
3644 6 39.4542 16.5447 101.477
3645 6 38.2083 18.7027 101.477
3646 6 39.4542 20.8607 101.477
3647 6 38.2083 23.0187 101.477
3648 6 39.4542 25.1767 101.477
3649 6 40.7001 1.43867 101.477
3650 6 41.946 3.59667 101.477
3651 6 40.7001 5.75467 101.477
3652 6 41.946 7.91267 101.477
3653 6 40.7001 10.0707 101.477
3654 6 41.946 12.2287 101.477
3655 6 40.7001 14.3867 101.477
3656 6 41.946 16.5447 101.477
3657 6 40.7001 18.7027 101.477
3658 6 41.946 20.8607 101.477
3659 6 40.7001 23.0187 101.477
3660 6 41.946 25.1767 101.477
3661 6 43.192 1.43867 101.477
3662 6 44.4379 3.59667 101.477
3663 6 43.192 5.75467 101.477
3664 6 44.4379 7.91267 101.477
3665 6 43.192 10.0707 101.477
3666 6 44.4379 12.2287 101.477
3667 6 43.192 14.3867 101.477
3668 6 44.4379 16.5447 101.477
3669 6 43.192 18.7027 101.477
3670 6 44.4379 20.8607 101.477
3671 6 43.192 23.0187 101.477
3672 6 44.4379 25.1767 101.477
3673 6 45.6838 1.43867 101.477
3674 6 46.9297 3.59667 101.477
3675 6 45.6838 5.75467 101.477
3676 6 46.9297 7.91267 101.477
3677 6 45.6838 10.0707 101.477
3678 6 46.9297 12.2287 101.477
3679 6 45.6838 14.3867 101.477
3680 6 46.9297 16.5447 101.477
3681 6 45.6838 18.7027 101.477
3682 6 46.9297 20.8607 101.477
3683 6 45.6838 23.0187 101.477
3684 6 46.9297 25.1767 101.477
3685 6 48.1757 1.43867 101.477
3686 6 49.4216 3.59667 101.477
3687 6 48.1757 5.75467 101.477
3688 6 49.4216 7.91267 101.477
3689 6 48.1757 10.0707 101.477
3690 6 49.4216 12.2287 101.477
3691 6 48.1757 14.3867 101.477
3692 6 49.4216 16.5447 101.477
3693 6 48.1757 18.7027 101.477
3694 6 49.4216 20.8607 101.477
3695 6 48.1757 23.0187 101.477
3696 6 49.4216 25.1767 101.477
3697 6 50.6675 1.43867 101.477
3698 6 51.9134 3.59667 101.477
3699 6 50.6675 5.75467 101.477
3700 6 51.9134 7.91267 101.477
3701 6 50.6675 10.0707 101.477
3702 6 51.9134 12.2287 101.477
3703 6 50.6675 14.3867 101.477
3704 6 51.9134 16.5447 101.477
3705 6 50.6675 18.7027 101.477
3706 6 51.9134 20.8607 101.477
3707 6 50.6675 23.0187 101.477
3708 6 51.9134 25.1767 101.477
3709 6 53.1594 1.43867 101.477
3710 6 54.4053 3.59667 101.477
3711 6 53.1594 5.75467 101.477
3712 6 54.4053 7.91267 101.477
3713 6 53.1594 10.0707 101.477
3714 6 54.4053 12.2287 101.477
3715 6 53.1594 14.3867 101.477
3716 6 54.4053 16.5447 101.477
3717 6 53.1594 18.7027 101.477
3718 6 54.4053 20.8607 101.477
3719 6 53.1594 23.0187 101.477
3720 6 54.4053 25.1767 101.477
3721 6 55.6512 1.43867 101.477
3722 6 56.8971 3.59667 101.477
3723 6 55.6512 5.75467 101.477
3724 6 56.8971 7.91267 101.477
3725 6 55.6512 10.0707 101.477
3726 6 56.8971 12.2287 101.477
3727 6 55.6512 14.3867 101.477
3728 6 56.8971 16.5447 101.477
3729 6 55.6512 18.7027 101.477
3730 6 56.8971 20.8607 101.477
3731 6 55.6512 23.0187 101.477
3732 6 56.8971 25.1767 101.477
3733 6 58.143 1.43867 101.477
3734 6 59.389 3.59667 101.477
3735 6 58.143 5.75467 101.477
3736 6 59.389 7.91267 101.477
3737 6 58.143 10.0707 101.477
3738 6 59.389 12.2287 101.477
3739 6 58.143 14.3867 101.477
3740 6 59.389 16.5447 101.477
3741 6 58.143 18.7027 101.477
3742 6 59.389 20.8607 101.477
3743 6 58.143 23.0187 101.477
3744 6 59.389 25.1767 101.477
3745 6 60.6349 1.43867 101.477
3746 6 61.8808 3.59667 101.477
3747 6 60.6349 5.75467 101.477
3748 6 61.8808 7.91267 101.477
3749 6 60.6349 10.0707 101.477
3750 6 61.8808 12.2287 101.477
3751 6 60.6349 14.3867 101.477
3752 6 61.8808 16.5447 101.477
3753 6 60.6349 18.7027 101.477
3754 6 61.8808 20.8607 101.477
3755 6 60.6349 23.0187 101.477
3756 6 61.8808 25.1767 101.477
3757 6 63.1267 1.43867 101.477
3758 6 64.3726 3.59667 101.477
3759 6 63.1267 5.75467 101.477
3760 6 64.3726 7.91267 101.477
3761 6 63.1267 10.0707 101.477
3762 6 64.3726 12.2287 101.477
3763 6 63.1267 14.3867 101.477
3764 6 64.3726 16.5447 101.477
3765 6 63.1267 18.7027 101.477
3766 6 64.3726 20.8607 101.477
3767 6 63.1267 23.0187 101.477
3768 6 64.3726 25.1767 101.477
3769 6 65.6186 1.43867 101.477
3770 6 66.8645 3.59667 101.477
3771 6 65.6186 5.75467 101.477
3772 6 66.8645 7.91267 101.477
3773 6 65.6186 10.0707 101.477
3774 6 66.8645 12.2287 101.477
3775 6 65.6186 14.3867 101.477
3776 6 66.8645 16.5447 101.477
3777 6 65.6186 18.7027 101.477
3778 6 66.8645 20.8607 101.477
3779 6 65.6186 23.0187 101.477
3780 6 66.8645 25.1767 101.477
3781 6 68.1104 1.43867 101.477
3782 6 69.3563 3.59667 101.477
3783 6 68.1104 5.75467 101.477
3784 6 69.3563 7.91267 101.477
3785 6 68.1104 10.0707 101.477
3786 6 69.3563 12.2287 101.477
3787 6 68.1104 14.3867 101.477
3788 6 69.3563 16.5447 101.477
3789 6 68.1104 18.7027 101.477
3790 6 69.3563 20.8607 101.477
3791 6 68.1104 23.0187 101.477
3792 6 69.3563 25.1767 101.477
3793 6 70.6023 1.43867 101.477
3794 6 71.8482 3.59667 101.477
3795 6 70.6023 5.75467 101.477
3796 6 71.8482 7.91267 101.477
3797 6 70.6023 10.0707 101.477
3798 6 71.8482 12.2287 101.477
3799 6 70.6023 14.3867 101.477
3800 6 71.8482 16.5447 101.477
3801 6 70.6023 18.7027 101.477
3802 6 71.8482 20.8607 101.477
3803 6 70.6023 23.0187 101.477
3804 6 71.8482 25.1767 101.477
3805 6 73.0941 1.43867 101.477
3806 6 74.34 3.59667 101.477
3807 6 73.0941 5.75467 101.477
3808 6 74.34 7.91267 101.477
3809 6 73.0941 10.0707 101.477
3810 6 74.34 12.2287 101.477
3811 6 73.0941 14.3867 101.477
3812 6 74.34 16.5447 101.477
3813 6 73.0941 18.7027 101.477
3814 6 74.34 20.8607 101.477
3815 6 73.0941 23.0187 101.477
3816 6 74.34 25.1767 101.477
3817 6 75.5859 1.43867 101.477
3818 6 76.8319 3.59667 101.477
3819 6 75.5859 5.75467 101.477
3820 6 76.8319 7.91267 101.477
3821 6 75.5859 10.0707 101.477
3822 6 76.8319 12.2287 101.477
3823 6 75.5859 14.3867 101.477
3824 6 76.8319 16.5447 101.477
3825 6 75.5859 18.7027 101.477
3826 6 76.8319 20.8607 101.477
3827 6 75.5859 23.0187 101.477
3828 6 76.8319 25.1767 101.477
3829 6 78.0778 1.43867 101.477
3830 6 79.3237 3.59667 101.477
3831 6 78.0778 5.75467 101.477
3832 6 79.3237 7.91267 101.477
3833 6 78.0778 10.0707 101.477
3834 6 79.3237 12.2287 101.477
3835 6 78.0778 14.3867 101.477
3836 6 79.3237 16.5447 101.477
3837 6 78.0778 18.7027 101.477
3838 6 79.3237 20.8607 101.477
3839 6 78.0778 23.0187 101.477
3840 6 79.3237 25.1767 101.477
3841 7 25.1692 11.3517 22.6988
3842 7 30.5742 26.9922 11.9697
3843 7 56.418 20.98 14.4928
3844 7 47.6386 22.5112 21.8221
3845 7 38.4502 8.35571 16.1258
3846 7 32.7226 11.2597 22.655
3847 7 42.9723 12.0505 10.6231
3848 7 37.123 18.366 13.4195
3849 7 43.0141 29.5525 13.8167
3850 7 39.8812 1.25298 19.9093
3851 7 34.0163 9.24463 27.0446
3852 7 30.7324 7.84209 22.6292
3853 7 42.6953 6.49005 21.8434
3854 7 50.191 21.9465 14.8981
3855 7 36.6359 22.0044 16.2599
3856 7 40.6832 18.845 15.9674
3857 7 38.4466 23.7131 14.1967
3858 7 39.6938 20.0473 11.7389
3859 7 41.4164 25.9817 15.3581
3860 7 45.9489 28.8656 12.4332
3861 7 29.4469 14.4176 24.7831
3862 7 26.4368 15.9928 11.4034
3863 7 53.6443 17.8776 21.9386
3864 7 42.9428 4.78849 17.6207
3865 7 45.4064 5.86296 28.2034
3866 7 48.6913 6.26651 11.9723
3867 7 30.0643 9.62489 19.0832
3868 7 51.8223 16.8584 18.0022
3869 7 33.4965 18.3249 21.6883
3870 7 54.1225 21.9915 17.9696
3871 7 48.0508 0.641828 13.6335
3872 7 28.6938 15.4902 13.0828
3873 7 28.0042 25.9458 14.7498
3874 7 34.2502 7.34493 23.6127
3875 7 46.0242 22.6333 14.8952
3876 7 35.0625 24 12.8869
3877 7 37.7925 7.55389 19.0897
3878 7 56.9447 5.79189 19.0215
3879 7 25.9281 6.43666 17.48
3880 7 34.6694 4.09826 24.3572
3881 7 52.4507 28.915 8.53092
3882 7 30.6176 21.6033 24.7086
3883 7 35.6191 17.6358 20.0523
3884 7 37.0171 10.4493 27.5967
3885 7 26.274 20.714 19.9191
3886 7 57.5398 20.7226 11.5593
3887 7 34.0144 27.3413 17.9288
3888 7 30.236 29.8133 9.99694
3889 7 39.0661 11.0227 15.0664
3890 7 41.6464 22.7056 14.2723
3891 7 57.6545 5.99183 10.9789
3892 7 48.0539 10.9617 21.8188
3893 7 23.0707 14.1872 10.6948
3894 7 24.4377 12.4711 14.7655
3895 7 42.9654 6.93338 26.7078
3896 7 38.8417 25.3149 18.4227
3897 7 46.5018 13.8078 14.3132
3898 7 44.0856 27.6889 8.15082
3899 7 36.5774 2.08144 20.0472
3900 7 24.1489 11.2163 18.5708
3901 7 49.1786 8.50367 17.2085
3902 7 52.887 9.08201 21.859
3903 7 51.3436 4.22302 17.0436
3904 7 28.021 18.4255 17.7919
3905 7 37.9583 10.5364 11.1596
3906 7 45.5213 13.9012 17.8211
3907 7 23.7673 26.7201 17.7672
3908 7 39.054 23.8692 26.5081
3909 7 30.3904 14.0925 17.7278
3910 7 25.3266 21.0288 10.7819
3911 7 37.1613 7.97705 23.6195
3912 7 39.547 21.9493 22.3989
3913 7 39.8034 13.0401 27.4577
3914 7 44.7245 16.3529 19.6307
3915 7 23.7726 27.9214 12.7939
3916 7 30.8404 6.03188 18.2298
3917 7 58.1133 27.591 7.42648
3918 7 31.0899 4.02004 20.1983
3919 7 54.0935 2.58119 19.655
3920 7 34.7345 14.2827 10.7978
3921 7 41.3359 23.5254 10.8907
3922 7 36.1374 11.257 19.3087
3923 7 45.3199 7.37927 24.0517
3924 7 21.7315 10.6831 11.4953
3925 7 44.5403 19.8868 14.4908
3926 7 41.9475 15.7824 12.4135
3927 7 42.7431 3.08076 12.4116
3928 7 55.8487 2.8692 13.9004
3929 7 49.3827 11.2285 14.4249
3930 7 36.5774 14.9905 20.0368
3931 7 55.5327 7.99203 20.1485
3932 7 29.9946 17.1536 19.9887
3933 7 29.9895 8.88812 25.7465
3934 7 40.815 27.9881 8.97778
3935 7 33.984 20.8499 15.6425
3936 7 33.1672 25.1737 24.1563
3937 7 52.4479 28.2742 11.6053
3938 7 28.6006 7.7523 16.7977
3939 7 53.977 18.2112 16.5456
3940 7 42.0708 18.8415 23.6589
3941 7 43.065 6.91667 11.1606
3942 7 35.022 15.3269 14.0449
3943 7 43.306 21.4535 18.2077
3944 7 46.4839 17.7797 15.5596
3945 7 42.4028 29.1618 17.8135
3946 7 45.5848 25.8072 12.2127
3947 7 29.749 22.1792 16.2811
3948 7 41.8624 20.4492 27.0718
3949 7 56.1061 9.7491 15.5952
3950 7 51.895 12.4278 18.8711
3951 7 31.8239 1.07342 19.8153
3952 7 51.812 5.38897 11.5409
3953 7 44.9948 19.6119 21.322
3954 7 27.0674 11.815 20.1304
3955 7 26.2023 7.76155 14.5255
3956 7 50.8475 27.5683 15.6067
3957 7 52.2745 15.1721 20.0777
3958 7 28.207 21.7319 10.3468
3959 7 32.3227 28.7732 23.3353
3960 7 47.5636 5.15083 26.1747
3961 7 31.465 13.3302 28.9988
3962 7 31.1423 9.12214 12.0395
3963 7 37.9802 6.01411 26.4413
3964 7 43.6295 9.70621 24.1973
3965 7 32.5558 7.01809 10.448
3966 7 31.4926 25.1921 18.4748
3967 7 50.157 24.1262 17.1178
3968 7 32.6624 27.3159 6.90044
3969 7 37.6808 18.5659 17.1836
3970 7 39.178 17.5928 22.8535
3971 7 41.6385 5.82987 24.7318
3972 7 24.4415 0.342471 12.235
3973 7 41.2482 28.7008 23.6905
3974 7 39.3915 26.3502 12.7287
3975 7 42.6074 12.3453 22.9519
3976 7 40.9389 25.9026 25.0838
3977 7 44.2343 23.799 16.8142
3978 7 47.5902 16.1325 24.9605
3979 7 24.9863 22.2108 23.2498
3980 7 29.6119 4.20899 11.6747
3981 7 50.7514 22.9507 11.0546
3982 7 36.7996 25.9758 21.0228
3983 7 36.3774 3.80394 17.27
3984 7 44.5145 12.1216 20.6317
3985 7 22.8894 21.1831 12.4173
3986 7 52.1644 11.5555 14.5947
3987 7 35.5316 15.6226 17.0947
3988 7 44.3347 15.5593 10.5282
3989 7 36.5132 23.0373 10.5558
3990 7 53.01 8.52847 14.7857
3991 7 44.9027 19.1683 17.4437
3992 7 36.2781 23.2937 27.5664
3993 7 44.5234 21.6205 25.0163
3994 7 39.1634 2.14119 15.6243
3995 7 22.7278 22.7038 14.9746
3996 7 35.6183 9.20965 16.1935
3997 7 43.0437 2.35445 19.4643
3998 7 36.5116 14.7932 24.0061
3999 7 47.5299 27.8349 9.17736
4000 7 37.6365 7.08601 12.0059
4001 7 35.4634 28.3033 8.1921
4002 7 53.4302 16.9209 10.7453
4003 7 34.6791 20.0517 18.6296
4004 7 46.3374 4.05047 10.4994
4005 7 49.4021 26.406 10.769
4006 7 29.2831 24.4385 11.2305
4007 7 34.4176 21.3893 26.748
4008 7 29.4994 20.6361 13.1855
4009 7 51.3391 14.9 15.8681
4010 7 23.5283 17.5647 10.7876
4011 7 41.3718 23.7501 19.657
4012 7 55.5077 14.9416 19.166
4013 7 56.8189 9.37531 12.0456
4014 7 42.9488 10.903 13.9934
4015 7 47.5875 20.0322 23.3294
4016 7 37.3825 4.84795 14.6893
4017 7 48.7334 7.956 24.0754
4018 7 51.3606 19.2704 19.0797
4019 7 48.1926 5.65187 22.9333
4020 7 42.1914 27.7494 11.5901
4021 7 39.286 20.3526 25.6124
4022 7 43.1515 1.3428 25.5191
4023 7 43.9438 26.7111 24.7815
4024 7 54.0479 19.2752 13.7993
4025 7 46.0759 29.8889 19.5614
4026 7 41.9171 13.8337 14.8221
4027 7 32.8605 4.31421 11.6719
4028 7 56.0991 14.8421 11.088
4029 7 37.7623 22.0335 19.1497
4030 7 39.6617 4.94267 22.4505
4031 7 55.2921 25.9686 15.5127
4032 7 32.0537 11.977 13.5361
4033 7 47.9122 23.9673 12.3536
4034 7 24.5672 20.837 14.5155
4035 7 37.3897 27.1863 10.2136
4036 7 34.188 10.3119 24.6661
4037 7 47.945 15.1254 22.2558
4038 7 46.4004 28.3991 23.3845
4039 7 32.4981 20.3215 10.7376
4040 7 35.7464 24.3932 18.3748
4041 7 41.1853 2.8318 22.6723
4042 7 32.5005 7.49891 14.9083
4043 7 39.6412 4.7531 19.0196
4044 7 32.195 13.2049 25.5315
4045 7 47.2812 1.51369 16.5859
4046 7 55.1564 29.1829 17.7658
4047 7 34.671 18.6144 24.3306
4048 7 47.7242 26.9081 16.6974
4049 7 38.0183 28.8204 21.2372
4050 7 52.5341 20.2644 21.5846
4051 7 22.8799 7.44132 16.5988
4052 7 53.666 7.69953 10.787
4053 7 29.6743 1.75245 24.5458
4054 7 48.8121 1.38184 10.6662
4055 7 28.7274 1.48524 15.2182
4056 7 37.6529 29.7434 14.0069
4057 7 44.4756 22.8735 22.1064
4058 7 54.658 25.8893 19.2152
4059 7 38.765 14.7034 14.5047
4060 7 31.7375 6.72487 24.9642
4061 7 21.0037 27.9052 8.28623
4062 7 52.2761 9.79342 18.0213
4063 7 26.4238 1.7926 18.1781
4064 7 28.3078 21.7288 22.5115
4065 7 57.1099 2.30624 10.5058
4066 7 34.8133 7.17353 12.866
4067 7 31.5238 17.4918 16.4436
4068 7 46.4861 2.98271 21.2699
4069 7 35.5149 1.15377 25.286
4070 7 50.2145 27.3989 19.0942
4071 7 53.33 6.05003 20.3131
4072 7 28.7102 10.4919 13.0791
4073 7 51.1012 17.5422 13.1661
4074 7 45.3388 9.37791 10.6799
4075 7 40.9688 8.37975 19.0133
4076 7 33.6303 1.11855 17.2773
4077 7 32.4375 13.9794 15.9756
4078 7 32.9505 28.1447 15.304
4079 7 25.9561 15.2819 14.6671
4080 7 34.0196 2.25524 22.0339
4081 7 39.9778 14.8926 23.4017
4082 7 27.857 26.9024 19.0417
4083 7 36.2552 11.8852 14.7315
4084 7 46.2622 27.5266 6.53529
4085 7 39.9938 2.15099 12.2209
4086 7 25.7122 2.10492 21.4541
4087 7 42.3019 5.61388 14.0209
4088 7 42.0407 13.2679 25.7907
4089 7 53.7138 1.4511 10.8542
4090 7 40.3147 21.377 16.9563
4091 7 48.4496 19.2774 18.5861
4092 7 42.608 10.9634 17.2498
4093 7 26.4224 18.4879 22.1544
4094 7 39.4482 9.96961 24.2992
4095 7 28.3968 6.66092 20.5098
4096 7 33.6342 26.7983 11.3188
4097 7 37.5862 0.266665 11.3447
4098 7 34.7188 11.4566 10.7519
4099 7 37.1008 17.5335 25.9885
4100 7 44.411 3.41009 15.4804
4101 7 47.5247 19.8071 12.392
4102 7 26.1555 18.4846 13.0829
4103 7 23.3354 29.8016 16.1669
4104 7 45.3575 6.95902 16.1708
4105 7 30.4114 2.35366 17.2879
4106 7 32.084 23.645 16.0379
4107 7 32.6556 3.9214 16.8192
4108 7 41.051 20.9102 20.1565
4109 7 26.0293 23.961 19.2479
4110 7 25.5511 15.6352 18.0005
4111 7 52.8282 28.6744 20.9165
4112 7 34.5854 12.329 27.392
4113 7 27.779 10.6223 15.9768
4114 7 44.9218 26.5005 22.0185
4115 7 55.9005 15.3699 15.9761
4116 7 53.2073 5.67433 15.3115
4117 7 50.5579 7.20436 22.1154
4118 7 51.4993 1.98385 14.0866
4119 7 23.9994 9.96771 12.7986
4120 7 36.0055 21.8366 22.6966
4121 7 28.4014 3.23778 20.0742
4122 7 42.4171 17.4103 20.9139
4123 7 51.5281 29.9892 16.415
4124 7 45.4279 25.561 27.4576
4125 7 33.4128 16.4805 11.5447
4126 7 48.2793 12.6555 11.271
4127 7 45.0267 12.3455 24.7577
4128 7 54.1142 13.9169 13.2653
4129 7 43.7334 26.0003 18.9521
4130 7 41.4269 26.3346 21.3152
4131 7 44.287 0.676026 21.6258
4132 7 56.7689 6.7866 15.9753
4133 7 36.4889 9.58705 13.0743
4134 7 46.909 17.3752 11.1415
4135 7 35.1028 26.6771 27.7311
4136 7 50.232 6.51415 14.4297
4137 7 29.4125 17.6507 10.5386
4138 7 37.6547 1.7694 22.984
4139 7 25.8007 3.70895 11.7203
4140 7 29.9922 4.97332 23.3008
4141 7 46.7549 7.70847 21.0771
4142 7 36.8636 25.8708 25.5118
4143 7 35.6294 4.6968 21.5286
4144 7 56.3727 18.0168 14.8443
4145 7 44.3674 0.921712 16.8345
4146 7 40.7154 8.64475 13.8953
4147 7 38.7099 14.4356 17.8716
4148 7 44.3319 4.11297 24.566
4149 7 28.713 13.2871 14.6358
4150 7 33.0721 10.032 18.7242
4151 7 39.2951 27.9497 26.6988
4152 7 56.1108 29.0635 13.7168
4153 7 30.2989 28.3339 21.0968
4154 7 56.8112 12.8108 14.6944
4155 7 32.7074 6.32116 21.1719
4156 7 26.0551 9.00925 10.7385
4157 7 44.9494 16.6201 27.8338
4158 7 31.0199 10.3086 16.0676
4159 7 36.4871 28.3757 23.7926
4160 7 27.6473 6.54446 10.7923
4161 7 38.3993 1.28915 27.2309
4162 7 54.4393 25.3098 11.492
4163 7 39.2251 29.0348 18.0091
4164 7 31.4407 12.0194 19.879
4165 7 45.5385 21.4745 11.2058
4166 7 51.0535 8.24122 11.3045
4167 7 28.1801 27.0408 10.7256
4168 7 30.681 13.9057 11.152
4169 7 41.6962 14.0844 20.299
4170 7 34.4556 16.5739 26.7235
4171 7 41.6885 1.28093 16.0095
4172 3 45.0536 25.852 48.8767
4173 3 50.8631 26.4012 83.9599
4174 3 60.9824 11.164 60.4732
4175 3 7.19291 24.4577 15.4718
4176 3 2.25392 18.7772 31.0156
4177 3 31.191 17.5329 49.5447
4178 3 73.1417 19.1797 35.2712
4179 3 24.3945 6.35608 35.7698
4180 3 79.3033 0.260351 76.8358
4181 3 69.6435 0.787263 33.4694
4182 3 46.6871 12.1797 44.4321
4183 3 0.574503 6.48994 15.5122
4184 3 7.18799 2.71085 41.121
4185 3 23.369 15.598 75.2667
4186 3 37.4778 14.6666 33.9188
4187 3 67.0739 27.1604 62.0581
4188 3 1.68989 1.8689 81.6149
4189 3 75.6471 20.2109 70.9237
4190 3 66.1426 8.08761 11.3095
4191 3 42.812 14.024 78.258
4192 3 69.3316 2.03402 22.9454
4193 3 23.6744 11.6704 36.8935
4194 3 55.1919 27.3971 79.1795
4195 3 65.2573 16.558 61.254
4196 3 24.2532 6.11136 59.0325
4197 3 15.4196 23.8009 90.1075
4198 3 35.1322 20.66 43.1785
4199 3 4.72062 9.01925 13.5702
4200 3 54.1864 4.87968 86.2028
4201 3 2.49528 9.41999 45.1991
4202 3 47.6203 10.5445 85.6915
4203 3 70.8447 0.508754 15.4088
4204 3 59.6914 6.93373 63.0915
4205 3 54.0026 9.59677 36.0139
4206 3 32.7668 9.25371 46.4578
4207 3 70.2405 10.3295 81.52
4208 3 61.5067 25.8264 42.4118
4209 3 59.9989 25.012 55.1958
4210 3 6.25989 20.2924 35.345
4211 3 72.1137 9.1827 23.2325
4212 3 31.8055 18.0211 79.7854
4213 3 10.7104 18.6653 63.7603
4214 3 40.812 8.70617 73.8701
4215 3 47.4773 24.007 52.2641
4216 3 67.2662 5.22273 18.5283
4217 3 27.9935 15.4256 27.2027
4218 3 3.82728 29.187 82.9322
4219 3 60.5582 20.5734 11.8949
4220 3 24.3391 27.2361 56.2173
4221 3 8.0479 15.0895 71.3967
4222 3 13.5194 18.4014 68.6429
4223 3 72.4608 15.5637 71.4385
4224 3 22.5187 21.9106 69.7151
4225 3 7.67185 29.1199 67.1524
4226 3 34.318 19.9835 54.8356
4227 3 20.2993 17.0592 89.6821
4228 3 57.5486 26.5965 89.6776
4229 3 10.6466 8.2699 11.3393
4230 3 24.4532 20.1424 31.7125
4231 3 32.7946 13.6966 34.5991
4232 3 25.5533 20.5472 78.1857
4233 3 44.1736 1.44696 60.4659
4234 3 60.9923 18.7767 86.0419
4235 3 72.961 10.201 37.4639
4236 3 15.5854 18.8094 58.0356
4237 3 9.82509 14.4071 43.2792
4238 3 49.4506 10.5537 48.8118
4239 3 76.2662 2.55699 13.6328
4240 3 48.1434 0.562532 32.2455
4241 3 53.5424 28.8407 91.2549
4242 3 60.4026 15.113 71.8941
4243 3 41.4034 15.8815 87.6253
4244 3 37.6209 20.0823 81.2559
4245 3 77.9103 9.8436 72.5159
4246 3 19.9707 5.23134 20.4984
4247 3 7.33659 3.73383 85.0823
4248 3 53.3424 18.723 71.8319
4249 3 1.23554 27.5429 31.6368
4250 3 43.3498 7.71134 56.6949
4251 3 6.51571 27.322 58.7264
4252 3 47.8654 0.555767 62.0592
4253 3 38.8414 21.6988 72.3079
4254 3 37.1663 6.91244 71.3542
4255 3 41.5618 27.4414 75.6802
4256 3 65.0412 28.9345 58.4
4257 3 3.98376 3.42835 75.4256
4258 3 31.7345 6.48119 77.917
4259 3 21.0885 5.61717 73.9839
4260 3 61.0395 23.4705 89.7165
4261 3 7.79544 8.29859 73.8167
4262 3 8.24589 4.41749 36.8756
4263 3 45.1495 21.5952 33.93
4264 3 67.1864 27.1856 66.7624
4265 3 10.7979 21.119 77.2156
4266 3 29.4453 3.49215 79.4496
4267 3 56.6018 18.1554 49.537
4268 3 20.3475 10.1991 35.9834
4269 3 79.1082 0.979739 27.9277
4270 3 14.6519 22.9128 16.8943
4271 3 6.51548 21.5082 47.5211
4272 3 11.52 2.93079 35.5597
4273 3 69.8057 28.2819 58.8914
4274 3 67.543 13.4993 20.5286
4275 3 67.9285 7.77208 52.5606
4276 3 77.8156 2.3255 87.933
4277 3 35.2324 25.4407 70.4616
4278 3 72.886 7.25382 81.1027
4279 3 41.578 5.05182 42.3836
4280 3 14.1974 18.7495 84.1655
4281 3 38.2177 10.5684 78.0323
4282 3 13.9496 9.60463 74.6164
4283 3 39.7737 11.919 71.117
4284 3 25.0418 6.76412 43.3843
4285 3 16.5708 20.4483 62.4327
4286 3 70.4611 5.87517 43.2838
4287 3 9.39529 8.45966 41.4541
4288 3 4.68085 0.216458 37.0975
4289 3 73.8002 7.86095 34.3236
4290 3 61.6455 6.65486 11.0825
4291 3 17.0872 3.92518 40.8617
4292 3 68.7736 12.6763 55.4646
4293 3 49.5901 16.8899 39.6968
4294 3 70.3311 11.6048 27.5142
4295 3 15.024 12.8923 35.4895
4296 3 46.9274 7.33041 34.4312
4297 3 35.8141 27.9488 50.6561
4298 3 71.4922 6.17581 28.239
4299 3 75.8006 24.0027 56.1516
4300 3 30.0615 23.701 62.2113
4301 3 5.46466 27.4991 88.8144
4302 3 77.0912 11.7326 36.1219
4303 3 69.4187 20.337 77.0824
4304 3 34.407 6.25973 67.3774
4305 3 29.6603 20.0287 65.4866
4306 3 60.7516 19.359 19.3535
4307 3 57.1643 1.74369 55.0145
4308 3 1.73884 12.2187 35.4597
4309 3 63.4735 14.7841 43.7215
4310 3 56.4374 13.6769 86.3134
4311 3 18.2392 14.337 26.1185
4312 3 50.7992 25.4881 37.0066
4313 3 73.9589 10.1799 62.5893
4314 3 77.624 15.037 79.6817
4315 3 16.2211 27.9447 47.7582
4316 3 18.3581 24.391 53.5094
4317 3 5.76915 1.27338 71.5576
4318 3 32.1488 1.66721 75.9982
4319 3 70.3898 28.0355 48.2828
4320 3 14.909 5.88484 50.7456
4321 3 5.10766 13.3573 62.6937
4322 3 11.5255 23.0266 65.3878
4323 3 12.5395 12.8079 55.0566
4324 3 25.7178 19.0869 59.2523
4325 3 69.3355 14.1338 23.9861
4326 3 55.3372 22.076 45.8132
4327 3 65.9733 9.65989 34.8452
4328 3 49.4244 17.4022 43.2143
4329 3 7.71224 18.5004 25.8266
4330 3 72.3871 11.3398 49.4021
4331 3 33.2225 29.8058 87.9017
4332 3 76.6633 7.03554 45.6364
4333 3 41.7295 11.8496 54.9144
4334 3 50.2677 23.9312 70.475
4335 3 11.8106 2.77802 58.668
4336 3 40.8005 19.7736 36.6427
4337 3 32.3656 11.6743 82.6061
4338 3 64.0738 20.7959 82.953
4339 3 59.5724 5.02937 24.9274
4340 3 63.9309 19.2996 39.243
4341 3 67.6747 21.0252 68.7899
4342 3 1.43765 0.612637 53.7635
4343 3 62.1771 28.889 22.1533
4344 3 7.97217 19.6543 15.1627
4345 3 50.4883 8.30068 43.0142
4346 3 56.873 5.85509 22.0744
4347 3 29.5342 28.1418 53.404
4348 3 68.9066 5.78298 12.7685
4349 3 74.2917 3.56252 34.1622
4350 3 24.4405 24.044 55.9423
4351 3 33.0058 4.1865 32.842
4352 3 57.0393 3.80655 66.0303
4353 3 24.2906 27.1452 68.0675
4354 3 55.6346 5.76996 49.9263
4355 3 29.8362 5.11926 70.9594
4356 3 17.6872 6.37999 63.1074
4357 3 31.2645 2.43137 59.7748
4358 3 10.3095 1.02499 23.7832
4359 3 79.8599 18.7977 65.8778
4360 3 47.7256 6.78384 51.827
4361 3 0.172891 23.1641 74.7925
4362 3 37.3655 4.35051 63.0979
4363 3 14.2235 22.4414 44.0019
4364 3 23.6182 25.1712 86.6973
4365 3 2.94389 16.0113 64.9086
4366 3 31.2132 7.03205 29.0763
4367 3 19.943 13.1064 45.4495
4368 3 17.6298 2.04976 59.608
4369 3 17.4443 0.696143 43.5974
4370 3 2.27328 6.96659 85.1678
4371 3 65.3222 15.0199 31.5034
4372 3 47.7452 4.43131 40.1371
4373 3 51.3214 16.1746 58.5359
4374 3 57.1102 0.553304 88.4778
4375 3 42.0643 13.7627 42.7597
4376 3 7.37064 15.1528 31.7771
4377 3 22.8188 11.285 28.43
4378 3 69.5076 0.632774 77.106
4379 3 15.8994 4.46405 32.6958
4380 3 20.7759 13.2515 41.8793
4381 3 28.516 12.7671 71.4361
4382 3 59.8701 3.69359 80.98
4383 3 79.6039 26.5223 51.9862
4384 3 63.5007 2.31763 46.5336
4385 3 68.5814 16.9587 75.9751
4386 3 31.6425 27.543 79.5222
4387 3 59.6471 22.4345 79.9626
4388 3 6.39763 27.6225 75.0192
4389 3 40.6933 1.95955 33.2644
4390 3 71.5322 12.1144 42.1819
4391 3 54.6863 5.21395 73.7456
4392 3 1.97286 28.163 11.9313
4393 3 57.5781 22.749 53.8261
4394 3 7.69688 4.75783 26.3533
4395 3 64.9347 18.1945 21.8733
4396 3 79.0363 12.7027 61.6752
4397 3 14.1161 5.99652 47.1002
4398 3 29.891 24.3883 29.3509
4399 3 20.8753 2.88039 45.1992
4400 3 74.6551 16.897 45.2759
4401 3 28.7608 22.4374 77.7251
4402 3 75.4922 19.1746 12.6254
4403 3 10.342 0.10997 86.4795
4404 3 41.3831 11.733 34.9796
4405 3 1.96221 10.408 83.0077
4406 3 44.5427 27.6908 83.6537
4407 3 12.1361 19.7301 42.4221
4408 3 77.9999 10.1905 55.9728
4409 3 40.9151 9.6789 49.402
4410 3 65.5114 1.76707 87.7715
4411 3 42.5068 12.6385 47.6248
4412 3 39.2577 6.69125 77.5837
4413 3 41.4533 2.00339 75.1809
4414 3 51.861 25.0737 58.5665
4415 3 77.1391 1.24892 55.5523
4416 3 7.82033 14.8999 21.2017
4417 3 53.7575 28.544 85.6135
4418 3 44.5935 27.3935 70.8802
4419 3 59.4152 16.4326 35.9222
4420 3 38.0298 15.7318 89.0234
4421 3 72.9328 28.548 67.5521
4422 3 35.2254 24.6623 53.0751
4423 3 64.4571 18.7931 43.9791
4424 3 13.8492 21.3963 71.1665
4425 3 14.8428 24.1501 56.5357
4426 3 7.92313 20.4662 30.2926
4427 3 6.0435 26.2216 37.1785
4428 3 51.9119 9.35863 85.6161
4429 3 30.3313 7.42323 36.1188
4430 3 11.6331 2.51444 88.5672
4431 3 68.7683 6.0389 33.7189
4432 3 69.4712 4.69551 84.9304
4433 3 75.8809 24.2755 27.3558
4434 3 8.39777 24.213 22.0579
4435 3 9.45432 21.7941 35.0989
4436 3 24.5573 25.9156 62.2063
4437 3 17.1881 0.508871 89.5375
4438 3 7.81283 28.863 51
4439 3 52.0656 12.4988 58.4723
4440 3 75.2351 6.388 25.344
4441 3 73.8407 6.48361 53.8429
4442 3 33.5471 21.2279 74.6292
4443 3 3.82132 18.1115 53.1832
4444 3 60.3073 19.6498 31.9483
4445 3 15.5658 3.60631 86.9695
4446 3 63.9889 28.72 78.2296
4447 3 72.9312 18.5615 81.8012
4448 3 44.56 18.9823 49.2944
4449 3 59.3534 21.1607 35.776
4450 3 50.2588 18.8112 52.3215
4451 3 63.0235 28.2897 40.8095
4452 3 59.0969 24.9489 47.4728
4453 3 19.0913 9.44598 83.8734
4454 3 31.1022 2.47488 28.429
4455 3 47.2737 16.7185 32.9935
4456 3 21.3559 29.0103 21.0618
4457 3 58.7741 28.2623 15.2461
4458 3 57.0838 25.136 73.3493
4459 3 37.6272 3.90016 81.0596
4460 3 9.60835 1.49964 52.0323
4461 3 5.23959 11.0212 66.2121
4462 3 73.302 4.22786 59.4922
4463 3 62.2703 8.13975 34.6335
4464 3 2.31076 12.2602 41.1663
4465 3 44.2594 16.4427 65.6716
4466 3 54.7134 0.0457906 47.3149
4467 3 11.9094 7.5163 24.7255
4468 3 41.2535 18.0924 56.0326
4469 3 28.0228 12.4921 90.549
4470 3 75.2059 4.1934 85.721
4471 3 42.165 26.2353 66.7078
4472 3 69.4499 27.1349 41.0916
4473 3 73.4593 6.45036 38.1831
4474 3 60.6847 1.10343 26.8991
4475 3 5.6337 29.2893 30.9863
4476 3 30.2605 0.872676 41.2406
4477 3 43.0423 26.1396 35.2574
4478 3 59.0386 4.76629 54.5987
4479 3 51.4849 6.61408 47.7291
4480 3 78.1111 0.259734 63.67
4481 3 51.3534 19.9542 45.7639
4482 3 10.6698 26.1524 33.8775
4483 3 3.66124 19.5616 65.572
4484 3 28.1523 22.6456 66.8392
4485 3 2.04207 18.4888 21.9725
4486 3 59.8906 11.1598 16.3218
4487 3 0.96626 14.3699 85.5395
4488 3 63.7708 13.313 71.4618
4489 3 3.19081 20.5585 49.4003
4490 3 24.9771 9.41131 81.795
4491 3 6.41564 11.4257 85.9059
4492 3 28.9901 10.8643 41.3478
4493 3 62.9771 17.4623 64.4906
4494 3 27.4334 18.0686 55.9779
4495 3 63.2017 13.8012 28.9103
4496 3 12.0535 17.0908 23.4426
4497 3 65.9314 21.7875 31.4817
4498 3 41.755 28.9894 41.3872
4499 3 47.6218 8.2533 76.3107
4500 3 58.9626 2.44045 68.5308
4501 3 25.7057 9.80914 88.9551
4502 3 50.3576 20.4653 60.7301
4503 3 0.694214 4.66448 26.9137
4504 3 29.5172 12.7025 48.0462
4505 3 37.9167 0.428077 67.3859
4506 3 28.3796 29.9386 90.504
4507 3 17.8599 8.8826 49.7959
4508 3 4.60746 16.8931 70.7087
4509 3 58.0855 0.981558 77.8228
4510 3 44.1523 14.7876 89.3374
4511 3 74.7218 0.226745 89.9217
4512 3 31.83 10.9748 74.2966
4513 3 0.299669 28.8849 72.6303
4514 3 56.8832 9.16994 39.662
4515 3 15.8054 8.34229 86.9335
4516 3 38.517 7.6001 33.6885
4517 3 76.2227 10.6958 41.6988
4518 3 32.4552 2.61625 53.998
4519 3 20.4646 2.78926 64.46
4520 3 70.4594 12.2418 32.0725
4521 3 13.9817 9.76503 50.0586
4522 3 65.9578 1.19416 43.2898
4523 3 74.1691 9.04665 70.2734
4524 3 58.9875 16.9933 59.216
4525 3 2.30555 11.634 87.9279
4526 3 10.9771 25.8324 68.2481
4527 3 69.8431 4.33279 51.124
4528 3 3.33425 8.03486 60.0586
4529 3 54.8878 27.1869 42.1543
4530 3 35.8864 5.54634 59.6659
4531 3 32.3782 18.7676 32.0961
4532 3 61.7468 1.14949 88.9872
4533 3 40.4863 1.36603 80.1708
4534 3 24.7192 29.3897 38.955
4535 3 69.1767 29.473 11.9684
4536 3 76.8333 17.8664 35.0217
4537 3 19.2109 15.7097 22.3216
4538 3 7.54613 13.1753 45.0955
4539 3 75.9738 0.817448 26.5828
4540 3 47.0212 14.8098 62.3843
4541 3 38.4849 19.324 57.0204
4542 3 29.0709 0.660794 71.779
4543 3 21.134 6.22726 31.3325
4544 3 22.3318 20.4823 80.9889
4545 3 34.7284 22.0082 63.8917
4546 3 16.503 11.7816 44.1823
4547 3 29.8039 17.8871 74.758
4548 3 64.1154 26.12 84.7095
4549 3 63.4532 11.1245 82.1318
4550 3 65.1321 1.96266 17.9891
4551 3 38.3434 14.3351 60.6724
4552 3 72.3102 4.7589 69.4261
4553 3 73.4993 24.4406 45.0675
4554 3 6.33123 9.54613 90.9074
4555 3 2.07183 19.9047 75.6307
4556 3 46.986 20.1268 64.0006
4557 3 59.2533 25.2806 11.5372
4558 3 26.4821 29.3106 59.3068
4559 3 17.2537 21.7334 72.9427
4560 3 44.2849 3.00739 84.7122
4561 3 42.2876 5.52312 82.6155
4562 3 71.9662 19.4515 73.2245
4563 3 16.6702 20.7961 54.2768
4564 3 6.4925 1.88202 34.3633
4565 3 75.3319 27.8971 20.5979
4566 3 68.8492 27.4006 24.7828
4567 3 14.6815 0.379874 81.8723
4568 3 75.3117 0.988939 18.496
4569 3 43.4097 17.5641 83.7734
4570 3 25.3221 3.95079 74.8615
4571 3 0.618517 2.86513 37.6963
4572 3 26.1523 18.1662 36.5855
4573 3 3.63808 28.9341 50.8215
4574 3 23.5396 28.0204 82.1104
4575 3 40.9488 4.74144 61.1135
4576 3 8.19038 11.9365 52.4734
4577 3 74.6036 13.4903 24.3682
4578 3 46.3842 29.2348 58.076
4579 3 62.4107 0.256277 82.4841
4580 3 69.9437 16.3672 67.4968
4581 3 15.1856 14.755 85.0079
4582 3 22.7573 21.3187 37.9324
4583 3 60.7989 1.98183 49.8341
4584 3 62.874 15.3056 83.2018
4585 3 69.9469 19.861 60.648
4586 3 52.6606 14.4362 66.4081
4587 3 10.5175 7.88441 53.3379
4588 3 35.6718 8.44871 55.997
4589 3 77.8606 8.3907 11.5021
4590 3 25.4604 1.41835 84.284
4591 3 7.27038 13.5595 75.319
4592 3 29.0511 20.9134 34.0297
4593 3 71.2683 10.3544 76.3335
4594 3 77.8472 29.531 39.4361
4595 3 70.6083 1.30388 73.32
4596 3 2.53984 12.8574 45.7539
4597 3 30.1102 2.64818 44.9768
4598 3 65.0634 8.05374 80.4332
4599 3 38.9893 15.5725 51.6863
4600 3 4.67934 13.5314 55.7705
4601 3 72.5955 22.8712 13.4795
4602 3 44.5575 4.05849 75.4598
4603 3 3.1684 19.4078 37.3003
4604 3 56.0376 13.8956 38.2287
4605 3 48.0496 3.87804 48.3349
4606 3 65.211 19.3709 53.0716
4607 3 1.33537 25.2847 36.688
4608 3 69.8464 20.2284 83.7248
4609 3 4.5176 26.4545 19.0679
4610 3 58.2863 6.47695 88.6973
4611 3 64.8409 16.6355 50.3065
4612 3 52.1155 23.3192 87.2686
4613 3 46.6186 26.9287 75.8489
4614 3 59.6412 9.52621 67.6019
4615 3 29.725 26.9641 83.3907
4616 3 64.7845 8.2399 42.1902
4617 3 26.0226 5.15273 40.1072
4618 3 78.1501 26.0554 41.9488
4619 3 11.2054 23.4924 43.3796
4620 3 50.7064 15.8133 87.2121
4621 3 54.2087 28.0239 55.5627
4622 3 44.2375 20.8275 54.2887
4623 3 60.9209 14.1012 12.3169
4624 3 32.649 22.3834 52.6108
4625 3 77.2721 16.0491 49.7943
4626 3 12.0929 22.6952 37.4758
4627 3 66.2392 16.7256 46.967
4628 3 77.5122 9.14765 61.893
4629 3 61.0847 2.1146 34.7404
4630 3 71.4762 20.3761 15.7574
4631 3 19.1222 26.3546 38.9969
4632 3 21.1247 9.13981 56.8334
4633 3 46.8686 0.713013 75.7426
4634 3 52.0865 18.755 65.2443
4635 3 26.8719 7.64983 54.529
4636 3 64.1631 29.8936 74.8302
4637 3 22.039 22.6344 49.4099
4638 3 2.33879 23.5067 59.9875
4639 3 53.1431 27.5921 72.9909
4640 3 64.625 27.493 33.368
4641 3 1.76292 28.0279 45.7106
4642 3 19.2928 16.6395 81.7059
4643 3 48.692 5.37955 73.3953
4644 3 42.9263 27.7619 30.8315
4645 3 65.2136 1.26492 69.0035
4646 3 32.5712 28.5672 48.9376
4647 3 11.625 24.584 28.1427
4648 3 68.4241 1.28018 38.6936
4649 3 52.7708 8.59359 53.654
4650 3 47.4855 10.8658 61.6033
4651 3 56.0401 4.2489 44.6689
4652 3 11.4655 1.00942 28.0879
4653 3 75.2103 27.9793 29.3417
4654 3 70.562 17.1214 52.6335
4655 3 46.9548 10.2409 52.6967
4656 3 42.3331 1.00662 65.8627
4657 3 18.7674 6.35055 44.412
4658 3 50.8932 11.8452 75.7865
4659 3 47.2398 23.847 42.5893
4660 3 4.18152 9.84427 36.948
4661 3 11.2354 21.0056 48.4636
4662 3 26.6765 19.3713 49.053
4663 3 39.029 20.5566 87.7928
4664 3 58.3251 27.6555 52.8937
4665 3 54.6911 21.4222 29.0468
4666 3 17.2545 14.1962 62.293
4667 3 72.3797 24.8745 88.5428
4668 3 77.1686 20.5822 50.8916
4669 3 6.4948 9.89449 33.4771
4670 3 51.501 2.65598 68.9527
4671 3 62.7333 20.1722 15.2707
4672 3 61.0026 10.8674 29.7908
4673 3 42.7285 11.0685 80.9707
4674 3 12.9611 14.4188 72.8217
4675 3 63.9308 29.674 14.704
4676 3 7.3495 24.5019 68.5055
4677 3 14.1528 8.73277 54.1633
4678 3 11.0533 14.5553 29.0629
4679 3 59.5824 22.7683 22.0998
4680 3 69.843 23.2783 22.8893
4681 3 33.4504 19.1192 88.2078
4682 3 46.5771 23.69 58.0851
4683 3 21.5615 10.5971 20.6638
4684 3 33.158 22.5429 78.2136
4685 3 8.80447 10.303 88.0637
4686 3 23.3444 10.1433 52.417
4687 3 68.7756 20.743 65.2704
4688 3 70.4332 17.1014 29.4898
4689 3 6.73448 27.2446 83.8916
4690 3 78.8957 28.0484 26.1
4691 3 22.6912 23.1881 64.04
4692 3 16.9108 24.9874 65.3252
4693 3 55.1659 15.3567 47.457
4694 3 55.2243 7.22703 33.1488
4695 3 71.8105 22.2572 50.4977
4696 3 10.8148 29.0889 45.6487
4697 3 75.6929 2.13275 22.5259
4698 3 22.8209 14.3111 56.2662
4699 3 56.3292 3.95223 38.2297
4700 3 2.02204 14.732 50.005
4701 3 14.3538 5.29204 77.2063
4702 3 68.502 1.15891 19.2599
4703 3 56.5394 1.70253 42.0994
4704 3 43.7362 25.355 39.5102
4705 3 73.1274 7.96002 10.1135
4706 3 75.4358 14.5924 64.1682
4707 3 54.8703 15.519 29.1295
4708 3 37.9694 26.2336 89.5817
4709 3 66.3424 21.3564 49.0961
4710 3 38.0557 4.26948 39.8948
4711 3 16.2005 25.8039 84.3592
4712 3 48.9703 7.48644 64.9205
4713 3 22.9982 7.39836 23.1946
4714 3 28.0582 21.7446 82.1167
4715 3 67.2651 22.2583 36.9563
4716 3 75.9857 14.6184 75.4893
4717 3 65.5055 15.8802 37.2742
4718 3 19.7245 19.9631 57.7041
4719 3 61.0514 28.6762 56.333
4720 3 79.3947 1.66317 19.7048
4721 3 14.736 19.5763 12.2958
4722 3 16.5201 24.8242 24.6855
4723 3 20.6363 21.5878 31.7091
4724 3 64.5145 7.76508 64.2461
4725 3 8.69796 1.08056 18.3236
4726 3 20.5985 14.9021 65.1898
4727 3 54.0151 8.16838 65.8497
4728 3 25.1158 13.4613 39.3983
4729 3 18.7049 14.0433 71.0328
4730 3 8.42094 13.5833 64.6306
4731 3 50.5699 13.1183 34.6323
4732 3 54.2547 20.978 68.5397
4733 3 56.2967 19.5555 26.168
4734 3 23.5168 14.167 82.2892
4735 3 74.2669 18.4646 31.4416
4736 3 35.2824 3.98484 75.9947
4737 3 5.00225 17.0827 86.0347
4738 3 1.37391 11.8419 53.3647
4739 3 15.1985 28.3643 15.4654
4740 3 65.7021 3.32272 64.9839
4741 3 9.59217 23.457 89.8086
4742 3 42.3254 29.4175 50.0878
4743 3 73.0953 27.3946 33.7216
4744 3 50.2311 12.9676 54.5104
4745 3 9.49873 2.44932 31.9537
4746 3 45.2854 28.8047 46.6949
4747 3 30.057 21.2777 40.357
4748 3 60.2545 20.6975 62.2884
4749 3 77.199 3.00628 42.0747
4750 3 75.4805 3.79529 73.4602
4751 3 43.2945 21.4538 83.0326
4752 3 76.5635 17.4113 72.7651
4753 3 64.7145 2.39295 78.7483
4754 3 5.40935 5.82084 52.2691
4755 3 78.8001 13.8828 56.698
4756 3 11.5026 25.6457 18.4633
4757 3 41.0772 18.3982 68.5014
4758 3 46.7698 12.3753 78.8494
4759 3 38.0318 0.412272 46.7691
4760 3 66.8374 3.96234 57.3169
4761 3 69.3517 4.24222 76.4984
4762 3 33.0648 24.0286 36.8439
4763 3 63.6364 6.01338 28.2707
4764 3 77.0374 8.44274 89.8354
4765 3 72.5106 23.7745 29.5639
4766 3 63.3744 9.67633 22.683
4767 3 5.26111 16.4713 15.051
4768 3 42.6727 26.2946 89.6873
4769 3 27.8988 29.6031 79.992
4770 3 11.062 28.1905 72.5823
4771 3 59.9237 9.79097 22.1252
4772 3 50.3672 26.2264 25.8631
4773 3 59.4443 23.8891 84.2828
4774 3 16.5253 2.75935 68.7875
4775 3 45.1348 2.51663 45.8157
4776 3 9.90762 16.0384 59.3643
4777 3 26.6451 11.6958 52.4403
4778 3 35.7518 11.6231 66.3677
4779 3 41.0551 15.9305 32.0791
4780 3 4.63444 10.8962 26.7481
4781 3 29.6552 8.59168 86.701
4782 3 17.5808 10.1414 40.6234
4783 3 61.4458 16.4101 52.8292
4784 3 33.279 13.3359 69.4448
4785 3 9.39448 22.9975 85.5508
4786 3 19.9954 22.5355 19.8551
4787 3 45.9184 5.62085 61.7229
4788 3 57.4779 20.0876 83.2443
4789 3 25.0389 20.5512 27.5928
4790 3 0.237873 5.26453 77.4412
4791 3 19.6032 18.2596 51.0044
4792 3 24.4219 19.635 43.7688
4793 3 34.3043 20.1361 35.0518
4794 3 57.6738 19.4587 56.563
4795 3 78.5929 13.8339 14.9868
4796 3 8.96207 16.428 12.6972
4797 3 8.25512 3.53914 49.5216
4798 3 44.2732 6.29547 50.7311
4799 3 63.8639 3.33953 52.6586
4800 3 41.7739 10.7141 62.7711
4801 3 16.0053 5.81796 36.8606
4802 3 0.348547 15.594 68.8034
4803 3 72.8497 16.0085 15.5661
4804 3 6.55223 28.7162 45.4538
4805 3 8.86558 8.68072 17.6799
4806 3 32.176 25.499 90.0343
4807 3 19.8216 27.3798 71.8179
4808 3 8.50661 17.1777 39.3704
4809 3 75.9441 16.5584 61.0849
4810 3 4.48344 7.37882 66.0831
4811 3 77.2148 22.7101 33.3096
4812 3 35.2224 26.5034 66.7569
4813 3 5.56795 4.25116 15.513
4814 3 3.88308 24.216 83.5133
4815 3 36.7118 2.71264 51.0829
4816 3 10.3041 27.6958 56.2524
4817 3 2.16765 14.501 10.3029
4818 3 20.5578 9.63371 65.4201
4819 3 8.54387 9.9472 46.0472
4820 3 0.00783597 21.8906 19.5027
4821 3 14.9909 7.19661 66.2539
4822 3 62.0352 25.7894 51.9837
4823 3 14.4726 20.5522 50.666
4824 3 24.4433 27.6458 27.3857
4825 3 42.2107 1.78452 88.3729
4826 3 9.88336 9.30021 29.7266
4827 3 67.2609 25.726 49.5265
4828 3 72.3696 5.7286 22.2502
4829 3 10.1901 10.3933 56.7312
4830 3 10.4178 12.6443 33.5693
4831 3 50.6981 13.4417 84.0593
4832 3 3.79975 29.2133 20.4776
4833 3 17.485 28.6198 23.9834
4834 3 52.2178 16.1057 80.1739
4835 3 46.7996 4.23797 67.2184
4836 3 67.971 23.0999 45.4763
4837 3 73.4581 14.4493 68.1347
4838 3 1.01483 7.3366 35.7113
4839 3 12.358 26.9748 38.9134
4840 3 7.33705 19.6611 80.7444
4841 3 65.4025 2.41704 30.1864
4842 3 60.9044 27.9655 29.51
4843 3 44.1906 3.91517 32.6921
4844 3 0.107522 1.62441 68.7718
4845 3 39.6209 19.5301 32.4614
4846 3 66.6421 22.4175 80.955
4847 3 58.5985 23.9711 18.8177
4848 3 5.82961 10.219 21.4767
4849 3 57.8986 8.13398 59.8872
4850 3 66.828 8.04867 77.132
4851 3 38.8478 1.65144 42.5
4852 3 78.5706 26.3015 71.1429
4853 3 28.0244 1.82763 63.617
4854 3 33.2865 26.0012 59.6754
4855 3 50.8314 4.87925 61.9744
4856 3 21.922 3.72803 36.8812
4857 3 67.1991 20.1683 15.0688
4858 3 33.0693 10.2923 40.4826
4859 3 77.0767 16.7925 38.6893
4860 3 56.77 28.7913 68.4722
4861 3 78.5202 5.45808 64.9509
4862 3 74.5259 24.7093 37.8076
4863 3 61.8986 6.65045 46.1513
4864 3 27.7032 27.8717 43.2879
4865 3 20.9157 23.8711 57.6355
4866 3 39.0573 16.6708 71.6169
4867 3 58.0637 10.0142 49.9888
4868 3 62.4274 4.04645 71.8975
4869 3 16.9875 16.6321 34.1991
4870 3 24.9026 16.963 63.989
4871 3 31.9603 1.12776 69.1297
4872 3 36.6697 19.4565 61.2514
4873 3 40.1358 10.5199 85.9008
4874 3 0.00652043 21.0941 35.5476
4875 3 4.23875 25.7856 42.9265
4876 3 0.0807614 27.7888 21.5785
4877 3 57.4689 10.3305 70.4077
4878 3 6.83148 6.99117 30.3083
4879 3 11.7659 15.1966 50.1801
4880 3 0.205523 13.4136 75.6161
4881 3 17.4156 18.9655 29.4967
4882 3 33.7245 6.5102 84.4574
4883 3 16.2445 17.4698 46.6066
4884 3 37.5596 14.1343 45.4288
4885 3 69.5905 15.393 58.5927
4886 3 10.0537 27.8057 76.0581
4887 3 59.8324 9.90118 56.8283
4888 3 3.06535 20.0888 61.3187
4889 3 65.9569 20.6526 63.1769
4890 3 27.6045 12.4191 30.9307
4891 3 52.5741 12.3775 70.4255
4892 3 10.8215 21.7552 58.8854
4893 3 9.58921 7.33843 61.941
4894 3 74.4108 16.1769 21.6086
4895 3 4.39979 20.7651 57.6718
4896 3 50.6032 27.835 68.6972
4897 3 76.1326 10.1103 52.1682
4898 3 11.1043 2.05388 41.0943
4899 3 2.01023 16.5886 17.9336
4900 3 18.7652 13.9275 13.3407
4901 3 1.66642 2.9358 59.5598
4902 3 60.3541 17.8783 89.0951
4903 3 21.2394 12.8015 86.3059
4904 3 13.8691 6.88892 40.6213
4905 3 77.6268 19.6071 86.8638
4906 3 44.3116 13.8037 50.5589
4907 3 61.6993 8.80213 73.2129
4908 3 24.8499 5.10381 49.9693
4909 3 61.0899 14.6955 24.8433
4910 3 59.8761 16.2321 75.2144
4911 3 62.6075 21.7757 44.0647
4912 3 60.1484 4.21932 21.1464
4913 3 44.6308 12.6053 30.0558
4914 3 71.2839 16.3754 40.3299
4915 3 10.145 20.1389 53.9081
4916 3 35.6807 1.8083 57.2659
4917 3 26.5509 13.0859 65.4727
4918 3 15.5541 21.9532 78.6018
4919 3 21.6501 11.2904 69.2477
4920 3 2.36187 22.1703 25.6089
4921 3 56.2847 14.4993 75.8737
4922 3 4.91097 1.98633 89.9402
4923 3 51.8116 4.98692 56.6385
4924 3 57.3833 22.2232 39.0854
4925 3 39.6646 26.0291 61.2341
4926 3 71.4714 5.81277 65.033
4927 3 27.6076 8.15774 47.8281
4928 3 53.2565 18.3371 88.9593
4929 3 15.8111 12.1362 70.1759
4930 3 18.1413 13.3055 54.8798
4931 3 0.308591 10.573 26.7772
4932 3 77.5792 11.6551 85.4773
4933 3 20.0179 0.689094 49.1736
4934 3 26.3561 28.281 49.2757
4935 3 55.3578 27.6923 30.7046
4936 3 26.5446 27.6092 72.9315
4937 3 52.7079 25.0538 80.0184
4938 3 71.7137 14.3191 63.4741
4939 3 47.0505 6.56506 84.7782
4940 3 63.3689 13.1378 54.8313
4941 3 29.5855 1.23919 56.3644
4942 3 17.2746 16.2831 75.5623
4943 3 56.9303 20.1217 20.9165
4944 3 34.489 12.658 89.4587
4945 3 48.4006 29.8943 26.4247
4946 3 64.0867 5.38438 61.5329
4947 3 54.1777 10.3435 43.508
4948 4 12.8708 21.897 78.4091
4949 4 47.1394 21.3458 53.4053
4950 4 46.7235 21.6802 40.7946
4951 4 30.693 4.66042 43.2377
4952 4 63.4204 8.32339 82.0969
4953 4 52.4724 27.025 78.5531
4954 4 74.1137 16.5439 64.6461
4955 4 44.7399 5.8557 83.5301
4956 4 1.76657 9.52059 49.465
4957 4 33.1881 20.2408 60.9605
4958 4 51.6249 29.9652 87.9191
4959 4 77.0492 3.79447 71.2838
4960 4 1.09168 27.1658 28.8342
4961 4 15.3389 2.04701 84.7111
4962 4 9.98428 25.2898 75.189
4963 4 51.3945 15.6619 26.5423
4964 4 43.7277 0.414945 45.0674
4965 4 49.1475 20.737 90.2181
4966 4 74.7438 8.83617 38.321
4967 4 42.3585 28.6096 84.7778
4968 4 35.4974 11.1209 82.2597
4969 4 31.0695 0.309197 53.9111
4970 4 50.1221 1.02738 54.8384
4971 4 12.3813 0.0347153 88.2268
4972 4 34.5132 8.47026 86.0254
4973 4 47.8908 13.4043 60.5382
4974 4 45.2044 1.24805 67.4099
4975 4 62.8203 0.818516 77.4153
4976 4 13.9039 15.2638 25.2149
4977 4 66.2336 12.5744 79.4989
4978 4 52.8666 20.6948 86.8825
4979 4 28.2596 25.637 38.5636
4980 4 68.2298 3.10106 86.6223
4981 4 59.7588 11.1141 91.1041
4982 4 63.785 29.3465 88.1504
4983 4 4.77646 21.3317 17.3116
4984 4 9.29899 11.9274 71.6791
4985 4 6.9247 26.7371 86.6206
4986 4 1.15792 18.5531 19.552
4987 4 23.3458 18.6557 36.888
4988 4 48.5515 22.2884 85.6069
4989 4 63.8135 25.5517 82.3626
4990 4 70.0572 27.7672 26.8596
4991 4 25.711 25.5607 54.533
4992 4 49.823 12.1609 51.1564
4993 4 66.7395 20.7537 58.0966
4994 4 32.1575 20.0676 85.8404
4995 4 42.5622 3.10484 46.3617
4996 4 45.8945 21.1387 31.3439
4997 4 59.1951 6.3989 22.7473
4998 4 36.3888 12.3772 61.8829
4999 4 0.00743276 6.72239 62.8171
5000 4 34.1675 29.6228 85.4642
5001 4 54.8207 29.144 74.3115
5002 4 39.9022 4.43543 64.0455
5003 4 26.9473 27.6029 61.6375
5004 4 58.7497 8.11667 65.7427
5005 4 77.5013 16.3304 69.4559
5006 4 62.0145 6.10082 25.5797
5007 4 75.5514 17.1027 83.9768
5008 4 56.2864 4.82995 41.9038
5009 4 75.1604 19.6945 33.434
5010 4 3.84008 11.5333 43.9011
5011 4 3.32418 1.66145 73.5991
5012 4 11.8917 6.75198 71.4616
5013 4 17.7019 18.3158 55.955
5014 4 47.6246 25.0782 48.3776
5015 4 69.9642 8.07071 80.1711
5016 4 60.7426 6.33921 58.1657
5017 4 7.33395 14.7284 62.3923
5018 4 73.1893 27.2734 53.0786
5019 4 53.5944 25.191 89.4805
5020 4 35.9872 20.9801 88.1898
5021 4 77.8315 14.1043 39.0936
5022 4 12.7362 23.6877 45.538
5023 4 27.4094 22.5455 53.1659
5024 4 35.797 5.59999 74.1234
5025 4 4.51012 1.73089 20.2819
5026 4 5.10277 2.21336 63.3708
5027 4 17.7459 27.7084 58.7044
5028 4 60.9024 8.98255 15.3585
5029 4 62.0038 1.19788 44.057
5030 4 51.4232 27.9825 35.7961
5031 4 8.95407 3.85354 46.8462
5032 4 33.367 1.11799 58.891
5033 4 74.5451 8.71253 87.8912
5034 4 19.2358 12.6613 31.8515
5035 4 31.4003 22.8439 76.1021
5036 4 33.2062 23.754 30.3915
5037 4 33.3913 26.5771 50.6063
5038 4 11.2553 5.64096 54.5471
5039 4 67.6584 9.89161 25.9769
5040 4 40.3602 17.4335 33.9229
5041 4 53.1567 11.3201 61.8083
5042 4 26.8363 6.62758 29.9724
5043 4 41.4285 11.5642 78.9116
5044 4 65.8069 3.6297 19.8817
5045 4 61.716 23.3827 36.5404
5046 4 2.11781 0.147465 56.1904
5047 4 58.2977 21.4861 19.4646
5048 4 3.12419 15.5394 47.499
5049 4 3.70211 12.6033 49.7368
5050 4 28.9982 12.2308 38.9756
5051 4 41.776 6.85922 38.2009
5052 4 51.774 24.1814 56.1484
5053 4 44.6517 23.4811 82.0682
5054 4 5.95582 28.5311 65.2855
5055 4 23.0397 20.7674 29.5767
5056 4 12.7095 20.4817 11.005
5057 4 29.3018 0.529134 59.0753
5058 4 24.3895 23.2115 84.7312
5059 4 8.53482 8.46111 90.2226
5060 4 62.7824 28.3073 31.7904
5061 4 67.4676 16.7356 49.5174
5062 4 58.1314 24.6979 57.1779
5063 4 64.2896 0.667358 53.3794
5064 4 56.3824 29.6507 29.536
5065 4 33.2084 29.3835 41.7139
5066 4 6.05953 19.5096 86.2395
5067 4 31.8103 3.63096 70.0148
5068 4 1.65378 28.8284 48.475
5069 4 60.2046 26.6962 84.1749
5070 4 58.9527 21.9407 32.9738
5071 4 1.0998 4.15827 80.241
5072 4 51.9953 12.7692 73.6973
5073 4 5.67685 8.41295 26.2499
5074 4 63.8704 4.71763 45.7493
5075 4 52.8227 27.626 53.0122
5076 4 22.9678 12.6585 54.2398
5077 4 25.3864 8.69084 45.3384
5078 4 9.61088 28.0283 27.2158
5079 4 63.4893 2.44032 35.6165
5080 4 67.2844 28.2714 59.6823
5081 4 2.46954 23.3735 80.5199
5082 4 18.3033 10.5268 52.5805
5083 4 17.4121 7.18795 24.6683
5084 4 43.7349 23.5536 34.7678
5085 4 1.7223 4.99127 34.8502
5086 4 15.7585 0.0297881 62.9763
5087 4 59.4895 10.9216 48.0061
5088 4 39.1671 21.3723 34.0672
5089 4 73.9504 29.795 64.6677
5090 4 76.0005 22.563 48.0163
5091 4 0.192202 14.9376 16.8606
5092 4 74.287 25.4632 28.8598
5093 4 27.3976 19.0197 64.2507
5094 4 60.5153 15.3635 27.9718
5095 4 69.9719 4.33995 25.5823
5096 4 65.8134 16.1077 76.4239
5097 4 13.9561 28.3744 83.533
5098 4 17.7406 0.678949 78.6296
5099 4 8.97783 16.309 57.0422
5100 4 77.6656 12.974 67.4751
5101 4 44.1904 4.03951 60.5094
5102 4 25.1958 13.7813 80.3577
5103 4 11.7256 19.9622 22.2038
5104 4 2.74144 14.4451 37.3767
5105 4 61.7391 21.3206 17.802
5106 4 5.56962 12.3511 35.1795
5107 4 65.9158 27.8379 48.8511
5108 4 65.3809 21.2783 44.614
5109 4 38.4493 27.4147 63.307
5110 4 59.0065 28.8394 50.7245
5111 4 49.2855 11.6395 40.1174
5112 4 49.2474 15.0563 85.2846
5113 4 74.0479 17.9318 47.744
5114 4 66.7821 29.7398 63.4963
5115 4 71.4729 27.2586 69.6019
5116 4 55.8547 2.35116 57.6775
5117 4 44.7425 27.6864 38.4609
5118 4 33.9033 1.55983 32.8641
5119 4 38.6971 29.6547 40.4098
5120 4 19.6188 22.1903 56.4033
5121 4 6.35181 21.158 64.5871
5122 4 32.4619 22.0942 35.2978
5123 4 27.1572 14.7607 70.5581
5124 4 70.2351 29.6862 40.6872
5125 4 71.3334 6.31282 47.4166
5126 4 46.2092 4.86161 49.673
5127 4 2.41134 21.7219 73.4898
5128 4 62.625 26.1424 58.5473
5129 4 62.2119 7.49731 62.5973
5130 4 8.74243 9.53123 43.723
5131 4 71.6154 28.9504 80.8496
5132 4 5.21195 26.238 30.9474
5133 4 64.6929 17.3389 33.9845
5134 4 72.5223 15.7587 31.6761
5135 4 37.5144 18.4752 31.0124
5136 4 19.5764 13.1014 15.6088
5137 4 10.3629 17.741 25.3874
5138 4 6.5531 19.4098 57.5146
5139 4 78.2578 20.5516 70.5176
5140 4 51.3224 23.2228 36.2464
5141 4 14.114 19.9927 44.5485
5142 4 71.6604 9.18395 61.8675
5143 4 23.8715 5.65839 56.2026
5144 4 78.7009 8.97035 67.4624
5145 4 30.4779 7.0008 75.3385
5146 4 9.91834 10.0401 54.2049
5147 4 13.909 20.9222 68.6453
5148 4 0.0968858 5.80176 37.6094
5149 4 26.6201 4.51424 64.5983
5150 4 43.1391 0.187925 30.0565
5151 4 5.67936 8.7766 68.1469
5152 4 50.0447 28.3702 66.2576
5153 4 14.8831 17.7452 78.9287
5154 4 71.0265 0.386152 47.2586
5155 4 39.6312 5.55147 80.1605
5156 4 18.9825 11.7271 69.328
5157 4 28.0604 2.86244 84.493
5158 4 69.5045 22.9136 40.6178
5159 4 54.6259 11.4118 87.7007
5160 4 39.566 16.4492 68.862
5161 4 8.26498 7.61523 50.4863
5162 4 65.3047 23.3565 51.0578
5163 4 39.2432 8.74246 75.9247
5164 4 21.54 20.6639 47.4664
5165 4 6.55555 28.4069 35.9677
5166 4 64.762 1.28219 27.8436
5167 4 14.7378 13.3774 53.6895
5168 4 36.2726 7.87553 47.1933
5169 4 71.0549 28.9564 22.8687
5170 4 22.6028 8.58647 49.3058
5171 4 14.8413 15.7762 45.1808
5172 4 67.9723 22.1307 78.5524
5173 4 58.5298 2.25299 52.8048
5174 4 66.1268 16.8607 44.0249
5175 4 45.842 11.5736 83.0797
5176 4 10.0675 3.25784 17.2234
5177 4 17.9264 21.9384 51.9072
5178 4 0.982949 23.5326 34.0951
5179 4 12.3198 10.2643 25.1916
5180 4 12.8485 22.7982 58.2089
5181 4 71.1814 6.87959 11.3948
5182 4 75.3675 22.6817 83.9118
5183 4 2.56717 22.6815 57.4403
5184 4 7.6842 1.92845 90.3874
5185 4 24.5854 4.74139 38.0179
5186 4 29.0315 27.653 81.0637
5187 4 13.3451 5.48547 79.4828
5188 4 41.8413 15.6596 64.7875
5189 4 6.58242 16.4772 17.4271
5190 4 7.60961 2.37254 82.0203
5191 4 59.5308 8.1795 69.5728
5192 4 41.2217 27.2037 72.9799
5193 4 54.5415 7.44177 45.9806
5194 4 66.9538 6.6078 40.9006
5195 4 25.2966 19.2643 55.3622
5196 4 44.0179 18.7008 52.8473
5197 4 44.0091 5.17387 89.4768
5198 4 21.6132 26.7002 83.583
5199 4 9.3878 3.83812 39.4655
5200 4 55.3457 8.4302 58.7773
5201 4 55.1231 12.268 48.9512
5202 4 61.0909 17.0111 45.0384
5203 4 8.81143 22.1812 48.1498
5204 4 35.4602 19.0436 56.9875
5205 4 55.6094 28.9719 83.5765
5206 4 12.9726 3.09172 47.8309
5207 4 37.8417 19.2094 71.3964
5208 4 11.5986 21.2692 63.29
5209 4 52.8157 13.0656 82.7242
5210 4 42.706 19.9571 85.018
5211 4 33.1975 1.01115 48.5337
5212 4 2.36631 29.6052 35.9565
5213 4 24.2549 28.5445 58.4558
5214 4 2.61721 12.3275 28.205
5215 4 27.9436 25.9643 70.5013
5216 4 72.7662 6.91233 24.5809
5217 4 72.2717 4.09616 66.7673
5218 4 32.2445 9.26965 43.9654
5219 4 55.9921 28.9423 90.112
5220 4 14.8626 29.8212 45.1786
5221 4 61.6731 6.6704 75.0385
5222 4 59.9224 25.6214 89.0323
5223 4 24.1683 2.84913 72.6717
5224 4 1.02048 0.324249 79.6799
5225 4 51.4965 2.93545 63.7787
5226 4 25.7564 28.9389 78.1012
5227 4 76.6619 12.5252 56.8427
5228 4 25.6585 13.2522 36.0578
5229 4 69.1056 18.8706 68.2426
5230 4 52.8217 21.7985 40.9203
5231 4 76.7134 29.237 36.9945
5232 4 6.61859 11.6814 64.4164
5233 4 79.5177 8.78118 57.2884
5234 4 15.4975 7.76464 48.9273
5235 4 0.511001 3.82802 89.0019
5236 4 68.8614 28.7852 14.6744
5237 4 74.365 5.7368 35.8453
5238 4 25.5545 16.5042 58.3765
5239 4 24.5072 29.5238 54.1822
5240 4 53.1011 20.6498 31.127
5241 4 10.5573 24.3197 87.5181
5242 4 15.1053 14.5609 21.0272
5243 4 14.9317 14.8574 89.8186
5244 4 61.865 1.92055 21.122
5245 4 53.2466 29.1097 68.4416
5246 4 73.5501 13.9655 82.3163
5247 4 73.6405 20.5862 14.253
5248 4 53.1604 5.29871 69.9418
5249 4 61.577 11.1128 68.8594
5250 4 29.3875 6.01649 27.1342
5251 4 46.2091 13.2023 88.6504
5252 4 33.7918 6.54537 33.2461
5253 4 42.5424 8.43727 44.7524
5254 4 61.1532 27.801 26.6905
5255 4 74.1036 29.7143 32.9739
5256 4 58.7908 14.229 85.0422
5257 4 70.0944 23.4318 88.9115
5258 4 8.9267 15.6613 75.8772
5259 4 5.16395 14.4601 71.7833
5260 4 41.8924 12.4138 50.248
5261 4 71.9226 19.0119 30.5214
5262 4 8.81963 28.5516 44.0541
5263 4 20.6011 9.6494 18.1718
5264 4 39.1367 17.8511 81.1176
5265 4 58.5408 19.2238 61.0107
5266 4 62.4241 25.2148 62.8162
5267 4 79.0939 1.2891 58.663
5268 4 0.0623875 17.4124 77.9532
5269 4 57.5851 2.31476 24.127
5270 4 7.44563 16.6737 84.5627
5271 4 43.9199 18.0874 61.8766
5272 4 26.4533 16.2235 25.3887
5273 4 50.5689 11.7672 68.8411
5274 4 15.1405 25.2205 27.2178
5275 4 49.6437 22.2827 77.9874
5276 4 61.3844 21.0328 76.1461
5277 4 62.84 12.5965 65.7933
5278 4 61.6772 4.24737 11.5623
5279 4 55.4839 20.5005 49.6139
5280 4 16.1215 5.1982 69.731
5281 4 7.59338 6.59645 17.3994
5282 4 68.7601 19.0937 74.5285
5283 4 48.2741 10.995 54.771
5284 4 17.5629 15.9295 83.6725
5285 4 70.6069 10.5738 84.9413
5286 4 40.8406 14.2915 59.9342
5287 4 55.4639 17.8757 47.0264
5288 4 78.9453 15.0891 33.2602
5289 4 59.6447 20.2052 38.1522
5290 4 10.0035 19.0649 49.6259
5291 4 52.4408 28.6187 24.9064
5292 4 16.1576 1.37003 37.9026
5293 4 2.88708 15.9925 22.7529
5294 4 28.5207 8.51283 39.3425
5295 4 1.70187 18.1287 64.1628
5296 4 53.8998 4.84344 51.7576
5297 4 39.4924 11.6743 88.3021
5298 4 6.34114 26.0924 79.6562
5299 4 47.1718 21.3628 59.2414
5300 4 56.4556 11.5744 39.1087
5301 4 27.708 0.284869 42.3852
5302 4 57.6549 7.17478 48.7807
5303 4 1.62837 14.3041 88.0991
5304 4 65.6909 4.86916 29.9674
5305 4 30.1125 19.5155 30.9446
5306 4 64.3772 12.3227 43.9716
5307 4 55.9135 10.2561 52.2833
5308 4 28.5984 23.8101 83.8991
5309 4 54.9019 25.3838 83.0031
5310 4 48.1269 17.1829 45.5927
5311 4 47.1161 7.49069 45.2151
5312 4 4.49236 27.7806 22.422
5313 4 13.0469 8.8228 66.0413
5314 4 30.0456 10.0557 48.4472
5315 4 64.9837 18.3736 62.8494
5316 4 60.4426 4.69947 49.946
5317 4 33.2844 29.5919 36.508
5318 4 59.379 22.4612 13.0562
5319 4 57.7361 14.8414 55.1701
5320 4 21.1001 16.3071 53.5521
5321 4 75.8575 24.082 24.7646
5322 4 0.0545001 13.9002 11.6191
5323 4 55.8184 18.2897 77.6948
5324 4 76.7913 27.2657 12.1403
5325 4 45.5016 11.1237 50.3771
5326 4 78.7661 23.947 27.1828
5327 4 60.3464 26.7534 13.8279
5328 4 78.6243 3.83539 14.9962
5329 4 8.13073 27.0752 68.4795
5330 4 3.33663 5.61255 28.6812
5331 4 18.5151 12.1509 42.3833
5332 4 37.1493 1.84167 87.8635
5333 4 54.2418 18.5876 67.0936
5334 4 64.7981 3.65467 59.3149
5335 4 77.6475 29.0006 28.431
5336 4 45.7927 11.2232 32.0715
5337 4 10.0809 13.3173 87.5384
5338 4 58.5518 22.5196 82.342
5339 4 65.7178 25.41 69.7033
5340 4 79.6672 24.7162 72.9472
5341 4 43.7503 25.0871 54.9959
5342 4 6.32054 29.7932 26.3627
5343 4 61.3466 16.5473 57.3467
5344 4 78.9339 24.0621 18.852
5345 4 11.8443 9.25647 51.5275
5346 4 68.2368 16.658 27.8627
5347 4 14.2745 11.7315 78.6506
5348 4 68.8565 5.0494 73.7306
5349 4 15.2871 12.0735 40.1
5350 4 79.3984 10.25 21.9077
5351 4 50.7245 10.7352 44.6722
5352 4 22.1022 12.4133 22.6835
5353 4 51.3252 14.1473 56.6253
5354 4 57.357 6.03174 74.0124
5355 4 42.3696 8.6356 61.5239
5356 4 14.0826 18.455 19.2475
5357 4 28.5525 22.6234 64.1474
5358 4 25.6779 8.89329 52.6735
5359 4 4.00959 26.4315 74.1162
5360 4 70.7367 13.8763 40.2634
5361 4 22.8732 28.5328 35.7517
5362 4 76.6115 4.81061 88.0038
5363 4 76.5867 0.00205507 20.6925
5364 4 20.9873 12.5333 88.912
5365 4 15.1989 6.1032 61.7928
5366 4 50.1348 6.96147 27.9606
5367 4 65.1053 21.7625 39.4947
5368 4 63.1277 11.1096 28.6512
5369 4 5.30806 14.7373 11.6719
5370 4 24.9444 16.489 46.482
5371 4 37.5614 24.9086 87.454
5372 4 23.9948 7.93663 87.7805
5373 4 38.7326 21.4521 47.2256
5374 4 71.4725 7.91197 36.5692
5375 4 2.12325 12.2444 85.4935
5376 4 4.59228 29.7986 88.7331
5377 4 57.2273 23.2116 77.3841
5378 4 14.9964 15.9856 36.1927
5379 4 69.8696 17.7844 55.1011
5380 4 16.3991 21.3191 29.0494
5381 4 78.9695 27.9642 32.5732
5382 4 27.3928 6.32419 71.1886
5383 4 71.902 7.45863 55.0297
5384 4 49.6701 7.56084 38.0274
5385 4 1.72093 19.5276 42.3695
5386 4 73.4732 21.6286 63.5183
5387 4 73.3781 29.547 19.4696
5388 4 71.3908 11.469 53.59
5389 4 63.0231 18.3115 51.8456
5390 4 3.7589 18.0011 75.3757
5391 4 71.3763 8.11854 21.0965
5392 4 21.9395 24.9786 68.4726
5393 4 53.0117 18.3421 52.8862
5394 4 24.0154 23.1873 61.5649
5395 4 59.1799 25.3065 52.7812
5396 4 77.5621 25.6229 56.3186
5397 4 42.8756 29.4508 70.085
5398 4 72.0884 13.9296 24.0803
5399 4 14.9783 6.35995 34.4758
5400 4 48.1072 27.3472 25.7397
5401 4 22.3937 5.21342 34.4687
5402 4 16.5959 21.8528 86.0262
5403 4 26.1713 4.04975 44.0196
5404 4 44.4921 12.4538 77.17
5405 4 21.495 24.5661 88.1284
5406 4 57.6373 24.2564 44.069
5407 4 2.58829 26.2246 13.4083
5408 4 65.096 9.21329 20.4025
5409 4 55.3755 10.6496 33.5799
5410 4 66.3223 13.2136 23.3401
5411 4 8.25712 7.77447 79.6354
5412 4 68.7399 2.65399 14.9808
5413 4 64.8277 11.2077 55.4886
5414 4 4.65684 22.1253 60.7953
5415 4 51.3545 3.74815 82.7445
5416 4 40.0285 7.91081 88.1021
5417 4 79.0717 21.7376 44.6144
5418 4 6.21082 16.525 51.7436
5419 4 75.5818 10.1342 44.3164
5420 4 49.3041 15.3205 71.7649
5421 4 73.6405 21.2817 73.7484
5422 4 5.4669 11.8853 17.3365
5423 4 46.0366 26.2655 69.0163
5424 4 12.3783 21.6375 74.513
5425 4 52.2836 21.9325 60.5402
5426 4 6.95617 1.54604 85.8317
5427 4 65.1255 13.354 11.4865
5428 4 13.1887 22.4851 41.6855
5429 4 35.4876 3.34731 64.4377
5430 4 79.0469 18.731 84.9157
5431 4 74.6648 25.2133 89.4286
5432 4 42.249 16.1971 43.7065
5433 4 14.2328 20.9877 53.1299
5434 4 79.9569 12.4974 58.1995
5435 4 5.77237 28.4212 52.4937
5436 4 7.6772 18.6011 28.4277
5437 4 20.5851 7.55222 76.6605
5438 4 61.2957 20.3219 88.5484
5439 4 12.1507 24.1306 24.9999
5440 4 72.9459 1.16482 86.9381
5441 4 33.7633 25.3239 72.6453
5442 4 40.3442 3.18302 40.9113
5443 4 28.0462 20.6647 79.5996
5444 4 32.89 16.9035 64.1045
5445 4 20.8073 24.0611 60.4446
5446 4 19.2589 2.93536 67.1811
5447 4 23.321 19.3034 79.0531
5448 4 73.1198 2.41205 78.651
5449 4 77.5739 7.18935 82.4688
5450 4 61.0943 28.2419 19.6239
5451 4 51.9226 25.976 43.3892
5452 4 42.5666 0.736452 58.5137
5453 4 22.7604 21.4593 42.0444
5454 4 62.6104 19.2579 12.9953
5455 4 69.2117 7.45761 63.9253
5456 4 32.7301 4.24401 76.3323
5457 4 37.6461 6.69504 40.97
5458 4 12.6357 24.0458 54.9656
5459 4 77.8088 19.2047 14.7686
5460 4 21.0893 15.1061 46.6749
5461 4 17.113 24.8204 17.345
5462 4 45.6222 25.4792 60.426
5463 4 15.8325 4.90504 16.4895
5464 4 3.42077 6.85075 54.1299
5465 4 8.69779 27.9995 73.9494
5466 4 36.8841 15.5855 43.4511
5467 4 56.9624 2.97824 83.5393
5468 4 39.9799 27.9712 88.8315
5469 4 19.5017 27.3255 29.3985
5470 4 72.2047 17.3628 79.3713
5471 4 6.37136 10.892 88.5292
5472 4 35.0638 15.143 90.337
5473 4 56.1213 12.5405 66.1904
5474 4 43.2694 3.27495 73.52
5475 4 70.7593 10.198 69.5119
5476 4 46.0831 7.48068 74.2728
5477 4 51.3716 2.85736 76.7063
5478 4 3.77111 20.1392 35.0203
5479 4 18.91 6.40843 35.9516
5480 4 62.1355 25.9488 54.598
5481 4 26.079 0.406136 65.8634
5482 4 41.5136 14.9807 90.8728
5483 4 33.1501 20.4168 41.1804
5484 4 16.2934 24.2366 48.5164
5485 4 26.7921 28.634 27.0855
5486 4 66.7562 24.0244 47.6536
5487 4 50.1154 9.89977 83.5367
5488 4 74.5993 4.29619 49.4796
5489 4 71.783 3.51461 34.007
5490 4 0.865306 10.7891 76.3066
5491 4 62.6454 1.0638 71.4897
5492 4 1.72726 2.03526 66.6844
5493 4 33.1718 12.1035 65.5274
5494 4 79.0438 16.6001 56.4182
5495 4 46.4193 7.82364 53.6401
5496 4 0.68815 9.66645 41.6653
5497 4 76.0202 11.3226 61.2265
5498 4 19.1624 14.3183 10.8712
5499 4 39.3546 14.9972 46.985
5500 4 56.8874 11.7386 81.8749
5501 4 2.66091 9.1719 88.0049
5502 4 65.386 24.584 31.5613
5503 4 53.6944 4.13536 38.3023
5504 4 16.6821 26.5917 22.6696
5505 4 15.1907 14.6996 71.2339
5506 4 17.34 26.1816 41.3918
5507 4 63.7659 14.0312 61.3201
5508 4 29.7744 1.63992 77.6818
5509 4 47.2685 17.2043 81.7703
5510 4 77.3393 15.2998 62.7663
5511 4 23.4904 25.3613 26.6106
5512 4 20.4647 28.0231 23.2463
5513 4 78.6366 19.716 33.8929
5514 4 3.95521 5.74968 45.1894
5515 4 30.3914 17.8448 46.281
5516 4 22.4271 11.1251 58.3074
5517 4 7.07089 14.5505 42.6959
5518 4 57.3874 11.1751 74.2015
5519 4 67.3208 26.3417 22.7044
5520 4 32.5171 28.9426 76.5247
5521 4 29.4503 6.03506 33.9996
5522 4 1.79477 13.3582 73.6327
5523 4 35.0539 7.48608 53.7208
5524 4 60.9633 0.893197 67.0882
5525 4 10.3399 22.8171 39.2135
5526 4 65.7663 19.2828 27.6145
5527 4 43.6527 29.4602 62.9644
5528 4 18.1086 3.46363 86.9298
5529 4 36.1475 24.2777 55.7524
5530 4 46.219 7.8353 68.4654
5531 4 1.49256 22.1339 88.0828
5532 4 19.0413 16.8377 65.9462
5533 4 69.9101 22.6399 47.7395
5534 4 74.1162 17.885 71.763
5535 4 22.9315 12.2359 40.0556
5536 4 29.4959 18.952 36.063
5537 4 4.45689 27.3288 46.2881
5538 4 19.2043 4.77337 59.5078
5539 4 59.531 19.0208 83.9883
5540 4 66.8506 28.7388 43.7091
5541 4 44.1604 26.0669 75.4953
5542 4 30.5938 22.7826 59.8525
5543 4 72.7244 3.1407 74.0635
5544 4 26.8226 9.30801 79.9718
5545 4 42.3486 2.88038 81.8735
5546 4 68.3493 1.53498 74.8529
5547 4 28.2206 10.2222 88.168
5548 4 20.0162 10.0538 62.0183
5549 4 15.329 13.3478 67.4417
5550 4 18.0547 18.2721 88.5122
5551 4 62.7112 19.4296 30.8691
5552 4 0.935199 10.1717 15.8526
5553 4 74.2949 9.35582 79.6467
5554 4 22.2233 25.5395 56.2631
5555 4 27.4442 15.5968 55.0923
5556 4 77.0251 4.16817 75.4752
5557 4 45.1063 13.6988 37.6359
5558 4 76.6195 11.0321 27.9125
5559 4 67.4249 5.43763 51.3769
5560 4 0.629059 25.9565 41.6411
5561 4 74.5168 5.52373 57.4399
5562 4 6.32335 13.5449 23.8471
5563 4 62.7682 15.9055 85.6408
5564 4 71.7237 27.6003 88.5856
5565 4 73.5433 12.131 64.0518
5566 4 10.1177 8.72391 19.8717
5567 4 9.34982 3.85281 34.2876
5568 4 34.6979 1.55483 53.1025
5569 4 36.9322 24.2804 75.1566
5570 4 27.2393 20.1758 44.3591
5571 4 37.2879 8.54908 31.5874
5572 4 41.4984 24.4211 63.0045
5573 4 16.0985 12.0684 60.6167
5574 4 11.9432 14.3993 80.6187
5575 4 64.3269 13.3511 36.9842
5576 4 71.7486 2.12626 11.8692
5577 4 71.6021 19.6252 19.2543
5578 4 4.86098 5.39656 77.2072
5579 4 78.216 0.341697 25.1817
5580 4 53.5441 15.9277 87.0618
5581 4 41.4309 2.54461 55.2788
5582 4 2.30076 27.0804 20.1495
5583 4 6.63006 0.397436 40.3552
5584 4 77.4516 0.865174 52.9638
5585 4 77.2116 12.4429 75.056
5586 4 30.5195 28.6489 47.5796
5587 4 62.0314 11.6945 21.9583
5588 4 35.4844 14.822 47.0184
5589 4 5.70499 7.86272 59.4283
5590 4 73.2953 2.72167 54.1087
5591 4 58.6048 16.7944 72.9207
5592 4 2.77476 18.4459 28.6657
5593 4 56.5056 4.71665 54.6193
5594 4 76.5593 14.7558 47.4718
5595 4 78.802 28.293 69.5223
5596 4 73.8188 3.18807 18.3076
5597 4 30.9299 14.7826 49.4456
5598 4 18.0119 19.4994 60.5771
5599 4 37.5877 2.81925 78.833
5600 4 21.0669 14.3253 79.3974
5601 4 47.9962 2.31612 45.0608
5602 4 54.8957 10.9836 69.9153
5603 4 58.1601 13.5673 30.4487
5604 4 78.4107 2.64142 63.1943
5605 4 15.3232 5.097 39.2884
5606 4 68.0881 8.51467 74.7996
5607 4 16.2052 19.4106 71.9229
5608 4 67.3371 2.83221 77.7306
5609 4 78.0855 18.8782 37.2779
5610 4 64.5921 25.0668 18.0932
5611 4 27.5694 12.7906 27.9439
5612 4 11.1673 3.72711 28.685
5613 4 29.7765 19.6615 71.559
5614 4 56.0905 8.09239 35.3961
5615 4 42.8729 22.9526 45.3431
5616 4 6.305 20.3263 32.692
5617 4 75.599 7.92212 63.5661
5618 4 27.283 20.1873 76.2271
5619 4 15.5612 27.4187 74.7028
5620 4 37.6204 11.5197 45.9235
5621 4 72.2096 21.719 34.8682
5622 4 32.175 4.68864 58.4013
5623 4 60.88 12.8266 14.725
5624 4 64.7217 7.36791 14.023
5625 4 40.8698 23.9613 38.2666
5626 4 15.8633 6.06842 89.5749
5627 4 39.9752 13.3928 32.3685
5628 4 11.8336 8.69027 33.6168
5629 4 57.9318 2.73193 44.7764
5630 4 18.7617 23.6099 66.6736
5631 4 49.1007 5.21136 85.9002
5632 4 60.4969 16.0663 41.3696
5633 4 48.5039 0.695747 29.1237
5634 4 33.9962 27.7463 56.6073
5635 4 30.8078 22.221 66.8348
5636 4 22.4859 25.1242 72.8181
5637 4 21.9358 13.4676 63.4517
5638 4 7.95129 0.426567 32.4503
5639 4 74.8417 10.6158 35.2569
5640 4 52.9481 18.0176 61.0368
5641 4 11.2844 15.8888 64.4194
5642 4 76.2852 1.49418 40.1152
5643 4 13.4601 0.520526 79.625
5644 4 34.7858 24.5475 68.0904
5645 4 43.475 19.0014 81.1008
5646 4 43.4445 1.61522 51.4279
5647 4 40.253 25.3109 81.3056
5648 4 34.0452 22.3488 50.6408
5649 4 26.6773 19.8613 33.7593
5650 4 74.2058 10.9262 23.8042
5651 4 6.16688 22.1086 37.1133
5652 4 3.61837 13.1916 53.5954
5653 4 6.721 6.6122 72.0211
5654 4 62.7 6.02473 37.423
5655 4 7.35097 25.6873 54.4669
5656 4 68.5525 21.5286 62.9208
5657 4 8.23128 7.91272 13.157
5658 4 41.7267 14.4468 39.8527
5659 4 7.72803 1.12615 50.1279
5660 4 76.0745 4.03566 26.0256
5661 4 60.4412 12.1462 57.8584
5662 4 7.39289 1.21828 36.6392
5663 4 19.6146 29.6116 90.3251
5664 4 13.4104 26.9761 16.7717
5665 4 22.6881 13.0161 67.6903
5666 4 18.9909 5.66438 29.8257
5667 4 20.6355 27.7657 46.4143
5668 4 37.1407 4.11599 49.0148
5669 4 58.1106 0.0585358 40.7089
5670 4 56.7928 7.64507 90.4923
5671 4 64.5228 6.14978 88.5576
5672 4 42.0212 7.79615 50.8516
5673 4 2.25103 9.7561 34.7502
5674 4 14.5024 1.11997 69.9403
5675 4 77.9846 24.6771 79.5461
5676 4 11.8763 13.4666 47.9986
5677 4 70.0807 16.9976 88.2789
5678 4 59.4071 0.8438 61.5565
5679 4 33.7716 2.96919 27.7382
5680 4 61.4493 25.2203 48.8898
5681 4 61.7741 17.2986 21.8415
5682 4 56.3963 1.68529 67.8886
5683 4 22.7415 10.2923 34.9585
5684 4 9.54034 25.3931 16.5975
5685 4 32.2454 4.03253 88.7131
5686 4 54.197 17.1798 40.6417
5687 4 15.9633 10.2783 73.3183
5688 4 7.4886 9.67665 30.8558
5689 4 20.5237 2.91523 19.4777
5690 4 3.36512 28.1696 42.3172
5691 4 1.62169 21.4324 37.7575
5692 4 10.9594 25.3453 64.7405
5693 4 51.8086 29.588 43.48
5694 4 34.8884 19.6104 81.6262
5695 4 65.0496 4.89329 83.5025
5696 4 78.6604 15.5033 51.6458
5697 4 67.9278 10.7488 33.1161
5698 4 9.83638 23.1405 67.4224
5699 4 40.4002 16.4857 85.1937
5700 4 52.2998 25.5314 71.4809
5701 4 50.6145 25.1752 67.8695
5702 4 45.682 27.8793 51.8609
5703 4 46.7625 3.23161 76.2898
5704 4 27.7649 28.1045 88.4943
5705 4 45.1194 25.3124 42.6725
5706 4 61.7456 14.0563 75.8615
5707 4 60.2678 6.00853 79.3598
5708 4 67.2726 22.3505 66.5748
5709 4 61.2701 26.4111 73.6215
5710 4 50.3962 17.1627 50.2567
5711 4 15.0568 18.2042 48.6211
5712 4 15.335 5.66057 44.3746
5713 4 62.9643 14.4309 52.3757
5714 4 73.1686 16.3041 60.1167
5715 4 31.2058 11.5665 80.4686
5716 4 27.8805 8.02159 84.8028
5717 4 18.9415 3.99402 43.796
5718 4 48.4336 14.5666 34.5745
5719 4 48.7594 14.0367 64.5037
5720 4 22.1651 16.1339 87.742
5721 4 66.7363 29.4381 37.1285
5722 4 47.8845 4.90074 34.5646
5723 4 76.6606 27.6976 40.8597
5724 1 60.8783 19.6439 81.6693
5725 2 60.3682 19.6329 82.5293
5726 2 61.2821 18.7431 81.5097
5727 1 2.80244 8.62945 55.7701
5728 2 3.09613 7.91686 55.1329
5729 2 2.08027 8.27074 56.3615
5730 1 59.7036 14.3925 77.8269
5731 2 59.0838 13.6123 77.9117
5732 2 60.5722 14.0872 77.4366
5733 1 72.6692 2.10672 81.3883
5734 2 73.2631 1.74845 80.6679
5735 2 72.5464 3.09088 81.2604
5736 1 41.0864 22.0865 43.098
5737 2 40.1242 22.3544 43.0493
5738 2 41.5893 22.749 43.6531
5739 1 61.743 21.7335 34.1243
5740 2 60.8281 22.0548 33.8797
5741 2 62.1406 22.3475 34.8061
5742 1 22.8592 17.2295 66.3552
5743 2 22.0972 17.1381 66.9962
5744 2 22.5113 17.2035 65.418
5745 1 0.850264 25.1065 78.9626
5746 2 79.8685 24.9189 78.9934
5747 2 1.34684 24.3563 79.3992
5748 1 76.2479 22.086 11.5667
5749 2 76.5112 22.6463 12.352
5750 2 77.0632 21.8473 11.0391
5751 1 78.5897 17.9625 12.0818
5752 2 79.5474 17.6944 11.9768
5753 2 78.4753 18.4602 12.9416
5754 1 59.897 10.4886 45.2623
5755 2 59.8816 11.3779 44.8052
5756 2 59.9355 10.6233 46.2524
5757 1 67.0123 7.37702 29.0962
5758 2 67.6158 7.4199 28.3
5759 2 66.5977 6.46872 29.1516
5760 1 63.9774 7.97118 52.7011
5761 2 63.9713 8.11723 53.6904
5762 2 63.2796 7.29686 52.4594
5763 1 17.2877 20.354 34.837
5764 2 17.3162 21.3158 35.1091
5765 2 17.3086 19.776 35.6528
5766 1 40.541 17.081 89.8222
5767 2 39.9385 17.6572 90.3744
5768 2 41.0877 16.4982 90.4234
5769 1 77.0896 1.61 60.1224
5770 2 77.8929 1.42593 59.556
5771 2 77.377 1.76941 61.0668
5772 1 76.4116 0.109701 81.9985
5773 2 76.2839 29.1195 82.0544
5774 2 76.6189 0.470941 82.9076
5775 1 76.3836 22.585 40.0128
5776 2 76.5697 21.7107 39.5645
5777 2 76.7898 22.584 40.9266
5778 1 77.7672 15.1204 71.7743
5779 2 77.6798 15.3254 70.7995
5780 2 78.449 14.4003 71.9036
5781 1 47.6274 12.8821 86.4451
5782 2 47.0143 13.1263 87.1964
5783 2 48.117 13.6974 86.136
5784 1 11.5504 11.4947 74.0516
5785 2 10.8154 11.3721 74.7184
5786 2 11.1894 11.3592 73.1289
5787 1 62.2068 20.288 64.1538
5788 2 62.9021 20.9852 63.9792
5789 2 61.5933 20.603 64.8779
5790 1 76.6488 25.4325 69.4262
5791 2 75.8707 25.1302 69.9768
5792 2 76.5449 26.4026 69.2068
5793 1 26.45 5.44265 55.9317
5794 2 26.8138 4.53044 56.1202
5795 2 25.4523 5.42372 55.9974
5796 1 73.5793 11.1276 28.1556
5797 2 73.1649 11.8238 27.5695
5798 2 74.4274 10.802 27.7378
5799 1 6.86537 2.37443 21.6247
5800 2 6.05872 2.18943 21.0633
5801 2 7.22328 3.28199 21.405
5802 1 58.7411 24.0586 87.2085
5803 2 59.1003 24.811 87.7606
5804 2 57.7427 24.1097 87.1847
5805 1 68.2895 20.2973 38.5851
5806 2 68.3814 20.8412 39.4192
5807 2 68.4187 19.3297 38.8021
5808 1 70.735 10.2492 43.4533
5809 2 69.8493 9.88051 43.1711
5810 2 70.9815 9.87631 44.3479
5811 1 44.765 28.4449 49.5901
5812 2 45.0571 28.1269 50.492
5813 2 45.2803 29.2656 49.343
5814 1 78.2975 4.43856 44.5458
5815 2 78.6254 5.37916 44.4576
5816 2 78.2914 4.17687 45.511
5817 1 38.2393 23.3662 35.6502
5818 2 38.8054 22.5803 35.4014
5819 2 38.806 24.0557 36.1012
5820 1 70.5806 28.1602 19.1408
5821 2 71.1175 27.3746 18.8331
5822 2 70.4309 28.783 18.3729
5823 1 17.1362 0.904306 86.6624
5824 2 17.7653 1.67058 86.5319
5825 2 16.3957 0.963186 85.993
5826 1 39.0273 21.7999 55.4464
5827 2 39.5057 22.0243 56.2954
5828 2 38.9051 22.6305 54.9031
5829 1 27.5848 4.88447 49.5653
5830 2 27.9652 5.63957 49.0314
5831 2 28.1541 4.07121 49.4451
5832 1 22.0734 28.7049 28.0803
5833 2 21.1585 28.3095 28.1621
5834 2 22.1801 29.4395 28.7503
5835 1 63.8382 23.8114 13.4733
5836 2 63.7985 22.9233 13.0154
5837 2 63.2665 23.7894 14.2935
5838 1 29.8059 7.69832 90.7677
5839 2 30.3966 6.90388 90.9088
5840 2 29.4922 7.71599 89.8183
5841 1 77.6461 15.3325 35.455
5842 2 78.1238 14.6649 36.0262
5843 2 77.9764 15.2627 34.5137
5844 1 77.6512 25.8807 25.6702
5845 2 78.2137 25.3978 26.3414
5846 2 77.0307 25.2333 25.2278
5847 1 72.3373 13.2822 51.3003
5848 2 71.7139 12.8319 51.9395
5849 2 73.1592 13.5766 51.7879
5850 1 18.8055 28.797 66.7122
5851 2 19.678 29.2579 66.8742
5852 2 18.5605 28.2551 67.5162
5853 1 73.9677 24.3153 64.5056
5854 2 73.4336 24.473 65.3361
5855 2 73.594 23.5292 64.0133
5856 1 40.7596 7.60132 46.6645
5857 2 40.9936 7.68558 45.6959
5858 2 41.5839 7.38927 47.1893
5859 1 35.7367 13.9784 78.9813
5860 2 35.7663 14.7126 78.3029
5861 2 35.2371 14.291 79.7891
5862 1 12.5396 19.3542 86.622
5863 2 13.0765 19.2523 87.4595
5864 2 11.7748 18.7101 86.6359
5865 1 59.696 8.79167 42.734
5866 2 60.2431 8.97577 43.5506
5867 2 58.9784 8.13133 42.9554
5868 1 66.8866 13.7972 77.0833
5869 2 66.3457 14.6311 76.9732
5870 2 66.7893 13.4579 78.0189
5871 1 13.148 3.61091 30.4897
5872 2 12.4236 3.45947 29.8171
5873 2 14.0173 3.27848 30.124
5874 1 6.55885 14.6444 40.3106
5875 2 6.60933 14.5413 41.304
5876 2 5.66349 14.3367 39.9887
5877 1 28.6489 4.29717 46.6351
5878 2 29.2167 4.59373 47.4029
5879 2 27.805 4.83352 46.6179
5880 1 1.30746 11.9362 20.9832
5881 2 0.59384 11.313 21.3032
5882 2 1.23259 12.8066 21.4697
5883 1 37.4936 19.3795 64.0174
5884 2 37.6811 19.597 64.9753
5885 2 36.5515 19.0566 63.9271
5886 1 77.1581 14.0827 31.2745
5887 2 78.0909 14.3696 31.0563
5888 2 76.8758 14.4968 32.1399
5889 1 19.8115 7.73433 63.7207
5890 2 20.6498 7.37399 63.3117
5891 2 19.662 8.67098 63.404
5892 1 5.22877 0.148664 68.0982
5893 2 4.60235 0.779012 67.6397
5894 2 4.79957 29.2487 68.1742
5895 1 5.96897 4.86619 74.2
5896 2 6.83611 5.25639 74.5095
5897 2 5.61879 5.40045 73.4306
5898 1 4.20326 15.2465 77.6963
5899 2 3.48922 14.9737 77.0515
5900 2 4.74764 15.9848 77.2981
5901 1 27.1274 18.048 74.0997
5902 2 26.8739 17.2106 74.584
5903 2 27.3299 18.7684 74.763
5904 1 24.0881 15.5192 70.3065
5905 2 24.5639 15.6123 69.4319
5906 2 23.563 16.3502 70.4904
5907 1 72.6808 17.6103 62.3149
5908 2 73.4367 17.3892 62.9311
5909 2 72.7207 17.0159 61.5118
5910 1 29.3128 21.9588 31.4322
5911 2 30.1382 22.5212 31.4814
5912 2 29.5497 21.0482 31.0934
5913 1 21.0694 16.2734 12.1867
5914 2 20.6016 15.67 11.5409
5915 2 22.048 16.287 11.9812
5916 1 38.3839 27.7588 73.4398
5917 2 39.1617 27.5163 72.86
5918 2 37.7657 26.9762 73.5126
5919 1 47.8971 14.0624 38.3684
5920 2 47.0166 13.6233 38.1894
5921 2 47.9234 14.3829 39.3153
5922 1 35.6789 13.9833 35.8895
5923 2 36.2752 13.5452 36.5621
5924 2 34.8865 14.3788 36.3539
5925 1 34.3813 2.09937 86.2601
5926 2 35.0126 2.13668 87.0347
5927 2 34.291 1.15329 85.949
5928 1 67.2791 27.0907 73.3884
5929 2 67.054 26.1375 73.59
5930 2 67.2026 27.2503 72.4041
5931 1 69.3281 15.7271 63.8474
5932 2 69.9092 16.5102 63.6257
5933 2 68.4155 16.0497 64.0985
5934 1 67.1709 13.1318 33.4845
5935 2 67.8111 13.5768 34.1108
5936 2 67.4447 12.1796 33.3491
5937 1 12.5849 16.8245 70.9643
5938 2 12.0895 17.2674 70.217
5939 2 13.2542 17.4627 71.3449
5940 1 66.6454 28.0419 20.7377
5941 2 67.494 28.5294 20.5319
5942 2 66.7214 27.6039 21.6334
5943 1 23.5037 1.73365 75.205
5944 2 23.0133 0.880238 75.3816
5945 2 23.1443 2.15885 74.3743
5946 1 46.7011 3.49259 83.0682
5947 2 47.5103 3.27943 83.6157
5948 2 46.0669 4.04308 83.6111
5949 1 45.3544 10.7799 57.5348
5950 2 46.2507 11.1818 57.3479
5951 2 45.4474 10.0656 58.2285
5952 1 16.8531 22.0591 15.0364
5953 2 16.8049 23.0536 14.9432
5954 2 17.4619 21.6878 14.3353
5955 1 32.7715 23.6953 27.5581
5956 2 33.1312 23.9672 28.4506
5957 2 33.3804 23.0177 27.1457
5958 1 46.0291 1.79023 41.2089
5959 2 45.9161 2.09384 40.2628
5960 2 46.9888 1.87956 41.4753
5961 1 6.48147 10.8413 54.4517
5962 2 6.0634 10.0633 54.9206
5963 2 5.83318 11.22 53.7912
5964 1 56.8139 1.21354 60.5502
5965 2 57.5802 1.46408 61.1417
5966 2 56.351 2.0422 60.2355
5967 1 17.5919 12.3293 11.3722
5968 2 17.9899 11.4405 11.145
5969 2 18.1198 13.0539 10.9292
5970 1 11.7436 26.0946 48.5591
5971 2 11.9608 25.4132 49.258
5972 2 10.7971 25.9748 48.2594
5973 1 22.986 7.0832 38.3047
5974 2 22.2234 6.9926 37.6641
5975 2 23.4327 6.19581 38.4188
5976 1 75.859 1.64939 76.2755
5977 2 76.4333 2.46395 76.1939
5978 2 75.1955 1.78178 77.0119
5979 1 15.7144 21.0842 91.03
5980 2 16.158 21.2746 91.9058
5981 2 16.1397 20.2834 90.6082
5982 1 8.74985 23.1398 10.7975
5983 2 8.5733 22.7447 9.89601
5984 2 9.48358 23.8156 10.7273
5985 1 3.48467 28.2844 66.5962
5986 2 4.29117 28.5025 66.0467
5987 2 2.67897 28.2462 66.0051
5988 1 52.1312 25.1988 33.4567
5989 2 52.4906 24.3892 33.9208
5990 2 52.4623 26.022 33.9179
5991 1 1.09042 1.7989 62.7891
5992 2 0.2844 2.3556 62.9901
5993 2 1.57346 1.59228 63.64
5994 1 76.5084 2.11531 34.2117
5995 2 77.4801 2.18833 34.4364
5996 2 76.2416 1.1517 34.1951
5997 1 75.2725 4.33695 21.214
5998 2 74.6816 4.41213 20.4108
5999 2 76.073 4.92429 21.095
6000 1 66.3006 3.59712 67.8184
6001 2 67.2953 3.56033 67.7221
6002 2 66.0444 4.42516 68.3172
6003 1 3.97613 22.3932 21.1875
6004 2 4.52489 22.4124 22.0232
6005 2 4.377 23.0114 20.5113
6006 1 22.2184 16.5029 51.2487
6007 2 21.7472 16.4228 52.1271
6008 2 22.773 15.6856 51.0922
6009 1 5.67317 19.9727 53.8606
6010 2 6.46678 20.0107 54.4679
6011 2 5.92222 20.3372 52.9634
6012 1 17.5161 15.5926 89.7744
6013 2 16.5531 15.3516 89.8947
6014 2 17.5832 16.4817 89.3216
6015 1 32.4432 6.23483 70.443
6016 2 32.2342 6.45764 69.4908
6017 2 32.4833 5.24158 70.5518
6018 1 63.7131 22.8619 69.3578
6019 2 63.4436 23.822 69.2833
6020 2 64.4191 22.7674 70.0597
6021 1 5.17324 15.7135 83.4202
6022 2 6.08122 15.6882 83.8384
6023 2 5.18824 16.3231 82.6276
6024 1 68.8017 15.9444 11.8944
6025 2 67.8121 15.9165 12.0361
6026 2 68.9994 16.3508 11.0024
6027 1 31.0243 16.2488 34.5232
6028 2 30.1659 15.7824 34.3096
6029 2 30.9326 16.734 35.3928
6030 1 62.9672 2.89607 83.4369
6031 2 63.6732 2.33737 83.0017
6032 2 63.3776 3.73758 83.7882
6033 1 45.6282 0.990457 56.0808
6034 2 45.306 1.67141 56.7384
6035 2 44.9959 0.948896 55.3072
6036 1 9.82393 26.1737 44.6618
6037 2 9.17278 25.5598 45.108
6038 2 9.33071 26.8039 44.0621
6039 1 64.1438 4.1886 10.5727
6040 2 64.2318 4.00937 9.59284
6041 2 63.1753 4.22824 10.8187
6042 1 42.2588 29.3035 80.6267
6043 2 41.6389 28.7024 81.131
6044 2 42.8501 29.7887 81.2708
6045 1 74.8851 15.8013 35.9933
6046 2 75.6812 15.5989 35.4229
6047 2 74.9044 15.2239 36.8095
6048 1 8.34842 12.1651 56.8757
6049 2 7.99487 13.0992 56.8273
6050 2 7.61602 11.5198 56.6584
6051 1 40.094 5.13264 52.0702
6052 2 40.5264 5.36442 51.1988
6053 2 39.2699 5.68603 52.1909
6054 1 59.8621 14.5488 43.888
6055 2 59.7338 14.9722 42.9912
6056 2 60.4774 15.1134 44.4382
6057 1 1.07339 23.6862 17.4001
6058 2 1.37056 22.7315 17.3801
6059 2 0.266456 23.7719 17.9845
6060 1 0.481089 8.09372 28.1025
6061 2 0.591639 7.83105 29.061
6062 2 1.36895 8.35545 27.7241
6063 1 1.54601 6.45503 79.3159
6064 2 2.50882 6.64079 79.1197
6065 2 1.4724 5.62317 79.866
6066 1 34.8374 4.91775 88.3399
6067 2 33.9178 4.52716 88.2978
6068 2 35.5121 4.18004 88.3631
6069 1 53.4295 29.6313 79.8411
6070 2 52.9353 0.456764 80.1138
6071 2 52.8463 29.0733 79.2507
6072 1 14.2441 12.8083 42.4661
6073 2 14.5349 12.5551 41.5434
6074 2 13.8928 13.7445 42.4598
6075 1 78.5538 4.90754 79.5724
6076 2 78.2889 5.82198 79.8784
6077 2 79.367 4.61101 80.0732
6078 1 39.8299 9.39473 90.1984
6079 2 39.9676 8.71795 89.4752
6080 2 39.872 10.314 89.8071
6081 1 37.8337 26.3539 29.6607
6082 2 37.3884 26.6607 28.8195
6083 2 37.5229 25.4301 29.8845
6084 1 77.6698 10.2824 49.3727
6085 2 76.9641 10.3291 48.6657
6086 2 77.909 11.2078 49.6666
6087 1 7.24461 10.7549 70.2271
6088 2 7.1964 9.75813 70.1623
6089 2 7.95479 11.0123 70.8823
6090 1 13.5278 29.9416 27.1092
6091 2 14.2719 0.595007 27.2486
6092 2 13.3868 29.8011 26.1292
6093 1 17.9404 13.6688 75.396
6094 2 18.6039 12.9678 75.6575
6095 2 17.0139 13.318 75.532
6096 1 11.0731 27.6293 89.0311
6097 2 11.582 28.4664 88.8306
6098 2 11.0555 27.0472 88.2181
6099 1 4.89444 7.96372 45.3677
6100 2 5.66721 8.14752 45.9752
6101 2 4.63988 6.99899 45.4347
6102 1 34.8977 17.8833 79.4908
6103 2 34.9072 18.5387 80.2461
6104 2 35.4386 17.0799 79.7398
6105 1 52.0208 22.7043 48.4165
6106 2 52.8611 22.4378 48.8887
6107 2 51.812 23.6605 48.6219
6108 1 72.5452 11.6007 81.2103
6109 2 73.2272 10.8844 81.063
6110 2 72.976 12.3841 81.6584
6111 1 1.97985 27.9641 64.0665
6112 2 2.68787 28.6457 64.251
6113 2 1.55895 28.1524 63.1792
6114 1 54.8331 12.6708 43.3987
6115 2 55.6363 12.7475 43.9895
6116 2 54.944 13.2701 42.6059
6117 1 22.7225 27.7092 71.6192
6118 2 22.7019 26.7319 71.8299
6119 2 22.9319 27.8368 70.6498
6120 1 72.2285 19.1532 39.8326
6121 2 71.5689 19.1168 40.5834
6122 2 72.1204 20.0141 39.3354
6123 1 63.0282 2.81952 32.2501
6124 2 62.3392 3.2364 31.6572
6125 2 63.723 3.49991 32.4833
6126 1 49.0361 26.584 23.3668
6127 2 48.1811 26.168 23.057
6128 2 48.9137 26.9498 24.2894
6129 1 37.8484 4.93834 58.0532
6130 2 38.5391 5.32126 57.4398
6131 2 38.0609 3.9786 58.2368
6132 1 78.7703 23.5504 24.0557
6133 2 78.0484 23.4272 24.7367
6134 2 79.4804 24.1485 24.4272
6135 1 65.892 18.2702 30.1951
6136 2 65.3351 18.9948 30.6011
6137 2 66.0595 18.4789 29.2315
6138 1 79.5229 1.81935 44.8753
6139 2 79.9925 2.29751 45.6174
6140 2 78.9257 2.45935 44.3917
6141 1 71.8595 7.63506 70.3115
6142 2 71.1035 7.20582 70.8057
6143 2 71.5997 8.56352 70.046
6144 1 8.93948 28.2291 10.3946
6145 2 9.14899 29.0169 10.9738
6146 2 9.1431 28.4526 9.44143
6147 1 43.9723 27.5589 55.8912
6148 2 44.4984 27.54 56.7413
6149 2 43.9452 26.6409 55.4955
6150 1 66.6621 24.7419 72.3137
6151 2 66.2705 24.8628 71.4016
6152 2 67.6372 24.9622 72.2898
6153 1 78.9446 9.4894 86.745
6154 2 79.6375 8.99154 86.2235
6155 2 78.203 8.86629 86.9937
6156 1 35.3714 9.38266 49.3045
6157 2 34.5106 9.79812 49.0107
6158 2 35.6792 8.72924 48.6129
6159 1 61.3292 9.71627 83.3868
6160 2 61.7914 9.27614 82.6169
6161 2 60.3942 9.36858 83.4572
6162 1 42.0795 14.4398 75.4789
6163 2 42.9982 14.1944 75.1695
6164 2 42.0302 15.4277 75.6262
6165 1 37.7081 4.85948 33.7742
6166 2 36.9679 4.20779 33.6087
6167 2 37.9506 4.84912 34.7443
6168 1 52.3807 1.58743 24.0264
6169 2 52.2219 0.897699 23.3199
6170 2 52.9747 1.20757 24.7355
6171 1 18.7323 8.21278 39.3409
6172 2 19.3991 8.46116 38.6382
6173 2 18.9735 7.32367 39.7299
6174 1 54.0646 29.8774 60.4593
6175 2 54.9963 0.24041 60.4669
6176 2 54.0486 28.9906 60.9211
6177 1 28.5835 16.7065 71.349
6178 2 28.1112 15.8771 71.0504
6179 2 28.3852 17.4508 70.7113
6180 1 79.0334 4.77179 50.2943
6181 2 78.335 4.22276 50.7535
6182 2 79.5743 4.18603 49.6908
6183 1 48.1112 2.96995 78.6765
6184 2 48.8827 2.65292 78.1248
6185 2 47.3144 3.10636 78.0879
6186 1 75.5691 17.3976 40.7188
6187 2 75.9082 16.9987 41.5708
6188 2 74.8306 18.0404 40.9224
6189 1 6.51371 18.4854 75.3258
6190 2 6.62575 17.5878 74.8994
6191 2 5.53948 18.6895 75.4217
6192 1 75.9986 2.86543 31.5503
6193 2 76.5351 2.76506 32.3881
6194 2 75.9142 3.83552 31.3227
6195 1 58.0817 2.39079 39.6724
6196 2 59.0257 2.70182 39.5628
6197 2 58.0701 1.39893 39.7992
6198 1 28.1241 9.0104 77.1017
6199 2 27.8903 9.27993 78.0359
6200 2 28.2563 8.0199 77.0638
6201 1 72.0842 9.31821 56.8848
6202 2 71.9915 8.61511 56.1797
6203 2 72.5518 8.93292 57.6803
6204 1 20.6509 24.1414 70.607
6205 2 21.2049 24.1668 71.4391
6206 2 21.1169 24.6468 69.8807
6207 1 75.1423 25.1751 11.319
6208 2 75.5012 26.0969 11.172
6209 2 75.7554 24.5075 10.8965
6210 1 79.6569 21.2104 76.873
6211 2 79.1631 20.3684 76.6559
6212 2 0.0960796 21.1182 77.7667
6213 1 34.3534 1.68685 74.6154
6214 2 35.3167 1.91206 74.7613
6215 2 34.2399 0.693317 74.6138
6216 1 26.3834 18.9898 46.5356
6217 2 25.8929 18.1183 46.5356
6218 2 26.8246 19.1239 45.6482
6219 1 74.2797 6.85815 89.9737
6220 2 73.8576 7.48701 90.6267
6221 2 74.2618 7.26467 89.0603
6222 1 7.2902 28.7826 28.742
6223 2 6.74058 29.0486 27.9501
6224 2 8.0675 28.2316 28.4383
6225 1 4.92018 23.9817 38.2124
6226 2 3.98779 24.1875 38.5095
6227 2 4.9073 23.195 37.5952
6228 1 35.4178 23.0715 90.567
6229 2 35.3686 22.0775 90.4686
6230 2 35.6069 23.4856 89.6767
6231 1 40.2185 21.0251 65.8646
6232 2 40.2115 22.0123 66.0241
6233 2 41.0074 20.7845 65.2991
6234 1 67.3564 7.67662 14.2404
6235 2 66.3947 7.64959 13.9677
6236 2 67.4489 8.20551 15.084
6237 1 54.2596 19.856 44.6981
6238 2 54.4186 19.0819 45.3109
6239 2 54.0901 19.5188 43.7721
6240 1 26.2095 0.628379 70.045
6241 2 25.6615 1.0953 69.351
6242 2 25.8331 0.819996 70.9515
6243 1 33.8447 0.862856 78.3761
6244 2 33.8538 29.9322 78.0103
6245 2 34.2968 0.874841 79.268
6246 1 36.1932 6.69414 86.0952
6247 2 35.6341 7.48052 86.3579
6248 2 35.814 5.86405 86.504
6249 1 23.9893 27.3032 76.1734
6250 2 23.3865 28.0579 75.9145
6251 2 24.1615 27.3368 77.1579
6252 1 33.1646 16.5032 56.7496
6253 2 32.608 16.529 57.58
6254 2 34.0567 16.9161 56.9333
6255 1 13.1118 26.6651 28.0223
6256 2 13.9437 26.1887 27.7377
6257 2 12.6971 27.1136 27.2306
6258 1 36.8642 18.0678 43.0074
6259 2 36.8214 17.0972 43.2442
6260 2 37.3189 18.5705 43.7427
6261 1 20.712 4.41322 68.9222
6262 2 20.3767 4.18857 69.8371
6263 2 20.2731 3.81641 68.2505
6264 1 1.87517 25.2047 44.1775
6265 2 2.63013 24.5511 44.2318
6266 2 1.4329 25.1295 43.2838
6267 1 74.2952 28.4938 42.142
6268 2 75.285 28.601 42.0486
6269 2 73.8784 28.4418 41.2345
6270 1 3.41409 3.88421 21.6264
6271 2 3.07116 3.72053 22.5514
6272 2 3.84779 3.05253 21.2797
6273 1 72.5944 0.0533362 29.6498
6274 2 73.4072 0.0893183 30.2313
6275 2 71.9545 0.770178 29.9267
6276 1 74.6189 21.4887 57.1658
6277 2 75.5568 21.1538 57.0745
6278 2 74.0062 20.719 57.3449
6279 1 33.7318 22.7576 72.6384
6280 2 33.6388 23.7193 72.8959
6281 2 33.8616 22.6884 71.6493
6282 1 13.6201 1.8108 62.57
6283 2 14.5768 1.5855 62.7541
6284 2 13.3081 1.30715 61.7643
6285 1 27.9055 15.0067 89.6935
6286 2 28.5892 15.2041 88.9909
6287 2 27.5405 15.8652 90.0537
6288 1 22.4936 1.43943 66.0844
6289 2 21.8108 1.1448 66.7531
6290 2 23.2868 1.81688 66.5622
6291 1 29.4116 17.1921 84.2388
6292 2 29.897 17.0755 85.1053
6293 2 29.928 17.8124 83.6484
6294 1 70.7399 8.44889 30.4372
6295 2 70.229 8.20436 31.2613
6296 2 70.1004 8.62978 29.6899
6297 1 4.3094 11.9664 22.6524
6298 2 4.6789 12.8397 22.9699
6299 2 3.91115 12.084 21.7427
6300 1 46.9038 29.0306 78.7352
6301 2 47.425 29.3824 79.5128
6302 2 47.3454 28.2049 78.3841
6303 1 28.3456 21.9933 46.5289
6304 2 27.5181 21.7111 46.0436
6305 2 29.0379 22.2819 45.8676
6306 1 9.72131 7.68377 64.6596
6307 2 8.75869 7.53856 64.8883
6308 2 10.2962 7.32998 65.3974
6309 1 34.205 29.4928 61.268
6310 2 34.5189 29.3888 60.3243
6311 2 33.5704 0.263521 61.3252
6312 1 63.5387 8.41344 12.0439
6313 2 63.5161 9.40251 11.8982
6314 2 63.8934 8.21927 12.9585
6315 1 12.3031 12.8248 59.8879
6316 2 12.4451 13.4222 60.6772
6317 2 11.5946 12.1523 60.1021
6318 1 74.4773 13.4723 61.5926
6319 2 75.1282 12.8516 61.1555
6320 2 73.9925 12.988 62.3209
6321 1 4.21569 12.0816 38.3291
6322 2 4.29643 11.4209 39.0754
6323 2 3.87412 12.9501 38.6882
6324 1 10.4702 10.2233 67.7668
6325 2 11.039 9.84887 67.0345
6326 2 10.5137 9.6208 68.5637
6327 1 73.0222 23.1814 36.7052
6328 2 72.6979 22.8145 35.8332
6329 2 73.0501 22.4488 37.3853
6330 1 7.63935 10.6811 16.4503
6331 2 6.76617 11.118 16.6664
6332 2 7.65132 10.4194 15.4852
6333 1 34.7159 0.492529 50.6794
6334 2 33.8379 0.712926 50.2545
6335 2 34.6965 0.760365 51.6427
6336 1 20.818 19.0557 61.5648
6337 2 20.0771 19.3932 60.9841
6338 2 20.5063 18.2497 62.0681
6339 1 68.5956 28.4546 50.1058
6340 2 67.6051 28.3751 49.9935
6341 2 68.8081 28.645 51.0643
6342 1 29.9749 0.011389 61.5963
6343 2 29.2411 29.5966 62.1342
6344 2 29.6554 0.168225 60.6617
6345 1 48.6215 11.9567 46.2376
6346 2 49.2717 11.6341 45.5497
6347 2 48.9495 12.8165 46.629
6348 1 23.5009 6.82764 51.4931
6349 2 23.8399 7.25186 52.3328
6350 2 23.3703 7.53046 50.7938
6351 1 2.53383 10.2687 68.2146
6352 2 1.81925 9.60691 67.9879
6353 2 3.06932 9.92924 68.9879
6354 1 75.1475 28.3692 87.8709
6355 2 74.4571 27.9611 88.4682
6356 2 75.2819 27.786 87.0698
6357 1 9.76928 8.00859 47.4055
6358 2 8.8932 7.52764 47.4399
6359 2 9.93284 8.46624 48.2794
6360 1 45.8519 22.8131 46.0983
6361 2 46.575 23.503 46.0643
6362 2 45.0777 23.1139 45.5414
6363 1 75.1181 24.3492 60.3202
6364 2 75.8541 25.0057 60.4854
6365 2 74.2774 24.6753 60.7526
6366 1 67.4571 17.7929 83.6285
6367 2 67.0398 16.8854 83.5791
6368 2 68.4528 17.7038 83.6017
6369 1 57.0378 19.4044 38.1399
6370 2 56.694 18.4785 37.9834
6371 2 58.0021 19.4503 37.8794
6372 1 26.2771 25.0187 44.3789
6373 2 25.6102 24.2937 44.5508
6374 2 27.1128 24.6201 44.001
6375 1 17.7832 5.73928 18.5821
6376 2 17.0647 5.37847 17.9874
6377 2 18.4732 6.20386 18.0272
6378 1 26.7392 14.3183 52.9572
6379 2 27.2855 14.3048 52.1197
6380 2 27.1654 14.9303 53.6233
6381 1 23.7895 3.07392 48.7425
6382 2 24.0219 2.22112 49.2102
6383 2 23.4454 2.86855 47.8263
6384 1 17.6776 1.73439 64.0934
6385 2 17.4265 1.64132 65.0569
6386 2 17.0785 1.15982 63.5358
6387 1 16.4417 10.8482 50.7848
6388 2 16.2641 11.6748 50.2508
6389 2 17.2468 10.9901 51.3607
6390 1 66.2161 10.4326 81.1761
6391 2 66.3958 11.1757 80.5314
6392 2 66.4862 10.7168 82.096
6393 1 52.9417 0.802559 56.0736
6394 2 52.3702 0.523547 55.3019
6395 2 53.5532 1.53975 55.7862
6396 1 72.4026 23.6564 75.812
6397 2 72.2912 22.6634 75.8523
6398 2 72.8263 23.9789 76.6584
6399 1 76.7554 26.7393 59.9978
6400 2 76.8118 26.1959 59.1602
6401 2 77.6529 27.1296 60.203
6402 1 10.4677 19.7626 31.3744
6403 2 10.4221 20.7534 31.2467
6404 2 11.4084 19.4965 31.5846
6405 1 24.7136 17.1073 78.1712
6406 2 24.4737 18.0215 78.4979
6407 2 24.6498 16.4558 78.9271
6408 1 62.9272 11.3886 15.9835
6409 2 62.5779 10.5567 15.5523
6410 2 62.4784 12.1864 15.5809
6411 1 76.628 18.6168 59.0362
6412 2 75.9845 19.1465 59.5887
6413 2 76.122 18.0588 58.3786
6414 1 22.0545 8.32793 33.4089
6415 2 22.4955 8.82928 34.1533
6416 2 22.6466 8.33853 32.6032
6417 1 71.7376 22.0806 39.2738
6418 2 72.3352 22.7219 39.7551
6419 2 70.7956 22.2044 39.5859
6420 1 72.7099 27.1222 25.589
6421 2 71.8888 27.6133 25.8799
6422 2 72.5879 26.1431 25.752
6423 1 16.1027 6.96683 55.0971
6424 2 15.4977 7.25513 55.8394
6425 2 16.8874 6.47757 55.4777
6426 1 2.50183 4.69452 57.7023
6427 2 3.2519 5.08567 58.2356
6428 2 2.82905 4.46448 56.7858
6429 1 75.4338 22.5576 14.5205
6430 2 74.9269 21.7073 14.6626
6431 2 76.2859 22.529 15.043
6432 1 52.8039 7.1306 63.6647
6433 2 53.2831 6.28745 63.9085
6434 2 53.1959 7.50588 62.8248
6435 1 36.965 9.65184 69.9388
6436 2 36.697 10.168 70.7523
6437 2 37.308 10.282 69.2422
6438 1 62.4409 22.3998 49.8992
6439 2 63.0777 22.9186 49.3289
6440 2 62.3898 22.8173 50.8064
6441 1 77.999 8.12829 26.6807
6442 2 78.599 8.29933 25.8992
6443 2 78.4985 7.61444 27.3782
6444 1 27.8372 6.32071 38.2816
6445 2 28.7124 5.85863 38.1382
6446 2 27.9924 7.19047 38.7501
6447 1 49.3097 6.55828 32.6308
6448 2 49.3082 5.728 33.1882
6449 2 49.1059 6.32229 31.6807
6450 1 34.3219 21.7296 86.1113
6451 2 34.7151 21.3997 86.9695
6452 2 33.5577 21.1412 85.8468
6453 1 10.8419 28.9093 51.1281
6454 2 11.2095 27.9799 51.0952
6455 2 11.2766 29.4134 51.8744
6456 1 57.4656 4.95993 69.9544
6457 2 58.1186 5.66835 70.2223
6458 2 56.9996 4.61148 70.7677
6459 1 9.04122 16.5263 23.4735
6460 2 9.46904 17.1702 24.1078
6461 2 8.1066 16.3346 23.773
6462 1 19.9317 19.1195 45.4781
6463 2 19.4038 18.5076 46.067
6464 2 20.5201 19.6991 46.0419
6465 1 52.169 22.717 52.1219
6466 2 52.5928 21.9297 51.674
6467 2 51.2997 22.4397 52.5309
6468 1 56.4815 8.61405 66.7624
6469 2 57.3467 8.21481 66.4591
6470 2 56.5568 9.61122 66.7634
6471 1 59.3228 24.0903 50.4549
6472 2 60.2509 24.1522 50.0878
6473 2 59.2545 24.6457 51.2837
6474 1 6.51574 3.98798 89.1557
6475 2 7.02862 3.28868 89.6536
6476 2 6.64035 4.874 89.6023
6477 1 33.2645 16.4979 88.7878
6478 2 34.2088 16.5205 88.4598
6479 2 33.2423 16.1217 89.7141
6480 1 34.3234 1.61108 83.1368
6481 2 33.5618 2.03474 83.6272
6482 2 34.8185 0.999742 83.7542
6483 1 11.9733 21.6245 55.1386
6484 2 12.9692 21.5349 55.1267
6485 2 11.7249 22.5912 55.0761
6486 1 64.5808 8.73315 39.643
6487 2 64.0585 9.41913 39.1364
6488 2 64.2443 7.8203 39.4118
6489 1 75.6601 2.79499 45.1953
6490 2 75.9132 3.45023 45.9071
6491 2 74.7365 2.99704 44.8695
6492 1 26.1917 5.06333 46.4237
6493 2 26.1248 4.48203 45.6128
6494 2 25.2821 5.18877 46.8198
6495 1 35.3412 19.4712 90.17
6496 2 35.5952 19.9642 89.3379
6497 2 35.9849 18.7213 90.3228
6498 1 50.0625 22.0099 46.3837
6499 2 50.205 21.905 47.3679
6500 2 50.3826 22.9121 46.0948
6501 1 3.89799 25.437 53.5084
6502 2 3.47666 24.6 53.8576
6503 2 4.88063 25.2922 53.3924
6504 1 5.40653 26.9611 33.4201
6505 2 6.11133 26.4082 33.8646
6506 2 5.28137 26.6476 32.4788
6507 1 71.615 1.37515 67.3191
6508 2 70.8706 1.56728 66.6795
6509 2 72.2549 2.14356 67.3263
6510 1 52.5908 11.2912 48.7978
6511 2 53.4234 11.7098 48.4351
6512 2 52.6728 11.1908 49.7893
6513 1 68.7571 11.7085 35.4163
6514 2 68.034 11.5793 36.0948
6515 2 68.4558 11.3452 34.5347
6516 1 17.6979 22.4859 11.3917
6517 2 17.4534 21.5242 11.5157
6518 2 18.6817 22.5614 11.2292
6519 1 67.9616 16.6364 25.0805
6520 2 67.1034 17.0988 24.8575
6521 2 68.3337 17.0149 25.928
6522 1 57.331 3.03859 30.9147
6523 2 56.8452 3.90611 30.8079
6524 2 56.8171 2.44253 31.5316
6525 1 32.8047 10.9567 33.8065
6526 2 32.9433 10.2341 33.1292
6527 2 33.3391 10.7518 34.6265
6528 1 38.3783 4.5539 83.8422
6529 2 38.7478 3.70409 84.2181
6530 2 38.7239 5.32982 84.37
6531 1 17.816 22.6639 36.5374
6532 2 18.6638 22.5115 37.0453
6533 2 17.392 23.5159 36.8444
6534 1 54.6181 2.9561 49.9656
6535 2 53.8614 3.30883 49.4152
6536 2 54.655 3.44777 50.8356
6537 1 77.7796 15.9412 58.9583
6538 2 77.5139 14.9775 58.9309
6539 2 78.2768 16.1738 58.1225
6540 1 7.50278 10.3964 13.6656
6541 2 7.85148 9.46261 13.7458
6542 2 7.81235 10.7948 12.8023
6543 1 48.1781 4.41235 52.3633
6544 2 47.2146 4.31977 52.1122
6545 2 48.4812 3.58342 52.8334
6546 1 11.472 12.1391 78.6807
6547 2 11.5065 12.8083 79.4229
6548 2 12.3998 11.9496 78.3593
6549 1 9.50821 0.342271 30.2966
6550 2 8.89474 0.191063 31.0717
6551 2 10.1493 29.5782 30.2249
6552 1 74.8466 26.0253 86.3587
6553 2 74.6087 25.39 87.0934
6554 2 75.8288 25.973 86.1778
6555 1 52.5689 18.9757 83.93
6556 2 52.1165 18.0938 84.0627
6557 2 52.8055 19.3661 84.8197
6558 1 75.1047 22.3675 45.3521
6559 2 75.7808 21.6633 45.135
6560 2 75.1436 22.5768 46.3292
6561 1 67.2989 27.4262 35.3853
6562 2 68.1874 27.0206 35.5995
6563 2 67.2058 28.298 35.8661
6564 1 66.0787 8.63921 49.5692
6565 2 66.052 9.0609 48.6629
6566 2 65.2449 8.8721 50.0699
6567 1 79.8571 16.3248 48.0172
6568 2 79.5687 17.2667 48.189
6569 2 0.827968 16.3118 47.7778
6570 1 50.5314 27.2889 45.2007
6571 2 50.9719 26.7593 44.4759
6572 2 50.9043 28.2167 45.2093
6573 1 47.3098 5.54947 64.7623
6574 2 46.4395 5.06618 64.8572
6575 2 48.042 4.88843 64.5982
6576 1 63.6998 27.392 73.1878
6577 2 64.1059 26.5178 73.4538
6578 2 62.7072 27.3465 73.3007
6579 1 66.1407 1.04986 20.1104
6580 2 65.8698 2.01156 20.0686
6581 2 65.8073 0.646386 20.9625
6582 1 13.8148 11.8478 71.9145
6583 2 14.5263 11.7927 72.6151
6584 2 13.5821 10.9266 71.6028
6585 1 54.8351 27.3112 69.2721
6586 2 54.4247 26.5388 69.7568
6587 2 54.1179 27.9521 68.9985
6588 1 4.70884 20.568 42.1059
6589 2 4.53551 19.5851 42.1687
6590 2 3.98435 21.0006 41.5693
6591 1 9.21755 25.8732 59.8866
6592 2 9.28562 26.5137 60.6515
6593 2 9.16399 24.9386 60.2382
6594 1 42.4221 24.6361 27.7273
6595 2 43.3021 25.0034 28.0285
6596 2 41.9538 25.3147 27.1615
6597 1 65.496 10.7216 24.43
6598 2 65.7767 11.6808 24.3956
6599 2 66.1693 10.1957 24.9498
6600 1 78.2998 13.2647 49.0849
6601 2 77.7882 13.5402 48.271
6602 2 78.9251 13.9987 49.3498
6603 1 17.6755 27.0858 53.72
6604 2 17.0538 27.0638 54.503
6605 2 18.0235 28.0151 53.5967
6606 1 31.5702 1.37507 34.1087
6607 2 32.5386 1.42907 33.865
6608 2 31.4197 0.585038 34.703
6609 1 37.0618 28.7816 77.7236
6610 2 37.6764 28.3824 77.0433
6611 2 37.5986 29.2664 78.4141
6612 1 22.832 14.1058 35.5363
6613 2 23.8119 14.0145 35.7135
6614 2 22.678 14.8555 34.8927
6615 1 53.2696 7.46277 51.2632
6616 2 53.3546 6.49513 51.5008
6617 2 53.7669 7.6425 50.4145
6618 1 17.6845 9.65142 79.403
6619 2 17.5355 9.04012 80.1803
6620 2 16.8735 10.2202 79.266
6621 1 15.0314 0.673777 49.3355
6622 2 15.6483 1.1678 48.7228
6623 2 14.6603 1.30599 50.0156
6624 1 79.2736 18.1215 69.9479
6625 2 78.5971 17.388 69.8817
6626 2 78.8073 18.9917 70.1073
6627 1 21.1637 25.8531 66.0038
6628 2 21.2285 25.6373 66.9781
6629 2 20.2906 26.3047 65.8198
6630 1 7.88526 6.94672 56.81
6631 2 6.98601 7.12859 56.4122
6632 2 7.79051 6.79899 57.7945
6633 1 61.8697 16.4308 49.9926
6634 2 61.9912 16.2479 49.017
6635 2 61.5149 17.3575 50.1164
6636 1 43.8771 19.9094 47.0854
6637 2 43.5463 19.1411 46.5374
6638 2 44.3886 20.5396 46.5014
6639 1 68.7882 5.57489 57.7953
6640 2 69.7135 5.69542 58.155
6641 2 68.5353 6.37487 57.2512
6642 1 66.2171 21.3855 71.2823
6643 2 65.8596 21.292 72.2115
6644 2 67.1168 21.8208 71.3134
6645 1 4.70716 23.3844 68.5131
6646 2 4.29351 22.8634 67.7665
6647 2 4.2497 23.1559 69.3725
6648 1 44.1904 16.1278 68.5704
6649 2 45.185 16.1889 68.6539
6650 2 43.7681 16.3457 69.4503
6651 1 43.8069 18.8165 64.3999
6652 2 43.9397 18.5426 63.4474
6653 2 42.8423 18.7168 64.6441
6654 1 41.8435 23.2124 79.7277
6655 2 42.8371 23.3257 79.7248
6656 2 41.4332 23.8854 80.3431
6657 1 50.7877 17.0296 45.5107
6658 2 49.8046 17.0723 45.6889
6659 2 51.276 16.8786 46.3703
6660 1 19.0708 16.6468 46.5484
6661 2 18.8159 16.544 47.5099
6662 2 19.9402 16.1813 46.3825
6663 1 64.8904 3.83037 89.4822
6664 2 64.5191 4.70882 89.1814
6665 2 65.5214 3.97841 90.2437
6666 1 66.578 15.5588 22.0247
6667 2 66.3388 14.7812 22.6062
6668 2 67.3347 16.0644 22.439
6669 1 19.5954 18.3925 10.8193
6670 2 20.108 17.5971 11.1426
6671 2 19.4541 18.3193 9.83207
6672 1 47.6371 11.8021 71.9523
6673 2 48.2828 12.3615 71.4326
6674 2 47.0576 11.2879 71.3201
6675 1 73.0457 28.083 17.279
6676 2 72.5175 27.2354 17.3293
6677 2 73.0846 28.5057 18.1845
6678 1 61.1773 6.26776 82.1704
6679 2 62.1543 6.47989 82.1919
6680 2 60.8666 6.22388 81.2209
6681 1 22.0644 19.6598 32.7723
6682 2 22.2383 19.1886 33.637
6683 2 22.0466 18.9932 32.0271
6684 1 62.2702 11.6683 36.8597
6685 2 61.6042 12.0517 37.4995
6686 2 63.065 12.2727 36.804
6687 1 78.0764 1.98174 47.9784
6688 2 78.2597 1.04951 47.6664
6689 2 77.4027 1.9596 48.7171
6690 1 38.2515 17.3359 83.5498
6691 2 38.7884 17.0569 84.346
6692 2 38.861 17.4773 82.7697
6693 1 1.24912 5.18268 60.7945
6694 2 0.365238 5.44033 60.4042
6695 2 1.29401 5.48531 61.7466
6696 1 73.5109 22.7207 25.3059
6697 2 74.3585 23.2034 25.0856
6698 2 73.7204 21.7742 25.5513
6699 1 17.7043 8.68587 43.0471
6700 2 18.5003 8.99971 43.5647
6701 2 16.869 9.00882 43.492
6702 1 23.6111 20.1902 21.8709
6703 2 24.6071 20.1492 21.9503
6704 2 23.2584 20.9106 22.4681
6705 1 20.6177 12.246 27.358
6706 2 20.1867 12.7345 28.1167
6707 2 19.9972 11.5372 27.0226
6708 1 62.7161 19.7818 45.7225
6709 2 62.3069 18.8716 45.7864
6710 2 62.2282 20.41 46.3287
6711 1 40.4451 8.70008 43.101
6712 2 40.5753 8.20667 42.241
6713 2 41.2847 8.65383 43.6422
6714 1 30.6939 1.18509 36.9489
6715 2 30.761 1.79695 36.1608
6716 2 31.5889 0.778562 37.1324
6717 1 30.6899 16.6135 30.082
6718 2 31.2933 17.2533 29.606
6719 2 31.2341 16.0214 30.6763
6720 1 50.3617 17.618 79.669
6721 2 50.0984 18.5511 79.424
6722 2 50.4575 17.5486 80.662
6723 1 58.4167 12.9263 60.306
6724 2 57.8729 13.3259 61.044
6725 2 58.8772 13.6551 59.7991
6726 1 33.2591 15.7891 82.9855
6727 2 34.016 15.9228 82.3457
6728 2 33.0585 16.652 83.4493
6729 1 55.7605 12.001 30.8215
6730 2 55.9222 11.4479 31.6388
6731 2 56.4797 12.6908 30.7382
6732 1 61.7014 7.79026 17.7086
6733 2 62.6929 7.89227 17.7897
6734 2 61.3788 8.29472 16.9077
6735 1 34.9988 16.053 49.65
6736 2 34.8735 15.9244 48.6662
6737 2 35.0015 15.1624 50.1048
6738 1 30.0273 3.08564 73.1957
6739 2 30.7677 3.67633 73.5164
6740 2 29.4517 2.82251 73.9699
6741 1 33.4857 9.47818 65.394
6742 2 32.797 9.01772 64.834
6743 2 33.4054 10.4677 65.2743
6744 1 76.0826 29.4444 74.648
6745 2 76.3957 28.791 75.3373
6746 2 75.7331 0.264649 75.1008
6747 1 16.7785 16.7064 80.9689
6748 2 15.9148 16.5546 80.4883
6749 2 16.7169 16.3282 81.8926
6750 1 68.9539 29.2497 67.1945
6751 2 69.8134 29.7124 67.4113
6752 2 68.7276 29.4006 66.2322
6753 1 24.6577 22.0278 47.4438
6754 2 25.4128 22.3237 48.0289
6755 2 24.5492 21.0363 47.5156
6756 1 13.3216 16.7561 54.6188
6757 2 14.1567 17.2876 54.4765
6758 2 12.8814 16.5848 53.7374
6759 1 56.6217 26.7365 36.563
6760 2 55.8712 27.178 37.0549
6761 2 56.5442 25.7441 36.658
6762 1 30.4728 25.7109 26.7486
6763 2 30.9972 26.4967 27.0765
6764 2 31.1009 24.9939 26.446
6765 1 1.88928 7.80385 82.1757
6766 2 0.947213 7.80054 82.5111
6767 2 1.97371 7.16292 81.4128
6768 1 11.2188 7.98512 73.7219
6769 2 11.1451 8.85539 73.2349
6770 2 11.0325 7.23275 73.0901
6771 1 14.0163 1.77335 17.8326
6772 2 14.3484 2.08753 16.9432
6773 2 14.6272 1.06443 18.185
6774 1 54.2403 13.0051 46.3547
6775 2 54.7861 12.1675 46.3311
6776 2 53.7301 13.0947 45.4993
6777 1 58.6026 25.5655 68.3581
6778 2 58.3027 26.4345 67.9647
6779 2 59.5295 25.6655 68.7199
6780 1 49.2568 22.5222 43.7464
6781 2 49.0551 22.123 44.6409
6782 2 49.9507 21.9703 43.2839
6783 1 1.66241 19.8286 51.9554
6784 2 1.82142 20.6985 51.4886
6785 2 1.09324 19.9828 52.763
6786 1 42.3624 3.55616 63.5243
6787 2 42.7444 4.18952 62.8514
6788 2 41.4 3.77765 63.6817
6789 1 24.1797 20.4615 40.1028
6790 2 23.7932 20.7689 40.9723
6791 2 25.0018 19.9194 40.2765
6792 1 23.4251 26.1343 79.8085
6793 2 22.5543 26.2789 79.3386
6794 2 23.3668 25.3103 80.3721
6795 1 20.4598 2.04557 16.6326
6796 2 20.5379 2.25047 17.6082
6797 2 20.247 2.88457 16.1318
6798 1 55.7135 2.12233 46.6127
6799 2 56.0937 2.58757 47.412
6800 2 56.3941 2.10806 45.8802
6801 1 52.9247 2.89837 28.1812
6802 2 52.5349 2.04554 27.8338
6803 2 52.8189 2.93273 29.175
6804 1 40.4217 20.6579 90.291
6805 2 40.4339 21.5288 89.7998
6806 2 41.3587 20.3296 90.4108
6807 1 38.4853 17.5312 49.2572
6808 2 37.8502 16.9357 48.7653
6809 2 39.164 17.8944 48.6187
6810 1 20.2261 25.4653 47.6739
6811 2 19.2839 25.4883 48.0081
6812 2 20.3337 26.1295 46.9342
6813 1 34.4954 21.9241 82.7904
6814 2 35.2741 22.2296 83.3384
6815 2 34.7194 21.0557 82.348
6816 1 61.2159 19.4164 41.7168
6817 2 61.1824 19.6493 42.6887
6818 2 60.3979 18.8968 41.4702
6819 1 57.9367 14.0525 67.3304
6820 2 57.1996 13.6302 66.8028
6821 2 58.4028 14.7336 66.7657
6822 1 78.0177 29.8686 34.4392
6823 2 78.267 29.1078 33.8399
6824 2 77.7484 29.5133 35.3343
6825 1 6.90806 14.5527 53.1893
6826 2 6.59665 15.283 52.5813
6827 2 7.38097 14.9518 53.9748
6828 1 68.7416 8.29291 24.073
6829 2 68.2163 8.9908 24.5599
6830 2 69.322 7.80001 24.7213
6831 1 42.3265 17.0756 41.2339
6832 2 42.0806 16.3818 40.5571
6833 2 42.4939 16.6359 42.1163
6834 1 14.6019 23.1223 26.004
6835 2 14.9458 23.8929 26.5406
6836 2 13.6685 23.3164 25.7022
6837 1 44.5748 12.7835 65.821
6838 2 45.299 12.7235 66.5079
6839 2 43.6937 12.5774 66.2466
6840 1 48.8218 5.70166 82.8871
6841 2 49.4658 6.41806 83.1556
6842 2 49.2252 4.80515 83.0703
6843 1 29.683 13.9246 68.8499
6844 2 28.9759 14.5466 69.1864
6845 2 30.5494 14.4174 68.7693
6846 1 22.4994 23.0911 46.4
6847 2 21.8725 22.3562 46.6586
6848 2 23.3457 23.0079 46.9262
6849 1 12.1972 19.3231 82.4673
6850 2 11.3565 18.9371 82.8472
6851 2 12.0325 19.62 81.5268
6852 1 79.8996 29.1654 44.6803
6853 2 79.172 28.6157 45.0907
6854 2 79.6203 0.125357 44.6587
6855 1 65.4353 13.602 51.7074
6856 2 65.4814 12.655 52.0253
6857 2 64.4822 13.9046 51.6985
6858 1 35.8427 20.2199 73.1658
6859 2 35.3034 20.9916 72.8286
6860 2 36.3186 19.7862 72.4006
6861 1 30.8564 26.054 34.6535
6862 2 30.7241 25.6356 35.552
6863 2 31.7434 25.777 34.2841
6864 1 3.86465 5.7317 83.2902
6865 2 3.79403 5.61914 82.299
6866 2 4.60513 6.36978 83.5012
6867 1 19.1895 19.9243 82.1797
6868 2 19.1505 19.3399 82.9903
6869 2 18.3075 19.9007 81.7091
6870 1 75.7403 7.9821 48.1379
6871 2 74.7441 7.91803 48.0802
6872 2 76.0546 7.5412 48.9786
6873 1 62.4227 7.1033 78.1375
6874 2 62.3411 7.22264 77.148
6875 2 61.5103 7.04836 78.543
6876 1 59.8581 6.2155 18.6721
6877 2 59.9149 5.35638 18.1635
6878 2 60.232 6.95755 18.1157
6879 1 5.49722 4.45975 11.1224
6880 2 5.1131 4.03914 10.3005
6881 2 6.30728 3.94914 11.4107
6882 1 67.3064 19.3829 22.7987
6883 2 68.2036 19.1868 22.4029
6884 2 67.1419 20.3691 22.7795
6885 1 2.33783 11.573 62.571
6886 2 2.28301 11.6744 63.5643
6887 2 1.51185 11.1195 62.2362
6888 1 3.0103 14.7121 12.8548
6889 2 3.88392 14.7906 12.3746
6890 2 3.17658 14.4832 13.814
6891 1 2.80927 29.5393 17.8807
6892 2 2.76392 0.512096 17.6535
6893 2 2.20202 29.0266 17.2738
6894 1 27.4456 15.0954 79.8893
6895 2 27.469 16.0414 80.2128
6896 2 26.5379 14.7094 80.0536
6897 1 9.9593 2.95982 26.5025
6898 2 9.33881 2.32708 26.9657
6899 2 10.3861 3.56202 27.1771
6900 1 4.81077 8.0826 34.2647
6901 2 4.13537 7.87965 34.9737
6902 2 4.62329 7.52469 33.4562
6903 1 11.2569 29.2246 22.0788
6904 2 11.3185 28.3658 21.5703
6905 2 12.1225 29.3965 22.549
6906 1 14.0824 21.6034 85.3589
6907 2 13.5468 21.0658 86.0101
6908 2 15.0542 21.5243 85.5811
6909 1 74.423 22.3018 86.9377
6910 2 74.6946 21.9719 86.0336
6911 2 73.516 21.9464 87.1637
6912 1 21.7643 1.66613 72.6022
6913 2 22.5149 2.29202 72.3904
6914 2 21.0594 2.15339 73.1177
6915 1 16.4741 19.2471 14.602
6916 2 16.4502 20.2153 14.8509
6917 2 16.2559 18.6913 15.4042
6918 1 76.2455 23.0331 80.3169
6919 2 76.9559 23.615 79.9212
6920 2 76.5645 22.0856 80.3387
6921 1 47.7405 2.1 90.129
6922 2 47.4778 3.06251 90.1968
6923 2 48.7254 2.03372 89.9694
6924 1 14.725 15.8824 66.6964
6925 2 15.0453 14.9371 66.7574
6926 2 15.4182 16.4945 67.0769
6927 1 0.712553 13.7421 70.9994
6928 2 0.882422 12.9939 70.3579
6929 2 0.789553 13.4017 71.9365
6930 1 72.6851 23.7206 84.2174
6931 2 73.6423 23.4884 84.3898
6932 2 72.5507 24.7023 84.3525
6933 1 22.5802 20.1029 89.2453
6934 2 22.29 20.8869 88.6966
6935 2 21.9973 19.3172 89.0384
6936 1 60.0896 5.60733 43.9691
6937 2 59.1737 6.00788 43.9453
6938 2 60.0237 4.61704 43.8468
6939 1 60.0485 28.269 90.7288
6940 2 60.981 28.004 90.9742
6941 2 60.0703 29.1249 90.2121
6942 1 40.5816 26.4903 29.5556
6943 2 40.9753 25.6558 29.1701
6944 2 39.6255 26.3265 29.7983
6945 1 10.283 0.296785 63.9598
6946 2 10.5439 29.4217 64.3675
6947 2 9.28606 0.373331 63.9444
6948 1 10.1734 25.7031 71.0735
6949 2 10.1416 25.2623 71.9706
6950 2 9.25417 25.7257 70.6805
6951 1 33.0466 28.4446 58.8847
6952 2 33.1386 28.2959 57.9001
6953 2 33.0109 29.4263 59.0717
6954 1 33.3618 14.3005 38.2354
6955 2 33.3719 15.2929 38.3579
6956 2 33.6163 13.856 39.0942
6957 1 21.3025 0.376745 46.6657
6958 2 22.1244 0.392184 47.2352
6959 2 21.0949 29.4337 46.4057
6960 1 11.0079 15.618 83.1926
6961 2 11.5137 14.875 82.7543
6962 2 10.0821 15.3082 83.4096
6963 1 63.705 18.6566 78.138
6964 2 64.0272 18.7774 77.1991
6965 2 63.504 17.6905 78.2997
6966 1 36.9863 16.8355 46.6364
6967 2 37.9224 16.591 46.3836
6968 2 36.4381 16.0043 46.7288
6969 1 67.1477 14.9609 80.5445
6970 2 66.7701 14.0937 80.2199
6971 2 67.388 14.8787 81.5117
6972 1 7.61728 12.2075 90.8512
6973 2 7.18013 12.6969 90.0966
6974 2 7.89865 12.861 91.5538
6975 1 18.631 14.7391 43.3156
6976 2 18.2833 14.1933 42.5533
6977 2 18.6082 15.7081 43.0694
6978 1 35.8147 21.3024 79.9611
6979 2 35.6743 22.2791 80.1235
6980 2 35.2999 20.7748 80.6368
6981 1 57.703 1.20695 50.5404
6982 2 58.0883 0.286965 50.6125
6983 2 58.0382 1.76891 51.2966
6984 1 67.9937 24.2494 69.4123
6985 2 67.1129 24.7228 69.4207
6986 2 68.7245 24.9015 69.6139
6987 1 65.1012 24.7709 23.5743
6988 2 65.7938 25.3856 23.1972
6989 2 64.8479 25.0769 24.492
6990 1 48.7017 1.15434 37.6457
6991 2 48.8973 2.01811 37.1813
6992 2 48.4581 0.459718 36.9688
6993 1 35.582 4.95652 40.0307
6994 2 34.7642 5.44853 39.7323
6995 2 35.9978 5.4381 40.8023
6996 1 52.5453 16.0885 63.8506
6997 2 53.2991 15.5008 64.1447
6998 2 52.502 16.1 62.8516
6999 1 33.1698 23.6239 39.6399
7000 2 33.7883 22.9145 39.978
7001 2 32.7987 24.1384 40.4129
7002 1 51.6664 15.8375 52.324
7003 2 51.1957 15.9906 51.4551
7004 2 52.1053 16.6861 52.6193
7005 1 62.3559 0.224867 62.0466
7006 2 61.7333 29.5441 61.6607
7007 2 61.8624 1.08191 62.1947
7008 1 6.66211 8.7115 47.742
7009 2 6.04366 9.0019 48.4722
7010 2 6.99939 7.7906 47.9374
7011 1 17.1665 6.21356 58.3912
7012 2 16.733 6.63146 59.1897
7013 2 17.8827 5.58392 58.6921
7014 1 17.3742 22.3483 31.5636
7015 2 16.4667 22.5268 31.9439
7016 2 17.3014 22.2168 30.575
7017 1 10.3554 22.3682 46.1342
7018 2 11.2064 22.8654 46.3033
7019 2 9.76 22.4448 46.934
7020 1 61.2591 4.35519 76.8347
7021 2 61.3875 4.61795 77.791
7022 2 61.4303 5.14528 76.2461
7023 1 49.9337 17.6038 25.525
7024 2 49.4617 17.3221 24.6896
7025 2 50.3703 16.8085 25.9456
7026 1 61.3956 17.4701 26.3278
7027 2 61.0109 16.6921 26.8245
7028 2 61.8942 18.0584 26.9644
7029 1 11.0205 4.55964 85.1246
7030 2 11.0105 4.24965 84.1739
7031 2 10.0963 4.82627 85.398
7032 1 66.4679 25.4807 55.3422
7033 2 66.6889 25.3418 54.3768
7034 2 65.5431 25.8526 55.4223
7035 1 65.9144 24.8196 38.863
7036 2 66.1133 25.773 39.0898
7037 2 66.161 24.2348 39.6358
7038 1 34.2961 9.37414 42.4816
7039 2 33.5157 9.32214 43.1048
7040 2 34.9146 8.60829 42.6574
7041 1 17.9785 20.5772 24.484
7042 2 18.0856 21.3016 25.165
7043 2 18.7661 19.9623 24.5247
7044 1 44.4889 14.0835 74.3699
7045 2 44.8763 14.9745 74.1331
7046 2 45.1373 13.3625 74.1254
7047 1 3.60169 11.8318 75.9043
7048 2 2.85007 12.0356 76.5316
7049 2 3.261 11.2777 75.1448
7050 1 57.1601 16.8531 75.8909
7051 2 57.1195 17.586 75.2118
7052 2 56.9089 17.2158 76.7883
7053 1 41.8827 7.84813 40.8062
7054 2 42.0283 7.78415 39.819
7055 2 42.7256 8.15503 41.2483
7056 1 60.2721 13.3842 46.8399
7057 2 60.3239 13.0683 47.7872
7058 2 59.32 13.5808 46.6056
7059 1 50.3418 19.0832 48.3647
7060 2 50.0053 18.4903 49.0963
7061 2 51.2989 18.8658 48.1731
7062 1 59.7399 11.4462 37.8141
7063 2 59.2269 11.111 37.0239
7064 2 59.103 11.6977 38.5428
7065 1 63.6349 0.784788 10.8479
7066 2 64.5975 0.528245 10.9349
7067 2 63.379 0.796045 9.88124
7068 1 19.0633 13.2151 49.3814
7069 2 19.385 12.9234 50.2822
7070 2 18.9486 14.2084 49.3739
7071 1 59.8803 0.674992 86.949
7072 2 59.967 1.00601 86.0094
7073 2 59.9859 29.6807 86.9632
7074 1 66.0379 2.76784 62.4387
7075 2 66.1559 1.8754 62.0033
7076 2 66.4504 3.47568 61.8653
7077 1 24.0795 14.2815 65.3362
7078 2 23.8206 14.2388 66.3011
7079 2 23.5515 13.6077 64.8193
7080 1 79.1279 24.3276 31.0373
7081 2 78.8435 24.3478 30.0788
7082 2 79.5279 23.4355 31.2475
7083 1 29.3493 8.61645 82.4551
7084 2 28.5236 8.67945 81.8945
7085 2 29.1236 8.19855 83.3351
7086 1 40.0608 8.80137 71.3324
7087 2 39.6034 8.26323 70.6244
7088 2 41.0251 8.91552 71.0934
7089 1 77.4591 15.8185 42.6708
7090 2 78.356 16.2314 42.5127
7091 2 77.4423 15.3944 43.5762
7092 1 78.4191 13.0111 28.3771
7093 2 78.6721 12.8282 29.3271
7094 2 77.6383 12.4397 28.1243
7095 1 7.50429 24.8616 12.488
7096 2 7.79869 24.5361 11.5894
7097 2 6.60599 24.4786 12.7033
7098 1 76.5004 19.0545 68.0954
7099 2 76.3268 18.0732 68.0125
7100 2 77.1498 19.2165 68.8384
7101 1 69.1971 29.3313 20.8215
7102 2 69.533 29.4452 21.7565
7103 2 69.9004 28.8871 20.2665
7104 1 11.7064 16.8322 17.1798
7105 2 11.7797 16.0587 16.5502
7106 2 12.4178 16.7614 17.879
7107 1 15.9535 3.10543 73.2616
7108 2 15.3979 3.88201 72.9645
7109 2 15.666 2.82031 74.176
7110 1 10.443 24.4333 36.4431
7111 2 9.95513 24.3517 37.3122
7112 2 10.9935 25.2681 36.4469
7113 1 71.4047 29.9497 50.4516
7114 2 71.4498 29.0716 50.9281
7115 2 70.4479 0.211281 50.3246
7116 1 24.1906 27.1568 46.9818
7117 2 24.7758 26.7735 47.6964
7118 2 23.8207 26.416 46.421
7119 1 72.1539 15.9298 54.7812
7120 2 71.5789 15.1812 55.1111
7121 2 71.7534 16.8039 55.0563
7122 1 15.5966 17.672 54.4115
7123 2 15.9847 16.8034 54.1033
7124 2 16.1472 18.0351 55.1632
7125 1 9.70651 26.7808 31.0759
7126 2 8.78352 27.162 31.1282
7127 2 10.1924 27.189 30.303
7128 1 3.14856 20.8946 39.8502
7129 2 2.46146 21.138 39.1656
7130 2 2.71597 20.3735 40.5859
7131 1 20.3084 17.6432 57.0933
7132 2 20.6845 18.1479 56.3163
7133 2 21.0129 17.0443 57.4742
7134 1 23.5498 11.6814 80.9807
7135 2 23.22 11.6508 80.0372
7136 2 24.3104 12.3272 81.0472
7137 1 16.9451 18.72 32.4643
7138 2 16.7501 19.4538 33.1151
7139 2 17.9135 18.4762 32.5172
7140 1 55.9808 17.4272 61.9006
7141 2 55.0006 17.596 61.797
7142 2 56.4833 18.2788 61.7515
7143 1 60.6192 2.39705 42.0477
7144 2 59.7746 2.2327 42.5572
7145 2 61.3809 1.94271 42.5095
7146 1 3.11664 16.7488 88.6809
7147 2 2.58789 15.91 88.5513
7148 2 2.59736 17.5278 88.3295
7149 1 44.6364 9.88371 28.8089
7150 2 45.2107 9.29709 28.2379
7151 2 44.2229 9.33778 29.5376
7152 1 52.5638 0.493775 63.7675
7153 2 52.3334 1.4426 63.5516
7154 2 53.0837 0.463048 64.6212
7155 1 25.6392 21.72 54.9638
7156 2 25.5893 20.7417 55.1648
7157 2 26.3808 21.8896 54.3148
7158 1 62.3764 15.8669 35.5343
7159 2 62.8967 15.5547 36.3291
7160 2 62.9777 16.382 34.9235
7161 1 6.41152 24.6301 76.6466
7162 2 6.3345 23.7203 76.2387
7163 2 6.5787 24.542 77.6286
7164 1 54.0092 24.3311 69.6273
7165 2 53.1265 24.4309 70.0865
7166 2 53.9396 24.6788 68.6922
7167 1 18.2498 28.7414 45.696
7168 2 18.0358 28.1979 44.8843
7169 2 18.9674 28.2857 46.2226
7170 1 43.8094 1.82778 54.0712
7171 2 43.707 1.65142 53.0922
7172 2 42.9113 2.00614 54.4734
7173 1 2.6438 10.3396 72.4485
7174 2 2.70363 11.3297 72.5756
7175 2 3.2015 10.0701 71.6634
7176 1 66.0024 14.407 18.3905
7177 2 65.7036 14.4077 17.4362
7178 2 65.3323 13.9181 18.9492
7179 1 17.4297 24.8399 71.7827
7180 2 18.2157 24.7245 71.1753
7181 2 16.7224 24.1751 71.5425
7182 1 68.7707 22.0113 20.7915
7183 2 69.2593 22.3436 19.9848
7184 2 67.7982 22.2274 20.7047
7185 1 25.8589 9.68037 61.1964
7186 2 25.1954 9.42588 60.4928
7187 2 26.7496 9.28442 60.9733
7188 1 19.2601 2.8994 78.4351
7189 2 19.2906 3.37982 79.3116
7190 2 18.6963 2.07833 78.5245
7191 1 27.7033 13.7692 61.967
7192 2 27.5272 14.2368 62.8332
7193 2 26.9126 13.2069 61.725
7194 1 18.5264 14.2869 30.1618
7195 2 18.5754 13.506 30.7845
7196 2 19.4504 14.5512 29.8854
7197 1 28.3528 23.914 33.8564
7198 2 28.6369 24.2751 32.9682
7199 2 29.0241 24.172 34.5513
7200 1 14.7619 9.8219 21.8737
7201 2 14.1539 10.4519 22.3568
7202 2 14.2726 8.9727 21.6753
7203 1 71.6494 18.3426 43.1335
7204 2 72.0631 18.004 43.9786
7205 2 70.7825 17.8702 42.9743
7206 1 13.7651 16.4693 50.3635
7207 2 14.2178 17.0847 49.7182
7208 2 14.4498 16.0472 50.9577
7209 1 60.0899 21.125 44.2731
7210 2 59.728 21.6937 45.0118
7211 2 59.6256 20.2393 44.2765
7212 1 75.3927 19.3636 74.5887
7213 2 74.6284 19.9531 74.3274
7214 2 76.2539 19.7974 74.3238
7215 1 28.3053 1.67592 31.4498
7216 2 28.4085 2.67046 31.4651
7217 2 29.1894 1.24625 31.6335
7218 1 69.4813 17.3025 72.2128
7219 2 68.8196 17.9145 72.6459
7220 2 69.553 16.4588 72.7448
7221 1 53.9339 1.45757 69.2674
7222 2 53.8447 0.51484 68.946
7223 2 54.799 1.83992 68.9428
7224 1 43.7535 22.4467 52.1318
7225 2 44.4735 22.3589 51.4433
7226 2 42.9509 22.8796 51.7215
7227 1 21.0661 17.4245 18.0269
7228 2 20.9778 16.7919 17.2575
7229 2 21.3127 16.9147 18.851
7230 1 77.5829 0.345481 12.2227
7231 2 78.0597 0.690489 11.4142
7232 2 77.7309 29.3596 12.3016
7233 1 59.7487 24.3041 77.9912
7234 2 58.9024 23.8388 77.7316
7235 2 59.7138 25.2551 77.684
7236 1 58.3551 10.6395 59.2299
7237 2 58.4677 11.3518 59.9226
7238 2 57.7323 10.9628 58.5174
7239 1 55.9944 22.6776 26.5198
7240 2 55.5859 23.5875 26.5914
7241 2 55.3412 22.0515 26.094
7242 1 9.96482 6.14294 75.9431
7243 2 9.24409 5.57187 76.3361
7244 2 10.0768 6.9672 76.4981
7245 1 77.0725 11.0703 69.8603
7246 2 77.7385 10.767 69.1788
7247 2 76.8019 12.0131 69.6654
7248 1 72.9947 16.3942 83.49
7249 2 73.8851 16.7518 83.7716
7250 2 73.0477 15.3996 83.4016
7251 1 67.7464 23.6277 30.7425
7252 2 66.7947 23.8953 30.8927
7253 2 68.3313 24.0863 31.4115
7254 1 79.126 11.1375 66.0826
7255 2 78.5206 11.8527 66.4318
7256 2 78.9403 10.28 66.5624
7257 1 37.0172 20.9097 77.4252
7258 2 36.8112 20.6928 78.3794
7259 2 37.6999 20.2673 77.0771
7260 1 74.5737 27.1023 62.3435
7261 2 74.9518 27.9665 62.0116
7262 2 75.2326 26.6629 62.9541
7263 1 72.8476 20.4154 28.4743
7264 2 73.7464 20.1809 28.1039
7265 2 72.6253 19.7958 29.227
7266 1 3.7851 13.7791 30.1985
7267 2 2.99514 14.3776 30.0652
7268 2 3.70936 12.9873 29.5925
7269 1 24.5757 10.47 73.8715
7270 2 25.1786 9.68299 73.7406
7271 2 23.6547 10.1509 74.0949
7272 1 2.1673 1.86395 90.1055
7273 2 1.93527 0.944955 89.7867
7274 2 1.54924 2.52841 89.6854
7275 1 7.37155 16.3818 34.4456
7276 2 6.90233 17.2627 34.5075
7277 2 6.82759 15.6811 34.9073
7278 1 45.0603 18.7541 66.889
7279 2 44.5276 18.8407 67.7309
7280 2 44.5544 19.1652 66.1307
7281 1 63.7216 22.5122 52.8017
7282 2 63.8873 22.7558 53.7573
7283 2 64.4314 22.9185 52.2263
7284 1 55.1701 17.6197 83.7363
7285 2 54.2728 17.7774 84.1487
7286 2 55.0624 17.4581 82.7554
7287 1 9.57178 4.63684 44.1844
7288 2 9.37913 3.6702 44.0156
7289 2 9.66088 4.7921 45.1682
7290 1 60.1122 0.295295 52.4682
7291 2 59.5067 1.01251 52.8132
7292 2 59.6472 29.7868 51.7434
7293 1 46.257 0.658673 27.5136
7294 2 45.5709 0.43388 28.2056
7295 2 47.0579 1.0613 27.9568
7296 1 13.9227 24.2228 77.2568
7297 2 13.2775 23.6488 77.761
7298 2 13.4221 24.7971 76.609
7299 1 31.7925 5.20603 73.8872
7300 2 32.4565 5.00625 74.6076
7301 2 31.227 5.98388 74.1614
7302 1 70.1098 11.6464 47.2147
7303 2 69.1853 12.0172 47.1262
7304 2 70.1763 11.1147 48.059
7305 1 65.763 25.3976 15.7163
7306 2 65.3849 25.2005 16.6209
7307 2 65.0414 25.7568 15.1245
7308 1 47.2337 3.77485 72.1636
7309 2 46.6748 4.38304 71.5999
7310 2 47.5584 3.0098 71.6074
7311 1 62.9388 22.1712 30.1868
7312 2 63.4387 22.8327 30.7459
7313 2 62.5827 21.4423 30.7716
7314 1 8.02844 17.694 70.321
7315 2 8.5548 17.9783 71.1224
7316 2 7.52646 18.4783 69.9566
7317 1 2.92396 14.4982 69.4934
7318 2 2.95665 13.6277 69.0023
7319 2 2.51721 14.3566 70.3959
7320 1 0.469873 12.4196 47.0317
7321 2 79.5683 12.5041 46.6075
7322 2 0.370167 12.0509 47.9559
7323 1 39.9924 15.4572 62.5907
7324 2 40.739 15.339 61.9359
7325 2 40.3701 15.5744 63.5092
7326 1 19.8104 22.2115 64.7532
7327 2 19.5365 21.3653 65.2104
7328 2 19.6315 22.989 65.356
7329 1 18.3238 17.1843 59.1674
7330 2 18.5968 17.1297 58.207
7331 2 18.486 18.1105 59.5079
7332 1 75.411 10.7599 86.4718
7333 2 75.0412 9.92817 86.886
7334 2 74.7751 11.5173 86.6204
7335 1 50.6913 11.4481 61.2148
7336 2 51.6877 11.408 61.2892
7337 2 50.3485 12.2242 61.7441
7338 1 39.0794 27.6764 76.5343
7339 2 38.8585 27.7882 75.5655
7340 2 39.1731 26.7032 76.7447
7341 1 22.4638 1.19339 53.6502
7342 2 23.2798 0.708359 53.9647
7343 2 21.7183 1.04795 54.3006
7344 1 63.2077 25.4269 75.1636
7345 2 62.9672 24.9037 75.9811
7346 2 62.4 25.5275 74.5826
7347 1 0.131906 9.83938 13.2425
7348 2 0.118458 10.1667 14.1873
7349 2 0.993899 10.1042 12.8103
7350 1 71.7641 1.81372 76.0843
7351 2 72.1262 2.50871 75.4631
7352 2 72.0291 2.0349 77.0228
7353 1 25.1595 5.50202 70.3756
7354 2 25.9919 5.86056 70.798
7355 2 24.539 5.17386 71.0879
7356 1 21.4541 4.54805 80.867
7357 2 20.9925 4.95929 80.081
7358 2 22.3317 4.16695 80.5762
7359 1 47.9134 25.1102 70.2664
7360 2 47.6868 25.1775 71.2381
7361 2 47.2138 25.5796 69.7277
7362 1 68.5201 13.8264 60.9463
7363 2 67.5575 13.847 61.2164
7364 2 69.0499 13.3355 61.6379
7365 1 49.2817 23.5604 58.1125
7366 2 49.6403 22.9253 57.4283
7367 2 48.9725 24.3973 57.6608
7368 1 29.3603 12.9949 83.5355
7369 2 28.8462 12.1387 83.4849
7370 2 28.9399 13.5965 84.2148
7371 1 5.99316 28.4591 41.8588
7372 2 6.27469 29.3016 41.3994
7373 2 5.03863 28.5391 42.1459
7374 1 51.2871 21.3192 68.136
7375 2 50.5862 21.8636 67.6752
7376 2 50.9195 20.9596 68.9936
7377 1 35.4484 21.9598 52.7483
7378 2 35.1054 21.9495 51.809
7379 2 36.4451 21.8795 52.7401
7380 1 41.5159 7.0667 79.2732
7381 2 42.3588 6.5609 79.4568
7382 2 40.8276 6.82714 79.9579
7383 1 44.4982 5.49875 80.6916
7384 2 45.0732 6.20167 80.2729
7385 2 44.8524 5.27588 81.5999
7386 1 3.765 6.71448 36.5958
7387 2 3.54819 6.76137 37.5709
7388 2 3.09084 6.13991 36.1317
7389 1 65.4645 4.64614 26.7833
7390 2 66.3758 4.24388 26.6955
7391 2 64.8492 4.22661 26.1159
7392 1 59.0554 14.1114 37.334
7393 2 59.1556 14.7114 38.1277
7394 2 59.4861 13.2297 37.5263
7395 1 27.6376 3.37991 70.6777
7396 2 27.2382 4.14291 70.1694
7397 2 27.1249 3.23875 71.5245
7398 1 64.5898 4.75224 13.3032
7399 2 64.603 5.73148 13.5055
7400 2 64.7083 4.61336 12.32
7401 1 11.2751 1.04416 17.9098
7402 2 12.2618 1.16841 18.0148
7403 2 10.8521 1.91939 17.6753
7404 1 20.1196 10.4698 15.3873
7405 2 20.263 11.4459 15.224
7406 2 20.2653 10.269 16.356
7407 1 12.9148 8.30215 47.04
7408 2 12.9802 9.26971 47.2841
7409 2 12.0141 7.95327 47.2988
7410 1 23.5342 1.96988 40.8715
7411 2 22.9816 1.13667 40.8929
7412 2 24.4019 1.78263 40.4111
7413 1 77.6832 5.51223 90.3749
7414 2 76.8653 5.2595 89.8579
7415 2 78.4925 5.38448 89.8017
7416 1 8.60472 1.93373 88.0429
7417 2 8.24778 1.90072 88.9764
7418 2 7.9019 1.61697 87.4059
7419 1 2.03155 18.9245 47.6221
7420 2 1.63052 19.0784 46.719
7421 2 2.78198 18.2679 47.546
7422 1 29.3848 18.0124 67.2518
7423 2 30.3834 17.9937 67.3008
7424 2 29.0155 18.3698 68.1096
7425 1 8.47995 12.0923 23.8052
7426 2 7.70515 12.7088 23.6649
7427 2 9.10141 12.155 23.0243
7428 1 56.9228 19.0098 59.0256
7429 2 57.4421 19.0081 59.8802
7430 2 56.0009 19.3577 59.1964
7431 1 9.83946 8.64609 36.1664
7432 2 10.2239 9.13252 35.3818
7433 2 9.92789 7.66032 36.0234
7434 1 53.3673 11.8529 85.4347
7435 2 53.9518 11.7883 84.6258
7436 2 53.9114 11.6733 86.2543
7437 1 49.9291 9.291 59.7874
7438 2 50.3329 10.1099 60.1952
7439 2 49.6294 9.49576 58.8556
7440 1 36.8273 6.3827 89.9735
7441 2 37.3159 5.81905 89.3076
7442 2 36.0078 6.76653 89.5479
7443 1 50.1372 10.6765 87.3052
7444 2 49.1722 10.7162 87.5647
7445 2 50.6507 11.3583 87.8262
7446 1 47.5843 25.1106 45.672
7447 2 47.4896 25.9938 45.2126
7448 2 47.4868 25.2363 46.6593
7449 1 75.5514 5.70547 64.8705
7450 2 75.6636 5.71486 65.8642
7451 2 75.4978 6.645 64.5323
7452 1 32.7581 20.7945 57.7919
7453 2 32.3163 21.1373 58.6209
7454 2 32.9051 19.8089 57.8757
7455 1 30.3779 24.3073 40.0631
7456 2 29.8085 25.0769 39.774
7457 2 30.9231 23.9866 39.2886
7458 1 72.9213 16.97 34.0803
7459 2 72.6811 16.5583 33.2012
7460 2 73.5951 16.3952 34.5446
7461 1 31.8226 20.6282 55.0457
7462 2 31.0649 20.1655 55.5058
7463 2 32.3017 21.214 55.6994
7464 1 6.45499 24.4148 35.7141
7465 2 5.92645 23.6426 36.0665
7466 2 6.76018 24.2128 34.7834
7467 1 41.3584 29.4297 34.0172
7468 2 41.5707 28.8449 34.8001
7469 2 40.847 28.904 33.3374
7470 1 51.2879 4.88347 52.4286
7471 2 50.5591 4.23013 52.2237
7472 2 52.1429 4.56916 52.0161
7473 1 70.7888 12.9571 15.4817
7474 2 71.7435 12.6598 15.4742
7475 2 70.4848 13.078 16.4267
7476 1 14.7617 12.2823 19.8038
7477 2 14.4146 11.4404 20.217
7478 2 14.8888 12.9744 20.5143
7479 1 14.6262 28.9263 88.4946
7480 2 14.5447 28.0978 89.0485
7481 2 13.7394 29.3864 88.4507
7482 1 15.0642 22.8558 73.7482
7483 2 15.0125 23.635 73.1237
7484 2 14.1433 22.608 74.0491
7485 1 44.977 28.8288 77.1566
7486 2 45.741 29.1414 77.721
7487 2 44.1851 28.6459 77.7392
7488 1 28.4592 11.8653 56.1643
7489 2 27.8595 12.6577 56.0527
7490 2 29.409 12.1434 56.0212
7491 1 10.9752 17.7808 53.0465
7492 2 10.6653 17.0235 53.6214
7493 2 10.557 17.7049 52.1413
7494 1 49.4146 2.02184 47.249
7495 2 48.7408 1.79604 46.5454
7496 2 49.0353 1.81798 48.1515
7497 1 73.3801 9.79368 16.5199
7498 2 72.6333 10.0263 17.1429
7499 2 73.3369 8.81987 16.2966
7500 1 54.7456 1.80604 74.0708
7501 2 55.6337 2.2489 73.9472
7502 2 54.8785 0.823539 74.2014
7503 1 67.8909 11.7245 18.2581
7504 2 66.9068 11.5478 18.2754
7505 2 68.3847 10.882 18.4733
7506 1 35.2807 5.91644 49.9481
7507 2 35.5713 6.86703 49.8389
7508 2 35.9184 5.31547 49.4663
7509 1 53.7232 23.2803 31.2317
7510 2 53.4128 22.3346 31.3287
7511 2 53.3039 23.8435 31.9437
7512 1 14.8291 25.7657 33.7079
7513 2 15.7234 25.3296 33.8079
7514 2 14.6416 25.923 32.7383
7515 1 58.9579 14.7156 13.7773
7516 2 59.5325 14.3513 14.5102
7517 2 58.0981 15.0503 14.163
7518 1 38.2591 26.2258 80.001
7519 2 38.4607 26.2313 79.0215
7520 2 39.0276 25.8217 80.4972
7521 1 74.0838 13.4605 49.1566
7522 2 74.7964 13.7805 49.781
7523 2 73.9918 14.105 48.3975
7524 1 71.8489 21.8001 31.4265
7525 2 72.2028 21.7462 32.3603
7526 2 71.5772 20.8879 31.1199
7527 1 17.4605 9.28683 57.9777
7528 2 17.4624 8.28806 58.0271
7529 2 18.0217 9.65825 58.7173
7530 1 79.5207 25.9771 39.3317
7531 2 79.9162 25.7039 40.2087
7532 2 79.9558 26.8212 39.0184
7533 1 38.6215 22.1775 75.1311
7534 2 38.9222 22.2252 76.0837
7535 2 37.8452 22.793 74.9954
7536 1 21.9411 3.79138 39.6456
7537 2 21.5713 3.07767 40.2404
7538 2 22.9188 3.90113 39.8248
7539 1 47.8533 26.7685 33.0612
7540 2 48.5328 26.7686 33.7948
7541 2 48.2122 26.2662 32.2745
7542 1 19.394 29.3946 26.131
7543 2 20.1742 29.4687 25.5099
7544 2 19.2082 28.4302 26.3193
7545 1 64.6424 25.8644 25.9682
7546 2 64.4259 25.0057 26.4328
7547 2 64.9002 26.5538 26.6451
7548 1 39.7731 1.62622 88.3852
7549 2 39.9707 1.28062 89.3026
7550 2 38.7869 1.59544 88.2227
7551 1 63.4687 25.1754 40.8348
7552 2 63.4513 24.8898 39.8766
7553 2 64.1187 24.6078 41.3401
7554 1 10.8857 7.30573 87.3891
7555 2 11.2761 7.66276 88.2376
7556 2 11.3576 7.71367 86.6075
7557 1 58.1794 20.0567 70.5212
7558 2 59.0253 20.5271 70.7726
7559 2 57.9409 20.2818 69.5765
7560 1 24.2373 23.4583 71.7456
7561 2 23.4918 23.9158 72.2303
7562 2 24.667 22.7884 72.3511
7563 1 20.0587 11.1068 24.2729
7564 2 20.482 11.1751 23.3695
7565 2 19.0862 11.329 24.203
7566 1 29.1447 19.2409 52.5394
7567 2 28.305 18.9448 52.0842
7568 2 29.7453 18.4531 52.6762
7569 1 13.3331 5.18393 69.7397
7570 2 14.2902 5.08346 70.0118
7571 2 12.927 5.95608 70.2284
7572 1 7.15126 22.5144 57.79
7573 2 8.04293 22.091 57.9502
7574 2 6.90713 23.0844 58.5745
7575 1 6.3268 12.4366 31.9155
7576 2 6.09782 12.4914 30.9436
7577 2 5.48962 12.4968 32.4591
7578 1 13.911 11.9042 37.7325
7579 2 14.3878 12.2583 38.537
7580 2 13.8929 10.905 37.7687
7581 1 66.2555 16.9443 52.4828
7582 2 66.0174 16.1671 53.0654
7583 2 67.133 17.3239 52.7758
7584 1 12.1498 29.4903 36.7767
7585 2 11.3511 29.7469 36.2324
7586 2 12.0344 29.8198 37.7138
7587 1 4.96937 26.7946 63.4278
7588 2 5.45971 27.275 64.1549
7589 2 4.29577 26.176 63.8324
7590 1 8.40412 25.6162 64.1348
7591 2 9.35665 25.4133 64.3618
7592 2 7.83501 24.8209 64.3436
7593 1 70.1172 13.6757 21.2243
7594 2 70.8525 14.0167 20.6387
7595 2 70.4344 12.8682 21.7216
7596 1 26.0272 6.76593 86.6305
7597 2 25.4536 7.14806 87.355
7598 2 26.2096 7.46955 85.9437
7599 1 10.4508 14.4745 21.8338
7600 2 11.0327 14.4783 22.647
7601 2 10.9844 14.1731 21.0436
7602 1 32.0826 27.9739 54.5029
7603 2 31.7678 28.9186 54.4119
7604 2 32.7533 27.9157 55.2423
7605 1 29.9173 6.21088 48.3384
7606 2 30.3753 6.21818 49.2273
7607 2 30.5579 6.50918 47.6308
7608 1 60.2317 4.70479 65.6063
7609 2 60.0395 4.08739 64.8435
7610 2 61.1723 4.56792 65.917
7611 1 57.1644 22.2333 56.3161
7612 2 56.3698 21.8136 56.7548
7613 2 57.3568 23.1146 56.7478
7614 1 4.74229 6.59888 24.3224
7615 2 4.91747 7.49077 24.7394
7616 2 5.58915 6.244 23.9263
7617 1 11.1987 0.14235 56.5161
7618 2 10.6399 0.546719 57.2402
7619 2 12.1359 0.483449 56.5885
7620 1 18.9028 25.4257 32.7028
7621 2 18.5948 24.7711 32.0124
7622 2 19.0557 26.3158 32.2735
7623 1 22.5155 22.0886 19.1325
7624 2 22.973 22.5206 19.9097
7625 2 22.6073 21.0952 19.2018
7626 1 69.9471 9.8377 49.3858
7627 2 69.2714 9.38233 48.8061
7628 2 69.5341 10.0569 50.2699
7629 1 7.58342 6.10567 23.9434
7630 2 7.78117 5.82486 23.0042
7631 2 7.83402 7.06623 24.0639
7632 1 38.2077 13.2625 58.3052
7633 2 38.1226 14.1532 57.8587
7634 2 38.7567 12.6537 57.7325
7635 1 7.03768 17.5556 43.5742
7636 2 7.41526 17.5346 44.5
7637 2 6.5041 16.7254 43.4129
7638 1 21.5403 27.8793 33.2073
7639 2 21.599 27.5748 34.158
7640 2 22.4599 28.0571 32.8569
7641 1 78.1892 14.712 85.6748
7642 2 77.311 14.9612 86.083
7643 2 78.1978 14.9818 84.7119
7644 1 32.2972 9.48182 30.4198
7645 2 33.2899 9.54367 30.5237
7646 2 31.8912 9.16806 31.2781
7647 1 30.5407 25.4185 68.5962
7648 2 29.5562 25.2479 68.5546
7649 2 30.859 25.3059 69.5374
7650 1 70.5066 7.69199 74.2203
7651 2 69.5477 7.97582 74.2234
7652 2 70.565 6.71756 74.0033
7653 1 60.5635 2.58225 45.9057
7654 2 59.646 2.6084 45.5087
7655 2 61.192 2.14304 45.2638
7656 1 39.0839 28.4686 32.2013
7657 2 38.5818 28.0874 32.9776
7658 2 39.1496 27.7819 31.4773
7659 1 13.5508 10.7024 34.3286
7660 2 12.8716 10.0078 34.0912
7661 2 14.4521 10.2756 34.4027
7662 1 40.5026 3.95813 30.3039
7663 2 39.8017 4.49151 30.7774
7664 2 40.0639 3.27493 29.7202
7665 1 63.5169 18.6251 66.8199
7666 2 63.7821 19.5741 66.6493
7667 2 63.816 18.3548 67.735
7668 1 35.3529 10.0084 45.8045
7669 2 35.8725 9.42734 46.4309
7670 2 35.9853 10.5249 45.227
7671 1 47.2831 20.9535 47.5809
7672 2 46.8555 21.5759 46.9253
7673 2 47.9533 20.381 47.1087
7674 1 72.1742 8.13136 77.5294
7675 2 72.3004 8.97145 78.0569
7676 2 72.69 7.3888 77.9566
7677 1 53.3931 12.7317 55.564
7678 2 53.4446 13.1875 54.6755
7679 2 52.7099 13.1883 56.1339
7680 1 58.5434 9.82747 63.7406
7681 2 58.598 9.16385 64.4867
7682 2 59.2751 10.5018 63.8401
7683 1 34.3814 12.5464 47.9208
7684 2 34.6441 13.4459 47.5715
7685 2 34.9706 11.8468 47.5166
7686 1 47.2057 17.5182 79.2122
7687 2 47.408 17.464 80.1901
7688 2 46.4658 18.1736 79.0608
7689 1 30.1232 16.0689 64.9393
7690 2 31.0857 16.2856 64.776
7691 2 29.6867 16.8304 65.4184
7692 1 46.0476 7.41368 48.832
7693 2 46.1109 6.43069 49.0045
7694 2 45.7389 7.56828 47.8935
7695 1 74.6039 3.02601 90.2225
7696 2 75.1627 3.80186 89.9296
7697 2 73.6366 3.27554 90.1759
7698 1 72.3978 20.9418 84.687
7699 2 73.3348 20.5941 84.65
7700 2 72.3991 21.9241 84.4998
7701 1 20.1707 25.4022 76.809
7702 2 19.3095 24.918 76.9638
7703 2 20.0668 26.3604 77.0755
7704 1 53.1642 17.5781 27.3885
7705 2 52.6379 17.9086 28.172
7706 2 52.6086 16.9355 26.8609
7707 1 14.8862 24.9004 67.4005
7708 2 14.4536 24.0565 67.7178
7709 2 14.363 25.2759 66.6354
7710 1 71.679 13.1729 45.5323
7711 2 72.6162 13.3105 45.8526
7712 2 71.2179 12.5123 46.1247
7713 1 73.9419 28.6285 50.621
7714 2 73.5414 28.0074 51.2947
7715 2 74.1107 29.5177 51.0464
7716 1 51.1413 4.95154 65.7067
7717 2 51.6414 5.72414 66.0979
7718 2 51.6717 4.55653 64.9566
7719 1 1.78048 22.1248 43.1003
7720 2 1.03474 22.2588 43.753
7721 2 1.66697 21.244 42.6407
7722 1 79.5549 2.70746 54.6251
7723 2 79.1869 2.72311 53.6954
7724 2 79.4296 3.60479 55.0483
7725 1 54.1625 5.18204 82.9681
7726 2 54.9026 4.71187 82.4871
7727 2 53.2933 4.73179 82.7638
7728 1 50.4622 10.1704 64.1683
7729 2 50.6213 10.7557 64.9634
7730 2 51.0829 10.4349 63.4302
7731 1 31.17 15.3138 86.0912
7732 2 31.4748 14.4166 85.7718
7733 2 31.8554 15.698 86.7097
7734 1 70.2906 23.0229 82.9225
7735 2 71.1512 23.1599 83.413
7736 2 69.802 23.893 82.8571
7737 1 25.0626 21.5186 69.2295
7738 2 25.0093 21.4858 68.2315
7739 2 25.9481 21.8936 69.5039
7740 1 7.45989 22.8305 24.2959
7741 2 7.55469 23.2289 25.2082
7742 2 7.38665 21.8362 24.3724
7743 1 50.4404 24.2672 65.0527
7744 2 51.0721 23.5053 64.9092
7745 2 50.8247 24.8959 65.7288
7746 1 23.5251 11.2647 44.1563
7747 2 24.1518 10.5241 43.9139
7748 2 23.915 12.1392 43.8677
7749 1 38.7154 20.7034 39.4069
7750 2 39.0813 21.3732 40.0531
7751 2 39.1888 19.8309 39.5275
7752 1 37.9802 14.2644 82.2402
7753 2 37.1897 14.1072 82.8322
7754 2 38.6302 14.8657 82.7047
7755 1 36.6215 23.2305 50.0576
7756 2 37.2193 22.6841 49.471
7757 2 35.7019 22.8375 50.0547
7758 1 20.1032 27.1568 51.4877
7759 2 20.7303 27.3553 50.7345
7760 2 20.5841 27.2617 52.3582
7761 1 56.6714 10.2667 44.7866
7762 2 57.1551 11.0679 44.4344
7763 2 56.4684 10.3997 45.7567
7764 1 62.8503 10.9849 12.1347
7765 2 63.7992 11.1825 12.3806
7766 2 62.4607 11.7694 11.6523
7767 1 50.4505 28.6028 52.3213
7768 2 50.3973 29.3204 51.6268
7769 2 51.4073 28.3524 52.4691
7770 1 37.8144 9.37911 84.8148
7771 2 37.639 9.25907 83.8376
7772 2 37.3033 8.69263 85.332
7773 1 76.9154 20.0918 39.3065
7774 2 76.8358 19.4843 40.0968
7775 2 77.5538 19.6971 38.6457
7776 1 70.9505 26.5041 82.3572
7777 2 71.2931 27.0857 81.6194
7778 2 71.6556 26.4066 83.0595
7779 1 56.2348 22.5819 69.1643
7780 2 55.6246 23.3167 69.4604
7781 2 57.1198 22.6797 69.6195
7782 1 21.3486 28.4005 80.2001
7783 2 20.6295 29.0275 80.4997
7784 2 20.9529 27.499 80.0246
7785 1 56.5639 8.23188 23.4647
7786 2 57.4098 8.46762 23.9431
7787 2 55.7808 8.57354 23.9843
7788 1 51.995 24.1234 45.6136
7789 2 51.8405 24.7071 46.4106
7790 2 51.9699 24.6798 44.783
7791 1 71.9849 10.5212 13.7726
7792 2 71.9259 9.87187 14.5308
7793 2 71.0843 10.6228 13.35
7794 1 69.1781 10.8594 12.8739
7795 2 68.5071 11.3384 12.308
7796 2 68.7584 10.0423 13.2691
7797 1 50.0762 16.3376 32.3451
7798 2 49.8018 15.7309 31.599
7799 2 51.0389 16.1808 32.5653
7800 1 13.6901 0.899423 14.6823
7801 2 13.5497 1.88928 14.6605
7802 2 13.3285 0.492926 13.8432
7803 1 37.3813 22.5547 67.6681
7804 2 36.8491 22.7806 66.8522
7805 2 36.9278 21.8169 68.1682
7806 1 51.6455 16.9874 41.9511
7807 2 52.4322 17.2165 41.3778
7808 2 51.8834 16.2266 42.5549
7809 1 77.1441 15.532 53.9207
7810 2 77.3364 15.5324 52.9394
7811 2 77.2983 16.448 54.291
7812 1 17.6565 16.5354 13.8965
7813 2 16.7842 16.9761 14.1083
7814 2 18.2958 17.2163 13.5391
7815 1 74.8417 28.9622 12.7111
7816 2 75.5554 28.2752 12.5747
7817 2 75.1107 29.8155 12.2644
7818 1 29.3308 12.5176 87.683
7819 2 28.7539 11.7193 87.8559
7820 2 28.9164 13.0796 86.9672
7821 1 0.786176 10.8275 56.0594
7822 2 0.598303 9.91274 56.4171
7823 2 0.286651 11.5054 56.5988
7824 1 38.8473 14.3457 49.4407
7825 2 38.6983 13.3621 49.5428
7826 2 38.8829 14.5783 48.4688
7827 1 42.6256 24.7751 43.3599
7828 2 43.5477 25.039 43.0767
7829 2 42.6641 24.3459 44.2622
7830 1 70.8843 17.3444 76.9989
7831 2 71.3696 17.4438 77.8676
7832 2 71.5412 17.3697 76.2453
7833 1 22.0051 18.5342 86.06
7834 2 21.2861 19.1078 86.4525
7835 2 22.0531 17.6703 86.5613
7836 1 69.1844 24.4733 74.6143
7837 2 68.5651 23.8684 74.1138
7838 2 68.988 24.4154 75.5931
7839 1 11.0824 4.5399 74.0085
7840 2 10.3764 3.90691 73.6909
7841 2 10.7115 5.11391 74.7385
7842 1 30.8524 13.7175 72.7681
7843 2 30.1736 13.4638 73.4573
7844 2 30.9075 14.714 72.7055
7845 1 14.2434 15.9436 14.8065
7846 2 14.3889 16.5353 15.5994
7847 2 14.644 15.0446 14.9834
7848 1 20.6854 18.3417 48.509
7849 2 21.5911 17.9968 48.2625
7850 2 20.6181 19.3083 48.2617
7851 1 59.881 22.1069 55.2587
7852 2 60.6258 22.4139 55.8511
7853 2 59.8979 21.1092 55.1919
7854 1 38.0322 10.3171 43.5276
7855 2 38.9186 9.91211 43.3031
7856 2 38.1002 10.8071 44.3966
7857 1 76.9765 22.5467 17.4172
7858 2 77.3644 23.2272 18.039
7859 2 77.6129 22.383 16.6634
7860 1 55.9054 16.9553 43.1088
7861 2 55.1906 16.3395 43.4404
7862 2 55.5605 17.4768 42.3284
7863 1 27.2959 1.62496 78.4888
7864 2 28.1583 1.69129 77.9869
7865 2 26.5323 1.64587 77.8435
7866 1 66.9859 24.5598 52.6795
7867 2 67.2071 25.5264 52.5499
7868 2 66.3606 24.2614 51.9585
7869 1 79.1778 23.5361 55.5748
7870 2 78.8331 24.467 55.6959
7871 2 0.0648587 23.4476 56.0279
7872 1 15.0992 16.9426 12.1991
7873 2 14.7881 16.5092 13.0449
7874 2 15.3828 16.2382 11.5483
7875 1 54.0451 13.5604 64.2326
7876 2 54.8513 13.4335 64.8104
7877 2 54.2933 13.4082 63.276
7878 1 25.5324 22.6575 64.994
7879 2 26.2946 22.7824 64.3589
7880 2 25.6944 21.8446 65.5534
7881 1 75.467 6.15623 43.0852
7882 2 75.6234 6.47973 42.152
7883 2 74.5503 5.76232 43.1522
7884 1 67.2383 18.0168 18.8727
7885 2 67.0261 18.8816 19.3277
7886 2 66.4235 17.6796 18.4011
7887 1 1.24526 23.9206 14.0191
7888 2 2.00802 24.5568 13.9031
7889 2 0.769104 23.8085 13.147
7890 1 11.6117 3.5751 52.2224
7891 2 11.5199 3.69858 53.2105
7892 2 12.0343 4.38848 51.8226
7893 1 23.1732 10.2701 55.4975
7894 2 22.9151 10.5528 56.4213
7895 2 23.3462 11.08 54.9371
7896 1 66.8143 28.8033 26.3718
7897 2 65.8959 29.1737 26.5109
7898 2 67.1274 28.3637 27.2136
7899 1 62.9726 18.5337 90.8831
7900 2 63.1615 17.5542 90.8133
7901 2 63.049 18.9532 89.9786
7902 1 3.59995 3.44672 49.7491
7903 2 3.42934 2.94011 48.9039
7904 2 2.99528 4.24221 49.7887
7905 1 68.7366 29.5 83.6508
7906 2 68.6501 29.2817 84.6228
7907 2 69.3676 0.2674 83.5364
7908 1 66.0097 28.3714 55.9697
7909 2 65.7695 27.4558 56.2922
7910 2 65.2635 28.7348 55.4119
7911 1 65.7281 1.8699 74.4788
7912 2 66.6988 1.96212 74.7005
7913 2 65.4525 2.61554 73.8721
7914 1 28.6962 14.8272 39.6492
7915 2 28.3312 15.461 38.9672
7916 2 28.9584 13.9718 39.2027
7917 1 25.1733 18.4018 68.1175
7918 2 25.0197 19.2508 68.6231
7919 2 24.4852 18.3137 67.3973
7920 1 39.2568 10.511 34.3039
7921 2 38.481 10.5792 34.9313
7922 2 39.1416 11.1679 33.5588
7923 1 44.9972 13.2533 60.4749
7924 2 45.9888 13.318 60.3625
7925 2 44.5803 14.1394 60.2727
7926 1 13.8663 20.51 17.5388
7927 2 13.3488 20.1883 16.7459
7928 2 14.0293 19.7458 18.1629
7929 1 48.5796 9.14062 71.6031
7930 2 47.7824 9.63899 71.2623
7931 2 49.1332 8.8291 70.8308
7932 1 39.1445 14.5795 38.9752
7933 2 38.7951 15.3839 39.4557
7934 2 40.0668 14.3713 39.3007
7935 1 42.2629 18.4041 45.1922
7936 2 41.3996 18.5187 45.6837
7937 2 42.14 17.7425 44.4525
7938 1 63.3792 19.1739 74.9409
7939 2 62.7793 19.9708 74.8699
7940 2 62.8422 18.3759 75.2146
7941 1 21.1484 27.5273 53.961
7942 2 22.146 27.5955 53.9445
7943 2 20.8719 26.8512 54.644
7944 1 52.182 10.9921 52.0137
7945 2 51.3194 11.3936 51.7063
7946 2 52.8187 11.7214 52.2641
7947 1 25.0912 17.184 72.6464
7948 2 25.8815 17.7626 72.8478
7949 2 25.3803 16.4083 72.0856
7950 1 17.4162 13.5965 51.9378
7951 2 16.5184 13.2904 52.2544
7952 2 18.0298 12.8103 51.8647
7953 1 43.6211 4.18174 78.1741
7954 2 43.8801 4.76027 78.9475
7955 2 44.0092 3.26828 78.2964
7956 1 53.0628 21.3281 74.1287
7957 2 53.0889 22.2509 74.513
7958 2 53.5068 20.6917 74.7594
7959 1 39.6005 12.4775 51.7455
7960 2 39.0746 11.6296 51.6782
7961 2 40.4676 12.3713 51.2587
7962 1 23.0166 21.2532 25.6546
7963 2 23.4047 22.1699 25.7496
7964 2 23.7517 20.5952 25.4915
7965 1 56.6595 20.0704 52.5622
7966 2 56.507 19.1356 52.883
7967 2 56.3999 20.1388 51.5989
7968 1 12.4798 24.3952 34.4456
7969 2 13.2841 24.8696 34.0877
7970 2 12.6486 23.4096 34.4499
7971 1 1.80614 9.65392 85.7081
7972 2 1.95204 10.6426 85.7418
7973 2 2.16173 9.23578 86.5439
7974 1 10.3319 21.0522 73.186
7975 2 11.0877 21.2953 73.794
7976 2 9.46743 21.3425 73.5963
7977 1 17.1068 25.7949 91.2311
7978 2 17.7742 26.292 91.7857
7979 2 17.5787 25.3182 90.4894
7980 1 69.8028 2.84122 82.7548
7981 2 70.487 2.20343 83.1084
7982 2 69.7619 2.76756 81.7583
7983 1 42.016 9.36578 54.7181
7984 2 42.9461 9.16969 54.4075
7985 2 41.3611 9.03944 54.0364
7986 1 1.01903 0.7454 21.6876
7987 2 1.60297 0.88517 22.4872
7988 2 0.0929847 0.515803 21.9871
7989 1 3.91241 14.464 41.8905
7990 2 4.7652 14.4382 42.4121
7991 2 3.54317 15.3932 41.9011
7992 1 5.63549 26.3594 24.7653
7993 2 5.88904 27.2587 25.1217
7994 2 5.38375 26.4419 23.8011
7995 1 44.2087 9.44416 51.6439
7996 2 43.5584 8.92315 51.091
7997 2 44.7159 10.0745 51.0561
7998 1 31.0581 3.89361 51.9762
7999 2 31.6319 4.71061 51.9187
8000 2 30.9245 3.51503 51.0603
8001 1 40.689 17.195 38.1454
8002 2 41.2904 17.9036 38.5144
8003 2 40.4526 16.5479 38.8703
8004 1 30.6293 20.2858 60.3317
8005 2 30.5575 21.2263 59.9997
8006 2 31.5297 20.1455 60.7435
8007 1 45.2143 24.7822 84.4154
8008 2 44.8117 24.4269 83.5718
8009 2 45.901 24.1389 84.7539
8010 1 35.1575 7.20959 62.2332
8011 2 35.1469 8.19097 62.0414
8012 2 34.219 6.8656 62.2629
8013 1 24.8239 1.64775 67.6714
8014 2 25.2429 1.1436 66.9163
8015 2 25.339 2.48868 67.8372
8016 1 75.3156 17.7538 86.9354
8017 2 75.0537 18.6404 86.5542
8018 2 75.9814 17.315 86.3319
8019 1 52.3538 19.8223 62.8196
8020 2 52.5737 19.0034 62.2894
8021 2 53.0614 20.5137 62.6738
8022 1 79.0298 5.75265 87.1575
8023 2 78.27 5.28538 87.6095
8024 2 79.7925 5.11595 87.0439
8025 1 68.67 9.98002 15.9074
8026 2 69.5332 10.2771 15.4993
8027 2 68.7748 9.05495 16.2724
8028 1 55.8018 4.15879 60.7774
8029 2 54.9851 3.62084 60.5686
8030 2 55.9677 4.81301 60.0395
8031 1 56.1282 10.1847 90.9772
8032 2 56.1787 9.20107 91.1501
8033 2 57.0529 10.5577 90.9009
8034 1 26.1088 25.7403 49.2399
8035 2 26.9449 25.2748 48.9496
8036 2 25.6771 25.2209 49.9774
8037 1 43.8738 25.4291 87.4971
8038 2 43.6739 25.5921 86.5309
8039 2 44.7203 24.9028 87.5781
8040 1 13.639 15.4426 30.1548
8041 2 14.1353 16.2404 29.8123
8042 2 14.1492 14.6119 29.9324
8043 1 51.4814 27.9457 32.3556
8044 2 51.2758 27.5768 33.2621
8045 2 51.0321 27.3869 31.6586
8046 1 4.30556 2.61523 81.9032
8047 2 4.20525 3.53576 81.5257
8048 2 5.27095 2.35455 81.894
8049 1 48.8865 1.77863 40.4964
8050 2 48.6415 0.998593 41.0722
8051 2 48.903 1.49339 39.5381
8052 1 57.4849 16.9518 80.1046
8053 2 57.0281 16.0624 80.1248
8054 2 57.1511 17.4803 79.3241
8055 1 7.3359 11.3944 26.392
8056 2 7.74697 10.5001 26.2155
8057 2 7.15376 11.8549 25.5232
8058 1 10.2995 17.4055 47.6177
8059 2 11.1802 16.9338 47.5749
8060 2 10.3596 18.1656 48.2648
8061 1 12.4323 29.6295 70.7827
8062 2 11.9273 29.5176 69.9269
8063 2 13.1072 0.359932 70.6785
8064 1 63.0374 22.16 41.1311
8065 2 62.1578 21.9847 40.6888
8066 2 63.7688 22.1069 40.4513
8067 1 78.4354 21.6133 15.2167
8068 2 78.1548 20.6539 15.1878
8069 2 79.3338 21.7108 14.7884
8070 1 63.9238 22.5983 63.7431
8071 2 63.959 22.8661 64.7059
8072 2 63.4843 23.3223 63.2115
8073 1 72.7177 16.8305 73.6705
8074 2 73.3005 16.6825 74.4695
8075 2 73.2492 17.2715 72.9473
8076 1 69.616 14.3733 44.5317
8077 2 70.52 14.0337 44.7915
8078 2 69.0051 14.3332 45.3224
8079 1 17.0208 9.04243 61.0879
8080 2 16.4244 9.41851 61.797
8081 2 17.9453 9.40577 61.2028
8082 1 50.4527 19.9872 32.847
8083 2 50.6116 20.237 33.8022
8084 2 51.1965 20.3431 32.2812
8085 1 28.6176 2.18082 75.4082
8086 2 29.2778 1.76295 76.0323
8087 2 27.7564 1.67379 75.4455
8088 1 24.3832 14.6565 48.845
8089 2 24.5081 14.9729 47.9046
8090 2 25.2699 14.4039 49.2322
8091 1 5.07429 18.9444 62.9469
8092 2 5.21508 19.9308 62.8623
8093 2 5.70228 18.5756 63.6323
8094 1 28.5385 19.8273 83.8046
8095 2 29.2239 20.2139 84.4216
8096 2 27.9669 19.178 84.3062
8097 1 51.3392 3.6615 30.8005
8098 2 50.9098 4.24453 30.1108
8099 2 52.1606 4.11064 31.1521
8100 1 17.3746 14.2077 40.4706
8101 2 16.5022 14.254 39.984
8102 2 17.4213 13.3549 40.9907
8103 1 62.1572 22.5393 56.5973
8104 2 62.4872 23.2893 57.1705
8105 2 62.9086 21.9063 56.4114
8106 1 44.2518 21.2368 39.476
8107 2 45.1575 21.2948 39.8961
8108 2 43.5825 21.6926 40.0627
8109 1 60.5896 22.6309 28.8561
8110 2 60.3952 23.4431 29.4061
8111 2 61.5452 22.3642 28.9817
8112 1 76.6733 28.4009 77.0872
8113 2 75.8799 28.7299 77.5994
8114 2 77.3464 28.022 77.7223
8115 1 47.9159 22.9086 49.9364
8116 2 47.5851 22.1365 49.3938
8117 2 47.9263 23.7333 49.3709
8118 1 53.087 10.0587 67.1686
8119 2 54.0039 9.94768 67.552
8120 2 52.6548 10.8676 67.5671
8121 1 26.3326 13.6201 77.8219
8122 2 26.9712 14.2263 78.296
8123 2 25.7387 13.1728 78.4907
8124 1 65.1895 24.9739 88.8337
8125 2 65.17 25.5469 89.653
8126 2 65.4365 24.0385 89.0868
8127 1 39.1309 1.92674 39.0013
8128 2 40.0734 2.14383 39.2554
8129 2 38.8126 1.14528 39.538
8130 1 4.21484 20.149 70.9159
8131 2 5.07686 20.3791 71.3676
8132 2 3.45101 20.3764 71.52
8133 1 69.9725 28.4292 73.6564
8134 2 69.6311 27.4901 73.6166
8135 2 70.7276 28.4819 74.3098
8136 1 23.2432 6.35987 78.7156
8137 2 22.9355 5.61236 78.1269
8138 2 22.5376 7.06755 78.752
8139 1 68.569 11.0348 51.4254
8140 2 67.7305 11.3774 51.0015
8141 2 68.4223 10.9184 52.4077
8142 1 39.9915 2.39585 47.3278
8143 2 39.5226 3.16997 47.7531
8144 2 40.8633 2.70298 46.9463
8145 1 20.8009 11.8434 75.0366
8146 2 20.4831 10.9024 75.1524
8147 2 21.3211 12.1214 75.8441
8148 1 50.6966 16.6246 82.4781
8149 2 51.2543 16.2542 83.2209
8150 2 49.7448 16.3455 82.6048
8151 1 33.6014 23.3884 55.1208
8152 2 34.5451 23.6977 55.2379
8153 2 33.0087 23.8765 55.7614
8154 1 51.8836 4.10035 22.6602
8155 2 51.241 3.68468 22.0166
8156 2 52.286 3.3886 23.2359
8157 1 77.5398 28.5761 72.2589
8158 2 76.8735 28.9483 72.905
8159 2 77.0872 28.3812 71.3887
8160 1 48.5343 19.7047 44.8715
8161 2 48.2745 18.8217 45.2623
8162 2 47.978 19.887 44.0607
8163 1 41.6419 18.8713 51.6437
8164 2 41.5927 18.8432 50.6453
8165 2 42.5742 18.6606 51.9376
8166 1 8.80554 20.1099 23.7933
8167 2 9.73619 19.8244 24.0222
8168 2 8.81075 20.592 22.9172
8169 1 56.4264 27.1642 22.1817
8170 2 57.0878 27.8618 22.4568
8171 2 55.5134 27.4299 22.4913
8172 1 32.4734 1.31256 61.9506
8173 2 31.6352 0.815673 62.1752
8174 2 32.4779 2.19145 62.4276
8175 1 52.7743 18.1681 36.4945
8176 2 53.3383 17.7224 37.1897
8177 2 52.3126 18.9588 36.8966
8178 1 44.5224 5.25665 72.1609
8179 2 44.3667 6.01043 72.7994
8180 2 44.0477 4.43947 72.4879
8181 1 20.2118 1.99808 37.6929
8182 2 19.4485 1.66418 37.1397
8183 2 20.7205 1.22067 38.0628
8184 1 52.9189 20.8242 55.1926
8185 2 52.9888 21.0296 54.2164
8186 2 52.2906 21.4708 55.6251
8187 1 77.535 22.0451 53.812
8188 2 77.9371 22.7449 54.4025
8189 2 76.6798 22.388 53.4235
8190 1 7.27048 23.313 65.8393
8191 2 8.1079 23.1855 66.3708
8192 2 7.2158 22.6105 65.1297
8193 1 59.0876 20.6998 64.6877
8194 2 59.7357 20.2482 65.3008
8195 2 58.5442 21.3608 65.2052
8196 1 74.0935 5.5433 46.873
8197 2 74.1584 5.01098 47.7171
8198 2 73.4192 6.27251 46.9899
8199 1 75.0705 13.7845 37.9233
8200 2 74.6164 13.7026 38.8105
8201 2 76.0429 13.9717 38.0626
8202 1 59.7198 0.702875 20.1191
8203 2 60.4624 1.29327 20.4353
8204 2 60.0227 29.75 20.1328
8205 1 25.1542 22.8742 26.2693
8206 2 25.4402 23.1081 25.34
8207 2 24.6727 23.651 26.6753
8208 1 68.7491 10.7593 77.7909
8209 2 68.848 11.3383 78.6003
8210 2 67.778 10.6102 77.6045
8211 1 48.2131 5.05649 46.2225
8212 2 47.8831 4.18689 45.8552
8213 2 47.7495 5.81154 45.7589
8214 1 14.3984 9.54213 77.1975
8215 2 14.0424 10.4018 77.5638
8216 2 14.5341 8.89202 77.9451
8217 1 63.4153 25.8985 79.2302
8218 2 63.0362 25.8603 80.1547
8219 2 62.808 25.414 78.6006
8220 1 20.1762 19.1468 23.5917
8221 2 19.7642 19.2801 22.6903
8222 2 21.1518 19.3621 23.5474
8223 1 50.3913 27.7679 86.213
8224 2 50.8316 28.5031 86.7284
8225 2 49.9956 27.1055 86.8492
8226 1 32.0591 12.1612 42.1402
8227 2 32.4397 13.071 42.3059
8228 2 31.8478 11.724 43.0144
8229 1 4.92559 0.155939 23.8471
8230 2 5.21316 29.9002 24.7701
8231 2 5.08827 29.3914 23.2234
8232 1 1.52258 21.2951 65.7033
8233 2 0.977234 21.4885 66.5188
8234 2 2.24333 21.9825 65.6135
8235 1 28.9498 11.2862 68.5017
8236 2 28.9769 12.2822 68.4166
8237 2 28.041 10.9546 68.2488
8238 1 4.26851 16.467 19.3373
8239 2 5.1342 16.6547 18.8732
8240 2 4.41382 16.4673 20.3267
8241 1 27.3563 15.6853 63.7364
8242 2 28.13 16.1394 63.2946
8243 2 27.2958 15.9816 64.6896
8244 1 27.3755 7.45003 64.8818
8245 2 26.4558 7.58405 65.2508
8246 2 27.4438 6.5367 64.4803
8247 1 17.6107 17.4134 72.6625
8248 2 16.918 18.1347 72.6571
8249 2 17.838 17.1625 71.7216
8250 1 53.811 24.1606 37.439
8251 2 54.2028 23.7294 38.2518
8252 2 53.1428 23.5434 37.0236
8253 1 45.765 25.7102 53.4951
8254 2 45.6529 26.6116 53.0768
8255 2 45.0814 25.5893 54.2148
8256 1 65.4356 6.91754 23.9837
8257 2 66.2266 7.07141 24.576
8258 2 64.8278 6.2458 24.4072
8259 1 77.9638 17.2465 64.5495
8260 2 77.1393 17.8094 64.6068
8261 2 77.8611 16.5792 63.8118
8262 1 29.4013 9.94683 44.0157
8263 2 28.7122 9.6088 44.6567
8264 2 30.2703 9.48177 44.1847
8265 1 54.1738 7.19922 26.1109
8266 2 53.3303 7.72976 26.0273
8267 2 53.9808 6.23527 25.9277
8268 1 46.0077 1.63781 50.0641
8269 2 45.8963 2.63001 50.0083
8270 2 45.3664 1.2677 50.7363
8271 1 47.68 8.70439 83.5997
8272 2 48.6766 8.67808 83.6782
8273 2 47.4235 9.2185 82.7812
8274 1 2.84323 0.915257 64.6349
8275 2 2.34112 1.13515 65.4712
8276 2 3.54845 1.60666 64.4779
8277 1 60.037 13.3548 34.7005
8278 2 59.7687 13.731 35.5873
8279 2 60.347 12.4114 34.8186
8280 1 52.4011 6.47734 33.112
8281 2 52.1885 7.12716 32.3823
8282 2 51.5535 6.07315 33.4558
8283 1 28.6733 21.3465 90.6563
8284 2 28.1376 21.7518 89.9155
8285 2 28.0762 20.7894 91.2333
8286 1 25.1916 18.2829 29.7832
8287 2 25.2104 18.1805 28.7887
8288 2 26.1279 18.3291 30.1313
8289 1 1.09917 7.91057 30.9738
8290 2 2.02379 8.24929 30.7996
8291 2 0.432292 8.59276 30.674
8292 1 36.1128 18.2462 34.811
8293 2 35.5613 17.5374 35.2509
8294 2 35.7911 18.3856 33.8745
8295 1 6.14167 19.6023 60.2418
8296 2 6.42779 19.3584 59.3151
8297 2 6.16687 20.5964 60.3476
8298 1 38.3246 1.89328 58.2051
8299 2 37.7931 1.89131 59.0522
8300 2 39.2914 1.75182 58.4178
8301 1 59.8551 5.68119 73.0946
8302 2 58.8843 5.76785 73.3183
8303 2 60.3342 6.51805 73.3595
8304 1 28.7377 23.4996 43.5158
8305 2 29.298 22.8711 42.9764
8306 2 29.2668 23.8308 44.2972
8307 1 6.88169 19.5378 19.6909
8308 2 5.88673 19.496 19.782
8309 2 7.27527 18.6479 19.9214
8310 1 35.0582 18.6744 45.3509
8311 2 34.4551 18.4289 44.592
8312 2 35.5308 17.8565 45.6791
8313 1 16.4187 5.02782 29.7875
8314 2 17.2839 5.39411 30.1298
8315 2 16.5941 4.44559 28.9936
8316 1 13.3117 23.8383 22.5272
8317 2 12.9428 24.08 23.4247
8318 2 13.9494 23.0741 22.6237
8319 1 39.7923 4.99936 49.1274
8320 2 38.8407 4.69474 49.0874
8321 2 39.8954 5.84122 48.5976
8322 1 3.98182 10.5239 48.0488
8323 2 3.69101 11.4476 48.2983
8324 2 3.26416 9.87141 48.2921
8325 1 32.7321 25.5554 64.1038
8326 2 32.2044 25.9706 63.3627
8327 2 32.4644 25.9671 64.9749
8328 1 65.6779 15.2471 54.3276
8329 2 64.8408 15.6722 54.6721
8330 2 65.8882 14.4355 54.8725
8331 1 54.2363 4.32314 67.4511
8332 2 54.1989 5.2625 67.792
8333 2 54.2476 3.68837 68.2237
8334 1 10.0645 27.4547 36.8901
8335 2 9.60683 28.3384 36.7914
8336 2 9.52477 26.8651 37.4909
8337 1 75.959 4.25174 37.4729
8338 2 75.7185 4.53617 36.5448
8339 2 76.793 4.72278 37.7603
8340 1 71.4823 16.9715 37.3481
8341 2 70.668 16.8116 36.7901
8342 2 71.8153 17.9016 37.1931
8343 1 0.503199 28.9169 61.7942
8344 2 1.0208 28.831 60.9429
8345 2 79.6641 29.4333 61.6235
8346 1 31.7557 4.6516 55.4241
8347 2 32.0804 5.5048 55.016
8348 2 32.0229 4.62003 56.3873
8349 1 17.4096 16.3687 28.4432
8350 2 16.4201 16.3505 28.2999
8351 2 17.6986 15.5174 28.8812
8352 1 17.5212 1.46667 75.5427
8353 2 17.6967 1.4563 76.5271
8354 2 16.8682 0.745 75.3129
8355 1 56.9246 16.991 53.7371
8356 2 56.0255 17.1486 54.1455
8357 2 57.3826 16.2431 54.2176
8358 1 4.16582 27.0239 60.2764
8359 2 4.08656 28.0079 60.1168
8360 2 4.52552 26.8632 61.1955
8361 1 9.88427 0.958973 71.6293
8362 2 10.6329 1.61344 71.5231
8363 2 9.05477 1.44353 71.907
8364 1 18.0909 1.44016 27.2352
8365 2 18.6337 0.911024 26.583
8366 2 18.699 1.99871 27.7993
8367 1 33.7108 6.53023 28.4692
8368 2 34.2868 5.92035 27.9249
8369 2 34.1806 6.75959 29.3216
8370 1 12.5276 7.24001 76.2456
8371 2 11.7362 6.67588 76.4809
8372 2 12.5332 7.41215 75.2605
8373 1 42.7004 0.995517 77.3471
8374 2 42.3135 0.279844 77.9286
8375 2 43.5434 1.34076 77.7597
8376 1 67.6098 2.91117 90.0739
8377 2 68.0547 3.38201 89.3121
8378 2 68.2432 2.24682 90.4707
8379 1 19.1724 1.67857 10.85
8380 2 18.2121 1.53055 11.0865
8381 2 19.4516 1.01321 10.1577
8382 1 51.8366 21.9293 57.7028
8383 2 51.9887 22.1879 58.6567
8384 2 52.1128 22.682 57.1052
8385 1 6.5293 28.1607 18.2852
8386 2 7.31594 28.0613 18.8945
8387 2 6.20648 29.1069 18.3094
8388 1 10.9132 9.01768 38.842
8389 2 11.0835 9.97814 39.0624
8390 2 10.3809 8.95872 37.9976
8391 1 7.84333 2.86344 11.0133
8392 2 8.53022 2.22342 11.3576
8393 2 8.21336 3.35844 10.2272
8394 1 34.8924 16.5962 36.6097
8395 2 35.7687 16.1439 36.7752
8396 2 34.3757 16.645 37.4645
8397 1 43.3807 25.3297 71.9337
8398 2 42.5495 25.8538 72.1195
8399 2 43.6354 24.8089 72.7485
8400 1 65.9519 10.868 71.4661
8401 2 66.9224 11.0227 71.6508
8402 2 65.4623 10.7528 72.3304
8403 1 8.31614 21.9843 54.6511
8404 2 7.38872 21.9668 55.0248
8405 2 8.71956 22.8866 54.8027
8406 1 55.2155 24.2559 47.7576
8407 2 55.8021 23.5405 48.1372
8408 2 54.6029 24.5977 48.4703
8409 1 74.6096 16.8209 56.1557
8410 2 74.5624 15.8299 56.0301
8411 2 73.6954 17.1762 56.3505
8412 1 70.9981 25.2901 67.6666
8413 2 71.0809 25.8045 68.5201
8414 2 71.8673 24.8392 67.4635
8415 1 20.1745 15.0897 56.2328
8416 2 19.5366 15.732 56.6578
8417 2 20.5974 15.5189 55.4347
8418 1 8.03828 22.97 40.5824
8419 2 7.27317 22.7604 39.9736
8420 2 8.88101 22.5892 40.202
8421 1 4.04093 29.4155 71.9818
8422 2 3.6905 29.9078 72.7785
8423 2 4.24386 28.4701 72.2369
8424 1 19.4838 12.6478 62.1085
8425 2 19.4808 11.6633 62.284
8426 2 20.3844 13.0228 62.3282
8427 1 14.0202 29.8712 32.0472
8428 2 14.6251 29.8512 31.2511
8429 2 14.5659 29.9841 32.8776
8430 1 30.4123 16.2913 37.2263
8431 2 30.0219 17.1898 37.0256
8432 2 31.3262 16.4045 37.6161
8433 1 14.8192 7.76212 79.0726
8434 2 14.5183 6.90596 79.4927
8435 2 14.6615 8.5184 79.7076
8436 1 70.1501 12.8241 49.9698
8437 2 70.973 13.0565 50.4884
8438 2 69.3955 12.65 50.6025
8439 1 14.6241 12.9617 31.9112
8440 2 15.3423 13.4521 31.4175
8441 2 14.9237 12.0247 32.0912
8442 1 14.6669 6.96484 24.3313
8443 2 15.621 7.03174 24.6231
8444 2 14.6301 6.66212 23.3789
8445 1 1.22374 29.1064 69.3752
8446 2 0.327699 28.6669 69.3124
8447 2 1.88553 28.5938 68.8282
8448 1 65.7076 1.36314 58.5109
8449 2 66.6936 1.49568 58.6123
8450 2 65.2275 2.18421 58.8197
8451 1 74.5061 11.2351 55.7944
8452 2 75.1613 11.4474 56.5194
8453 2 73.6887 10.8208 56.1948
8454 1 78.1707 1.35752 66.6174
8455 2 77.6543 0.557176 66.9221
8456 2 77.5506 2.13552 66.5162
8457 1 26.0379 0.759988 75.4524
8458 2 26.1226 0.077412 76.1782
8459 2 25.071 0.905362 75.2427
8460 1 43.6805 27.9923 73.5064
8461 2 42.7394 27.703 73.3315
8462 2 44.0763 27.4218 74.226
8463 1 57.456 1.25047 80.5703
8464 2 57.1882 1.302 81.5325
8465 2 57.0812 2.0358 80.0776
8466 1 77.6919 8.27997 65.1232
8467 2 76.7822 8.63365 64.906
8468 2 77.998 8.66082 65.9957
8469 1 68.4141 18.5455 52.9781
8470 2 68.9524 18.4028 53.8087
8471 2 68.178 19.5138 52.8962
8472 1 13.9994 29.2122 22.7853
8473 2 14.5081 28.8014 23.5419
8474 2 14.3735 28.887 21.9168
8475 1 5.04941 24.1176 13.8181
8476 2 4.3652 24.7608 13.4744
8477 2 4.61634 23.4783 14.4535
8478 1 33.4547 23.1367 66.0838
8479 2 32.4909 23.114 66.3496
8480 2 33.9952 23.5369 66.8238
8481 1 29.1255 3.93165 61.9823
8482 2 28.2703 4.42753 61.8317
8483 2 29.8559 4.35671 61.4475
8484 1 55.9558 21.5506 31.4746
8485 2 54.9997 21.2885 31.6056
8486 2 56.1809 22.3077 32.0879
8487 1 59.8695 20.3793 15.1975
8488 2 60.1729 20.9669 15.9477
8489 2 59.2771 20.9012 14.5839
8490 1 23.358 2.36394 82.5329
8491 2 22.8916 1.54915 82.8772
8492 2 22.9652 3.17837 82.96
8493 1 69.6335 26.2092 14.1544
8494 2 68.8102 26.6922 14.4527
8495 2 70.3982 26.4546 14.7503
8496 1 57.6545 22.3159 28.8872
8497 2 58.3582 23.0082 28.7269
8498 2 57.6279 22.0868 29.8603
8499 1 77.8363 7.4308 59.5269
8500 2 78.2126 6.50502 59.4903
8501 2 77.8481 7.83186 58.6109
8502 1 68.9798 16.511 22.5755
8503 2 69.4383 17.3721 22.7953
8504 2 68.8162 16.4626 21.5902
8505 1 34.4234 10.6046 87.4695
8506 2 35.0752 10.1659 88.0881
8507 2 34.2399 9.99939 86.6949
8508 1 62.5777 14.873 67.0505
8509 2 62.7984 14.0046 66.6066
8510 2 61.807 15.3018 66.5791
8511 1 38.9748 27.8558 66.7399
8512 2 39.0708 27.1569 67.4486
8513 2 39.0213 27.4251 65.8386
8514 1 53.0352 2.48831 61.3004
8515 2 52.5228 2.70704 62.1308
8516 2 53.0372 1.49807 61.161
8517 1 57.2099 5.58155 64.2749
8518 2 57.17 6.54098 63.9958
8519 2 56.5879 5.04292 63.7065
8520 1 20.0064 27.704 42.9708
8521 2 19.5431 26.9446 43.4278
8522 2 20.9229 27.815 43.3551
8523 1 57.2296 21.1689 62.3962
8524 2 57.8722 21.1056 63.1598
8525 2 57.4231 20.4426 61.7366
8526 1 3.11783 19.9368 68.2643
8527 2 2.15477 19.9162 68.5328
8528 2 3.6523 20.3941 68.9751
8529 1 42.9423 18.5156 34.9529
8530 2 43.0083 18.3027 35.9278
8531 2 42.1441 18.0552 34.5645
8532 1 72.6442 25.6264 73.3592
8533 2 72.3448 24.7419 73.717
8534 2 72.9068 26.2216 74.1187
8535 1 27.2476 2.91587 37.8854
8536 2 27.41 2.08187 37.3581
8537 2 26.9378 3.64275 37.2724
8538 1 3.03332 1.90011 70.666
8539 2 3.04953 0.904703 70.7603
8540 2 2.28133 2.27415 71.2088
8541 1 19.5906 5.35412 51.0705
8542 2 19.0775 6.15184 51.3872
8543 2 20.2223 5.05813 51.787
8544 1 65.3131 22.4535 86.9062
8545 2 65.1488 21.7935 87.6393
8546 2 66.2976 22.552 86.7608
8547 1 4.45281 14.3499 67.4334
8548 2 3.97722 14.9021 68.1181
8549 2 5.09422 13.733 67.8896
8550 1 22.5295 28.0967 43.6376
8551 2 22.3277 27.4834 44.4013
8552 2 23.4337 27.8826 43.2681
8553 1 31.5264 12.3409 55.7838
8554 2 31.1625 13.1243 55.28
8555 2 31.7532 12.6208 56.7167
8556 1 61.9896 15.7684 62.6019
8557 2 61.2683 15.267 63.0797
8558 2 62.4698 15.1498 61.98
8559 1 3.3321 15.6306 52.3213
8560 2 4.28723 15.6968 52.0326
8561 2 3.13726 14.6953 52.6168
8562 1 6.41673 29.9115 83.5901
8563 2 6.61538 0.560921 82.8561
8564 2 6.73489 0.285609 84.4612
8565 1 57.283 12.8411 71.2191
8566 2 57.149 13.8083 71.0035
8567 2 57.0061 12.6688 72.1645
8568 1 17.6648 2.56962 52.3567
8569 2 17.0015 1.8236 52.4161
8570 2 17.2677 3.40047 52.7466
8571 1 29.8695 21.1579 85.8374
8572 2 30.8237 20.8597 85.811
8573 2 29.3968 20.6966 86.5882
8574 1 10.7113 5.28935 41.4056
8575 2 10.4996 5.14614 42.3724
8576 2 9.92423 5.02347 40.849
8577 1 34.9322 14.3467 67.3423
8578 2 34.4767 14.7383 66.5428
8579 2 35.7138 14.9177 67.5936
8580 1 68.5173 5.0917 23.4421
8581 2 69.1109 4.63418 24.1041
8582 2 68.6961 6.07545 23.4581
8583 1 24.444 4.14106 42.3335
8584 2 24.1021 3.27432 41.9704
8585 2 25.1656 3.96092 43.002
8586 1 35.7325 5.9272 80.451
8587 2 35.4691 4.96452 80.5132
8588 2 35.9681 6.26785 81.3612
8589 1 74.3841 1.00395 72.9227
8590 2 74.659 0.0631627 73.1211
8591 2 74.0888 1.45009 73.7676
8592 1 26.5334 7.55453 50.4414
8593 2 27.2895 7.16046 50.9639
8594 2 25.9163 8.03873 51.0616
8595 1 35.4827 0.0401295 55.3198
8596 2 35.0616 0.563004 54.5787
8597 2 34.933 29.2261 55.5075
8598 1 45.0699 23.0465 55.8821
8599 2 46.0134 23.1736 55.576
8600 2 44.5132 23.8185 55.5756
8601 1 58.7133 12.2743 40.4883
8602 2 57.7271 12.3069 40.3257
8603 2 58.886 12.0112 41.4375
8604 1 17.2676 28.3071 28.347
8605 2 18.0086 27.8555 28.8439
8606 2 17.4426 29.2909 28.3092
8607 1 65.0135 8.9722 27.0783
8608 2 65.5558 9.07717 26.2446
8609 2 64.2639 9.63412 27.0739
8610 1 23.0029 8.43125 72.8405
8611 2 23.1829 7.82546 73.6155
8612 2 22.0473 8.7251 72.8621
8613 1 16.4266 3.61677 57.7722
8614 2 16.2877 4.59149 57.9473
8615 2 17.1456 3.50029 57.0872
8616 1 65.5895 29.6446 86.173
8617 2 66.4657 29.3933 86.5843
8618 2 64.843 29.2931 86.7378
8619 1 23.3109 5.05819 67.1484
8620 2 24.0483 4.41469 67.3537
8621 2 22.6096 4.99923 67.8589
8622 1 7.03271 24.717 48.3849
8623 2 7.40802 23.7903 48.3643
8624 2 6.92542 25.054 47.4496
8625 1 1.37319 24.0981 10.7347
8626 2 1.4467 24.0577 9.73827
8627 2 1.80944 24.9342 11.0675
8628 1 49.028 12.4005 58.4726
8629 2 48.5815 12.9014 59.2141
8630 2 48.6056 12.6489 57.6009
8631 1 20.345 13.488 20.9721
8632 2 20.7721 13.1545 21.8125
8633 2 20.8978 13.2131 20.1854
8634 1 31.0603 22.8607 79.6601
8635 2 31.628 23.4677 80.2162
8636 2 30.1576 23.272 79.5332
8637 1 33.2701 12.5712 85.3948
8638 2 33.6833 13.464 85.5744
8639 2 33.7936 11.861 85.8654
8640 1 6.01072 29.2393 56.362
8641 2 5.55301 28.6821 55.6691
8642 2 5.33785 29.8193 56.8212
8643 1 26.5872 0.397854 25.027
8644 2 27.2983 1.09904 25.0785
8645 2 26.6723 29.7788 25.8077
8646 1 0.0170885 7.32786 18.2653
8647 2 79.5599 8.21494 18.3292
8648 2 0.402523 7.08658 19.1559
8649 1 2.02078 21.0888 18.2536
8650 2 2.84484 20.6047 17.9593
8651 2 1.26972 20.4365 18.356
8652 1 4.17641 23.7121 71.6134
8653 2 4.76284 23.1996 72.2406
8654 2 3.5939 24.335 72.1356
8655 1 44.9973 21.7311 36.8879
8656 2 44.3776 21.5816 37.6584
8657 2 44.876 22.6601 36.5381
8658 1 49.1163 5.34512 30.0131
8659 2 49.2897 6.02049 29.2963
8660 2 48.5541 4.60478 29.6445
8661 1 74.4353 20.9625 81.67
8662 2 75.0309 21.5967 82.163
8663 2 73.6735 21.4676 81.2644
8664 1 7.6713 28.1248 78.502
8665 2 7.87152 28.2345 79.4755
8666 2 7.03371 27.3647 78.3764
8667 1 69.3365 12.2355 79.7614
8668 2 68.5873 12.618 80.3021
8669 2 69.6606 12.9208 79.1092
8670 1 10.6733 25.4977 83.5425
8671 2 10.142 25.6371 84.3781
8672 2 10.5139 24.5731 83.1965
8673 1 32.6498 25.0599 42.3519
8674 2 33.4391 25.3265 42.905
8675 2 32.2814 25.8649 41.8869
8676 1 66.227 14.2668 62.4305
8677 2 65.3803 14.1914 61.9038
8678 2 66.2807 13.5128 63.0851
8679 1 66.4252 28.2308 53.0518
8680 2 67.1941 28.1599 53.6872
8681 2 65.9274 29.0807 53.2245
8682 1 56.6791 15.6595 50.8335
8683 2 56.858 15.8313 51.8022
8684 2 57.5108 15.3171 50.3964
8685 1 13.0685 14.1798 34.0081
8686 2 13.1363 15.1774 34.0278
8687 2 13.3662 13.8431 33.1148
8688 1 72.1477 22.3747 70.2994
8689 2 72.0801 22.1263 71.2657
8690 2 72.162 23.3707 70.2115
8691 1 59.7972 2.57729 83.7241
8692 2 58.8462 2.87729 83.7993
8693 2 60.4057 3.35174 83.8972
8694 1 21.8457 22.9403 35.4046
8695 2 20.8554 22.9845 35.2729
8696 2 22.3003 22.9322 34.5139
8697 1 4.2338 7.1023 30.7292
8698 2 3.82256 6.62817 29.9507
8699 2 3.88613 6.70918 31.5804
8700 1 13.4428 19.336 31.7642
8701 2 13.1255 20.2763 31.8873
8702 2 14.0291 19.2852 30.9556
8703 1 20.3627 14.7032 83.0389
8704 2 19.9699 14.0978 83.7312
8705 2 20.3105 14.2628 82.1427
8706 1 56.9612 26.6372 86.392
8707 2 57.1887 25.6744 86.2467
8708 2 56.9472 27.1128 85.5124
8709 1 13.5631 5.32192 86.0285
8710 2 12.6038 5.54535 85.856
8711 2 14.1249 5.65845 85.2728
8712 1 8.80052 23.0947 28.9028
8713 2 8.43612 23.9948 29.1415
8714 2 9.1363 23.1101 27.9609
8715 1 14.0624 16.2854 82.6554
8716 2 13.0763 16.2128 82.8054
8717 2 14.235 16.6124 81.7262
8718 1 2.90854 22.8295 85.6307
8719 2 3.12677 21.925 85.2643
8720 2 2.38455 22.729 86.4764
8721 1 77.2763 21.4698 56.9675
8722 2 77.641 22.104 57.6493
8723 2 77.8056 20.6215 56.9847
8724 1 77.0911 12.98 59.441
8725 2 77.1846 12.4782 58.581
8726 2 76.8056 12.3513 60.1643
8727 1 35.2511 19.0226 50.5042
8728 2 35.5983 18.1109 50.2846
8729 2 35.9861 19.6928 50.4017
8730 1 27.6819 16.2522 43.3111
8731 2 28.1697 15.5486 43.8277
8732 2 28.3161 16.9854 43.0655
8733 1 68.548 15.6948 18.9651
8734 2 68.4218 16.6821 19.0615
8735 2 67.7568 15.3019 18.4963
8736 1 0.431558 24.6366 67.6036
8737 2 1.26768 25.1589 67.7713
8738 2 0.0232241 24.3715 68.477
8739 1 1.11296 7.84434 68.0864
8740 2 1.3077 7.42648 68.9738
8741 2 0.133499 8.03269 68.0145
8742 1 47.3938 3.06454 29.4407
8743 2 48.0755 2.33457 29.3906
8744 2 47.4011 3.46499 30.357
8745 1 12.4317 24.8549 15.0362
8746 2 11.455 24.9178 15.2415
8747 2 12.8768 25.7207 15.2649
8748 1 41.0847 25.5087 45.8832
8749 2 41.0669 24.7086 46.4828
8750 2 41.3369 25.2262 44.9577
8751 1 16.4111 14.7875 77.7605
8752 2 15.6025 14.3027 77.4273
8753 2 16.1314 15.4973 78.407
8754 1 11.7405 22.5197 83.7566
8755 2 11.749 22.1422 82.8306
8756 2 12.5787 22.2537 84.2327
8757 1 31.5803 21.642 83.1105
8758 2 30.9722 21.7233 83.9003
8759 2 32.5315 21.6757 83.4174
8760 1 67.1064 13.0782 66.6965
8761 2 66.5186 13.2728 67.4817
8762 2 67.1353 12.0912 66.5383
8763 1 53.5594 29.9951 71.9822
8764 2 54.2207 29.8273 72.7133
8765 2 53.7988 0.839899 71.5037
8766 1 64.3831 26.4247 46.371
8767 2 64.7621 26.2998 47.2879
8768 2 63.4193 26.6817 46.4409
8769 1 17.0686 25.0568 74.6455
8770 2 16.4222 25.8148 74.7326
8771 2 17.7402 25.2713 73.9363
8772 1 63.3755 2.14058 64.6042
8773 2 63.4519 1.46512 63.8707
8774 2 62.8189 1.76597 65.3456
8775 1 33.4386 9.12077 36.4501
8776 2 34.0891 9.75469 36.8684
8777 2 33.9059 8.26698 36.2205
8778 1 8.34045 0.635386 57.3624
8779 2 8.06553 29.7741 56.935
8780 2 7.81668 0.772402 58.2032
8781 1 47.5828 19.526 85.695
8782 2 47.9694 19.1624 84.8474
8783 2 47.5775 20.5252 85.6573
8784 1 53.2466 25.002 67.1256
8785 2 52.2792 24.82 67.3021
8786 2 53.4004 25.9898 67.0988
8787 1 38.8962 10.7201 38.4056
8788 2 39.7733 10.4536 38.8051
8789 2 38.1577 10.4917 39.0401
8790 1 13.712 26.1886 24.1275
8791 2 13.0573 25.5129 24.4664
8792 2 13.3975 26.5454 23.2478
8793 1 6.87473 15.7884 24.9926
8794 2 6.48923 15.7224 25.913
8795 2 6.96639 14.8719 24.6031
8796 1 67.2064 20.5108 42.9467
8797 2 67.731 19.8335 43.4626
8798 2 66.424 20.8121 43.4917
8799 1 16.526 3.13796 43.4037
8800 2 17.4931 3.30543 43.5952
8801 2 15.9748 3.86738 43.8089
8802 1 25.8311 12.2082 55.0166
8803 2 25.3649 13.0129 54.649
8804 2 25.1954 11.6851 55.5843
8805 1 47.6156 16.4998 36.9196
8806 2 48.2197 16.0458 36.2647
8807 2 47.374 15.86 37.6492
8808 1 72.4333 13.2173 12.5738
8809 2 72.2086 13.9083 11.8869
8810 2 71.8238 12.4316 12.4681
8811 1 34.7 25.3822 31.845
8812 2 34.5686 26.3724 31.891
8813 2 34.1222 25.0025 31.1225
8814 1 7.29496 21.5944 17.7608
8815 2 7.21129 20.8663 18.4412
8816 2 6.39947 21.7749 17.354
8817 1 78.0471 22.4124 84.5585
8818 2 78.5171 21.7697 83.9534
8819 2 77.0586 22.3234 84.4361
8820 1 13.0872 4.44133 61.5487
8821 2 13.7359 5.1866 61.3949
8822 2 13.2395 4.04862 62.4556
8823 1 7.66263 9.12572 61.2289
8824 2 7.259 8.85148 62.1018
8825 2 7.20622 8.64003 60.4834
8826 1 50.1527 9.10187 68.8271
8827 2 49.2695 9.56996 68.7966
8828 2 50.8849 9.7598 68.651
8829 1 11.3138 16.5548 31.4807
8830 2 11.5224 17.4584 31.1067
8831 2 12.1572 16.0232 31.5581
8832 1 7.38332 29.8036 22.218
8833 2 7.2787 0.798051 22.2132
8834 2 7.35283 29.4697 23.1602
8835 1 3.31935 23.0487 54.9458
8836 2 2.85287 23.1261 55.8269
8837 2 4.29207 23.2477 55.065
8838 1 60.9657 13.6014 55.6586
8839 2 60.8646 13.2843 56.6016
8840 2 60.1211 14.0493 55.3653
8841 1 78.0189 20.8278 62.5383
8842 2 77.0978 20.9851 62.1821
8843 2 78.2221 21.5034 63.247
8844 1 61.1725 22.713 20.0988
8845 2 62.0736 23.1222 20.2426
8846 2 61.1503 22.2607 19.2072
8847 1 7.87333 17.0862 80.2825
8848 2 6.93812 16.9702 80.617
8849 2 8.27123 16.1897 80.0876
8850 1 54.0529 26.0423 63.7892
8851 2 53.5134 26.1242 64.6272
8852 2 54.674 25.2625 63.8676
8853 1 14.098 16.8377 59.0776
8854 2 13.1631 16.9757 59.4044
8855 2 14.2807 15.8582 58.9939
8856 1 20.2146 4.7582 86.0617
8857 2 19.3858 4.38644 86.4799
8858 2 20.0748 5.72478 85.8469
8859 1 49.2642 25.8959 88.0263
8860 2 49.4845 24.9283 88.1495
8861 2 48.2776 25.9997 87.9006
8862 1 55.4124 20.8592 71.4356
8863 2 55.143 21.7228 71.0096
8864 2 56.3564 20.6441 71.1851
8865 1 75.6011 1.08571 87.225
8866 2 75.4873 0.0958941 87.1394
8867 2 74.7328 1.53958 87.0245
8868 1 15.0183 23.6999 53.5916
8869 2 14.176 24.0425 54.0076
8870 2 14.9395 22.7143 53.4423
8871 1 69.253 0.689055 80.0816
8872 2 70.0616 0.265964 80.4904
8873 2 68.4291 0.260162 80.4521
8874 1 64.7902 27.373 11.2165
8875 2 64.5281 26.4089 11.261
8876 2 64.0153 27.9143 10.8901
8877 1 63.5197 4.39108 55.047
8878 2 63.2489 4.15779 55.9809
8879 2 63.6475 5.38021 54.9743
8880 1 12.0747 23.4496 72.0488
8881 2 12.2271 23.8298 72.9611
8882 2 11.3906 23.9987 71.5688
8883 1 13.3916 17.5362 64.2836
8884 2 12.9108 16.6779 64.1043
8885 2 14.1773 17.3605 64.8769
8886 1 7.77262 3.99133 63.2192
8887 2 7.84626 3.3862 62.4264
8888 2 8.62497 3.96185 63.7413
8889 1 66.2735 2.72329 46.616
8890 2 67.254 2.63334 46.7909
8891 2 65.8731 3.35505 47.2797
8892 1 58.7355 25.1164 64.6544
8893 2 59.5006 25.7558 64.7305
8894 2 59.0459 24.1955 64.8901
8895 1 58.5663 7.73902 20.4469
8896 2 59.237 7.28918 19.8571
8897 2 58.7392 7.48858 21.3995
8898 1 40.9143 11.757 60.6304
8899 2 41.3742 11.3733 59.8296
8900 2 40.7562 12.734 60.4877
8901 1 36.9058 20.8541 29.6361
8902 2 37.7078 21.3982 29.3894
8903 2 37.2003 20.0138 30.0913
8904 1 28.0434 7.5779 61.9655
8905 2 27.6811 6.73027 61.5778
8906 2 27.3327 8.02731 62.5067
8907 1 38.2587 26.8517 85.8473
8908 2 38.5635 27.7 86.2802
8909 2 37.9118 26.2266 86.5465
8910 1 23.6924 18.4574 75.0629
8911 2 24.6835 18.4676 74.9303
8912 2 23.3457 19.3954 75.0568
8913 1 68.6793 11.218 89.9314
8914 2 68.5853 11.1933 88.9362
8915 2 68.8444 10.293 90.2737
8916 1 47.1478 9.86305 66.8444
8917 2 46.893 9.04841 67.3654
8918 2 47.3293 10.6183 67.4742
8919 1 59.9206 13.4053 89.7695
8920 2 59.4958 13.3056 88.8697
8921 2 59.9437 12.5166 90.2274
8922 1 50.9771 18.502 67.6637
8923 2 50.6698 17.9203 68.4168
8924 2 50.6259 19.4292 67.794
8925 1 9.39017 14.006 81.2102
8926 2 8.86785 13.9514 80.3592
8927 2 10.3438 14.2237 81.0026
8928 1 29.6061 25.7578 57.2807
8929 2 30.397 25.1577 57.161
8930 2 29.1754 25.9226 56.3934
8931 1 5.68473 4.51733 68.6542
8932 2 6.31988 4.15073 69.334
8933 2 4.96059 3.8499 68.4805
8934 1 7.02642 22.5292 79.0902
8935 2 7.73222 23.2333 79.1678
8936 2 6.13602 22.9232 79.3181
8937 1 5.71559 12.8455 69.3235
8938 2 6.37263 12.1371 69.5814
8939 2 5.24038 13.1725 70.1404
8940 1 17.6493 25.6987 68.2875
8941 2 16.7907 25.3476 68.6611
8942 2 18.164 24.9483 67.8729
8943 1 78.905 4.54699 67.4273
8944 2 78.7185 4.98711 68.3057
8945 2 79.8004 4.10288 67.4606
8946 1 29.391 4.53981 82.3314
8947 2 28.616 4.85769 81.7852
8948 2 29.0871 3.81728 82.9523
8949 1 3.97195 12.4904 10.8455
8950 2 4.40511 13.2802 11.2797
8951 2 4.51618 12.2032 10.0573
8952 1 13.2542 24.4518 51.2344
8953 2 12.4844 23.8205 51.1404
8954 2 14.1112 23.9366 51.223
8955 1 51.3232 2.9395 38.6171
8956 2 52.156 3.42183 38.3454
8957 2 51.5465 2.25235 39.3084
8958 1 61.2724 20.7391 47.9742
8959 2 60.2787 20.7789 48.0786
8960 2 61.7044 21.3035 48.6778
8961 1 39.103 6.42333 38.5515
8962 2 40.0695 6.67908 38.5293
8963 2 38.6828 6.78077 39.3856
8964 1 3.69657 7.82936 75.1355
8965 2 4.68499 7.95074 75.0444
8966 2 3.41038 8.10273 76.0538
8967 1 72.0896 27.5092 57.5873
8968 2 72.95 27.9375 57.3112
8969 2 72.1516 27.2228 58.5434
8970 1 38.1709 13.5788 65.7734
8971 2 37.5669 13.5458 64.9772
8972 2 38.2703 14.5263 66.0775
8973 1 51.0565 20.428 42.9512
8974 2 51.6864 20.35 42.1785
8975 2 50.2265 19.9043 42.7589
8976 1 43.9875 28.6285 90.4368
8977 2 44.9413 28.4295 90.6618
8978 2 43.9268 29.5313 90.011
8979 1 74.9276 15.7734 78.3427
8980 2 74.5395 15.96 79.2453
8981 2 75.0581 14.788 78.2333
8982 1 36.9943 5.46115 77.9275
8983 2 36.3289 6.03085 78.4098
8984 2 37.0578 4.56995 78.3767
8985 1 49.254 22.3612 72.2369
8986 2 48.4973 21.9065 71.7671
8987 2 49.5525 21.8 73.0089
8988 1 51.9094 10.939 29.0174
8989 2 51.0568 11.461 29.0398
8990 2 52.3447 10.9731 29.9171
8991 1 19.0957 7.40869 17.0612
8992 2 19.5442 8.26576 17.3147
8993 2 18.3888 7.59183 16.378
8994 1 12.6567 5.8504 33.3477
8995 2 13.481 6.01636 33.8889
8996 2 12.0277 6.62054 33.4537
8997 1 26.635 21.7161 36.0981
8998 2 26.5964 20.8892 35.5371
8999 2 25.7752 22.219 36.0099
9000 1 1.79682 26.5261 17.6444
9001 2 1.83952 26.8453 18.5911
9002 2 1.6971 25.5312 17.6322
9003 1 29.1861 20.3878 56.039
9004 2 29.374 21.0971 56.7184
9005 2 29.1066 20.8058 55.1341
9006 1 60.5519 12.6742 27.1808
9007 2 59.7301 12.2438 27.5541
9008 2 60.4828 13.6668 27.2801
9009 1 69.8954 24.3909 62.7804
9010 2 69.3094 23.606 62.9819
9011 2 70.0328 24.9269 63.6134
9012 1 53.008 20.556 51.0419
9013 2 53.1718 19.831 51.7109
9014 2 53.742 20.5548 50.3627
9015 1 59.8903 23.9047 42.5579
9016 2 59.2059 23.9885 43.2821
9017 2 59.9546 22.9495 42.2689
9018 1 58.1257 12.6389 76.8145
9019 2 58.5059 12.1692 76.0178
9020 2 57.6625 11.9758 77.4027
9021 1 72.7693 8.90761 85.3675
9022 2 71.9594 9.49269 85.4086
9023 2 73.5514 9.39307 85.7584
9024 1 23.2812 23.5805 58.8347
9025 2 23.9964 22.8882 58.7386
9026 2 23.2398 23.8871 59.7856
9027 1 16.6264 20.5477 66.6908
9028 2 17.108 21.4229 66.6442
9029 2 16.0253 20.5402 67.4899
9030 1 43.9525 16.2892 37.5839
9031 2 44.5775 15.5087 37.5716
9032 2 43.0096 15.9604 37.6362
9033 1 12.7196 7.33018 62.9002
9034 2 13.6692 7.03323 62.7998
9035 2 12.2987 6.8472 63.6681
9036 1 34.9354 27.9918 76.5068
9037 2 35.5061 28.7059 76.9122
9038 2 33.9751 28.1714 76.7201
9039 1 33.6359 16.796 38.935
9040 2 33.7042 17.7933 38.9054
9041 2 34.3319 16.4326 39.5543
9042 1 12.2139 2.73886 71.1718
9043 2 12.8745 2.00225 71.0269
9044 2 12.4394 3.51057 70.5771
9045 1 3.35501 16.1227 59.8702
9046 2 3.866 16.7011 59.2344
9047 2 3.97698 15.4662 60.297
9048 1 69.7762 25.9081 22.1243
9049 2 70.3721 26.7101 22.0835
9050 2 68.8243 26.2038 22.2048
9051 1 30.1429 15.8252 44.5395
9052 2 30.4936 16.6853 44.91
9053 2 30.892 15.1679 44.4566
9054 1 14.0559 18.7081 88.7416
9055 2 14.5895 19.5076 89.0172
9056 2 13.8814 18.1323 89.5404
9057 1 31.9447 12.9996 63.4173
9058 2 32.4447 12.9309 64.2806
9059 2 31.8539 13.9617 63.1604
9060 1 16.2706 6.74709 41.7565
9061 2 15.7455 6.19138 42.4011
9062 2 16.8196 7.41339 42.2611
9063 1 22.2228 25.9545 36.6353
9064 2 21.3261 25.558 36.4388
9065 2 22.3949 26.7158 36.0102
9066 1 21.511 7.08452 36.0984
9067 2 21.6892 6.73357 35.1791
9068 2 20.618 6.76115 36.4113
9069 1 5.61506 21.0083 45.1504
9070 2 6.23073 21.5906 44.6195
9071 2 5.89694 20.0533 45.0576
9072 1 10.426 29.7945 38.9655
9073 2 10.0349 29.1716 39.6431
9074 2 9.70592 0.38441 38.6002
9075 1 15.9358 24.7318 42.8191
9076 2 14.9913 24.9588 42.5815
9077 2 16.5599 25.3084 42.2918
9078 1 77.4533 18.1156 90.244
9079 2 78.264 18.5833 90.5962
9080 2 76.7049 18.772 90.1488
9081 1 32.3446 26.9225 37.5314
9082 2 32.7887 27.7885 37.3016
9083 2 31.8 26.6104 36.7529
9084 1 6.14934 7.86289 88.6686
9085 2 7.08481 8.00503 88.9921
9086 2 5.81308 8.70243 88.2418
9087 1 13.6752 4.12667 19.0094
9088 2 14.5741 4.48232 19.2654
9089 2 13.77 3.18756 18.6791
9090 1 0.0760197 20.7936 73.1088
9091 2 79.9427 20.4512 72.1788
9092 2 1.01611 21.1183 73.2129
9093 1 46.9574 4.12089 31.9769
9094 2 47.0809 5.11276 32.0078
9095 2 47.3109 3.7146 32.8195
9096 1 16.5363 9.76316 82.5839
9097 2 15.9577 10.3318 81.9992
9098 2 16.2185 8.81573 82.5471
9099 1 50.8707 20.1495 70.7091
9100 2 50.6814 19.3015 70.2141
9101 2 50.665 20.0221 71.6793
9102 1 36.1223 2.85472 90.0446
9103 2 36.4139 3.73999 90.4069
9104 2 36.7444 2.57205 89.3145
9105 1 77.4683 25.9963 53.7985
9106 2 76.7534 26.6695 53.6095
9107 2 77.7522 26.0712 54.7544
9108 1 58.9442 1.0478 90.1558
9109 2 58.4859 0.768042 90.9995
9110 2 59.1459 2.02645 90.1949
9111 1 60.772 4.20091 14.9094
9112 2 60.7298 5.12659 15.2853
9113 2 61.1243 4.2367 13.9742
9114 1 0.0876425 7.69458 48.227
9115 2 79.2425 7.41586 48.6832
9116 2 0.514732 8.43797 48.7418
9117 1 29.24 26.2149 73.5948
9118 2 29.0104 25.4846 72.9514
9119 2 30.0718 25.9705 74.0933
9120 1 64.6323 6.11047 49.5994
9121 2 65.2705 5.62022 50.193
9122 2 65.1448 6.68434 48.9607
9123 1 7.86404 5.61035 14.8378
9124 2 7.95768 6.31543 14.1349
9125 2 8.31822 5.91274 15.6758
9126 1 66.9189 8.40922 62.0514
9127 2 67.8743 8.24348 62.2959
9128 2 66.5858 9.21726 62.5373
9129 1 66.8355 19.3317 35.936
9130 2 67.5517 19.0321 36.5663
9131 2 66.6456 18.6039 35.277
9132 1 47.0102 15.6693 65.5328
9133 2 47.3714 16.4626 65.0426
9134 2 47.515 14.8505 65.2595
9135 1 11.6301 24.6534 31.0341
9136 2 12.5156 25.0903 31.1921
9137 2 10.9428 25.3534 30.8403
9138 1 5.27532 26.1933 56.4166
9139 2 4.46822 25.9431 55.8818
9140 2 6.06858 26.2602 55.8114
9141 1 72.8678 29.2045 48.2375
9142 2 72.8364 29.1696 49.2364
9143 2 72.0528 29.6715 47.8944
9144 1 41.3626 11.0234 69.366
9145 2 41.3865 10.0241 69.395
9146 2 41.2356 11.3265 68.4216
9147 1 42.4108 28.4027 78.2075
9148 2 42.046 27.4968 78.4228
9149 2 42.2772 29.0105 78.9902
9150 1 2.10915 6.96058 65.4554
9151 2 1.55583 7.22178 66.2463
9152 2 1.70705 6.156 65.0184
9153 1 37.1324 24.7226 45.4043
9154 2 36.2503 24.9366 44.9846
9155 2 36.9822 24.2767 46.2867
9156 1 76.6786 12.8865 54.2086
9157 2 76.6731 13.8864 54.2149
9158 2 76.3574 12.5458 55.0922
9159 1 48.9879 18.8656 65.2914
9160 2 49.5639 18.0913 65.5533
9161 2 48.541 19.2386 66.1045
9162 1 20.3911 5.06942 61.7947
9163 2 19.8545 4.52082 61.1536
9164 2 21.1385 5.51837 61.3049
9165 1 5.2138 16.658 80.8624
9166 2 5.11161 15.8175 80.3303
9167 2 4.48511 17.2978 80.6182
9168 1 36.171 1.27905 62.7629
9169 2 35.2406 0.944077 62.912
9170 2 36.7814 0.884378 63.4496
9171 1 53.0577 28.7509 40.5402
9172 2 52.6186 28.9028 39.6547
9173 2 52.3606 28.7162 41.2563
9174 1 35.9624 23.7739 85.2845
9175 2 35.3024 23.029 85.3818
9176 2 36.4461 23.9059 86.1497
9177 1 76.2386 28.0812 53.1254
9178 2 75.2651 28.3095 53.1411
9179 2 76.7674 28.8931 52.878
9180 1 57.3171 12.3917 50.5537
9181 2 56.4921 12.6077 50.0315
9182 2 57.0811 12.281 51.5191
9183 1 65.5477 27.6113 64.6023
9184 2 65.8376 28.4807 64.2022
9185 2 64.5897 27.676 64.8819
9186 1 44.8214 1.19446 89.562
9187 2 45.2388 0.889941 88.7058
9188 2 45.081 2.14359 89.7402
9189 1 26.5445 28.5741 68.0096
9190 2 26.1148 29.2486 67.4092
9191 2 26.7599 28.9996 68.8885
9192 1 60.6755 10.7027 35.1037
9193 2 61.3844 11.0733 35.7037
9194 2 60.0344 10.1565 35.6429
9195 1 68.7118 20.8631 50.0926
9196 2 68.61 21.4828 50.8708
9197 2 69.112 21.3589 49.3218
9198 1 59.2207 7.20525 75.5994
9199 2 60.1606 6.92951 75.3979
9200 2 58.5855 6.57075 75.1591
9201 1 76.12 28.2264 69.4949
9202 2 75.6702 29.0463 69.1408
9203 2 77.093 28.2548 69.2662
9204 1 72.0007 5.87283 13.6509
9205 2 71.7516 6.30877 12.7861
9206 2 72.1351 4.8929 13.5036
9207 1 72.7711 3.72969 86.3231
9208 2 72.657 4.04881 87.2639
9209 2 72.5417 2.75778 86.2707
9210 1 35.1008 26.7394 89.4972
9211 2 35.505 27.6003 89.806
9212 2 35.3664 26.5677 88.5485
9213 1 19.4564 2.78777 74.0137
9214 2 19.6349 3.41998 74.7677
9215 2 18.8967 2.02693 74.3421
9216 1 14.1479 5.23436 72.436
9217 2 13.6899 4.79221 71.6648
9218 2 13.4693 5.49056 73.1243
9219 1 13.311 25.1674 12.5199
9220 2 12.6752 25.1108 13.2898
9221 2 13.4253 24.2604 12.1147
9222 1 15.5671 8.44127 32.6261
9223 2 14.9493 7.76933 33.0345
9224 2 16.5142 8.1805 32.8135
9225 1 53.1968 14.3759 27.8464
9226 2 53.1434 13.52 27.3319
9227 2 52.5166 15.0191 27.495
9228 1 71.8312 17.7376 17.3188
9229 2 72.1111 16.8826 17.7554
9230 2 71.6733 18.4334 18.0194
9231 1 47.8854 24.6994 82.6359
9232 2 48.1236 24.8895 81.6835
9233 2 47.8927 23.7115 82.7905
9234 1 66.237 23.2874 41.5771
9235 2 65.9341 22.6038 40.9131
9236 2 67.1842 23.1016 41.8384
9237 1 68.7809 6.66142 71.203
9238 2 69.3107 5.84281 71.4247
9239 2 67.8104 6.48501 71.3675
9240 1 10.0432 23.1668 26.1212
9241 2 10.6536 23.6321 25.4802
9242 2 10.1581 22.1774 26.0325
9243 1 36.2488 21.7372 34.2774
9244 2 36.245 21.8355 33.2822
9245 2 36.7741 22.4846 34.6841
9246 1 7.6271 26.5714 42.5832
9247 2 8.00692 27.3633 43.0615
9248 2 6.96289 26.8802 41.9025
9249 1 53.1056 14.3597 33.5015
9250 2 53.3648 13.554 32.9689
9251 2 53.2495 15.1828 32.9521
9252 1 71.7412 2.38728 51.9401
9253 2 72.0688 1.63692 51.366
9254 2 72.1997 2.35233 52.8281
9255 1 62.5274 23.0242 15.8372
9256 2 62.1726 22.4116 16.5435
9257 2 62.4571 23.9711 16.1512
9258 1 68.688 26.3579 44.7152
9259 2 68.9088 26.9985 45.4507
9260 2 67.9688 26.7467 44.1393
9261 1 40.9836 1.75714 52.7378
9262 2 41.3013 2.02863 53.6463
9263 2 41.7713 1.60601 52.1406
9264 1 60.1944 13.3539 22.5686
9265 2 60.9237 12.6772 22.4678
9266 2 59.558 13.2749 21.8013
9267 1 70.7621 18.1744 26.2101
9268 2 69.8563 18.1939 26.6333
9269 2 70.7891 17.4578 25.5131
9270 1 33.2805 24.1115 80.6942
9271 2 33.3868 25.0855 80.8942
9272 2 32.8085 23.6648 81.4542
9273 1 27.9755 15.6973 33.2414
9274 2 27.6126 14.8127 33.5344
9275 2 28.1855 15.6644 32.2643
9276 1 51.7572 28.4731 47.609
9277 2 51.5568 28.7086 48.5599
9278 2 51.6523 27.4869 47.4806
9279 1 14.6316 23.9764 80.2939
9280 2 15.1444 24.831 80.3761
9281 2 13.6618 24.1811 80.1611
9282 1 57.8997 6.0758 57.4835
9283 2 58.8775 6.06462 57.6929
9284 2 57.695 6.85366 56.8893
9285 1 3.93728 1.72204 57.1546
9286 2 4.19935 2.31429 56.3926
9287 2 3.20643 1.10562 56.8615
9288 1 17.0434 16.6037 39.0119
9289 2 17.69 16.0092 39.4898
9290 2 16.9013 17.438 39.5444
9291 1 21.8148 5.09795 52.9219
9292 2 22.5501 5.41623 52.3235
9293 2 22.1632 4.38078 53.5255
9294 1 72.4415 5.28479 40.6243
9295 2 72.9937 4.53901 40.2517
9296 2 72.7084 5.45531 41.5729
9297 1 5.77361 29.6845 77.0887
9298 2 5.06648 28.9788 77.1333
9299 2 6.58921 29.3703 77.5745
9300 1 42.1935 23.6184 59.534
9301 2 43.0185 24.1595 59.6971
9302 2 41.9588 23.1103 60.3627
9303 1 71.4296 17.3775 69.4117
9304 2 72.3038 17.5031 68.9426
9305 2 70.9744 18.2624 69.5109
9306 1 36.6934 7.54852 29.1888
9307 2 36.8142 7.81544 30.1449
9308 2 37.4326 6.93142 28.919
9309 1 20.1548 19.3333 30.2121
9310 2 20.5218 18.409 30.3172
9311 2 20.8514 19.9242 29.8051
9312 1 31.8701 9.18445 58.9801
9313 2 32.4565 9.9859 59.0975
9314 2 31.2693 9.09186 59.7741
9315 1 19.5545 15.4068 38.026
9316 2 20.4005 15.5367 38.5431
9317 2 19.0218 16.253 38.0404
9318 1 64.9793 1.01016 82.999
9319 2 65.6688 0.308957 82.8179
9320 2 65.3325 1.65877 83.6732
9321 1 58.001 9.72889 25.8781
9322 2 58.3438 9.15679 26.6232
9323 2 57.0012 9.73721 25.8971
9324 1 18.842 22.0428 77.3868
9325 2 19.5894 22.0657 78.0507
9326 2 18.3792 22.9292 77.375
9327 1 63.6352 16.3455 71.9456
9328 2 63.4235 16.3364 72.9229
9329 2 63.6364 17.2888 71.6135
9330 1 31.2321 5.21798 60.8039
9331 2 31.8317 5.12756 60.0087
9332 2 31.6499 5.83851 61.4675
9333 1 75.9113 29.2852 48.997
9334 2 75.583 0.229781 49.0041
9335 2 75.2347 28.6939 49.4358
9336 1 69.6009 6.24855 54.3489
9337 2 70.4668 6.67021 54.618
9338 2 69.6347 5.26736 54.539
9339 1 60.1399 2.44315 24.8366
9340 2 60.7437 1.79577 24.3715
9341 2 59.2663 2.49115 24.3523
9342 1 6.89511 5.70877 66.4508
9343 2 7.85499 5.4958 66.2684
9344 2 6.65139 5.39076 67.367
9345 1 65.1902 11.0872 18.2933
9346 2 64.4782 10.9619 17.6025
9347 2 64.9741 10.5352 19.0987
9348 1 52.0247 20.7071 37.0209
9349 2 51.299 20.6248 37.704
9350 2 51.8086 21.4554 36.3937
9351 1 8.56162 14.5698 78.7818
9352 2 8.80669 14.5897 77.8125
9353 2 7.56737 14.5139 78.8731
9354 1 24.323 7.05648 20.8778
9355 2 24.1966 6.06452 20.8715
9356 2 25.2414 7.27754 20.5498
9357 1 12.6677 15.1873 42.3801
9358 2 13.3531 15.8615 42.6551
9359 2 12.5233 15.2427 41.3921
9360 1 74.3366 6.65932 32.0689
9361 2 74.3537 7.32818 31.3257
9362 2 75.2661 6.33799 32.2497
9363 1 16.6846 10.6355 35.9088
9364 2 16.8921 9.71826 35.5688
9365 2 16.8267 11.3022 35.1772
9366 1 17.0972 18.9875 26.3734
9367 2 17.3527 19.6352 25.6556
9368 2 17.1235 18.0572 26.0078
9369 1 6.58198 0.526781 73.8275
9370 2 7.49682 0.605199 73.4314
9371 2 6.64615 0.565114 74.8247
9372 1 69.065 0.369501 86.5683
9373 2 69.2206 1.35592 86.6207
9374 2 69.911 29.9127 86.2934
9375 1 19.3751 16.8989 35.7986
9376 2 20.2153 16.8481 35.2586
9377 2 19.2756 16.0638 36.3396
9378 1 39.5551 2.57573 50.4764
9379 2 39.8977 2.4201 51.4029
9380 2 40.1115 3.27547 50.0284
9381 1 30.4488 16.7925 52.3009
9382 2 31.091 16.5311 53.0215
9383 2 30.3398 16.0329 51.6598
9384 1 0.351075 17.2676 29.4782
9385 2 0.187916 16.4147 28.9821
9386 2 1.19347 17.6911 29.1449
9387 1 71.1023 24.3161 55.1692
9388 2 71.0449 25.2994 54.9965
9389 2 70.7928 24.1226 56.1002
9390 1 61.6699 10.4501 25.74
9391 2 60.8059 10.8486 25.4323
9392 2 62.1659 11.1177 26.2953
9393 1 53.989 14.5789 49.5398
9394 2 54.621 14.9099 50.2406
9395 2 54.2455 13.6504 49.2715
9396 1 0.801586 25.9649 26.8056
9397 2 79.8733 25.5945 26.772
9398 2 0.923871 26.4813 27.6532
9399 1 74.5801 1.66131 11.3399
9400 2 75.011 2.33013 10.7341
9401 2 73.7295 2.04075 11.704
9402 1 41.1836 7.35997 33.4963
9403 2 41.5506 7.38594 34.4262
9404 2 41.6472 8.04609 32.9357
9405 1 48.8655 8.37366 86.4027
9406 2 49.3114 8.93654 87.0987
9407 2 49.3406 7.49689 86.3285
9408 1 27.812 9.31014 70.8063
9409 2 27.5819 9.40788 69.838
9410 2 27.5761 8.38821 71.1135
9411 1 29.2992 13.1861 75.1773
9412 2 28.4642 13.3631 74.6562
9413 2 29.0754 12.6573 75.996
9414 1 71.5451 2.9869 38.5948
9415 2 72.4322 2.52839 38.6493
9416 2 71.6201 3.90507 38.9839
9417 1 21.8396 11.9184 50.6347
9418 2 21.886 12.5629 49.8715
9419 2 21.2313 12.2811 51.3407
9420 1 59.6904 28.9855 17.5051
9421 2 59.6063 29.9804 17.4496
9422 2 60.2825 28.7434 18.2738
9423 1 76.0471 12.398 18.1345
9424 2 76.8462 12.8821 18.4911
9425 2 75.851 11.6067 18.7136
9426 1 72.1966 25.8608 19.2851
9427 2 72.6138 24.9553 19.2078
9428 2 72.172 26.1354 20.2464
9429 1 50.4982 18.9794 86.2676
9430 2 49.6144 19.4472 86.2676
9431 2 51.233 19.6552 86.3256
9432 1 9.08486 13.9106 26.9253
9433 2 9.24631 14.7109 26.3479
9434 2 9.79194 13.2254 26.7506
9435 1 14.6247 23.657 87.651
9436 2 15.2544 24.0814 87.0004
9437 2 13.7573 23.4588 87.1946
9438 1 21.2404 16.4224 30.7926
9439 2 22.2016 16.4897 31.0603
9440 2 21.1521 15.7891 30.0238
9441 1 76.1637 14.094 51.2098
9442 2 75.7534 13.8783 52.0959
9443 2 76.9314 13.4765 51.0388
9444 1 71.2247 27.1106 54.9061
9445 2 71.4478 27.3137 55.8595
9446 2 72.0039 27.3438 54.3244
9447 1 3.34882 11.7249 57.0863
9448 2 2.97881 10.8694 56.7241
9449 2 2.95509 11.903 57.9881
9450 1 33.9163 7.84286 39.6635
9451 2 33.5757 7.26277 40.4034
9452 2 34.6926 8.38078 39.9921
9453 1 59.9099 20.8086 26.7514
9454 2 60.0702 21.0741 27.7021
9455 2 60.7121 20.3256 26.4004
9456 1 62.6475 25.9719 14.8409
9457 2 62.4856 26.0883 15.8208
9458 2 61.8362 26.2604 14.3324
9459 1 20.0378 20.2085 18.8531
9460 2 19.4295 20.3194 18.0672
9461 2 20.3518 19.2602 18.9004
9462 1 1.57177 14.5204 34.3547
9463 2 0.966303 15.3044 34.2182
9464 2 2.14895 14.6803 35.1555
9465 1 64.2628 11.7059 33.3914
9466 2 64.619 12.5285 33.8346
9467 2 65.0229 11.1679 33.0269
9468 1 42.3466 19.4897 32.0168
9469 2 43.1584 19.3505 31.4497
9470 2 42.5954 20.0117 32.8327
9471 1 76.5887 20.7746 31.4742
9472 2 76.2179 20.6145 32.389
9473 2 76.7011 19.9001 31.0023
9474 1 59.2811 15.9087 83.0576
9475 2 58.6778 16.7011 83.1484
9476 2 59.0358 15.2228 83.7427
9477 1 55.9136 5.20648 79.5644
9478 2 56.2715 5.72542 78.7881
9479 2 56.6492 5.03857 80.2206
9480 1 34.9452 25.7783 44.6604
9481 2 34.2233 25.8784 45.3451
9482 2 35.1643 26.674 44.2736
9483 1 42.3121 10.3912 46.3679
9484 2 42.5308 9.48392 46.0087
9485 2 41.3424 10.5841 46.2182
9486 1 58.5151 9.34217 82.6914
9487 2 57.7534 9.98963 82.7155
9488 2 58.2569 8.50568 83.1748
9489 1 64.8666 21.9801 55.9762
9490 2 64.9016 22.9168 56.3246
9491 2 65.1809 21.3488 56.6851
9492 1 13.9952 11.6081 65.4718
9493 2 13.7864 10.7661 65.9693
9494 2 13.3965 12.342 65.7926
9495 1 49.0357 9.3311 27.2844
9496 2 49.4623 9.56135 26.4097
9497 2 49.1578 8.35578 27.4683
9498 1 62.6409 20.1861 58.0264
9499 2 62.2049 21.0732 57.875
9500 2 61.9378 19.4861 58.1516
9501 1 29.25 28.1057 71.7604
9502 2 29.3057 27.7024 72.6738
9503 2 28.9559 27.4092 71.1059
9504 1 8.64104 25.2549 19.0741
9505 2 9.22412 24.4482 19.1701
9506 2 8.93605 25.7868 18.2804
9507 1 24.6397 0.0787405 23.4995
9508 2 24.0786 29.3561 23.9034
9509 2 25.3856 0.309974 24.1242
9510 1 78.2487 8.99289 40.865
9511 2 79.0819 9.38251 41.2575
9512 2 78.4111 8.03711 40.6198
9513 1 73.3734 9.49065 51.109
9514 2 73.6704 10.111 51.8349
9515 2 72.6045 8.94049 51.4345
9516 1 77.695 28.8085 47.1124
9517 2 78.443 28.2148 47.4093
9518 2 76.9589 28.7807 47.7887
9519 1 37.7165 27.3327 34.3135
9520 2 37.6684 26.6903 35.0784
9521 2 36.8475 27.821 34.2332
9522 1 60.7233 16.9641 65.6214
9523 2 59.8309 17.1041 65.1925
9524 2 60.7229 17.3746 66.5332
9525 1 72.1989 29.8029 60.7586
9526 2 72.6926 28.9994 60.426
9527 2 72.8321 0.406069 61.2437
9528 1 75.3315 7.36904 40.7129
9529 2 75.3646 7.62563 39.7469
9530 2 74.3935 7.45536 41.0487
9531 1 36.3066 14.1052 39.01
9532 2 37.2719 13.9172 38.829
9533 2 36.2241 14.6541 39.8418
9534 1 0.105498 17.3535 60.2778
9535 2 79.26 16.8196 60.2773
9536 2 79.8922 18.3153 60.4492
9537 1 11.344 9.17572 43.4994
9538 2 10.4062 9.34755 43.801
9539 2 11.718 8.39581 44.0013
9540 1 21.3587 16.3956 43.6814
9541 2 21.4002 15.456 44.0212
9542 2 21.1602 17.016 44.4402
9543 1 4.00196 23.1685 44.0417
9544 2 3.15393 22.9259 43.5705
9545 2 4.73642 22.5605 43.7403
9546 1 67.2606 18.2144 33.5355
9547 2 66.2706 18.097 33.6143
9548 2 67.4578 18.9782 32.921
9549 1 58.2311 22.9906 70.7934
9550 2 57.8612 22.5968 71.6349
9551 2 59.1235 23.4008 70.9816
9552 1 33.7871 22.7119 44.4027
9553 2 32.9394 22.6324 44.9271
9554 2 33.9215 23.6642 44.1287
9555 1 56.0767 22.8586 36.2117
9556 2 55.1919 23.14 36.5833
9557 2 55.9326 22.2952 35.3982
9558 1 50.8516 13.1073 25.9177
9559 2 51.0219 14.0579 26.1771
9560 2 49.874 12.9769 25.7527
9561 1 48.9672 28.8612 76.4379
9562 2 49.4147 29.7268 76.2132
9563 2 49.3279 28.5144 77.3038
9564 1 7.8322 7.19936 27.7445
9565 2 8.65036 7.62967 27.3631
9566 2 7.05126 7.81472 27.6374
9567 1 24.771 22.694 80.4035
9568 2 24.0093 22.4472 79.8044
9569 2 24.4301 22.8434 81.3316
9570 1 64.5137 7.76419 90.9466
9571 2 64.8667 7.14113 90.2486
9572 2 63.5343 7.90594 90.8023
9573 1 57.9254 14.9793 40.1067
9574 2 58.3328 15.8836 39.9788
9575 2 58.513 14.43 40.7009
9576 1 75.2596 0.0804419 30.7122
9577 2 75.8832 0.820973 30.4619
9578 2 74.9975 0.175688 31.6726
9579 1 68.2132 23.8618 14.5014
9580 2 67.4623 23.9995 15.1472
9581 2 68.7282 24.7133 14.4025
9582 1 57.1742 11.4394 55.9173
9583 2 57.4424 12.3682 56.1731
9584 2 56.2856 11.2254 56.3232
9585 1 72.242 26.2874 85.0178
9586 2 71.9539 27.2234 85.2199
9587 2 73.0367 26.0548 85.5784
9588 1 75.3273 24.6455 35.2494
9589 2 76.2313 25.0478 35.1048
9590 2 74.623 25.3055 34.9877
9591 1 73.7321 29.6736 79.1181
9592 2 73.2068 29.657 79.9689
9593 2 73.6271 0.565828 78.679
9594 1 47.9976 9.1955 43.4405
9595 2 47.6947 8.91886 42.5285
9596 2 47.5712 8.60583 44.1265
9597 1 50.4792 11.1324 32.691
9598 2 50.5118 10.1405 32.8135
9599 2 49.5482 11.4083 32.4522
9600 1 65.9652 2.73139 84.9035
9601 2 66.9386 2.78071 85.1273
9602 2 65.6978 3.55094 84.3968
9603 1 14.676 18.697 42.0058
9604 2 14.9242 18.8179 42.967
9605 2 15.4185 18.2296 41.5261
9606 1 57.4899 6.89349 40.5772
9607 2 58.4175 6.6967 40.8945
9608 2 56.8772 6.15569 40.8605
9609 1 66.8805 25.9389 42.1417
9610 2 66.2792 25.1664 42.3455
9611 2 66.5511 26.753 42.62
9612 1 38.8876 6.89283 85.7701
9613 2 39.3041 7.1608 86.6388
9614 2 37.9391 6.61702 85.9263
9615 1 43.2058 11.6042 83.6674
9616 2 43.0786 11.648 84.6583
9617 2 44.1792 11.6843 83.4525
9618 1 66.7991 7.0208 35.2776
9619 2 66.0286 6.39192 35.1736
9620 2 66.8769 7.29708 36.2355
9621 1 44.6599 7.53499 64.0563
9622 2 44.3072 7.39941 64.9821
9623 2 45.0392 8.45679 63.9757
9624 1 77.0583 7.94693 50.6639
9625 2 77.7 8.42837 50.0669
9626 2 77.5665 7.36883 51.3023
9627 1 10.3835 11.8281 25.6368
9628 2 9.65164 11.8108 24.9556
9629 2 11.0313 11.0899 25.4489
9630 1 53.6231 12.139 38.799
9631 2 53.078 11.4296 39.2458
9632 2 54.538 12.1596 39.2021
9633 1 74.6501 24.8343 81.8834
9634 2 74.6711 24.6142 82.8586
9635 2 75.0586 24.084 81.3635
9636 1 69.7697 3.03677 48.3823
9637 2 69.1535 2.40312 48.8502
9638 2 70.1074 2.6136 47.5416
9639 1 69.2377 14.1383 26.8414
9640 2 69.4324 15.0562 27.187
9641 2 68.2623 14.0597 26.6352
9642 1 66.4217 6.87427 21.1214
9643 2 66.2161 6.75491 22.0928
9644 2 66.025 7.73407 20.8
9645 1 54.1463 2.20419 87.4414
9646 2 53.2902 1.68729 87.4387
9647 2 54.5726 2.14774 86.5386
9648 1 69.8942 14.1966 34.8449
9649 2 69.6837 13.2632 35.1353
9650 2 69.3654 14.8438 35.394
9651 1 14.3672 26.6984 21.2222
9652 2 15.1813 26.5923 21.7932
9653 2 14.4471 26.1128 20.4156
9654 1 76.0273 1.89535 49.7141
9655 2 75.5138 2.63174 49.2736
9656 2 75.4984 1.53313 50.4817
9657 1 43.2835 24.3001 37.2304
9658 2 43.316 24.0063 36.2751
9659 2 42.3793 24.1027 37.6092
9660 1 70.3562 23.1695 12.4266
9661 2 70.3751 23.8916 11.7351
9662 2 69.4813 23.194 12.9103
9663 1 71.2953 0.997745 21.2725
9664 2 72.2178 0.894533 20.9005
9665 2 71.013 0.141917 21.706
9666 1 2.33911 14.3796 56.7739
9667 2 2.11677 15.3274 56.5452
9668 2 1.62515 14.0028 57.3641
9669 1 77.7805 24.5104 12.426
9670 2 77.5008 25.4705 12.431
9671 2 78.0677 24.2421 13.3455
9672 1 64.6915 13.0697 21.0477
9673 2 65.1588 12.9446 21.9229
9674 2 63.8479 12.5328 21.0405
9675 1 10.6755 15.6491 54.9433
9676 2 11.6655 15.7879 54.9675
9677 2 10.2821 15.8999 55.8278
9678 1 10.1267 23.7197 77.6825
9679 2 9.99918 24.0312 76.7409
9680 2 9.63526 24.3291 78.3047
9681 1 68.5827 13.8201 90.7663
9682 2 68.6746 12.8381 90.6016
9683 2 69.4222 14.2853 90.4855
9684 1 31.4011 20.0688 67.7696
9685 2 31.3075 21.0201 67.476
9686 2 31.0804 19.9779 68.7124
9687 1 47.4251 9.52802 50.1349
9688 2 46.7499 10.2487 49.9773
9689 2 47.1114 8.67879 49.7101
9690 1 45.5363 25.9385 34.3205
9691 2 45.5949 24.9815 34.0363
9692 2 46.3558 26.4262 34.0197
9693 1 78.6426 17.6707 31.8681
9694 2 78.6788 16.6815 32.0103
9695 2 79.1722 18.1296 32.5815
9696 1 55.9123 9.43985 86.8589
9697 2 55.3467 10.1572 87.2657
9698 2 56.6412 9.85749 86.3164
9699 1 3.62756 18.6058 80.3335
9700 2 4.05722 19.4288 80.7051
9701 2 2.76011 18.8495 79.8998
9702 1 37.6451 27.4246 52.748
9703 2 37.9039 28.3221 53.105
9704 2 37.8533 26.7224 53.4289
9705 1 77.724 6.81507 74.9262
9706 2 78.6206 7.0215 75.3182
9707 2 77.2624 6.13167 75.4918
9708 1 69.346 11.3637 24.4882
9709 2 68.8973 10.6809 25.0647
9710 2 68.9276 11.3598 23.5799
9711 1 26.9761 28.6624 86.2537
9712 2 27.1562 28.5428 87.2301
9713 2 26.8885 27.7663 85.8187
9714 1 16.0836 1.12189 12.2667
9715 2 16.6768 1.46863 12.9933
9716 2 15.1922 0.880987 12.6507
9717 1 26.9319 24.7339 62.6314
9718 2 26.7988 24.5279 63.6008
9719 2 27.0674 25.7179 62.5153
9720 1 19.1352 26.0555 57.0818
9721 2 18.6314 26.8561 57.4063
9722 2 19.9516 26.3534 56.5871
9723 1 13.9735 9.89117 14.272
9724 2 13.5073 9.07625 14.6163
9725 2 14.7242 10.1308 14.8876
9726 1 25.3869 12.3703 61.0139
9727 2 24.4881 12.5133 61.4283
9728 2 25.6901 11.4338 61.1905
9729 1 16.9534 12.3837 48.0192
9730 2 17.698 12.5867 48.6551
9731 2 17.1182 12.8537 47.152
9732 1 55.8826 29.1271 49.5411
9733 2 56.0739 29.9227 50.1158
9734 2 56.7156 28.584 49.4357
9735 1 69.0938 21.5887 16.1979
9736 2 68.697 22.0253 15.3905
9737 2 69.2252 22.2723 16.9159
9738 1 79.3356 20.9795 25.0136
9739 2 79.0246 21.6582 24.3483
9740 2 79.5811 21.438 25.8677
9741 1 26.3815 3.87208 33.6287
9742 2 26.4658 4.84958 33.822
9743 2 26.7394 3.68096 32.7147
9744 1 64.9533 14.6063 34.5916
9745 2 64.9695 13.8345 35.2273
9746 2 64.1047 14.5849 34.063
9747 1 38.4476 14.1062 79.4655
9748 2 37.4646 13.9461 79.5563
9749 2 38.8396 14.2915 80.3666
9750 1 14.089 27.6119 11.7431
9751 2 13.914 26.6275 11.7279
9752 2 14.9184 27.8112 11.2211
9753 1 79.1116 22.9518 63.9683
9754 2 0.0621179 23.1283 63.7127
9755 2 78.922 23.3706 64.8564
9756 1 37.0706 15.9879 67.9748
9757 2 38.0424 16.2238 67.9724
9758 2 36.7268 16.0007 68.9138
9759 1 63.6659 16.1553 20.3777
9760 2 64.0677 15.3479 20.8097
9761 2 62.8596 16.4432 20.8944
9762 1 38.1175 23.7545 82.4133
9763 2 37.8696 23.8501 81.4492
9764 2 38.3762 24.6477 82.781
9765 1 40.7795 1.84296 61.087
9766 2 40.4377 1.01316 61.5282
9767 2 41.163 1.61136 60.193
9768 1 8.96648 28.7395 53.7902
9769 2 8.0785 29.197 53.8369
9770 2 8.8715 27.8774 53.2925
9771 1 46.7044 29.308 82.7549
9772 2 47.3696 29.1366 82.0281
9773 2 46.7479 0.269345 83.0267
9774 1 33.9434 20.2371 66.4268
9775 2 33.9279 21.1866 66.74
9776 2 33.012 19.9403 66.2161
9777 1 66.0706 15.6088 12.988
9778 2 65.748 14.8104 12.4795
9779 2 65.334 16.2819 13.054
9780 1 75.5843 2.77175 28.8056
9781 2 75.1279 3.63453 28.5881
9782 2 75.7201 2.70647 29.7942
9783 1 55.2365 10.0203 83.3754
9784 2 55.7558 9.18268 83.2056
9785 2 55.6613 10.7811 82.8848
9786 1 62.0034 10.1585 54.9711
9787 2 62.0774 10.7332 54.1561
9788 2 62.6641 10.4651 55.6563
9789 1 56.1289 26.7407 59.5976
9790 2 56.7949 26.105 59.9878
9791 2 56.4544 27.0596 58.7074
9792 1 22.1135 13.6929 48.7562
9793 2 21.6903 14.2128 48.0142
9794 2 23.0772 13.948 48.8346
9795 1 68.3237 5.23877 15.86
9796 2 68.4705 4.28339 15.6037
9797 2 67.4156 5.52913 15.5583
9798 1 22.5902 2.22018 79.7864
9799 2 21.5964 2.22672 79.8971
9800 2 22.9992 1.62879 80.4814
9801 1 78.3072 5.33876 61.1401
9802 2 78.595 5.94259 61.8834
9803 2 77.6056 4.70955 61.4744
9804 1 41.676 14.6326 51.6337
9805 2 41.9133 13.6734 51.4801
9806 2 41.6637 15.1171 50.759
9807 1 74.2061 14.1573 46.4548
9808 2 74.9646 13.5673 46.7311
9809 2 74.2236 14.9981 46.9959
9810 1 69.4036 3.8502 67.5044
9811 2 69.1459 4.81587 67.4715
9812 2 70.253 3.7143 66.9944
9813 1 2.69751 26.1722 67.8171
9814 2 2.80145 27.1488 67.6285
9815 2 3.31643 25.9078 68.5567
9816 1 3.71218 4.95574 80.4745
9817 2 4.09274 5.36274 79.6441
9818 2 2.92092 4.39225 80.237
9819 1 38.5091 4.39998 71.8242
9820 2 39.4452 4.5154 72.1563
9821 2 37.9796 3.87961 72.4942
9822 1 18.3245 27.2556 18.284
9823 2 17.729 26.5729 17.8606
9824 2 18.6034 26.9385 19.1904
9825 1 17.5161 5.60896 67.2347
9826 2 18.4094 5.17324 67.1244
9827 2 17.5193 6.17114 68.0617
9828 1 56.1553 4.34982 34.6638
9829 2 55.3534 4.68457 35.1586
9830 2 55.8605 3.86426 33.8408
9831 1 73.713 11.8144 71.6643
9832 2 72.795 11.5617 71.3586
9833 2 74.0475 11.1319 72.3141
9834 1 49.8132 4.32054 69.7782
9835 2 49.3131 4.36125 68.9132
9836 2 49.982 5.24881 70.1096
9837 1 66.0919 26.1087 58.7997
9838 2 66.5935 26.9725 58.8469
9839 2 65.3616 26.1095 59.4828
9840 1 24.9171 13.614 58.476
9841 2 24.745 13.4976 59.4542
9842 2 25.2533 14.54 58.3045
9843 1 5.85775 14.2679 58.7021
9844 2 5.12073 13.7047 59.0757
9845 2 6.70432 14.083 59.2012
9846 1 52.0818 1.6906 47.4002
9847 2 51.1596 2.05707 47.2761
9848 2 52.2882 1.04989 46.6607
9849 1 35.0759 13.3515 56.6434
9850 2 34.7991 13.5407 57.5855
9851 2 34.2622 13.2286 56.0752
9852 1 9.17342 16.5718 62.0493
9853 2 8.31984 16.1359 61.764
9854 2 9.31037 16.4269 63.0292
9855 1 29.7249 19.5842 77.8347
9856 2 28.9831 19.5792 77.164
9857 2 29.3728 19.8917 78.7187
9858 1 49.0817 20.168 29.6115
9859 2 49.753 19.4775 29.3422
9860 2 49.5044 20.8133 30.2479
9861 1 13.7302 8.80883 37.8879
9862 2 13.0172 9.1607 38.4944
9863 2 13.3184 8.20806 37.2027
9864 1 52.834 10.8244 77.9892
9865 2 53.3965 11.1622 77.2345
9866 2 53.4257 10.5242 78.7374
9867 1 11.4184 9.66546 71.4756
9868 2 11.1587 8.81961 71.0096
9869 2 10.597 10.1952 71.687
9870 1 14.251 28.1989 61.6985
9871 2 14.937 28.6581 62.2629
9872 2 13.7152 27.5748 62.2672
9873 1 15.5163 9.21265 44.3563
9874 2 15.8515 9.00288 45.2748
9875 2 15.0162 8.42515 43.9961
9876 1 75.5441 11.3611 80.7237
9877 2 75.2459 10.4372 80.4836
9878 2 75.2722 11.5652 81.6642
9879 1 71.8923 16.2404 57.9152
9880 2 72.4085 15.4147 57.6878
9881 2 72.2403 16.6264 58.7696
9882 1 19.9421 15.1345 86.4281
9883 2 20.617 15.6005 87.0003
9884 2 19.0964 15.6678 86.4088
9885 1 23.1019 13.4548 90.7411
9886 2 22.8104 14.3591 90.4292
9887 2 22.5815 12.7515 90.2568
9888 1 10.8455 15.0703 69.8394
9889 2 11.7789 15.1714 69.4954
9890 2 10.4117 14.2836 69.4002
9891 1 78.7994 16.1323 88.7509
9892 2 78.2036 16.6293 89.3818
9893 2 78.6841 15.1486 88.8887
9894 1 75.4368 23.1041 75.2206
9895 2 74.6323 22.8657 74.6766
9896 2 75.7764 22.2883 75.6886
9897 1 71.8206 1.16787 18.1632
9898 2 72.2772 2.05201 18.2625
9899 2 72.3535 0.463136 18.6317
9900 1 74.2572 15.3372 53.2663
9901 2 74.5133 16.0841 52.6526
9902 2 73.5335 15.6461 53.8833
9903 1 73.5681 29.6494 22.1627
9904 2 73.37 29.9591 21.2327
9905 2 72.7257 29.6526 22.7015
9906 1 47.345 1.5537 59.1982
9907 2 48.1508 1.13855 58.776
9908 2 47.3387 2.53582 59.0101
9909 1 70.137 17.0411 81.0135
9910 2 70.9033 16.9915 80.3729
9911 2 69.7687 16.1236 81.1641
9912 1 14.4774 15.4042 79.8216
9913 2 14.23 16.0303 79.0821
9914 2 13.6524 14.9631 80.1749
9915 1 0.164842 26.9744 14.4291
9916 2 79.4433 26.483 14.9169
9917 2 0.890554 26.3349 14.1752
9918 1 31.8508 16.1228 69.001
9919 2 32.2941 16.5329 68.2039
9920 2 32.1936 16.5579 69.8336
9921 1 37.4632 7.63164 36.204
9922 2 37.8792 7.05188 36.9046
9923 2 36.5039 7.37511 36.0855
9924 1 2.99095 9.48159 23.6979
9925 2 2.96576 8.57392 23.279
9926 2 2.76728 10.1724 23.0103
9927 1 6.87601 24.7481 26.5534
9928 2 6.26466 24.3662 27.2465
9929 2 6.33397 25.1306 25.8051
9930 1 11.3956 17.0902 74.0871
9931 2 12.0271 17.8519 74.2321
9932 2 10.6126 17.1848 74.7018
9933 1 10.1854 16.123 37.5779
9934 2 9.7217 15.6279 36.8431
9935 2 11.1368 15.8206 37.6349
9936 1 31.6713 21.8912 63.0996
9937 2 32.3861 22.3128 62.5417
9938 2 31.8705 20.9183 63.2171
9939 1 14.2584 9.70265 18.1648
9940 2 13.655 10.4886 18.2992
9941 2 15.0863 9.99596 17.6867
9942 1 9.4283 2.65547 54.5452
9943 2 9.00463 3.55925 54.4844
9944 2 8.82702 2.03895 55.0535
9945 1 47.08 14.7498 46.7054
9946 2 47.826 14.5048 47.3247
9947 2 47.3888 15.4645 46.0779
9948 1 26.9515 18.5862 27.1795
9949 2 26.6785 17.6977 26.8106
9950 2 27.9199 18.5608 27.4274
9951 1 47.3654 27.1223 61.4926
9952 2 46.8097 26.4201 61.0475
9953 2 47.6909 26.7806 62.3742
9954 1 13.1948 11.6358 23.1296
9955 2 13.1633 12.6332 23.1948
9956 2 12.4799 11.2413 23.7069
9957 1 21.0206 0.368768 35.1984
9958 2 21.34 29.6762 35.8453
9959 2 21.7737 0.635574 34.597
9960 1 26.3159 24.6656 24.535
9961 2 25.6805 25.2375 24.0161
9962 2 27.2401 25.0397 24.4581
9963 1 53.8581 14.0589 71.7949
9964 2 54.572 14.2401 72.4714
9965 2 53.082 13.6128 72.2407
9966 1 0.979547 13.2713 67.4699
9967 2 0.0418576 12.9767 67.2857
9968 2 1.44265 12.5812 68.026
9969 1 22.2691 21.4215 75.4495
9970 2 22.4103 22.4011 75.5924
9971 2 21.3833 21.2731 75.0096
9972 1 3.67286 21.2436 28.7746
9973 2 3.1308 21.6604 29.5043
9974 2 3.40515 20.2862 28.6659
9975 1 47.6629 27.8418 50.1355
9976 2 48.0164 26.9113 50.0394
9977 2 46.995 27.8694 50.8793
9978 1 78.122 17.9822 19.8787
9979 2 79.1097 18.1058 19.7833
9980 2 77.6898 18.8683 20.0462
9981 1 8.81185 3.62931 72.932
9982 2 8.02923 4.03805 73.4015
9983 2 9.08866 4.21706 72.1718
9984 1 26.1863 10.3491 43.4013
9985 2 26.9681 10.6884 43.9244
9986 2 25.7924 9.55661 43.8668
9987 1 54.8141 4.13523 76.2625
9988 2 55.5394 3.45196 76.1787
9989 2 53.9916 3.70436 76.6339
9990 1 19.2428 28.5161 31.8172
9991 2 20.1515 28.3911 32.2155
9992 2 19.3085 28.4824 30.8199
9993 1 61.8908 20.6103 78.8309
9994 2 62.6509 19.975 78.9669
9995 2 61.6263 20.612 77.8665
9996 1 8.93129 25.5978 27.9272
9997 2 9.2917 26.5059 27.714
9998 2 8.24335 25.3441 27.2473
9999 1 10.2565 8.15319 69.5177
10000 2 9.42274 7.74715 69.8919
10001 2 11.0051 7.49307 69.5787
10002 1 19.4925 23.0544 33.7881
10003 2 18.7469 22.3971 33.678
10004 2 19.1586 23.9746 33.5839
10005 1 79.1024 2.12851 40.0586
10006 2 78.3599 1.69599 39.5472
10007 2 78.9766 3.12055 40.0541
10008 1 12.4009 6.33778 65.3396
10009 2 12.3327 7.30471 65.5854
10010 2 12.4543 5.78538 66.1715
10011 1 26.4931 4.61913 61.889
10012 2 25.6412 4.98235 61.5117
10013 2 26.5503 4.84566 62.8613
10014 1 50.6287 6.79972 70.6935
10015 2 51.3231 6.13466 70.4186
10016 2 50.9952 7.72477 70.5937
10017 1 19.8114 4.16645 89.0151
10018 2 19.2432 3.74361 88.3092
10019 2 20.4104 4.84898 88.5964
10020 1 3.30641 2.83275 44.6857
10021 2 3.32107 3.81947 44.8474
10022 2 3.04198 2.361 45.5268
10023 1 15.6796 27.1701 57.2749
10024 2 16.2467 27.3722 58.0734
10025 2 15.6922 27.9514 56.6508
10026 1 57.4995 22.798 48.9536
10027 2 57.7775 23.1885 49.8312
10028 2 56.8336 22.0684 49.1094
10029 1 41.1345 3.36078 36.2457
10030 2 41.736 4.06786 35.8739
10031 2 40.8244 3.63229 37.1568
10032 1 54.9871 12.4414 35.6294
10033 2 55.0619 13.3739 35.276
10034 2 55.3827 11.8023 34.9698
10035 1 27.9176 9.72031 59.054
10036 2 28.3298 10.5062 59.5148
10037 2 27.5004 10.0185 58.1955
10038 1 59.161 23.101 37.3087
10039 2 58.7539 23.7581 36.6743
10040 2 60.1551 23.2099 37.3091
10041 1 20.8932 23.2249 42.8336
10042 2 20.1734 22.5642 43.0465
10043 2 21.7479 22.7393 42.6506
10044 1 3.88924 1.12369 30.0583
10045 2 3.08893 0.559002 30.2599
10046 2 3.85823 1.95565 30.6123
10047 1 37.1592 2.32665 85.2875
10048 2 36.2816 1.97572 84.9607
10049 2 37.2757 2.08761 86.2515
10050 1 18.8232 4.5889 27.5947
10051 2 19.4092 3.77997 27.6412
10052 2 18.8384 5.06259 28.4752
10053 1 5.71361 26.0816 16.688
10054 2 4.85168 26.3893 16.285
10055 2 6.14627 26.8429 17.1709
10056 1 54.9204 9.81857 63.8616
10057 2 54.2171 10.4786 63.5976
10058 2 55.691 10.3012 64.2779
10059 1 44.1292 26.0544 81.4906
10060 2 44.2665 25.0857 81.2838
10061 2 44.1248 26.5795 80.6395
10062 1 59.3197 28.7816 67.7991
10063 2 59.5019 28.5759 68.7606
10064 2 60.0343 29.3856 67.4463
10065 1 56.6072 29.1682 33.618
10066 2 55.7514 28.7218 33.8794
10067 2 56.5395 0.149633 33.7977
10068 1 20.4338 23.0502 51.9652
10069 2 19.7298 22.3405 51.9398
10070 2 21.3073 22.6438 52.2333
10071 1 76.9485 24.4391 62.991
10072 2 77.5885 23.9804 63.6075
10073 2 76.1018 24.6443 63.4819
10074 1 69.4028 25.7328 60.3899
10075 2 69.0712 25.2372 61.1926
10076 2 69.0573 25.2935 59.5607
10077 1 25.0097 9.2014 40.6261
10078 2 25.8112 8.61874 40.7608
10079 2 25.3059 10.1405 40.4517
10080 1 15.4424 5.03636 53.402
10081 2 15.1626 4.14214 53.7514
10082 2 15.2839 5.73236 54.1023
10083 1 59.565 1.33275 55.7483
10084 2 59.3259 2.06326 56.388
10085 2 60.4906 1.48331 55.4012
10086 1 13.8304 3.14067 34.4143
10087 2 14.3068 3.06038 35.2899
10088 2 14.093 2.37974 33.821
10089 1 53.4564 3.66521 44.8695
10090 2 53.6939 2.81389 44.4016
10091 2 52.6346 3.52416 45.4214
10092 1 1.57689 12.6842 15.4479
10093 2 0.951202 13.1126 16.0998
10094 2 1.49037 11.6897 15.507
10095 1 7.88797 14.0112 83.6675
10096 2 8.17091 13.9707 82.7092
10097 2 7.86621 14.9645 83.9687
10098 1 6.73528 15.9699 55.7482
10099 2 6.0516 16.6787 55.9221
10100 2 7.58703 16.2065 56.2157
10101 1 48.3875 26.4866 37.0371
10102 2 48.5457 26.3639 38.0168
10103 2 47.415 26.3649 36.8387
10104 1 41.2322 28.7301 45.8669
10105 2 41.8968 28.1939 45.3466
10106 2 41.5351 29.682 45.9137
10107 1 11.3842 29.6811 48.6072
10108 2 10.9861 29.4968 49.5058
10109 2 11.7344 28.8297 48.2168
10110 1 72.769 0.118383 55.1431
10111 2 73.032 29.1651 54.9947
10112 2 73.5215 0.717995 54.8705
10113 1 66.3744 12.9434 69.3961
10114 2 65.9741 13.7873 69.7533
10115 2 66.3773 12.2463 70.1131
10116 1 57.174 24.8023 81.8125
10117 2 56.3062 25.1053 82.2063
10118 2 57.3352 23.8461 82.0568
10119 1 42.5247 24.745 48.2309
10120 2 42.5475 25.2344 47.3591
10121 2 41.8719 23.9898 48.1722
10122 1 64.6346 9.50339 30.4208
10123 2 64.2275 10.318 30.0077
10124 2 65.0536 8.94182 29.7073
10125 1 45.6129 5.20664 52.904
10126 2 44.845 4.71857 53.3189
10127 2 45.7739 6.05909 53.4014
10128 1 18.8816 22.3385 21.9665
10129 2 17.9249 22.4759 22.223
10130 2 19.4741 22.6566 22.7067
10131 1 79.8303 17.3507 42.4412
10132 2 79.6786 17.1891 43.4164
10133 2 0.426854 18.1447 42.3238
10134 1 33.23 7.19407 48.5168
10135 2 33.5276 8.08549 48.8585
10136 2 34.0259 6.67188 48.2104
10137 1 0.53824 1.52655 35.6557
10138 2 79.7317 0.93582 35.6789
10139 2 1.34857 0.976502 35.4537
10140 1 34.8881 27.9874 32.0072
10141 2 35.6997 28.2531 31.487
10142 2 34.6463 28.719 32.6446
10143 1 8.24858 21.0955 21.3576
10144 2 7.67186 20.4111 20.9114
10145 2 8.99891 21.3484 20.7468
10146 1 13.1052 28.4436 44.1733
10147 2 12.8406 28.8234 43.2869
10148 2 13.842 28.9943 44.5654
10149 1 63.7059 13.9535 49.3952
10150 2 62.9612 14.445 49.8466
10151 2 63.3941 13.0387 49.1384
10152 1 72.0851 29.8811 12.8509
10153 2 72.0027 0.771559 12.4034
10154 2 72.8215 29.3588 12.4209
10155 1 75.5184 22.5542 68.9795
10156 2 76.3599 23.093 68.9386
10157 2 75.4838 21.9304 68.1987
10158 1 54.0988 21.0367 25.7256
10159 2 53.6192 20.2381 26.0889
10160 2 53.5117 21.8424 25.8042
10161 1 8.9596 20.9124 90.3438
10162 2 8.96411 20.2561 91.0983
10163 2 8.73606 20.4391 89.4917
10164 1 69.4102 6.80633 86.3621
10165 2 69.92 7.49651 86.8757
10166 2 68.4319 6.91446 86.5388
10167 1 58.3944 13.6871 20.7633
10168 2 58.4276 14.4867 20.1636
10169 2 57.5625 13.7202 21.3172
10170 1 62.1459 27.3555 82.4737
10171 2 61.3879 27.1698 83.0989
10172 2 62.7097 26.5349 82.3805
10173 1 64.1333 7.13678 55.3612
10174 2 64.6661 6.53684 55.958
10175 2 64.071 8.04615 55.7725
10176 1 13.0327 7.07962 52.3582
10177 2 12.6051 6.24634 52.7086
10178 2 12.4478 7.4842 51.6552
10179 1 57.6094 4.99985 81.6271
10180 2 57.2647 4.35609 82.3103
10181 2 57.6734 5.91229 82.0312
10182 1 15.3753 10.8335 25.3191
10183 2 14.7459 11.1757 24.6214
10184 2 15.0116 9.9881 25.7102
10185 1 67.0117 8.53048 55.4068
10186 2 67.6481 8.69137 56.1612
10187 2 66.0805 8.73885 55.7061
10188 1 41.1498 12.9924 57.6446
10189 2 41.5843 13.5931 56.9735
10190 2 40.9325 13.5155 58.4688
10191 1 9.24023 18.4013 75.2008
10192 2 9.49913 17.6142 75.7606
10193 2 8.25753 18.5642 75.2889
10194 1 38.4838 16.3547 64.8913
10195 2 38.1833 17.2877 65.0895
10196 2 37.9408 15.9825 64.1385
10197 1 44.0656 18.9081 73.1318
10198 2 44.8517 18.5688 72.615
10199 2 44.3513 19.6731 73.709
10200 1 77.2112 24.1397 65.8882
10201 2 77.179 24.6271 66.7608
10202 2 76.3835 23.5884 65.7837
10203 1 16.7859 26.2117 62.7393
10204 2 16.4499 26.3058 61.8021
10205 2 17.0615 27.1082 63.0861
10206 1 60.5003 3.00988 73.9242
10207 2 60.2657 2.79131 74.8714
10208 2 60.0612 3.86918 73.6618
10209 1 27.208 20.3728 66.9574
10210 2 27.296 19.7953 66.1457
10211 2 27.0258 19.7994 67.7561
10212 1 38.3008 7.14445 73.995
10213 2 38.2978 7.85236 74.7013
10214 2 37.4515 6.6191 74.0459
10215 1 7.24075 29.2227 90.2642
10216 2 6.51322 29.7067 89.7779
10217 2 7.28271 29.5468 91.2093
10218 1 14.6702 26.0659 64.7641
10219 2 14.764 26.5345 63.8857
10220 2 13.9104 26.4665 65.2761
10221 1 47.0196 25.4304 40.4165
10222 2 46.5023 26.2755 40.5515
10223 2 46.4544 24.6482 40.6784
10224 1 8.64147 17.6957 30.9925
10225 2 8.12347 17.9016 30.1623
10226 2 9.54868 18.1119 30.9312
10227 1 62.8852 3.38911 48.794
10228 2 63.6876 3.98511 48.7632
10229 2 62.0553 3.94699 48.7909
10230 1 61.9016 14.2654 80.6175
10231 2 62.4348 14.0266 79.8058
10232 2 61.1717 13.5941 80.7461
10233 1 7.97492 17.2614 20.0117
10234 2 7.92715 16.8413 19.1055
10235 2 8.93067 17.3281 20.2982
10236 1 74.1817 23.4127 42.3123
10237 2 73.5949 22.6156 42.455
10238 2 75.1375 23.1208 42.2762
10239 1 0.767031 19.8074 62.5976
10240 2 0.968941 19.0704 63.2426
10241 2 79.9229 20.2682 62.8716
10242 1 29.9654 4.68438 31.8618
10243 2 29.28 4.96062 31.1881
10244 2 30.0009 5.36054 32.5977
10245 1 5.79981 9.85444 74.468
10246 2 5.43125 9.91164 75.3959
10247 2 5.64754 10.7221 73.9948
10248 1 0.749932 8.80006 10.6102
10249 2 1.30989 8.6482 9.79572
10250 2 1.24889 9.37977 11.2544
10251 1 24.5333 2.19388 46.0476
10252 2 24.0718 1.50766 45.4853
10253 2 25.0333 2.82732 45.457
10254 1 48.6744 3.37655 64.3848
10255 2 48.8795 3.56993 65.3442
10256 2 48.8017 2.40079 64.2068
10257 1 23.6569 2.5414 89.6209
10258 2 23.4591 2.93925 88.725
10259 2 22.8186 2.51322 90.1655
10260 1 32.7967 7.2283 55.3207
10261 2 33.5118 7.54435 54.6973
10262 2 32.0425 7.88496 55.3232
10263 1 58.2201 11.7736 28.672
10264 2 57.9744 10.9187 29.1289
10265 2 58.4641 12.4596 29.3574
10266 1 69.5685 5.52231 45.6844
10267 2 68.7827 5.80571 46.2341
10268 2 70.4119 5.82843 46.1259
10269 1 22.8619 27.8594 24.098
10270 2 23.0971 26.8879 24.1288
10271 2 21.9191 27.9642 23.7815
10272 1 50.8032 6.8625 59.8771
10273 2 50.6309 7.84094 59.7632
10274 2 51.7194 6.64407 59.5411
10275 1 62.5744 17.7614 18.5405
10276 2 63.1495 18.303 17.9274
10277 2 63.1424 17.1048 19.0368
10278 1 60.0343 25.2103 30.0258
10279 2 60.9901 24.9211 29.9721
10280 2 59.8696 25.6551 30.9061
10281 1 44.7779 9.00557 35.208
10282 2 44.0883 8.93799 35.929
10283 2 45.4228 9.73659 35.431
10284 1 21.4248 19.0263 15.9958
10285 2 21.6317 18.1866 15.4938
10286 2 21.3328 18.8185 16.9696
10287 1 41.9579 17.9065 29.7632
10288 2 42.0051 18.6081 30.4743
10289 2 41.0006 17.6913 29.5703
10290 1 67.7777 10.8466 83.6396
10291 2 68.5479 10.2178 83.5325
10292 2 67.8723 11.3459 84.5009
10293 1 71.3166 2.78153 14.4317
10294 2 70.4339 3.22775 14.5789
10295 2 71.3617 2.43262 13.4956
10296 1 16.3993 28.3677 84.8663
10297 2 15.6163 28.7138 84.3493
10298 2 16.1945 28.4026 85.8445
10299 1 15.8547 1.44327 47.1331
10300 2 15.9183 0.667706 46.5051
10301 2 14.893 1.67178 47.2842
10302 1 58.8617 3.56502 33.7507
10303 2 57.9553 3.31346 34.0899
10304 2 58.8277 4.48451 33.3591
10305 1 24.5162 29.0965 84.992
10306 2 23.6463 28.7241 85.3154
10307 2 25.2119 28.9824 85.7013
10308 1 62.5027 2.50238 69.2683
10309 2 61.754 2.05991 68.7747
10310 2 62.6951 1.99379 70.1076
10311 1 60.5029 8.16062 60.6742
10312 2 61.1921 7.81789 61.3126
10313 2 60.6618 7.7665 59.769
10314 1 77.688 0.777359 90.1642
10315 2 78.1687 29.989 89.7803
10316 2 78.179 1.10675 90.9707
10317 1 72.3479 4.80807 44.7939
10318 2 73.0436 5.06615 45.4642
10319 2 71.9738 3.91127 45.0301
10320 1 31.0333 24.1722 31.6927
10321 2 31.8319 24.0686 31.0998
10322 2 31.0133 25.0997 32.066
10323 1 64.358 23.2243 72.4989
10324 2 63.9824 23.0016 73.3986
10325 2 65.327 23.4542 72.5899
10326 1 24.1542 1.89367 37.5638
10327 2 24.8219 1.35324 37.0519
10328 2 24.5845 2.73679 37.8862
10329 1 29.8629 22.0227 52.8139
10330 2 28.9204 21.9676 53.1437
10331 2 30.4922 21.8966 53.5807
10332 1 41.1526 22.9856 82.6161
10333 2 41.066 23.94 82.3304
10334 2 40.3583 22.4688 82.2967
10335 1 7.67564 14.054 18.3168
10336 2 6.94048 13.3763 18.303
10337 2 7.36131 14.8957 17.8778
10338 1 63.3837 5.15627 64.2803
10339 2 62.5606 5.10262 63.7149
10340 2 63.2642 4.59185 65.0972
10341 1 46.9093 10.1692 46.9446
10342 2 47.1251 9.29764 46.5043
10343 2 47.4725 10.8927 46.5455
10344 1 48.6433 14.7275 49.1772
10345 2 49.3769 14.0489 49.2119
10346 2 48.6001 15.2165 50.0484
10347 1 3.59148 13.4198 64.9138
10348 2 3.87981 13.825 65.7814
10349 2 3.05133 12.5976 65.0932
10350 1 25.1281 26.2966 40.6486
10351 2 25.902 25.8008 40.2546
10352 2 24.3874 25.6549 40.8473
10353 1 61.9496 8.33517 90.278
10354 2 61.8785 8.57522 89.3099
10355 2 61.0424 8.10915 90.6329
10356 1 59.4689 11.5701 12.987
10357 2 59.5521 10.5755 12.9246
10358 2 59.9435 11.8935 13.8056
10359 1 60.7917 0.306105 40.2428
10360 2 60.875 1.16914 40.741
10361 2 59.8468 29.9825 40.2922
10362 1 15.608 4.43339 83.504
10363 2 15.5087 4.41317 82.5092
10364 2 15.4297 3.52217 83.8754
10365 1 44.5963 15.1883 84.8342
10366 2 44.8835 14.279 85.1353
10367 2 44.7684 15.2846 83.8538
10368 1 22.224 6.50261 26.2952
10369 2 21.8277 7.24411 26.8366
10370 2 23.2166 6.49532 26.4162
10371 1 36.2498 28.5174 57.7076
10372 2 36.8957 28.6399 56.9541
10373 2 35.3584 28.2495 57.3422
10374 1 48.3276 6.4514 67.788
10375 2 47.5684 6.95485 68.2005
10376 2 49.1676 6.63882 68.2972
10377 1 55.6985 24.6708 57.7201
10378 2 55.4988 24.324 58.6365
10379 2 56.6887 24.7383 57.5976
10380 1 75.4914 22.6684 89.4023
10381 2 75.3966 23.6615 89.4705
10382 2 75.137 22.3595 88.5197
10383 1 34.6083 13.3441 60.0137
10384 2 34.826 14.2092 60.4655
10385 2 35.2172 12.6277 60.3544
10386 1 67.0186 11.0075 21.5766
10387 2 66.325 11.3722 22.1977
10388 2 66.5886 10.3781 20.9293
10389 1 12.8765 19.8909 24.7318
10390 2 13.8303 20.1439 24.5697
10391 2 12.3307 20.1139 23.9241
10392 1 71.0857 10.1302 39.92
10393 2 70.7018 11.0414 39.7708
10394 2 70.9272 9.56501 39.1104
10395 1 11.1327 29.9156 14.6112
10396 2 10.9434 0.878288 14.418
10397 2 11.9868 29.8405 15.1258
10398 1 15.9123 16.3741 42.4164
10399 2 16.547 17.1467 42.4006
10400 2 15.9503 15.9297 43.3114
10401 1 34.3783 7.03346 45.5423
10402 2 34.7773 6.82524 44.6493
10403 2 35.0027 7.62024 46.0578
10404 1 44.7592 29.0668 32.9488
10405 2 45.4611 28.3713 33.1027
10406 2 45.1023 29.7495 32.3036
10407 1 16.6802 21.5154 70.2458
10408 2 16.6059 20.5939 70.627
10409 2 17.1908 21.4806 69.3867
10410 1 32.7167 21.4543 32.921
10411 2 32.4766 21.8209 33.8199
10412 2 33.2905 22.1133 32.4347
10413 1 74.4745 28.5576 56.696
10414 2 75.2733 28.0664 56.3485
10415 2 74.775 29.3117 57.28
10416 1 21.3115 5.16487 24.2707
10417 2 21.7165 5.59018 25.0801
10418 2 20.3596 5.45791 24.1813
10419 1 13.9992 12.3657 49.3238
10420 2 13.1061 12.5863 48.9316
10421 2 14.6206 12.0764 48.5957
10422 1 51.6611 16.35 90.2866
10423 2 50.9554 15.6604 90.4487
10424 2 52.547 15.9001 90.1731
10425 1 52.3094 26.3771 23.927
10426 2 52.3679 27.3255 24.2385
10427 2 52.2758 26.3559 22.9278
10428 1 17.0855 17.2056 51.0557
10429 2 16.625 17.7891 50.3867
10430 2 16.4454 16.966 51.7856
10431 1 46.9575 29.3537 39.2202
10432 2 46.3615 28.603 38.9352
10433 2 47.1042 29.306 40.2082
10434 1 77.1255 17.4649 22.3305
10435 2 77.5044 17.7726 21.4578
10436 2 77.1632 16.4666 22.3769
10437 1 56.798 19.2087 67.1135
10438 2 55.8898 18.8915 67.3865
10439 2 56.7282 19.725 66.26
10440 1 11.9565 11.4776 41.8117
10441 2 12.3315 12.3316 42.1725
10442 2 11.907 10.7993 42.5448
10443 1 60.665 18.4983 76.0756
10444 2 60.8302 19.4772 76.196
10445 2 60.8995 18.0146 76.9189
10446 1 59.2244 18.0842 52.5694
10447 2 59.2032 18.4802 51.6513
10448 2 58.2914 18.0082 52.9212
10449 1 4.02983 6.58986 39.33
10450 2 3.98686 7.28424 40.0483
10451 2 3.6789 5.72266 39.6832
10452 1 27.6516 9.56408 90.7991
10453 2 28.4213 9.30387 91.382
10454 2 27.8826 9.38554 89.8426
10455 1 34.0265 5.30358 52.5448
10456 2 34.1891 6.1929 52.9722
10457 2 34.0132 5.40907 51.5505
10458 1 57.4948 28.2213 62.2946
10459 2 57.8182 27.819 63.1511
10460 2 57.7517 29.1872 62.2621
10461 1 57.8266 4.2928 50.6435
10462 2 58.7658 4.35575 50.3059
10463 2 57.7389 3.49345 51.2379
10464 1 15.9343 2.06248 54.7459
10465 2 16.6709 1.68938 55.3099
10466 2 15.0602 1.94158 55.2165
10467 1 29.0946 4.81113 76.4824
10468 2 29.4304 5.7079 76.1943
10469 2 29.7119 4.1001 76.1458
10470 1 69.4358 14.5764 37.9219
10471 2 69.1047 13.9131 37.2508
10472 2 69.9707 14.1035 38.6221
10473 1 42.8458 2.61305 30.9956
10474 2 43.0144 1.74178 30.5346
10475 2 42.0253 3.03867 30.6141
10476 1 50.8256 4.16372 48.3852
10477 2 51.0465 3.2198 48.1398
10478 2 50.9724 4.2964 49.3654
10479 1 35.7417 27.3609 62.6113
10480 2 35.2135 28.2086 62.5624
10481 2 36.5999 27.5304 63.0959
10482 1 56.59 2.96862 71.5897
10483 2 56.8897 2.61457 72.4756
10484 2 55.5997 3.10647 71.6036
10485 1 19.1941 7.62908 52.3204
10486 2 19.8827 7.17363 52.8848
10487 2 19.5191 8.54084 52.0692
10488 1 28.7634 22.7513 57.69
10489 2 29.5939 23.0258 58.1746
10490 2 28.4776 23.4868 57.0756
10491 1 65.8933 14.2312 15.4769
10492 2 65.8502 14.8978 14.7326
10493 2 66.6974 13.649 15.3567
10494 1 78.8594 9.87292 24.6267
10495 2 78.8595 10.1306 23.6604
10496 2 77.9548 10.0442 25.0171
10497 1 27.3305 27.1687 75.9206
10498 2 26.9737 27.902 76.4994
10499 2 28.3157 27.2895 75.7992
10500 1 38.7025 9.23469 48.083
10501 2 38.1262 9.77011 47.4656
10502 2 38.8481 8.32376 47.697
10503 1 53.4481 22.9246 34.062
10504 2 52.6019 23.0269 34.5849
10505 2 53.6889 21.9558 34.0039
10506 1 73.372 22.36 53.1548
10507 2 73.4899 21.368 53.1089
10508 2 72.5904 22.576 53.74
10509 1 71.6187 3.23316 56.0973
10510 2 72.3762 2.98441 55.4936
10511 2 71.3912 2.45613 56.6842
10512 1 41.7361 22.6986 56.6231
10513 2 42.0987 23.3564 55.9629
10514 2 41.9487 23.0056 57.5507
10515 1 4.81144 23.7514 28.3121
10516 2 4.80988 24.2226 29.1942
10517 2 4.80744 22.7628 28.4623
10518 1 69.3209 27.5262 79.8361
10519 2 69.9156 28.2443 79.4747
10520 2 69.468 27.436 80.8211
10521 1 37.923 4.53426 36.4231
10522 2 38.7192 4.93281 36.8783
10523 2 38.1365 3.60092 36.1345
10524 1 3.55756 8.43884 41.4489
10525 2 2.75816 7.84916 41.3338
10526 2 3.2966 9.25829 41.9592
10527 1 78.2055 22.2068 21.2814
10528 2 78.4023 23.1422 21.5751
10529 2 78.8084 21.5719 21.7645
10530 1 11.983 12.7669 30.8403
10531 2 11.7394 11.8591 30.4991
10532 2 12.634 12.6761 31.594
10533 1 46.9733 23.2233 37.4654
10534 2 46.4565 22.3738 37.3596
10535 2 47.0394 23.4546 38.436
10536 1 49.8148 25.6799 56.6908
10537 2 50.6362 25.1762 56.4232
10538 2 49.7352 26.5073 56.1349
10539 1 54.5473 12.5832 68.2038
10540 2 55.0552 12.3338 67.3793
10541 2 54.8721 12.0343 68.9741
10542 1 78.402 5.75788 69.6694
10543 2 78.7416 6.30244 70.4363
10544 2 78.2164 4.82534 69.9791
10545 1 69.5703 25.4723 71.8109
10546 2 69.948 26.1607 71.1916
10547 2 70.2224 25.2931 72.5476
10548 1 52.4257 22.7667 71.7292
10549 2 53.0832 23.5119 71.8401
10550 2 52.4105 22.2093 72.5592
10551 1 65.0152 3.7728 22.6254
10552 2 65.5353 4.61765 22.7508
10553 2 65.2423 3.37004 21.7387
10554 1 66.8716 3.90861 44.0946
10555 2 66.9882 3.44198 44.9713
10556 2 65.9653 4.32978 44.0591
10557 1 62.3539 24.0961 77.5137
10558 2 62.58 23.2432 77.0431
10559 2 61.5907 23.9388 78.1404
10560 1 37.2472 21.6783 83.5595
10561 2 37.5572 22.4689 83.0313
10562 2 37.2595 21.9029 84.5339
10563 1 1.43485 22.4498 22.1171
10564 2 1.03124 22.9068 22.9097
10565 2 2.39292 22.7219 22.0275
10566 1 68.7587 12.0501 39.1622
10567 2 68.242 11.3734 39.6868
10568 2 69.4164 12.5056 39.7622
10569 1 63.5575 29.3001 48.8936
10570 2 64.3586 28.7208 49.0442
10571 2 62.7721 28.728 48.6574
10572 1 24.7694 26.0257 74.0398
10573 2 24.4264 26.6217 74.7659
10574 2 24.0132 25.491 73.6626
10575 1 32.7693 12.8415 75.8664
10576 2 33.1777 13.715 75.6017
10577 2 32.3852 12.9183 76.7865
10578 1 35.1884 4.11243 36.4123
10579 2 36.1869 4.14102 36.3654
10580 2 34.9004 3.27581 36.8782
10581 1 26.5773 10.1594 33.3976
10582 2 25.8771 9.73859 32.8208
10583 2 27.3016 9.49476 33.581
10584 1 64.172 22.3444 75.8262
10585 2 65.151 22.1704 75.7197
10586 2 63.6692 21.4844 75.739
10587 1 54.1164 20.0189 59.2907
10588 2 53.5549 20.8111 59.5297
10589 2 53.9464 19.2807 59.9435
10590 1 11.2035 10.3446 13.6392
10591 2 12.0921 10.1642 14.0609
10592 2 10.4804 10.2176 14.3182
10593 1 36.32 28.1051 80.8798
10594 2 36.5294 28.3823 81.8175
10595 2 37.098 27.6062 80.4981
10596 1 19.7233 20.7478 14.1805
10597 2 19.4299 20.3973 13.2911
10598 2 20.2393 20.0405 14.6637
10599 1 62.7588 2.58151 16.5927
10600 2 62.589 3.37788 17.1731
10601 2 62.323 2.71843 15.7031
10602 1 69.321 15.2051 86.1989
10603 2 69.3276 14.2093 86.2897
10604 2 69.8577 15.6108 86.9387
10605 1 48.3474 17.2706 58.3748
10606 2 47.3735 17.373 58.1726
10607 2 48.8818 17.8042 57.7193
10608 1 39.895 12.1363 47.0343
10609 2 39.1174 11.7721 46.5218
10610 2 39.6179 12.9692 47.5133
10611 1 70.9895 24.8285 44.3599
10612 2 70.1881 25.4241 44.4153
10613 2 70.7325 23.9631 43.9298
10614 1 5.93357 19.4177 10.8193
10615 2 5.23351 20.0253 10.4441
10616 2 6.70951 19.961 11.1397
10617 1 62.2685 4.9471 34.9689
10618 2 61.9726 5.27432 35.8663
10619 2 62.9387 4.21422 35.0857
10620 1 1.91353 12.5424 81.4177
10621 2 1.44208 13.387 81.6713
10622 2 2.89999 12.7049 81.3958
10623 1 27.1863 24.0647 68.8531
10624 2 26.3077 24.3264 68.4536
10625 2 27.4918 24.7785 69.4832
10626 1 16.3702 17.5806 20.1782
10627 2 16.2499 16.5913 20.0955
10628 2 15.645 18.048 19.6726
10629 1 11.8021 4.24694 77.8413
10630 2 12.3426 4.62181 78.5945
10631 2 10.846 4.51942 77.9493
10632 1 3.24645 28.0157 87.5657
10633 2 3.72468 28.7823 87.9942
10634 2 2.28102 28.038 87.8254
10635 1 64.2958 12.7027 75.5403
10636 2 63.782 13.5599 75.5752
10637 2 65.1775 12.8238 75.9962
10638 1 9.24511 29.5308 60.0919
10639 2 8.55785 29.1352 60.7011
10640 2 9.83427 28.8045 59.7378
10641 1 51.6975 16.0487 47.7836
10642 2 51.177 16.4663 48.5283
10643 2 51.7532 15.0609 47.9288
10644 1 12.2643 26.6569 79.1314
10645 2 12.7313 27.3972 79.6151
10646 2 12.5861 26.622 78.1852
10647 1 78.8005 9.88902 17.4682
10648 2 79.3128 9.98927 16.6153
10649 2 78.4947 10.7883 17.781
10650 1 37.5949 28.7334 89.8488
10651 2 37.257 29.6664 89.973
10652 2 38.503 28.7607 89.431
10653 1 6.13523 20.25 67.7032
10654 2 5.9807 21.236 67.641
10655 2 6.65325 20.0455 68.5338
10656 1 77.6677 15.2909 11.3926
10657 2 78.0854 16.1791 11.584
10658 2 78.3842 14.6012 11.2882
10659 1 68.0955 8.08692 89.0814
10660 2 67.9492 7.56464 89.9215
10661 2 67.2125 8.37007 88.7069
10662 1 36.6869 11.0127 36.4561
10663 2 35.8034 10.9767 36.9231
10664 2 37.4163 10.7991 37.1059
10665 1 56.4507 7.98363 27.819
10666 2 55.7359 7.86456 27.1298
10667 2 56.6463 7.10361 28.2518
10668 1 19.532 2.66794 40.437
10669 2 20.0436 2.4845 39.5977
10670 2 19.4061 1.81509 40.9438
10671 1 25.6748 16.0321 27.8575
10672 2 24.7218 15.9665 28.1534
10673 2 25.7283 15.882 26.8703
10674 1 62.0038 6.22639 51.82
10675 2 61.3529 6.15919 51.0638
10676 2 61.8892 5.44171 52.4292
10677 1 4.0996 19.3894 77.6825
10678 2 4.00264 18.7349 76.9326
10679 2 3.59861 19.0573 78.4817
10680 1 41.9334 23.1168 67.5564
10681 2 42.265 22.6258 66.7508
10682 2 42.503 22.886 68.3453
10683 1 18.0955 1.49736 36.0547
10684 2 17.9092 0.838152 35.3262
10685 2 17.418 1.39017 36.7824
10686 1 41.963 24.2237 90.9109
10687 2 42.8032 23.8377 90.5301
10688 2 41.1718 23.7752 90.4951
10689 1 51.6588 14.4631 76.2546
10690 2 51.1527 14.7618 75.4454
10691 2 51.3271 14.9591 77.0571
10692 1 18.8108 9.76449 67.4413
10693 2 18.8028 10.4534 68.1661
10694 2 17.8755 9.59845 67.1289
10695 1 53.7929 4.70444 64.0377
10696 2 54.54 4.21143 63.5919
10697 2 53.2706 4.07189 64.6096
10698 1 75.9247 16.3704 19.0803
10699 2 76.5 15.5562 19.0024
10700 2 76.4938 17.1892 19.0046
10701 1 72.7287 24.4646 57.7751
10702 2 73.455 24.4565 58.4625
10703 2 72.56 25.405 57.4796
10704 1 9.82604 11.157 61.528
10705 2 9.0469 10.5337 61.4618
10706 2 10.5641 10.7151 62.0379
10707 1 63.9838 1.23545 50.9255
10708 2 63.9 0.648599 50.1201
10709 2 63.894 0.680938 51.7528
10710 1 74.3727 19.4244 25.1257
10711 2 75.2387 19.4924 24.6304
10712 2 73.6154 19.4102 24.4727
10713 1 1.31487 29.8974 58.8942
10714 2 0.494818 0.44396 58.7244
10715 2 1.82137 29.7821 58.0397
10716 1 4.89493 29.6565 80.3263
10717 2 5.02018 28.6732 80.4582
10718 2 5.78083 0.0842253 80.1468
10719 1 11.057 0.644088 74.719
10720 2 10.1863 0.819492 75.1786
10721 2 11.7016 1.37742 74.9351
10722 1 31.3274 7.17907 65.1142
10723 2 31.625 6.66228 65.9169
10724 2 30.366 7.43333 65.2191
10725 1 23.9273 16.5565 31.1742
10726 2 24.3902 15.6976 31.3931
10727 2 24.4981 17.094 30.5534
10728 1 24.5173 19.3261 24.5345
10729 2 25.1232 18.6554 24.9622
10730 2 23.732 18.8564 24.1311
10731 1 32.8075 28.4324 45.9652
10732 2 32.6446 27.4676 46.1719
10733 2 31.9504 28.9407 46.0496
10734 1 54.0029 26.4732 44.8976
10735 2 54.026 25.5068 45.1536
10736 2 53.4006 26.5947 44.1086
10737 1 19.9989 0.518156 43.4077
10738 2 20.6382 0.403447 44.1681
10739 2 19.7466 29.6206 43.0461
10740 1 51.034 23.1193 25.7038
10741 2 50.5512 22.2759 25.9393
10742 2 51.3279 23.0796 24.7488
10743 1 20.2276 7.24272 59.6544
10744 2 19.5915 7.94747 59.9687
10745 2 19.8065 6.34203 59.7613
10746 1 5.43804 9.35141 50.1087
10747 2 4.95547 10.0055 49.5261
10748 2 5.46646 9.69784 51.0463
10749 1 69.4924 6.69536 77.8482
10750 2 69.6891 7.43551 77.2052
10751 2 69.5948 7.03123 78.7845
10752 1 23.8778 28.1288 21.5391
10753 2 24.8289 28.422 21.4421
10754 2 23.6514 28.0475 22.5098
10755 1 50.7667 24.5808 73.5223
10756 2 50.4811 23.647 73.3068
10757 2 51.3907 24.9104 72.8138
10758 1 68.5705 25.3027 82.7822
10759 2 67.9132 26.0396 82.94
10760 2 69.4748 25.6937 82.6108
10761 1 69.8504 13.3345 18.0341
10762 2 69.0707 12.7181 18.1437
10763 2 69.5351 14.2824 18.0803
10764 1 10.0287 26.4697 40.9269
10765 2 9.4729 25.7173 41.2803
10766 2 9.51597 27.3253 40.999
10767 1 21.9689 20.2636 64.0499
10768 2 21.8058 19.8921 64.964
10769 2 21.1277 20.6793 63.7041
10770 1 29.3297 13.9532 58.4438
10771 2 29.7678 13.8676 59.3387
10772 2 28.8962 13.0855 58.2006
10773 1 60.2714 17.3119 24.0142
10774 2 60.804 17.5909 24.8132
10775 2 60.8764 17.2308 23.2221
10776 1 1.44303 10.1097 38.7748
10777 2 1.40804 9.82794 39.7336
10778 2 0.779025 9.57988 38.2472
10779 1 20.0226 28.6984 87.3887
10780 2 19.7305 28.6462 88.3436
10781 2 20.0211 29.6531 87.0914
10782 1 47.2643 19.3591 55.0942
10783 2 47.2664 20.169 54.5077
10784 2 48.2064 19.0839 55.2859
10785 1 57.7244 24.8123 61.3814
10786 2 57.687 23.9908 61.9503
10787 2 57.3894 25.5958 61.9049
10788 1 79.0335 21.1264 88.2976
10789 2 79.9999 21.3728 88.225
10790 2 78.6622 21.4823 89.1552
10791 1 0.238629 14.1055 44.8578
10792 2 0.105803 14.3878 43.9077
10793 2 0.408935 14.9118 45.4244
10794 1 72.2627 20.4555 75.8838
10795 2 73.0955 20.6588 75.3688
10796 2 72.4017 20.6864 76.8468
10797 1 66.7856 5.69062 61.9021
10798 2 67.5999 5.54456 61.3404
10799 2 66.5626 6.6653 61.9187
10800 1 54.7895 1.01457 65.8765
10801 2 55.1655 1.40803 66.7154
10802 2 55.3012 0.189547 65.6368
10803 1 20.4064 23.079 10.9018
10804 2 20.5982 23.5141 11.7816
10805 2 20.7193 23.6732 10.1609
10806 1 75.3911 16.2065 12.9071
10807 2 75.7215 15.7996 13.7588
10808 2 76.003 15.9538 12.1577
10809 1 20.3684 9.70939 50.1529
10810 2 21.3026 9.42931 49.9322
10811 2 20.276 10.6962 50.0199
10812 1 60.6093 25.2775 39.6714
10813 2 60.0325 24.5382 40.0188
10814 2 60.2297 25.6208 38.8123
10815 1 36.4186 16.1498 77.3455
10816 2 36.6409 17.1222 77.4157
10817 2 37.2317 15.6416 77.0616
10818 1 7.97653 13.7292 67.5426
10819 2 8.86955 13.3022 67.6848
10820 2 7.33961 13.4116 68.2451
10821 1 72.7059 13.8606 28.2088
10822 2 73.097 13.8357 29.1288
10823 2 73.332 14.3394 27.5933
10824 1 66.1765 26.0696 86.4151
10825 2 65.7495 25.5913 87.1825
10826 2 67.1406 25.8108 86.356
10827 1 57.96 17.1973 64.9257
10828 2 57.6132 16.3001 65.1992
10829 2 57.4276 17.5384 64.151
10830 1 19.6188 29.9476 15.1976
10831 2 18.9716 29.4232 15.751
10832 2 20.0982 0.605016 15.7789
10833 1 49.3566 12.2513 29.1788
10834 2 48.5768 12.114 28.568
10835 2 49.0721 12.0904 30.1239
10836 1 24.7858 13.3319 74.9142
10837 2 25.1381 12.5003 74.4848
10838 2 24.192 13.0857 75.6801
10839 1 30.3706 23.875 85.7559
10840 2 30.381 23.0342 86.2972
10841 2 29.6219 23.8363 85.0942
10842 1 26.7338 16.5031 66.5137
10843 2 27.7127 16.4099 66.6955
10844 2 26.2988 16.9893 67.2716
10845 1 65.7262 25.4344 77.3767
10846 2 65.0912 24.951 77.9792
10847 2 66.3068 26.0397 77.9212
10848 1 40.7939 20.2214 57.9199
10849 2 40.5957 20.5463 58.8446
10850 2 41.075 20.9926 57.3487
10851 1 61.1638 22.8022 67.2452
10852 2 61.8774 23.3301 66.7847
10853 2 61.3617 21.826 67.1566
10854 1 33.0536 0.546385 39.1681
10855 2 33.1663 0.0936911 38.2835
10856 2 33.4708 29.987 39.8843
10857 1 4.80431 17.1929 48.5321
10858 2 4.45781 16.3832 48.0583
10859 2 5.22725 16.9183 49.3956
10860 1 53.0743 22.3159 79.8011
10861 2 52.7574 21.458 80.2055
10862 2 53.9387 22.1598 79.3231
10863 1 59.1393 11.4368 31.9523
10864 2 58.7929 12.2725 31.5261
10865 2 58.964 11.4672 32.9364
10866 1 77.7129 11.7431 63.6033
10867 2 76.8109 11.7293 63.1717
10868 2 77.6433 11.3803 64.5326
10869 1 14.4802 23.5508 29.0867
10870 2 15.3427 23.0569 29.197
10871 2 14.5152 24.1003 28.252
10872 1 13.473 13.6491 17.679
10873 2 13.5284 14.6023 17.9761
10874 2 13.6362 13.0465 18.4602
10875 1 79.8374 28.0296 75.134
10876 2 0.56695 27.3589 75.2677
10877 2 79.2082 27.9969 75.9106
10878 1 18.0594 25.9794 49.4612
10879 2 17.1695 25.5459 49.3194
10880 2 18.1231 26.3093 50.403
10881 1 69.4526 7.56732 17.2105
10882 2 69.233 6.6449 16.8928
10883 2 69.2389 7.64418 18.1843
10884 1 12.5054 24.753 74.5079
10885 2 12.9299 23.9526 74.931
10886 2 11.5765 24.8637 74.8615
10887 1 17.8617 18.7969 36.7778
10888 2 17.9312 18.8178 37.7751
10889 2 18.5437 18.1652 36.4093
10890 1 14.1389 20.7413 28.5069
10891 2 13.9162 21.1896 27.6412
10892 2 15.0996 20.9062 28.7302
10893 1 16.5041 6.0548 85.6633
10894 2 17.5004 5.97134 85.6429
10895 2 16.1049 5.45158 84.9728
10896 1 42.1998 5.40594 58.6794
10897 2 42.9486 5.16309 59.2962
10898 2 41.7668 4.57235 58.3365
10899 1 59.4541 14.8651 18.2017
10900 2 59.9165 15.703 17.9116
10901 2 60.1328 14.2022 18.5179
10902 1 26.1344 4.17104 67.0044
10903 2 26.2498 4.4052 66.0391
10904 2 26.06 5.00954 67.5442
10905 1 53.5865 27.0841 58.5367
10906 2 53.5113 28.0389 58.8243
10907 2 54.4688 26.7161 58.8302
10908 1 16.6508 10.3115 85.4946
10909 2 16.2159 10.5133 84.6171
10910 2 17.0429 11.1501 85.873
10911 1 11.1711 17.6976 39.9165
10912 2 11.1411 18.6846 39.7585
10913 2 11.4531 17.234 39.0766
10914 1 63.3603 25.5105 68.6865
10915 2 62.4988 25.2536 69.1246
10916 2 64.1013 25.4656 69.3565
10917 1 30.6785 10.6472 63.5026
10918 2 30.4299 10.1578 64.3385
10919 2 30.8572 11.607 63.7189
10920 1 72.7155 5.81156 50.8536
10921 2 73.5084 5.80191 50.2443
10922 2 72.4529 4.87212 51.0738
10923 1 72.0866 3.46726 89.3211
10924 2 71.2735 4.04369 89.4027
10925 2 71.8192 2.55637 89.0068
10926 1 34.9513 15.247 72.4382
10927 2 34.9742 16.1838 72.7874
10928 2 34.9854 14.6049 73.2041
10929 1 40.2416 8.32686 52.983
10930 2 39.532 7.65389 52.7743
10931 2 40.9636 8.27481 52.2931
10932 1 65.1344 5.85 57.8877
10933 2 64.5176 6.55648 58.2347
10934 2 64.8778 4.96419 58.2743
10935 1 50.1761 2.18398 88.9938
10936 2 50.6851 1.3279 89.0832
10937 2 50.4294 2.63454 88.1377
10938 1 59.1015 9.04103 29.0724
10939 2 59.8372 8.5118 28.6496
10940 2 58.2369 8.54863 28.9728
10941 1 75.6863 5.42433 81.8027
10942 2 75.3425 4.951 82.6137
10943 2 76.504 5.94718 82.0436
10944 1 15.5738 21.372 20.9927
10945 2 14.7828 21.4 20.3816
10946 2 15.7333 22.2827 21.3736
10947 1 3.28676 29.6826 61.9683
10948 2 3.84432 29.9553 62.7524
10949 2 2.38299 29.3955 62.2857
10950 1 71.5198 5.49668 57.9014
10951 2 71.3834 4.71188 57.2968
10952 2 72.0189 6.21174 57.4119
10953 1 10.5268 19.7967 44.8415
10954 2 11.0337 19.0207 45.2166
10955 2 10.2758 20.4202 45.5821
10956 1 53.8334 8.75224 39.6547
10957 2 52.8394 8.8373 39.7236
10958 2 54.0714 7.81209 39.4108
10959 1 20.2846 23.0633 24.351
10960 2 19.87 23.6079 25.0801
10961 2 20.671 22.2264 24.7386
10962 1 54.8107 24.4028 24.1545
10963 2 54.1183 25.0908 23.9369
10964 2 55.7163 24.7549 23.9178
10965 1 68.4981 28.6837 17.2978
10966 2 67.7726 28.0274 17.5051
10967 2 68.7348 28.6234 16.3281
10968 1 1.5061 15.0897 28.5296
10969 2 2.09813 15.5624 27.8768
10970 2 1.69466 14.1081 28.5004
10971 1 55.1455 24.7 42.6838
10972 2 56.0828 24.4092 42.8757
10973 2 54.505 24.0862 43.1453
10974 1 16.4042 7.44553 46.4159
10975 2 17.1539 6.86913 46.741
10976 2 15.7944 7.66082 47.1787
10977 1 28.0269 28.7389 29.938
10978 2 27.5129 29.2904 30.595
10979 2 27.5869 28.7925 29.0415
10980 1 62.0277 8.45625 57.518
10981 2 61.4414 7.75467 57.923
10982 2 62.9848 8.24726 57.7187
10983 1 41.5001 12.2541 66.6856
10984 2 41.5735 12.3247 65.6908
10985 2 41.2846 13.1524 67.0685
10986 1 25.729 13.6562 25.4996
10987 2 26.1658 13.2018 24.7232
10988 2 25.9047 14.6395 25.4522
10989 1 19.8995 22.9719 83.0918
10990 2 19.174 23.5256 82.6833
10991 2 19.6371 22.0073 83.0663
10992 1 13.9317 20.0227 61.9611
10993 2 13.1634 20.528 62.354
10994 2 13.9988 19.1256 62.3977
10995 1 78.4246 16.4763 83.5433
10996 2 77.4358 16.621 83.506
10997 2 78.8437 17.1832 84.113
10998 1 15.7018 10.1585 67.7956
10999 2 14.9077 9.55351 67.8533
11000 2 15.4366 11.0154 67.3536
11001 1 73.8678 1.47222 62.5127
11002 2 74.0504 2.42442 62.7576
11003 2 74.133 0.876343 63.2707
11004 1 60.7332 7.12149 55.117
11005 2 61.2028 6.6497 55.8633
11006 2 61.1638 8.01058 54.9616
11007 1 1.5184 11.8487 24.3371
11008 2 2.4098 11.3973 24.2958
11009 2 0.826359 11.2584 23.9216
11010 1 13.3643 8.21249 11.0397
11011 2 13.8059 8.95935 11.5369
11012 2 14.0433 7.73733 10.48
11013 1 71.9825 1.39514 31.924
11014 2 72.6535 0.718006 32.226
11015 2 72.0641 2.21871 32.4853
11016 1 71.4022 6.50934 34.2368
11017 2 71.6209 5.53355 34.2415
11018 2 71.382 6.85093 35.1764
11019 1 4.16839 21.9935 51.7716
11020 2 4.65821 22.847 51.9494
11021 2 3.85885 21.6002 52.6373
11022 1 60.0046 19.8389 58.7907
11023 2 59.8215 20.7896 58.5405
11024 2 59.8759 19.7226 59.7755
11025 1 65.9527 10.1209 64.1283
11026 2 65.617 11.0389 64.3394
11027 2 66.8073 9.95702 64.6211
11028 1 8.42564 1.11588 27.6183
11029 2 7.44215 0.944325 27.5608
11030 2 8.81944 0.556546 28.3478
11031 1 70.3399 14.4856 69.8283
11032 2 70.2412 13.5022 69.9804
11033 2 69.6564 14.9767 70.3683
11034 1 19.1568 8.21342 70.1997
11035 2 18.2573 8.61953 70.3609
11036 2 19.1919 7.30507 70.6164
11037 1 62.128 10.0288 63.4596
11038 2 62.0216 9.0896 63.1332
11039 2 62.348 10.0197 64.4351
11040 1 44.8181 27.4701 64.5452
11041 2 44.6916 26.6029 64.0636
11042 2 44.3699 28.2036 64.0344
11043 1 13.2586 5.88923 36.5586
11044 2 13.2865 5.01579 37.0447
11045 2 13.8165 5.82802 35.7309
11046 1 77.0614 25.4154 84.7114
11047 2 76.3671 24.7512 84.9887
11048 2 77.515 25.0959 83.8795
11049 1 46.2012 19.3286 76.721
11050 2 45.8405 18.396 76.7278
11051 2 46.1855 19.6988 77.6498
11052 1 79.2754 7.07907 32.8777
11053 2 78.9698 7.87182 33.4051
11054 2 79.7464 7.38952 32.052
11055 1 69.4753 6.26053 37.1909
11056 2 68.7535 6.83186 37.5816
11057 2 70.2679 6.82906 36.9706
11058 1 20.105 16.3574 71.9933
11059 2 20.7551 15.6787 72.335
11060 2 20.5864 17.0217 71.4214
11061 1 79.0379 27.5774 58.5597
11062 2 79.9255 28.0381 58.5582
11063 2 78.5645 27.763 57.6987
11064 1 22.823 17.2654 41.7302
11065 2 22.1427 17.0296 42.4241
11066 2 22.8568 18.2588 41.6206
11067 1 20.6744 15.662 15.781
11068 2 20.1782 14.8017 15.6638
11069 2 21.3699 15.7455 15.0673
11070 1 37.7569 0.391608 69.985
11071 2 37.2819 0.857405 70.7316
11072 2 38.634 0.0420856 70.3145
11073 1 62.0109 22.2057 23.8405
11074 2 62.2382 23.1435 24.1031
11075 2 62.6848 21.5779 24.2299
11076 1 17.1194 13.793 45.6372
11077 2 17.9535 14.1452 45.2126
11078 2 16.3503 14.3888 45.4057
11079 1 55.4464 13.5175 83.8456
11080 2 54.5118 13.5371 83.4905
11081 2 56.093 13.5167 83.0828
11082 1 10.6942 4.30351 19.6714
11083 2 11.6694 4.45131 19.507
11084 2 10.2272 4.15944 18.799
11085 1 17.5168 24.0563 80.8089
11086 2 16.9556 23.6889 81.5506
11087 2 17.0392 24.8216 80.3773
11088 1 44.0863 2.83928 70.6391
11089 2 44.2163 2.33696 71.4939
11090 2 44.2006 2.21597 69.8655
11091 1 62.2291 4.96597 42.4062
11092 2 63.1836 4.71542 42.2446
11093 2 61.7002 4.1443 42.6186
11094 1 44.6896 22.2989 48.8155
11095 2 44.145 22.8846 48.2152
11096 2 45.5097 21.9951 48.3305
11097 1 33.8021 26.2237 34.9581
11098 2 34.0782 26.7185 35.7821
11099 2 34.4172 26.4596 34.2058
11100 1 64.2764 3.39966 40.1446
11101 2 63.326 3.36941 39.8353
11102 2 64.882 3.48275 39.3531
11103 1 61.0904 12.9926 18.9009
11104 2 61.9383 12.4868 19.0596
11105 2 60.5361 12.9835 19.7332
11106 1 57.7729 10.8712 34.541
11107 2 56.9818 10.7277 33.9463
11108 2 57.4802 10.8465 35.4969
11109 1 61.2619 29.5037 13.8275
11110 2 60.9289 29.9947 13.0225
11111 2 61.1179 28.5221 13.7023
11112 1 20.6143 8.89975 74.1939
11113 2 19.7353 9.36165 74.3124
11114 2 20.8903 8.48138 75.0593
11115 1 23.8582 28.2554 50.4507
11116 2 23.5988 29.2207 50.4198
11117 2 23.78 27.9192 51.3893
11118 1 55.3407 28.7314 64.2922
11119 2 54.5909 29.0734 63.7258
11120 2 55.5381 27.7824 64.0464
11121 1 39.0712 11.023 56.4512
11122 2 39.5575 10.3178 56.9672
11123 2 38.4229 10.5902 55.8248
11124 1 35.2662 10.3171 57.94
11125 2 35.3414 9.71754 58.7368
11126 2 35.7585 11.1694 58.1165
11127 1 14.514 25.4352 46.0957
11128 2 15.1909 25.0648 46.7318
11129 2 13.672 24.8991 46.1556
11130 1 30.7095 13.4685 60.6111
11131 2 31.3834 12.8395 60.9985
11132 2 30.907 14.3994 60.9185
11133 1 22.9299 11.3224 84.8312
11134 2 23.7467 11.3828 84.2575
11135 2 22.2222 10.8051 84.35
11136 1 58.363 6.42061 34.1224
11137 2 59.1403 6.20506 34.7134
11138 2 57.5626 6.62552 34.6859
11139 1 78.4361 24.376 37.2274
11140 2 78.8955 23.5045 37.3993
11141 2 78.5292 24.9657 38.0297
11142 1 19.5542 19.694 79.3423
11143 2 19.0556 19.7543 78.4776
11144 2 19.073 20.2222 80.042
11145 1 64.5894 18.9449 71.8041
11146 2 65.1656 18.7268 72.5918
11147 2 64.4121 19.9288 71.7829
11148 1 53.1162 10.2676 74.6762
11149 2 52.367 9.62334 74.5224
11150 2 53.1259 10.9485 73.9438
11151 1 37.4476 0.590048 52.9407
11152 2 36.5148 0.87794 53.1577
11153 2 37.9836 0.534083 53.783
11154 1 61.3029 21.9769 73.2475
11155 2 61.7649 21.6252 74.0617
11156 2 61.5241 22.9451 73.1309
11157 1 29.8627 26.4078 42.1482
11158 2 30.1545 26.3916 41.1918
11159 2 30.565 25.9813 42.7182
11160 1 10.7614 22.9028 80.3006
11161 2 10.1282 23.3655 79.6802
11162 2 11.5236 22.5228 79.7765
11163 1 9.81371 0.211395 35.6133
11164 2 9.41225 29.5332 34.9978
11165 2 9.08567 0.677952 36.1156
11166 1 79.021 7.67698 78.3296
11167 2 78.3491 7.86797 79.0453
11168 2 79.9403 7.69188 78.723
11169 1 19.7894 28.3556 76.8257
11170 2 20.3984 28.663 77.5569
11171 2 18.9273 28.8599 76.8758
11172 1 54.0385 28.3786 32.9924
11173 2 53.9652 29.2895 33.3984
11174 2 53.1375 28.0808 32.677
11175 1 35.6903 17.0681 82.1808
11176 2 36.5936 17.0556 82.6097
11177 2 35.2405 17.9395 82.3763
11178 1 78.1528 14.0634 19.2029
11179 2 78.5842 13.7319 20.042
11180 2 78.8445 14.4852 18.6167
11181 1 0.506404 14.8931 82.8797
11182 2 0.755654 15.3887 82.0477
11183 2 79.5851 15.1593 83.1629
11184 1 54.9799 23.1282 53.671
11185 2 54.3482 22.6042 54.2423
11186 2 54.5651 24.0069 53.4347
11187 1 76.2577 4.12731 62.8268
11188 2 75.9223 4.60473 63.6389
11189 2 77.0298 3.54363 63.0784
11190 1 37.6813 24.1478 52.0681
11191 2 38.6724 24.0429 52.15
11192 2 37.3759 23.7607 51.1981
11193 1 52.5452 6.82166 74.638
11194 2 52.0851 7.16233 73.8181
11195 2 52.9014 7.59315 75.1652
11196 1 53.5434 4.43359 25.7509
11197 2 52.6534 4.10968 25.4302
11198 2 53.5218 4.53723 26.7453
11199 1 59.0964 26.3287 44.8931
11200 2 58.6339 26.8878 44.205
11201 2 58.8433 25.3694 44.7682
11202 1 3.80605 2.6248 68.2318
11203 2 3.22302 2.57247 67.421
11204 2 3.30687 2.27482 69.0245
11205 1 10.0439 4.56139 61.5486
11206 2 10.153 4.43262 62.5343
11207 2 10.4699 3.79773 61.0635
11208 1 45.5367 2.57382 80.6734
11209 2 46.1835 2.98814 81.3137
11210 2 44.6229 2.94628 80.8349
11211 1 63.7187 13.5037 85.0665
11212 2 63.0034 12.87 85.3609
11213 2 63.456 14.438 85.3072
11214 1 5.57544 7.20539 79.1839
11215 2 6.51991 7.10606 79.4971
11216 2 5.44755 6.68415 78.3401
11217 1 72.9454 11.4447 87.8618
11218 2 72.6576 11.683 86.9342
11219 2 73.3247 10.5195 87.8658
11220 1 69.0165 7.74676 48.1947
11221 2 68.3402 7.03042 48.3663
11222 2 69.8609 7.33324 47.8541
11223 1 66.0505 27.4071 18.2231
11224 2 65.5056 26.5689 18.2447
11225 2 66.1201 27.7833 19.147
11226 1 50.4539 25.2407 81.6605
11227 2 50.0892 25.1478 80.734
11228 2 50.2425 24.4166 82.186
11229 1 57.192 8.58817 56.6965
11230 2 56.6939 8.54145 55.8306
11231 2 56.5844 8.93222 57.4124
11232 1 1.44493 14.2617 26.0066
11233 2 0.619837 13.7387 25.7928
11234 2 2.10336 14.1654 25.2601
11235 1 72.6298 8.74632 59.4665
11236 2 73.442 8.20185 59.676
11237 2 72.0969 8.88473 60.3014
11238 1 12.6095 13.86 90.6004
11239 2 13.4392 14.2894 90.2437
11240 2 12.2638 13.1988 89.9345
11241 1 25.4803 11.2533 27.0298
11242 2 25.7018 12.0958 26.5386
11243 2 26.2922 10.9262 27.5134
11244 1 66.3993 27.3899 38.7234
11245 2 66.7845 28.1533 38.2049
11246 2 65.4217 27.3133 38.5271
11247 1 4.45118 22.3501 66.0559
11248 2 5.35758 22.0064 65.8103
11249 2 4.39364 23.3243 65.8374
11250 1 59.1442 25.9504 35.2523
11251 2 58.9455 25.7996 34.2839
11252 2 58.2872 26.0685 35.754
11253 1 14.4835 13.0386 15.2266
11254 2 15.4824 13.083 15.212
11255 2 14.161 13.1009 16.1711
11256 1 75.1366 20.0703 84.8604
11257 2 75.4437 20.9027 84.3992
11258 2 75.4329 19.2709 84.3377
11259 1 69.9189 4.11279 63.5377
11260 2 69.0503 4.57169 63.3504
11261 2 69.7905 3.12241 63.486
11262 1 66.7565 18.8516 65.3812
11263 2 65.9131 18.4149 65.0682
11264 2 67.484 18.168 65.4395
11265 1 26.6967 11.6373 49.7082
11266 2 26.9493 10.7224 49.3932
11267 2 25.7294 11.8012 49.5145
11268 1 8.44098 10.4901 49.9066
11269 2 7.6861 11.146 49.9041
11270 2 8.07455 9.5603 49.9403
11271 1 75.4526 2.15131 65.8127
11272 2 75.2899 3.13308 65.7144
11273 2 74.6408 1.64767 65.5173
11274 1 76.1008 12.2145 90.5001
11275 2 75.8662 13.1503 90.7635
11276 2 77.0681 12.1711 90.2503
11277 1 1.40023 6.68614 43.1411
11278 2 1.42262 5.70973 42.9264
11279 2 2.33517 7.02832 43.2349
11280 1 54.4293 1.25709 83.0264
11281 2 54.7925 0.340049 83.1911
11282 2 55.0168 1.93313 83.4711
11283 1 0.387164 9.7269 63.7451
11284 2 79.9712 10.3667 64.3913
11285 2 0.0395082 8.80535 63.918
11286 1 39.3094 28.0507 55.58
11287 2 38.5812 28.7082 55.3865
11288 2 40.1601 28.5414 55.7686
11289 1 9.45793 26.1922 85.8996
11290 2 8.66465 26.5185 86.4136
11291 2 9.98466 25.5586 86.4663
11292 1 10.9434 6.32511 27.529
11293 2 11.7023 6.95683 27.6872
11294 2 11.1948 5.41382 27.8551
11295 1 48.0295 6.46364 59.857
11296 2 48.8901 6.89112 60.1337
11297 2 48.2168 5.72875 59.2052
11298 1 70.6482 17.8754 84.4315
11299 2 70.42 17.5087 85.3334
11300 2 71.1339 17.1798 83.9021
11301 1 52.225 23.1776 77.4237
11302 2 51.3523 22.8402 77.0708
11303 2 52.3558 22.849 78.3591
11304 1 9.01796 20.4654 85.1288
11305 2 8.73328 20.0109 85.9728
11306 2 9.86216 20.0472 84.7934
11307 1 11.7228 13.0641 10.7592
11308 2 12.1211 12.79 11.6345
11309 2 12.2697 13.7999 10.3599
11310 1 44.7722 9.12988 55.249
11311 2 44.9005 10.0922 55.4885
11312 2 45.5257 8.8285 54.6646
11313 1 60.176 12.2363 66.3661
11314 2 59.752 12.9192 66.961
11315 2 61.1708 12.3282 66.4093
11316 1 1.46312 19.4728 79.2344
11317 2 0.871496 20.2031 79.576
11318 2 0.901996 18.7526 78.8263
11319 1 1.12996 19.5 44.9245
11320 2 1.96882 19.688 44.4137
11321 2 0.34288 19.8394 44.4094
11322 1 31.8167 4.62855 80.1046
11323 2 32.5413 4.06427 80.5003
11324 2 31.5905 5.37103 80.7351
11325 1 35.6601 11.3696 76.7492
11326 2 35.4994 11.8299 77.6223
11327 2 34.8269 10.8959 76.4638
11328 1 43.3167 28.0211 44.2089
11329 2 43.298 29.0138 44.3275
11330 2 43.988 27.7818 43.5074
11331 1 29.1303 6.96259 59.0324
11332 2 29.8043 6.93913 58.294
11333 2 28.8073 7.90047 59.1592
11334 1 50.4753 14.8239 44.1447
11335 2 50.8543 14.0019 44.5698
11336 2 50.6072 15.6055 44.7544
11337 1 77.5825 15.8399 27.7392
11338 2 78.1292 15.0934 28.1186
11339 2 78.1779 16.4674 27.2374
11340 1 69.8939 16.8965 34.322
11341 2 69.8645 15.9475 34.008
11342 2 69.9518 17.5073 33.5324
11343 1 29.7368 16.8328 81.342
11344 2 29.4037 16.7674 82.2827
11345 2 29.552 15.9749 80.8626
11346 1 4.66628 17.911 45.7688
11347 2 5.264 17.8513 44.9693
11348 2 5.10604 17.4642 46.5479
11349 1 13.7652 17.1644 90.8515
11350 2 14.0587 16.261 90.5389
11351 2 12.913 17.0779 91.3675
11352 1 46.6596 8.39288 58.6484
11353 2 46.3542 8.06806 57.7533
11354 2 47.1086 7.64583 59.1387
11355 1 73.4161 8.56462 42.4696
11356 2 72.7127 8.85178 43.1198
11357 2 74.2686 8.38274 42.9595
11358 1 45.0339 3.00894 58.1817
11359 2 44.4203 3.45621 58.8324
11360 2 44.9742 3.47001 57.2963
11361 1 7.85271 8.40138 85.962
11362 2 7.88069 8.73946 85.0213
11363 2 7.78872 7.40345 85.9558
11364 1 68.9589 17.532 60.7818
11365 2 68.7402 16.8253 61.4547
11366 2 68.2223 17.5899 60.1079
11367 1 31.5908 9.60939 56.1735
11368 2 31.5498 9.33326 57.1338
11369 2 31.8878 10.5624 56.1131
11370 1 7.81272 8.86194 24.9322
11371 2 6.99278 9.0707 25.4652
11372 2 7.72787 9.26203 24.0197
11373 1 43.2113 23.7959 74.3151
11374 2 42.5349 23.2951 74.8552
11375 2 43.504 24.6089 74.8184
11376 1 27.1075 6.67531 35.1123
11377 2 27.9289 6.17878 34.8316
11378 2 27.2154 6.99255 36.0545
11379 1 25.376 19.0174 62.3848
11380 2 25.9915 19.4166 63.0644
11381 2 24.5897 19.6208 62.2521
11382 1 49.3757 20.9105 50.6836
11383 2 49.741 20.6785 49.7821
11384 2 49.0747 21.8642 50.6859
11385 1 22.5356 9.95294 23.4302
11386 2 22.4209 10.9439 23.3605
11387 2 21.8881 9.58871 24.0995
11388 1 23.0453 29.8619 77.7538
11389 2 23.9872 29.6296 77.9966
11390 2 22.4463 29.6841 78.5346
11391 1 61.9224 17.5489 39.4727
11392 2 61.1631 18.0083 39.0117
11393 2 61.5691 16.9989 40.2295
11394 1 5.62308 8.33704 83.3105
11395 2 5.60204 9.21201 82.8267
11396 2 6.48754 7.87172 83.1203
11397 1 7.88796 12.7809 34.0094
11398 2 7.16196 13.0933 34.622
11399 2 7.48811 12.4878 33.1409
11400 1 77.6867 22.2278 42.2074
11401 2 78.0506 22.6222 43.0513
11402 2 77.7233 21.23 42.263
11403 1 30.2388 14.0079 80.0592
11404 2 29.3468 13.6711 80.3608
11405 2 30.9175 13.2787 80.1472
11406 1 51.7599 20.7269 90.4318
11407 2 50.8635 20.8439 90.8592
11408 2 51.6413 20.4233 89.4864
11409 1 43.863 8.14943 59.1905
11410 2 43.4163 8.46588 60.0273
11411 2 44.8521 8.11412 59.3335
11412 1 45.5981 14.8671 40.2607
11413 2 45.3697 14.3589 39.4303
11414 2 44.8244 14.8365 40.8936
11415 1 43.6431 4.69724 86.8694
11416 2 43.8331 4.89894 87.8303
11417 2 43.2603 5.50874 86.4279
11418 1 78.1726 22.8112 51.1397
11419 2 77.6455 23.317 50.4567
11420 2 77.7806 22.9678 52.0462
11421 1 9.33262 9.9827 33.3611
11422 2 10.1547 9.46635 33.1211
11423 2 8.87386 10.286 32.5259
11424 1 10.1704 18.3199 71.861
11425 2 10.9505 17.6943 71.8543
11426 2 10.2971 19.0031 72.5801
11427 1 0.466037 21.9857 79.8791
11428 2 79.7836 22.7031 79.7394
11429 2 1.33053 22.3992 80.1649
11430 1 5.90007 14.0816 79.6084
11431 2 5.54112 13.8897 80.5218
11432 2 5.14014 14.1871 78.967
11433 1 49.3018 9.43261 74.2596
11434 2 48.7794 10.2819 74.183
11435 2 49.1448 8.8703 73.4477
11436 1 54.3371 17.565 69.7205
11437 2 54.3348 17.7479 68.7374
11438 2 55.227 17.196 69.9888
11439 1 51.0043 28.5446 28.9478
11440 2 50.0482 28.2564 28.8946
11441 2 51.0503 29.5432 28.9765
11442 1 28.0502 18.7228 69.4923
11443 2 27.0571 18.789 69.5894
11444 2 28.4911 19.1246 70.2949
11445 1 11.3346 13.4821 19.3825
11446 2 10.4229 13.6195 18.9953
11447 2 12.022 13.8451 18.7535
11448 1 63.5806 29.7931 66.4445
11449 2 63.7998 29.0248 67.0459
11450 2 62.6959 0.179108 66.7058
11451 1 12.1429 27.4835 32.3594
11452 2 13.1252 27.6613 32.299
11453 2 11.6723 27.9559 31.6142
11454 1 33.1797 25.44 77.8757
11455 2 33.1566 25.5884 76.887
11456 2 34.1082 25.1947 78.1543
11457 1 47.6994 18.6728 72.0949
11458 2 47.0873 18.1884 72.7201
11459 2 48.6353 18.6294 72.4444
11460 1 4.56415 22.0722 32.8708
11461 2 5.23974 21.354 32.7042
11462 2 3.80398 21.698 33.402
11463 1 70.0954 25.4422 65.1374
11464 2 69.1822 25.8467 65.0887
11465 2 70.3202 25.2405 66.0907
11466 1 24.1482 25.7814 83.4703
11467 2 23.162 25.7923 83.6354
11468 2 24.5731 25.0747 84.036
11469 1 64.5482 23.2312 36.502
11470 2 63.578 23.4668 36.4447
11471 2 64.9843 23.785 37.2113
11472 1 41.7843 18.8893 48.7468
11473 2 40.961 18.6372 48.2381
11474 2 42.3828 19.4368 48.162
11475 1 39.866 24.7443 73.0944
11476 2 40.1808 25.6886 73.1902
11477 2 39.8442 24.3074 73.9937
11478 1 60.1179 14.3083 51.5812
11479 2 59.8888 13.3376 51.6536
11480 2 61.0869 14.4386 51.7908
11481 1 38.8249 0.961348 55.6592
11482 2 39.7513 0.695212 55.3927
11483 2 38.8028 1.15451 56.6401
11484 1 58.5013 28.7659 84.2021
11485 2 57.7125 28.6265 83.6035
11486 2 58.9414 27.8866 84.3837
11487 1 34.7018 29.7365 34.2707
11488 2 34.0947 29.6935 35.0641
11489 2 34.5123 0.569409 33.7507
11490 1 76.7125 8.75807 76.6238
11491 2 76.5675 7.95814 77.2061
11492 2 77.3733 9.3707 77.0575
11493 1 61.7084 26.2187 36.6406
11494 2 61.7544 25.3069 37.0487
11495 2 60.8645 26.3047 36.1112
11496 1 20.3155 17.7959 83.8114
11497 2 19.6222 17.1653 84.1602
11498 2 20.7671 18.2521 84.5781
11499 1 17.9458 10.6175 45.84
11500 2 17.6411 11.1502 46.6296
11501 2 18.7961 10.1424 46.0665
11502 1 65.3232 5.49584 52.7837
11503 2 66.1176 5.29636 52.21
11504 2 65.1297 6.47654 52.7557
11505 1 43.6128 19.5677 69.4206
11506 2 42.7953 19.5606 69.9966
11507 2 43.868 20.5127 69.2159
11508 1 38.1336 22.2781 58.6689
11509 2 37.1421 22.3757 58.7546
11510 2 38.5084 23.0792 58.2022
11511 1 22.802 9.01139 67.249
11512 2 22.0985 8.37563 67.5666
11513 2 23.1823 9.50537 68.0309
11514 1 37.4685 27.6672 60.366
11515 2 37.22 28.0997 59.4993
11516 2 37.191 28.257 61.1244
11517 1 52.3212 19.9267 81.3444
11518 2 52.3915 19.8264 82.3369
11519 2 52.9453 19.2845 80.8994
11520 1 56.5707 16.7348 56.6324
11521 2 55.7273 17.0427 56.192
11522 2 56.9999 16.0264 56.0722
11523 1 48.0261 26.9075 84.2878
11524 2 47.3631 27.6493 84.3885
11525 2 47.8253 26.3917 83.455
11526 1 66.4667 21.2796 34.0045
11527 2 66.7613 20.6359 34.7107
11528 2 65.4932 21.1473 33.8179
11529 1 54.5955 16.5405 38.2357
11530 2 54.637 16.9925 39.1268
11531 2 54.0822 15.6863 38.3188
11532 1 5.26051 11.6609 52.1646
11533 2 4.8402 11.6362 51.2576
11534 2 4.75938 12.3011 52.7469
11535 1 10.1115 22.854 18.9113
11536 2 9.37466 22.4043 18.4064
11537 2 10.8805 22.2226 19.0115
11538 1 65.0545 19.1421 55.6735
11539 2 65.3952 18.6919 56.4988
11540 2 64.4582 19.9026 55.9307
11541 1 43.8789 1.17812 48.0082
11542 2 44.019 1.70075 48.8492
11543 2 43.1806 1.62603 47.4498
11544 1 54.7401 20.7843 84.9743
11545 2 54.1072 21.0187 85.7122
11546 2 54.3858 19.9977 84.4686
11547 1 65.9131 2.79133 37.545
11548 2 66.0608 3.7565 37.3291
11549 2 65.1484 2.44193 37.0035
11550 1 12.8875 11.7596 81.3559
11551 2 13.3613 11.5302 80.5057
11552 2 12.5609 12.7037 81.3111
11553 1 0.58622 7.03541 40.0449
11554 2 1.21996 7.70185 39.6522
11555 2 0.527394 7.17382 41.0335
11556 1 2.67595 19.0608 87.51
11557 2 2.3557 19.6816 88.2256
11558 2 2.82094 19.5739 86.664
11559 1 10.9598 11.6602 39.2814
11560 2 10.8574 11.5076 40.2644
11561 2 11.4451 12.5207 39.1264
11562 1 30.7438 10.6892 90.7201
11563 2 31.5706 11.1229 90.3618
11564 2 30.622 9.79578 90.2877
11565 1 47.143 13.4109 51.9482
11566 2 47.7928 12.6831 51.7287
11567 2 47.025 14.0038 51.1516
11568 1 25.0745 0.455486 80.2091
11569 2 25.5702 0.134176 79.4023
11570 2 24.5779 1.29361 79.9834
11571 1 10.9794 22.5942 22.0565
11572 2 11.7318 23.2307 22.226
11573 2 11.3012 21.6561 22.1845
11574 1 39.0315 16.668 74.2905
11575 2 38.8733 15.7413 73.9497
11576 2 39.5509 16.6252 75.1439
11577 1 36.8906 9.63931 88.9057
11578 2 36.8775 8.68632 88.603
11579 2 37.8377 9.94782 88.9945
11580 1 61.6 0.400627 29.9603
11581 2 62.5456 0.153118 30.1716
11582 2 61.1705 0.798439 30.771
11583 1 24.2019 9.13459 29.1652
11584 2 24.9698 9.12305 29.8056
11585 2 24.5028 8.78536 28.2777
11586 1 20.0321 12.0705 81.0905
11587 2 19.4224 11.3783 80.7043
11588 2 19.8677 12.948 80.6399
11589 1 63.1631 19.1815 28.2564
11590 2 64.1363 19.158 28.0278
11591 2 63.0529 19.4233 29.2205
11592 1 14.1986 18.9592 36.8375
11593 2 14.918 18.2647 36.8362
11594 2 14.0474 19.2809 37.7722
11595 1 36.3507 25.317 48.07
11596 2 37.1123 25.9444 48.2325
11597 2 36.164 24.7965 48.9033
11598 1 43.9021 12.5099 33.4506
11599 2 44.3304 13.1214 34.1159
11600 2 44.6078 12.0968 32.8749
11601 1 11.3189 26.5376 21.0637
11602 2 12.2932 26.6787 21.2396
11603 2 10.8925 26.1198 21.866
11604 1 13.1658 6.44115 43.3986
11605 2 14.0251 6.18972 43.8439
11606 2 12.6694 5.61243 43.1402
11607 1 75.4086 18.9082 64.4631
11608 2 74.805 19.6527 64.1778
11609 2 74.8918 18.0526 64.4918
11610 1 67.8533 23.8845 59.1055
11611 2 67.9504 23.0145 58.6222
11612 2 66.9548 24.2768 58.9084
11613 1 23.3303 3.80301 32.0564
11614 2 23.1253 4.37012 32.8541
11615 2 24.3144 3.63079 32.0139
11616 1 49.9885 7.75721 52.4916
11617 2 50.5268 6.91585 52.5395
11618 2 50.2314 8.35245 53.2575
11619 1 36.0544 26.7023 54.9509
11620 2 36.3779 25.7965 55.2245
11621 2 35.1691 26.8835 55.3792
11622 1 47.3301 9.19572 32.7506
11623 2 46.716 9.94138 32.4919
11624 2 47.8008 8.85422 31.9371
11625 1 68.9739 25.284 86.2718
11626 2 69.4767 25.1325 85.4208
11627 2 69.5934 25.1743 87.049
11628 1 13.886 3.71432 15.3067
11629 2 14.7884 4.02391 15.6063
11630 2 13.1792 4.2429 15.7769
11631 1 27.2501 14.2897 73.2715
11632 2 27.2865 14.9224 72.4979
11633 2 26.4123 14.4493 73.7935
11634 1 27.1289 28.6721 37.5979
11635 2 27.8576 28.7833 38.2736
11636 2 27.5316 28.5237 36.6947
11637 1 13.2804 25.4336 90.4472
11638 2 12.7976 25.2481 89.5913
11639 2 12.8571 26.2148 90.906
11640 1 29.1479 0.704872 69.0193
11641 2 29.1382 29.719 68.852
11642 2 28.2141 1.05971 68.9748
11643 1 53.9371 3.70202 54.7086
11644 2 54.9277 3.83894 54.7153
11645 2 53.5796 3.89885 53.7957
11646 1 26.8451 24.503 75.1548
11647 2 26.2905 25.3332 75.0988
11648 2 27.7608 24.7353 75.4826
11649 1 12.8573 4.45322 10.4883
11650 2 13.3339 4.73544 11.3208
11651 2 13.0767 5.08778 9.74721
11652 1 59.1232 0.259626 43.944
11653 2 60.0353 0.661379 43.8623
11654 2 58.5429 0.859468 44.4949
11655 1 28.976 14.3019 51.2035
11656 2 29.1758 13.7217 51.9932
11657 2 29.8124 14.4439 50.6741
11658 1 2.51223 6.61964 22.947
11659 2 3.14623 6.33571 22.2277
11660 2 2.97649 6.58774 23.8321
11661 1 7.51658 2.86685 65.9711
11662 2 6.61956 3.16669 66.2958
11663 2 7.43306 2.51514 65.0387
11664 1 26.8499 9.21442 68.088
11665 2 26.3453 8.35178 68.1229
11666 2 26.2118 9.96755 67.9276
11667 1 31.1378 15.0116 77.1978
11668 2 30.3879 14.5307 76.7434
11669 2 31.3751 14.5348 78.0442
11670 1 67.379 1.17177 16.8563
11671 2 67.741 1.76483 16.1371
11672 2 67.762 0.253558 16.7554
11673 1 41.3501 20.1204 76.1922
11674 2 40.3937 19.9416 76.4231
11675 2 41.8797 20.2372 77.0324
11676 1 28.169 24.3784 55.1009
11677 2 28.1127 23.5643 54.523
11678 2 27.3941 24.9797 54.9061
11679 1 27.3846 23.7308 60.1216
11680 2 27.1436 24.0705 61.0307
11681 2 27.9576 22.9161 60.2113
11682 1 73.5146 13.1498 15.4624
11683 2 74.4389 13.0423 15.8285
11684 2 73.5062 12.8898 14.4969
11685 1 6.97369 13.3788 88.3254
11686 2 6.18235 13.9416 88.0867
11687 2 6.72019 12.4123 88.2834
11688 1 31.6777 7.99881 32.5755
11689 2 31.0709 7.79646 33.3443
11690 2 32.5041 7.44045 32.6473
11691 1 79.5339 9.5172 89.3544
11692 2 0.495585 9.48734 89.627
11693 2 79.4605 9.89671 88.4321
11694 1 60.9829 24.5352 81.0722
11695 2 61.5176 23.9828 81.7117
11696 2 60.5073 25.2582 81.5733
11697 1 51.4297 28.4096 55.2152
11698 2 50.7675 29.1485 55.3395
11699 2 51.4723 28.1593 54.248
11700 1 1.68833 10.5846 29.9383
11701 2 2.11842 11.2852 29.3689
11702 2 2.13924 10.5571 30.8304
11703 1 2.02447 27.1867 80.6124
11704 2 1.68932 28.1152 80.4529
11705 2 1.73916 26.5952 79.8582
11706 1 57.2496 16.2629 45.3561
11707 2 56.6705 16.9381 45.8131
11708 2 57.1627 16.3655 44.3652
11709 1 3.9211 4.30021 54.9593
11710 2 3.73304 5.25583 54.7325
11711 2 3.39517 3.70397 54.3527
11712 1 35.8519 1.8591 77.1194
11713 2 36.5152 2.20488 77.7831
11714 2 35.0258 1.5614 77.598
11715 1 49.678 21.1512 74.8699
11716 2 50.0901 20.3929 75.3751
11717 2 49.0112 21.6163 75.4521
11718 1 44.1541 25.2909 78.5205
11719 2 44.3928 25.8313 77.7136
11720 2 44.6785 24.4394 78.5184
11721 1 1.03605 29.8494 29.6145
11722 2 0.373 29.8947 30.3617
11723 2 0.943587 28.9744 29.1393
11724 1 35.2865 8.79527 33.6151
11725 2 34.8915 7.8766 33.6126
11726 2 35.647 9.00561 32.7063
11727 1 74.9207 0.9205 52.1225
11728 2 75.7579 0.874135 52.6674
11729 2 74.5677 1.85605 52.1329
11730 1 22.7424 28.4335 40.3196
11731 2 23.0637 27.4933 40.4319
11732 2 21.8991 28.5622 40.8415
11733 1 2.91346 17.3005 67.7024
11734 2 3.89898 17.137 67.7471
11735 2 2.70602 18.1961 68.0959
11736 1 10.2474 1.17238 90.9607
11737 2 9.32061 1.4979 90.7733
11738 2 10.2224 0.193168 91.162
11739 1 52.0206 5.67464 80.5103
11740 2 51.4811 5.49504 81.333
11741 2 52.9422 5.30498 80.6288
11742 1 31.6062 24.9811 74.3863
11743 2 31.9359 24.2514 74.9853
11744 2 32.229 25.0824 73.6105
11745 1 39.146 14.1784 72.9263
11746 2 39.8408 13.9492 73.6079
11747 2 38.3591 13.571 73.0351
11748 1 43.8571 8.58328 31.452
11749 2 43.016 9.05486 31.7167
11750 2 44.647 9.09908 31.7838
11751 1 75.7781 15.0953 67.6705
11752 2 76.3623 15.687 68.2261
11753 2 76.1582 14.1705 67.6557
11754 1 69.0696 1.86394 12.5809
11755 2 70.0366 2.10308 12.4937
11756 2 68.7885 1.9552 13.5363
11757 1 55.1011 22.5338 82.909
11758 2 55.1387 23.5076 83.1331
11759 2 55.1216 21.9967 83.7523
11760 1 29.6755 17.009 40.8481
11761 2 30.5414 17.1928 40.3828
11762 2 29.3356 16.1087 40.5764
11763 1 39.0225 10.3762 31.4558
11764 2 38.1752 9.85871 31.5759
11765 2 38.8688 11.331 31.7102
11766 1 62.1865 27.3527 76.8377
11767 2 61.3734 26.793 76.9976
11768 2 62.6122 27.0831 75.974
11769 1 18.0142 22.1495 49.1192
11770 2 18.0866 22.1058 50.1156
11771 2 17.9869 23.106 48.8287
11772 1 77.9386 12.2564 22.0694
11773 2 78.5515 11.4889 21.8818
11774 2 78.4707 13.0336 22.4052
11775 1 72.2046 11.3851 25.638
11776 2 73.0945 11.0873 25.2924
11777 2 71.6714 11.7795 24.8895
11778 1 26.2598 11.5403 70.5696
11779 2 26.526 10.7261 71.0856
11780 2 25.3246 11.7979 70.8127
11781 1 14.8958 10.2823 11.0598
11782 2 15.5902 10.7762 10.5365
11783 2 14.633 10.8233 11.8587
11784 1 22.2328 23.5966 32.2531
11785 2 21.6111 24.2868 31.8826
11786 2 23.1225 23.6734 31.803
11787 1 3.28728 17.8119 83.848
11788 2 3.33925 17.5713 82.8787
11789 2 2.35068 17.6828 84.1737
11790 1 26.597 10.9184 38.8347
11791 2 27.544 11.0689 38.5506
11792 2 26.3481 9.96356 38.6726
11793 1 11.8106 29.9196 84.174
11794 2 11.655 0.20644 83.2287
11795 2 12.6846 29.4378 84.2365
11796 1 0.402487 16.1276 36.9236
11797 2 1.18811 15.888 37.494
11798 2 0.425638 17.106 36.7183
11799 1 22.577 27.0485 88.9569
11800 2 22.3606 27.3981 89.8685
11801 2 22.1086 26.1766 88.8144
11802 1 57.2889 19.986 45.9413
11803 2 56.6408 19.413 46.443
11804 2 57.3764 19.6481 45.0042
11805 1 17.4269 16.3826 86.5812
11806 2 17.5323 16.8504 85.7037
11807 2 17.6727 17.0064 87.3231
11808 1 49.7488 15.9414 55.813
11809 2 50.6129 15.448 55.9127
11810 2 49.045 15.4963 56.3666
11811 1 72.5682 2.13083 26.5897
11812 2 72.4508 1.48473 27.3439
11813 2 71.6713 2.40178 26.2402
11814 1 46.0827 29.1074 35.6991
11815 2 45.8773 28.7702 36.6178
11816 2 45.3344 28.8673 35.0808
11817 1 22.2516 21.9708 55.6802
11818 2 22.4084 21.2081 55.0527
11819 2 21.2775 22.0276 55.899
11820 1 56.6131 8.02153 62.2926
11821 2 56.9389 8.7447 62.9016
11822 2 55.6499 8.17846 62.0742
11823 1 49.5891 22.9637 88.685
11824 2 49.6068 22.0104 88.9866
11825 2 48.8938 23.0759 87.9752
11826 1 1.7685 0.489866 83.9649
11827 2 1.29343 29.6218 83.8205
11828 2 2.40312 0.398866 84.7323
11829 1 4.86944 13.6346 27.0943
11830 2 4.35809 13.9756 26.3055
11831 2 4.23158 13.2705 27.7729
11832 1 5.04654 15.7956 31.2601
11833 2 4.22668 15.9885 31.7992
11834 2 4.89601 14.9769 30.7059
11835 1 20.1882 13.9378 68.0525
11836 2 20.9341 13.5165 67.5366
11837 2 19.3547 13.3982 67.9342
11838 1 35.1351 22.7327 76.5643
11839 2 35.9235 22.3468 77.0432
11840 2 35.4517 23.3587 75.8516
11841 1 61.1087 27.699 48.8009
11842 2 60.2904 28.1897 49.1001
11843 2 60.8877 26.733 48.6668
11844 1 56.6671 8.07168 54.0353
11845 2 56.3775 8.84395 53.4698
11846 2 56.8994 7.29676 53.4475
11847 1 62.3446 2.12635 60.1568
11848 2 62.2278 1.169 60.4211
11849 2 63.2657 2.26129 59.7916
11850 1 9.72048 24.2472 54.5504
11851 2 9.42845 25.1137 54.9553
11852 2 10.6854 24.0896 54.7604
11853 1 54.5826 4.48612 30.9383
11854 2 54.837 4.18013 30.0209
11855 2 54.865 5.43731 31.0627
11856 1 71.9561 25.7232 40.9549
11857 2 71.2257 25.1644 40.5622
11858 2 72.3082 25.2799 41.7793
11859 1 76.2874 5.75668 33.6813
11860 2 75.8029 5.96123 34.5319
11861 2 77.2629 5.6465 33.8715
11862 1 40.6525 11.1639 83.0175
11863 2 41.6462 11.2675 83.0603
11864 2 40.2219 12.066 83.0446
11865 1 28.5485 1.91091 87.0877
11866 2 28.4847 2.17172 86.1244
11867 2 27.6302 1.75954 87.4535
11868 1 6.17094 8.50178 43.048
11869 2 6.91561 9.15086 43.2034
11870 2 5.74989 8.26184 43.9227
11871 1 58.4704 16.7742 47.9338
11872 2 58.6179 16.9626 46.9628
11873 2 58.8272 15.8667 48.1552
11874 1 31.0102 19.6228 89.6711
11875 2 31.3485 20.3883 90.2185
11876 2 30.021 19.5386 89.7913
11877 1 0.0306587 1.20047 32.7879
11878 2 79.6479 0.830721 31.9413
11879 2 79.5225 0.838553 33.5694
11880 1 79.0892 21.303 67.9002
11881 2 79.3351 20.5629 68.5261
11882 2 79.4984 22.1582 68.2181
11883 1 15.1158 6.55284 74.7952
11884 2 16.0559 6.89005 74.8453
11885 2 14.8873 6.34255 73.8446
11886 1 43.9278 5.98455 30.8299
11887 2 43.9353 6.93454 31.1421
11888 2 43.9728 5.96156 29.8312
11889 1 20.5662 13.4562 52.4154
11890 2 20.6176 14.4381 52.5975
11891 2 21.2528 12.979 52.964
11892 1 7.89999 14.4444 10.9284
11893 2 8.09261 14.3906 9.94857
11894 2 6.9117 14.4073 11.0763
11895 1 67.8613 14.0077 52.8743
11896 2 66.9588 13.8898 52.4601
11897 2 68.403 14.6388 52.319
11898 1 75.0063 10.49 58.6065
11899 2 74.2171 10.3151 59.1953
11900 2 75.7306 10.926 59.1407
11901 1 0.563328 18.8223 37.9385
11902 2 79.6054 18.7774 37.655
11903 2 0.852607 19.7784 37.9851
11904 1 17.5911 6.14515 76.544
11905 2 17.1759 6.9935 76.8724
11906 2 18.5863 6.21156 76.6158
11907 1 61.2995 19.7151 50.6599
11908 2 60.9338 20.5118 51.141
11909 2 61.8581 19.1737 51.2882
11910 1 27.8975 15.8431 59.4408
11911 2 27.0489 15.9977 58.935
11912 2 28.5682 15.4067 58.8411
11913 1 50.0632 17.2128 74.8261
11914 2 50.052 16.6584 73.994
11915 2 49.4578 16.8025 75.5082
11916 1 74.2545 10.9348 40.1093
11917 2 74.896 10.41 39.5497
11918 2 73.587 10.3147 40.5213
11919 1 36.6927 11.0368 54.3864
11920 2 36.0195 11.5599 54.909
11921 2 36.3508 10.8862 53.4589
11922 1 29.0835 26.645 31.2474
11923 2 29.0135 26.8698 32.2193
11924 2 28.6559 27.369 30.7062
11925 1 48.1468 14.6488 79.5722
11926 2 48.2008 14.2427 80.4845
11927 2 48.2385 15.6421 79.6436
11928 1 19.4806 5.14473 83.2918
11929 2 20.1362 4.87574 82.5863
11930 2 18.9911 4.33592 83.6178
11931 1 18.0298 22.0518 40.5389
11932 2 18.0214 22.2029 41.5273
11933 2 18.6381 21.2878 40.3236
11934 1 67.0573 14.0442 49.5689
11935 2 67.1561 15.0281 49.7178
11936 2 66.4124 13.6695 50.235
11937 1 29.6848 17.7575 27.3476
11938 2 30.2651 17.7471 26.5332
11939 2 29.7901 18.6322 27.8207
11940 1 49.0885 22.401 81.8024
11941 2 49.1007 22.2676 82.7934
11942 2 49.4567 21.5877 81.352
11943 1 29.009 21.5368 69.8433
11944 2 29.3359 20.9626 70.5939
11945 2 28.4862 22.3044 70.2141
11946 1 73.7726 28.3917 82.0715
11947 2 74.2895 29.2477 82.0693
11948 2 72.8718 28.5452 81.6653
11949 1 26.6489 1.88789 72.8026
11950 2 26.5508 1.26247 73.5767
11951 2 25.7691 2.32341 72.6124
11952 1 7.0041 19.1596 40.6062
11953 2 6.57326 19.3006 41.4976
11954 2 6.79365 19.933 40.0082
11955 1 10.8875 15.7643 66.9823
11956 2 11.4597 15.6772 66.1668
11957 2 11.4369 15.5768 67.7965
11958 1 55.8507 27.4469 52.7756
11959 2 55.0062 27.9685 52.6545
11960 2 55.6276 26.5054 53.0281
11961 1 74.9624 17.6976 50.6303
11962 2 75.8459 17.9966 50.9909
11963 2 74.9017 17.9324 49.6601
11964 1 79.7198 14.5784 54.0551
11965 2 79.5698 15.4208 54.5727
11966 2 79.6102 14.7634 53.0785
11967 1 6.86029 23.8812 60.7781
11968 2 6.08146 23.2547 60.8082
11969 2 6.8433 24.4731 61.5839
11970 1 56.3314 16.7573 26.0545
11971 2 55.3634 16.5216 26.1408
11972 2 56.8149 16.0157 25.5896
11973 1 63.938 22.0221 80.6053
11974 2 64.0107 22.9319 80.1967
11975 2 63.1594 21.5383 80.2056
11976 1 75.2625 15.6965 81.3421
11977 2 75.04 14.7478 81.5671
11978 2 75.1095 16.2739 82.1441
11979 1 60.0476 0.983012 70.485
11980 2 59.5886 1.77566 70.8863
11981 2 60.9456 0.867594 70.9096
11982 1 41.903 16.9626 71.4785
11983 2 42.2566 17.6933 72.0624
11984 2 42.5703 16.2192 71.4338
11985 1 75.9433 24.4851 31.2762
11986 2 75.8816 25.3633 31.7505
11987 2 75.6327 24.5937 30.3319
11988 1 41.5456 17.5159 79.9454
11989 2 42.1059 18.3076 80.1891
11990 2 40.6564 17.585 80.3977
11991 1 57.5147 29.7704 37.294
11992 2 58.2847 29.5251 36.7049
11993 2 56.7958 29.0807 37.2072
11994 1 21.0578 22.7231 67.4285
11995 2 20.1721 22.9698 67.0352
11996 2 21.357 23.4434 68.0543
11997 1 55.9445 24.175 64.3338
11998 2 56.7657 24.3428 64.8793
11999 2 55.8472 23.1931 64.1713
12000 1 46.6437 22.8166 62.6168
12001 2 46.4657 23.7525 62.9208
12002 2 47.3394 22.8261 61.8985
12003 1 10.3056 6.05876 35.8937
12004 2 10.1704 5.11254 35.5997
12005 2 11.235 6.16889 36.2459
12006 1 46.8247 21.7167 28.7479
12007 2 46.486 21.4131 29.6385
12008 2 47.507 21.0675 28.4118
12009 1 20.5815 8.08283 42.9505
12010 2 20.5556 7.1234 42.6697
12011 2 21.3286 8.54877 42.4765
12012 1 25.4117 15.4773 60.9361
12013 2 25.4776 16.0273 60.1036
12014 2 26.1397 14.7917 60.9412
12015 1 45.9736 14.5851 54.776
12016 2 46.2375 14.0103 54.0014
12017 2 45.8757 15.5321 54.4702
12018 1 74.1794 10.705 75.9841
12019 2 74.915 10.3147 76.5378
12020 2 74.3904 10.581 75.0145
12021 1 31.927 11.3783 68.0165
12022 2 32.159 11.4917 67.0505
12023 2 30.9421 11.5007 68.1394
12024 1 22.4588 16.4487 58.167
12025 2 23.289 17.0028 58.2276
12026 2 22.4005 15.8472 58.9637
12027 1 50.5928 23.9731 85.2651
12028 2 49.9236 23.3243 85.6273
12029 2 50.58 23.9422 84.2657
12030 1 79.2876 9.58452 33.5541
12031 2 79.0198 10.5477 33.5301
12032 2 0.283144 9.51372 33.4925
12033 1 67.6814 15.8194 35.2688
12034 2 68.3087 16.571 35.0649
12035 2 66.9438 15.8084 34.5936
12036 1 79.645 19.2548 22.5763
12037 2 79.4202 18.2851 22.6726
12038 2 0.0294656 19.5946 23.4346
12039 1 0.789622 3.07472 41.9694
12040 2 0.195253 2.66249 41.2789
12041 2 1.1565 2.35895 42.5636
12042 1 38.8051 26.2699 49.9374
12043 2 38.4395 25.9168 50.7987
12044 2 39.581 26.8718 50.1265
12045 1 71.6821 19.131 13.4446
12046 2 72.5578 19.5588 13.6684
12047 2 71.8417 18.2078 13.0951
12048 1 57.0516 4.70905 85.4584
12049 2 57.7341 4.46015 86.1456
12050 2 57.2246 4.19788 84.6165
12051 1 63.371 14.2974 13.5957
12052 2 63.9104 13.8142 12.9061
12053 2 63.6669 14.0152 14.5083
12054 1 45.2098 12.6457 48.2447
12055 2 45.8983 12.9173 47.5723
12056 2 45.6375 12.0804 48.9501
12057 1 77.9323 6.68254 30.4557
12058 2 78.8973 6.45638 30.3229
12059 2 77.5072 5.99595 31.0455
12060 1 76.7541 10.3075 30.6124
12061 2 76.8925 10.2538 29.6235
12062 2 76.609 11.2608 30.8774
12063 1 41.899 5.16468 67.1635
12064 2 40.9923 4.81089 66.934
12065 2 42.0525 5.07528 68.1476
12066 1 55.0627 9.63173 49.9313
12067 2 55.0945 9.64082 50.9308
12068 2 54.9923 10.5696 49.5915
12069 1 78.5431 14.6643 23.5434
12070 2 79.0821 15.494 23.3981
12071 2 78.877 14.1881 24.3569
12072 1 47.8512 14.832 83.0653
12073 2 48.2068 14.9258 83.9953
12074 2 47.7105 15.7394 82.6692
12075 1 28.8238 27.4907 49.7574
12076 2 29.4468 28.1031 49.2706
12077 2 29.0124 26.5448 49.4935
12078 1 54.548 17.0388 54.5937
12079 2 53.9435 16.2591 54.7571
12080 2 54.158 17.6189 53.8786
12081 1 44.2783 3.8977 67.9157
12082 2 43.3566 3.86666 67.5292
12083 2 44.5179 2.99739 68.2791
12084 1 49.4877 17.0796 69.7439
12085 2 48.724 17.7116 69.8757
12086 2 49.485 16.3966 70.4743
12087 1 69.084 18.6768 79.0362
12088 2 68.3046 18.2211 78.6063
12089 2 69.2185 18.31 79.9567
12090 1 37.4704 3.19838 74.132
12091 2 36.8875 4.0057 74.224
12092 2 38.2161 3.24823 74.7964
12093 1 31.4756 5.68374 67.6963
12094 2 30.8371 6.37257 68.0395
12095 2 31.0599 4.77732 67.7708
12096 1 18.0678 2.674 84.1341
12097 2 17.0894 2.57827 83.9509
12098 2 18.1991 3.12171 85.0186
12099 1 35.2341 16.6491 29.6208
12100 2 34.68 17.2379 30.2093
12101 2 35.8701 17.2106 29.0915
12102 1 8.64715 19.9837 64.6844
12103 2 9.11833 20.4511 65.4324
12104 2 7.69104 20.2756 64.6587
12105 1 16.1117 7.26858 10.7346
12106 2 16.8688 6.77048 11.1574
12107 2 16.2192 8.24767 10.9073
12108 1 40.1513 7.22987 83.5451
12109 2 39.8811 8.05805 83.0541
12110 2 39.6441 7.17171 84.4049
12111 1 61.2922 21.2911 70.7306
12112 2 61.4624 21.5583 71.679
12113 2 61.8744 21.8308 70.1225
12114 1 65.3071 7.71364 84.0516
12115 2 64.6031 8.07823 83.4421
12116 2 65.5732 6.79996 83.7444
12117 1 61.7245 23.7246 86.0146
12118 2 62.2769 22.9276 86.2586
12119 2 61.9913 24.5022 86.584
12120 1 51.6682 1.52638 41.3178
12121 2 51.8166 0.633132 41.7422
12122 2 50.6927 1.65151 41.137
12123 1 64.341 20.0873 50.5687
12124 2 63.8795 20.9586 50.7354
12125 2 63.7144 19.3343 50.7699
12126 1 4.65973 23.0618 24.5639
12127 2 5.55865 23.2593 24.1727
12128 2 4.31096 23.8771 25.0261
12129 1 61.523 15.7791 90.2297
12130 2 62.2847 15.2282 89.8887
12131 2 60.7007 15.2127 90.2851
12132 1 4.63728 23.9115 41.138
12133 2 5.44392 23.6407 40.6126
12134 2 3.81758 23.5306 40.7102
12135 1 70.5614 15.7574 90.3784
12136 2 70.0912 16.3256 89.7032
12137 2 71.48 15.5393 90.0488
12138 1 68.9285 28.4465 88.4395
12139 2 69.001 29.2686 87.8747
12140 2 69.6869 27.8296 88.229
12141 1 26.7757 21.8957 85.6614
12142 2 27.5325 22.1263 85.0497
12143 2 25.9544 22.39 85.3765
12144 1 56.2501 24.3633 89.1268
12145 2 55.497 24.9569 89.4106
12146 2 55.8829 23.5606 88.6569
12147 1 36.0267 12.9479 70.1331
12148 2 35.5035 13.0577 70.9782
12149 2 36.8666 13.4879 70.1885
12150 1 49.6402 12.3396 78.3967
12151 2 50.0263 11.7596 79.114
12152 2 49.5505 13.2756 78.7372
12153 1 14.1243 18.2784 21.9877
12154 2 13.4743 19.021 22.1492
12155 2 14.4011 18.2808 21.0268
12156 1 67.9321 19.7943 25.9922
12157 2 67.3314 19.9913 25.2174
12158 2 67.3823 19.5001 26.774
12159 1 62.0209 1.37615 79.9809
12160 2 62.1436 1.11411 79.0237
12161 2 61.5486 0.642441 80.4694
12162 1 20.5263 7.565 88.4974
12163 2 20.5175 8.39844 89.0499
12164 2 21.4648 7.35803 88.2212
12165 1 49.7126 1.36662 74.9903
12166 2 50.1346 2.08943 75.5376
12167 2 50.4077 0.93516 74.4152
12168 1 41.1698 8.36858 67.3755
12169 2 41.3863 7.39339 67.3297
12170 2 41.3742 8.79715 66.4955
12171 1 73.6954 22.7259 79.571
12172 2 74.6792 22.7275 79.7499
12173 2 73.2924 23.5734 79.9164
12174 1 40.3306 0.263524 84.3719
12175 2 39.8106 0.00402722 85.1857
12176 2 41.1671 29.7177 84.3227
12177 1 44.0605 8.37965 66.951
12178 2 44.6204 7.82573 67.5672
12179 2 44.4047 9.31848 66.9412
12180 1 60.6072 26.9126 32.1634
12181 2 60.0795 27.2518 32.9422
12182 2 61.5828 27.0449 32.3389
12183 1 41.9124 1.40764 68.3883
12184 2 41.3433 1.93128 69.0223
12185 2 42.2495 0.584389 68.8451
12186 1 17.6877 12.9356 67.1863
12187 2 16.7298 13.1981 67.3024
12188 2 17.9398 12.2735 67.8921
12189 1 35.8314 28.8119 39.8818
12190 2 35.3527 28.7098 40.7538
12191 2 36.7204 29.2423 40.038
12192 1 68.5828 8.88748 43.7292
12193 2 68.2175 8.04975 43.3234
12194 2 68.0933 9.0877 44.5779
12195 1 23.2459 8.11055 63.0522
12196 2 23.0057 8.99506 62.6523
12197 2 23.9869 8.23343 63.7123
12198 1 68.8007 8.09911 11.5073
12199 2 69.079 8.8558 10.9157
12200 2 69.5993 7.54127 11.733
12201 1 58.1161 18.1227 34.0358
12202 2 57.6422 17.5161 33.3975
12203 2 57.8282 19.0667 33.8746
12204 1 77.3445 20.1576 72.9129
12205 2 77.5909 20.3728 71.9679
12206 2 77.9617 20.638 73.536
12207 1 75.2642 19.1807 53.6705
12208 2 74.8141 19.6662 54.42
12209 2 75.9588 18.5646 54.0421
12210 1 31.3124 24.7393 82.5382
12211 2 30.8599 23.908 82.861
12212 2 31.985 25.0372 83.2155
12213 1 64.1987 7.51371 32.9191
12214 2 64.2104 7.94276 32.0159
12215 2 64.6917 6.64448 32.8816
12216 1 48.1702 7.35356 40.7338
12217 2 48.8287 7.36401 39.9814
12218 2 47.2427 7.42077 40.366
12219 1 70.9157 11.0571 59.583
12220 2 71.296 10.1523 59.3916
12221 2 70.5421 11.0722 60.5105
12222 1 55.9769 4.01361 28.2638
12223 2 56.0333 3.03143 28.4431
12224 2 55.9446 4.17098 27.2768
12225 1 1.85078 22.1417 70.2454
12226 2 0.913539 22.3699 70.509
12227 2 2.45338 22.2414 71.0372
12228 1 68.2218 1.04242 35.6721
12229 2 67.9467 1.99173 35.8242
12230 2 67.7603 0.451551 36.3338
12231 1 41.1176 29.7862 63.8277
12232 2 41.8999 29.6447 63.221
12233 2 41.0595 29.0294 64.4787
12234 1 66.0719 0.876628 65.7686
12235 2 65.2543 0.388464 66.074
12236 2 66.3254 0.562358 64.8537
12237 1 66.9832 16.6601 73.8293
12238 2 66.5684 16.2811 74.6566
12239 2 66.4406 16.3942 73.0325
12240 1 67.1991 4.7733 48.2157
12241 2 68.1149 4.83822 48.6121
12242 2 66.57 4.38888 48.8913
12243 1 19.076 9.90455 55.2811
12244 2 18.5838 10.4126 54.5743
12245 2 18.5826 9.97649 56.1479
12246 1 71.6092 9.99074 18.5356
12247 2 72.1306 9.27332 18.9977
12248 2 70.8831 10.3174 19.1407
12249 1 50.0573 26.1521 47.7355
12250 2 49.0921 26.012 47.9563
12251 2 50.1446 26.4164 46.7751
12252 1 1.79615 2.3797 27.3422
12253 2 2.7085 2.34235 26.9345
12254 2 1.83725 2.04213 28.2826
12255 1 67.7129 2.74857 26.1755
12256 2 68.3595 3.50725 26.0958
12257 2 68.172 1.96125 26.5871
12258 1 32.1542 7.87465 87.7926
12259 2 33.1155 7.6268 87.9132
12260 2 32.0721 8.8691 87.7267
12261 1 57.3265 19.0831 31.5441
12262 2 56.3631 18.9256 31.3271
12263 2 57.4341 19.9948 31.9405
12264 1 10.6769 16.3618 45.0769
12265 2 10.5511 16.6949 46.0114
12266 2 11.6421 16.4324 44.825
12267 1 42.8102 5.26755 70.2607
12268 2 43.3088 5.52961 71.087
12269 2 43.2469 4.46861 69.8472
12270 1 31.7987 2.94223 47.8328
12271 2 32.7269 2.67986 48.0968
12272 2 31.1673 2.19807 48.0508
12273 1 52.9986 13.5072 52.9133
12274 2 52.5954 14.3179 52.4888
12275 2 53.9957 13.5802 52.8906
12276 1 50.427 17.5981 61.5981
12277 2 51.4109 17.7618 61.6701
12278 2 50.046 17.4507 62.5108
12279 1 73.6921 28.2115 71.8055
12280 2 72.7561 27.9275 71.5974
12281 2 74.2838 27.4063 71.8445
12282 1 4.53819 2.70962 40.8028
12283 2 3.96597 1.88965 40.817
12284 2 4.29838 3.29686 41.5758
12285 1 64.9911 28.8568 60.9355
12286 2 64.821 29.2839 61.8236
12287 2 65.952 28.9773 60.6863
12288 1 31.8746 21.5951 29.7292
12289 2 32.3943 22.4058 29.9988
12290 2 31.5633 21.1115 30.5473
12291 1 1.65272 19.7555 33.2799
12292 2 1.56921 20.7201 33.0298
12293 2 2.37508 19.6497 33.9633
12294 1 47.4204 8.63575 36.7921
12295 2 47.1573 9.4166 37.3586
12296 2 48.2044 8.17287 37.2058
12297 1 74.5249 23.3849 18.4342
12298 2 75.3052 23.1117 17.8716
12299 2 74.0657 22.5692 18.786
12300 1 72.2411 16.7685 46.0587
12301 2 71.6851 16.2131 46.6771
12302 2 72.8166 17.3875 46.5931
12303 1 68.3536 27.9556 64.6229
12304 2 67.9287 28.738 64.1675
12305 2 69.3393 27.9669 64.4547
12306 1 2.49173 6.61438 32.836
12307 2 1.60004 7.02862 32.6536
12308 2 2.37561 5.82561 33.4397
12309 1 78.85 26.7441 19.5127
12310 2 78.3872 26.5429 20.376
12311 2 78.9085 25.9103 18.9637
12312 1 50.235 19.3583 76.6484
12313 2 50.8638 18.5963 76.4937
12314 2 50.1473 19.5239 77.6306
12315 1 40.3982 7.22425 60.2315
12316 2 40.8566 6.83415 59.433
12317 2 40.9594 7.95928 60.612
12318 1 5.01372 6.8757 85.8369
12319 2 5.49388 7.30373 86.6025
12320 2 5.11166 7.44602 85.0213
12321 1 38.4894 19.2589 36.1066
12322 2 38.1267 18.4487 35.6461
12323 2 38.0815 20.0799 35.7072
12324 1 75.5284 25.957 72.396
12325 2 75.8314 25.609 73.2832
12326 2 75.0719 25.2256 71.8894
12327 1 37.1552 22.6473 64.811
12328 2 37.8 23.3599 64.5344
12329 2 37.6385 21.7761 64.8979
12330 1 63.4237 14.3901 89.1586
12331 2 62.8151 14.0398 88.4467
12332 2 64.2462 13.823 89.2027
12333 1 75.1946 9.4356 32.8089
12334 2 75.1023 10.0724 33.5744
12335 2 76.0703 9.58924 32.3512
12336 1 57.9788 5.77877 28.8731
12337 2 57.3642 5.12874 28.4261
12338 2 58.6 5.28552 29.482
12339 1 52.7048 1.2913 52.6973
12340 2 53.0938 0.47037 52.2792
12341 2 51.7397 1.36763 52.4468
12342 1 72.5791 15.3757 88.2982
12343 2 71.8338 16.0255 88.1486
12344 2 73.3985 15.6927 87.8205
12345 1 40.1988 22.5635 52.1731
12346 2 40.6277 22.6021 51.2706
12347 2 40.7178 23.13 52.8132
12348 1 3.28396 17.5645 39.1062
12349 2 2.8506 17.6506 40.0033
12350 2 3.35891 16.5973 38.8637
12351 1 27.3679 19.1173 31.0444
12352 2 27.1062 19.3876 31.9709
12353 2 28.3493 19.2628 30.9194
12354 1 56.7591 0.577291 20.2449
12355 2 56.347 0.280712 21.1064
12356 2 57.7336 0.753087 20.3847
12357 1 48.9024 12.0095 43.053
12358 2 49.332 11.1605 43.3607
12359 2 48.4556 11.8565 42.1716
12360 1 26.3053 25.7278 79.0714
12361 2 25.5459 25.0834 78.9816
12362 2 25.9465 26.6592 79.1325
12363 1 47.521 19.865 67.2231
12364 2 47.9212 19.7746 68.135
12365 2 46.6727 19.3374 67.1775
12366 1 69.6376 11.8826 67.4517
12367 2 70.1621 11.4334 68.175
12368 2 68.7502 12.1696 67.8125
12369 1 1.0931 19.3957 26.9694
12370 2 0.601148 20.1905 27.3248
12371 2 1.9049 19.2287 27.529
12372 1 27.7953 1.17561 35.5195
12373 2 27.9774 0.385056 34.9348
12374 2 28.6293 1.42559 36.0114
12375 1 75.0308 25.0456 78.203
12376 2 74.37 25.3242 78.8999
12377 2 75.7624 24.5147 78.6306
12378 1 69.1145 6.2811 27.1378
12379 2 68.9685 5.79829 28.0013
12380 2 69.36 5.62346 26.4256
12381 1 48.1647 0.716544 80.4299
12382 2 47.5596 1.23366 79.8246
12383 2 49.1064 0.789558 80.1016
12384 1 59.6677 3.30301 18.3455
12385 2 59.1849 2.49438 18.6816
12386 2 59.8308 3.2096 17.3633
12387 1 17.3778 19.8553 11.9867
12388 2 17.912 19.2491 11.3975
12389 2 17.245 19.4218 12.878
12390 1 6.08961 10.4458 79.9611
12391 2 6.03844 9.45567 79.8305
12392 2 6.95337 10.7867 79.5901
12393 1 58.8013 12.5786 87.1059
12394 2 58.4941 11.7509 86.6363
12395 2 59.0795 13.2614 86.4304
12396 1 35.0589 6.97766 70.0199
12397 2 34.0899 6.93066 70.2623
12398 2 35.2809 7.90273 69.7117
12399 1 63.2448 24.4139 20.6334
12400 2 63.2976 25.2817 21.1274
12401 2 63.677 24.5137 19.7372
12402 1 9.48726 19.4567 42.0794
12403 2 9.67335 19.3226 43.0527
12404 2 8.49888 19.4787 41.9289
12405 1 79.3512 25.9311 62.3784
12406 2 0.169595 25.8674 62.9495
12407 2 78.6633 25.2847 62.7086
12408 1 14.2496 11.7335 45.7415
12409 2 13.7872 11.001 45.2419
12410 2 13.5904 12.4508 45.9672
12411 1 52.5478 3.06346 34.5936
12412 2 52.4648 2.40631 35.3428
12413 2 52.2428 3.96364 34.9045
12414 1 1.54584 25.1907 63.8436
12415 2 1.66306 26.1794 63.9369
12416 2 2.15767 24.721 64.4801
12417 1 54.5904 18.4006 31.0532
12418 2 54.639 17.5161 31.5173
12419 2 53.9007 18.9725 31.4973
12420 1 6.77533 26.5867 10.6208
12421 2 7.44901 27.3158 10.5003
12422 2 7.09043 25.9555 11.3296
12423 1 49.9952 27.0525 41.5374
12424 2 50.0162 26.9731 40.5408
12425 2 50.6191 26.3818 41.9385
12426 1 30.0894 29.4566 87.9241
12427 2 30.1247 0.413539 87.6361
12428 2 29.1567 29.1113 87.8198
12429 1 28.8665 1.88253 53.2289
12430 2 29.0999 1.01359 52.7924
12431 2 29.6297 2.52103 53.1295
12432 1 11.2805 5.9173 47.1908
12433 2 10.8928 6.81892 46.999
12434 2 10.5415 5.26831 47.3715
12435 1 55.9731 0.330182 23.0977
12436 2 56.7858 0.78432 23.4627
12437 2 55.2012 0.481278 23.7152
12438 1 53.6341 24.2369 60.5073
12439 2 53.166 23.4317 60.8713
12440 2 53.694 24.9374 61.2184
12441 1 59.5809 24.4174 72.9059
12442 2 60.0313 25.2262 73.284
12443 2 59.4104 23.758 73.638
12444 1 22.9456 15.0774 85.3087
12445 2 23.0448 15.5984 86.1564
12446 2 22.1205 15.3756 84.8288
12447 1 26.1572 3.14689 51.6327
12448 2 26.7672 3.9376 51.6841
12449 2 25.5388 3.15138 52.4185
12450 1 38.0373 11.1429 60.1332
12451 2 37.4471 11.4458 60.8815
12452 2 38.4177 11.9404 59.6649
12453 1 59.4574 8.34611 90.8424
12454 2 58.4932 8.16803 90.6462
12455 2 59.6125 9.33318 90.883
12456 1 45.0485 9.74958 62.0187
12457 2 44.8132 10.6091 62.4725
12458 2 44.2653 9.12885 62.0537
12459 1 54.0112 7.78517 43.304
12460 2 53.8034 7.73546 44.2809
12461 2 54.4333 6.92802 43.009
12462 1 35.7508 13.6217 29.9107
12463 2 35.5508 14.599 29.8396
12464 2 35.4777 13.1632 29.065
12465 1 64.4152 20.8601 22.2415
12466 2 64.5895 21.219 23.1585
12467 2 63.5077 21.1496 21.9372
12468 1 39.6 19.0422 47.2997
12469 2 39.4407 20.0247 47.3972
12470 2 39.4509 18.7732 46.3482
12471 1 26.0887 1.26891 40.3257
12472 2 26.663 0.904399 41.0587
12473 2 26.4246 2.17158 40.0567
12474 1 72.0771 22.0878 88.4758
12475 2 71.3026 22.6774 88.705
12476 2 71.8263 21.1324 88.6319
12477 1 19.5354 5.25372 40.1064
12478 2 20.5281 5.35878 40.047
12479 2 19.2965 4.28707 40.0142
12480 1 68.0872 13.1498 11.2522
12481 2 68.1437 14.0597 11.6632
12482 2 67.1393 12.9568 10.9988
12483 1 37.378 1.97708 34.7646
12484 2 37.4624 1.2311 34.104
12485 2 36.4324 2.30201 34.7813
12486 1 21.1007 18.6899 76.285
12487 2 21.0099 18.1458 77.1191
12488 2 22.0607 18.7147 76.0061
12489 1 14.0651 1.93217 59.5191
12490 2 14.8443 1.30807 59.5769
12491 2 14.2799 2.77937 60.005
12492 1 66.4174 28.5337 75.7064
12493 2 66.6566 27.9163 76.4558
12494 2 66.8668 28.2287 74.8668
12495 1 31.6264 1.17013 82.2523
12496 2 32.6187 1.16364 82.3765
12497 2 31.2319 0.355943 82.6783
12498 1 21.9603 17.3086 63.9099
12499 2 22.2052 16.9078 63.0271
12500 2 21.8728 18.3001 63.813
12501 1 40.2816 9.41197 58.1971
12502 2 39.8984 9.29627 59.1134
12503 2 41.1421 9.91791 58.257
12504 1 9.10887 20.5413 57.2012
12505 2 8.12923 20.3661 57.1032
12506 2 9.61942 19.7082 56.9883
12507 1 17.9122 5.41639 91.0821
12508 2 17.1079 5.61488 90.5221
12509 2 18.7281 5.41197 90.5039
12510 1 43.3654 13.9997 56.0503
12511 2 44.131 14.1451 55.4237
12512 2 43.6685 14.1596 56.9898
12513 1 13.3303 19.6448 79.9902
12514 2 13.1479 20.4659 79.4494
12515 2 13.9007 19.0169 79.4608
12516 1 20.6532 26.3049 15.4329
12517 2 20.3893 26.6332 14.5259
12518 2 21.278 26.961 15.8561
12519 1 63.702 9.49028 44.5998
12520 2 63.9634 10.3802 44.226
12521 2 62.7134 9.46872 44.7488
12522 1 51.6234 6.72866 40.7618
12523 2 51.2845 6.03815 40.1228
12524 2 52.54 6.47518 41.0711
12525 1 19.1848 15.9606 78.375
12526 2 19.9139 15.357 78.6975
12527 2 18.3228 15.7055 78.813
12528 1 21.6452 8.57015 79.6173
12529 2 21.4928 9.45732 79.1817
12530 2 21.0168 7.89596 79.2291
12531 1 49.236 0.555176 43.3017
12532 2 50.1236 0.13853 43.4982
12533 2 48.8768 0.981302 44.132
12534 1 43.396 12.0399 86.2295
12535 2 42.9148 12.7055 86.7999
12536 2 43.4127 11.1539 86.6931
12537 1 33.4733 22.1302 47.8425
12538 2 33.7509 22.2649 48.7937
12539 2 34.2864 22.0613 47.2645
12540 1 44.5597 12.5647 41.7311
12541 2 44.0626 11.7297 41.9671
12542 2 45.0636 12.4231 40.879
12543 1 23.43 17.3238 48.8247
12544 2 23.136 16.8801 49.6713
12545 2 24.0617 16.7227 48.3352
12546 1 77.3884 28.1397 84.2461
12547 2 77.3479 27.1807 84.5265
12548 2 77.3355 28.7259 85.0545
12549 1 12.5733 16.838 61.4135
12550 2 12.5533 15.9079 61.7803
12551 2 13.497 17.051 61.0952
12552 1 76.8436 25.3842 74.6404
12553 2 77.7863 25.3302 74.3112
12554 2 76.5966 24.5239 75.0865
12555 1 64.3401 28.8513 29.8062
12556 2 65.2638 28.7022 30.159
12557 2 63.6722 28.633 30.5177
12558 1 44.0489 24.7704 65.5616
12559 2 44.0228 24.7928 64.5621
12560 2 44.9019 25.1822 65.882
12561 1 78.0469 12.6026 80.1641
12562 2 77.3394 11.9432 80.4184
12563 2 78.6316 12.2076 79.4556
12564 1 18.3815 29.6565 53.6129
12565 2 19.2845 29.4538 53.9916
12566 2 18.3359 0.622582 53.3586
12567 1 21.1346 1.86933 90.2339
12568 2 20.7217 1.02784 90.5823
12569 2 20.4171 2.47544 89.8907
12570 1 26.7003 28.8544 46.0186
12571 2 27.5752 28.4042 45.8402
12572 2 25.9885 28.1628 46.1413
12573 1 62.5751 11.7516 52.7519
12574 2 62.8831 12.6344 52.397
12575 2 61.601 11.6359 52.558
12576 1 15.9945 1.3495 20.7041
12577 2 15.1615 1.36742 21.257
12578 2 16.6316 0.67816 21.0828
12579 1 5.68857 7.78355 21.5813
12580 2 6.51472 7.81054 21.0184
12581 2 5.38794 6.83566 21.6867
12582 1 34.4525 4.06839 57.2394
12583 2 33.5245 4.32969 57.5051
12584 2 34.8868 4.82776 56.755
12585 1 16.6672 21.8577 59.0723
12586 2 17.6043 21.5329 59.2006
12587 2 16.4092 22.4432 59.8408
12588 1 35.1091 15.8864 64.478
12589 2 34.9439 14.9035 64.5585
12590 2 34.2455 16.3555 64.2933
12591 1 79.4336 6.2422 11.1166
12592 2 79.3074 6.27072 12.1081
12593 2 0.288409 6.70211 10.876
12594 1 28.8052 27.5515 35.7481
12595 2 29.5575 27.1609 35.2175
12596 2 28.4204 26.8495 36.3474
12597 1 64.2661 0.780279 21.9833
12598 2 64.3026 0.906766 22.9746
12599 2 63.5065 1.31095 21.6073
12600 1 69.1659 15.4654 51.0036
12601 2 69.462 14.7126 50.4157
12602 2 68.5132 16.0384 50.5081
12603 1 22.5659 20.4424 67.3183
12604 2 21.8218 19.7752 67.3515
12605 2 22.1856 21.3671 67.3378
12606 1 20.8369 9.99633 53.0413
12607 2 20.4106 9.631 53.8689
12608 2 20.1811 10.5744 52.5559
12609 1 27.5757 7.51768 32.4154
12610 2 27.2653 7.24623 31.5043
12611 2 28.3918 6.99384 32.6592
12612 1 25.4206 0.246021 43.6045
12613 2 25.6798 29.6993 44.4007
12614 2 26.1772 0.262367 42.9508
12615 1 42.4602 1.78575 41.3684
12616 2 43.1801 2.26201 40.8635
12617 2 41.5662 2.06957 41.0215
12618 1 30.0859 20.0727 44.7748
12619 2 30.5164 19.2749 45.197
12620 2 29.0928 20.0051 44.8701
12621 1 68.8675 12.5346 58.2062
12622 2 69.6832 12.0095 57.9636
12623 2 68.7387 12.5112 59.1976
12624 1 9.18864 28.8778 41.4117
12625 2 9.39478 29.0387 42.3769
12626 2 8.19807 28.8196 41.2876
12627 1 7.82637 7.6558 77.0015
12628 2 7.57086 6.69884 76.8639
12629 2 7.87108 7.8513 77.9812
12630 1 14.0786 26.0717 30.8896
12631 2 13.6535 26.2002 29.9936
12632 2 15.0672 26.1996 30.811
12633 1 73.5138 19.8045 59.0554
12634 2 73.5294 18.9556 59.5837
12635 2 73.2651 20.5655 59.6546
12636 1 22.5579 20.6295 72.1875
12637 2 22.0738 20.6743 73.0613
12638 2 23.5437 20.6053 72.3534
12639 1 13.1692 26.6012 70.0751
12640 2 14.0437 26.964 69.7531
12641 2 13.1081 26.7106 71.0672
12642 1 74.1274 19.274 42.3358
12643 2 73.53 19.944 41.8952
12644 2 73.8425 19.1472 43.2859
12645 1 16.9582 8.44121 21.4613
12646 2 16.2813 9.17693 21.4841
12647 2 16.5193 7.57674 21.7064
12648 1 9.80757 27.6969 65.3062
12649 2 10.3142 26.8524 65.1324
12650 2 8.86682 27.5937 64.9832
12651 1 74.1596 7.31494 21.2122
12652 2 73.2677 7.76634 21.185
12653 2 74.7992 7.80454 20.6195
12654 1 63.0545 3.8746 25.0102
12655 2 62.3717 4.54057 25.3106
12656 2 62.607 3.00045 24.8215
12657 1 48.4936 13.3805 69.3015
12658 2 48.7409 14.308 69.0213
12659 2 49.1807 12.7364 68.9655
12660 1 71.372 22.4624 73.0701
12661 2 72.2773 22.1689 73.3772
12662 2 70.8802 22.8806 73.8338
12663 1 55.5093 2.38556 78.4369
12664 2 55.486 3.32532 78.778
12665 2 54.872 1.8237 78.9644
12666 1 33.1815 24.6168 87.6751
12667 2 34.1395 24.3455 87.7679
12668 2 32.7733 24.1382 86.8977
12669 1 20.0918 1.48319 60.8474
12670 2 21.0164 1.80664 61.0487
12671 2 19.9751 0.559334 61.2119
12672 1 16.9483 13.117 72.79
12673 2 16.2578 13.8398 72.8166
12674 2 16.7181 12.4112 73.46
12675 1 18.3025 18.7846 42.765
12676 2 18.09 19.1091 43.6867
12677 2 19.2942 18.7692 42.6374
12678 1 47.6338 10.6984 88.4951
12679 2 47.5925 11.697 88.4626
12680 2 46.8178 10.3458 88.953
12681 1 35.9468 2.99392 32.0071
12682 2 36.5617 2.39537 31.4936
12683 2 35.1658 2.46441 32.3382
12684 1 33.6813 15.2646 75.8655
12685 2 32.8525 15.2881 76.4245
12686 2 34.2076 16.1017 76.0143
12687 1 14.2164 2.62949 39.6622
12688 2 14.8465 2.04798 39.1475
12689 2 14.3855 3.58821 39.4335
12690 1 72.9334 19.3976 52.3497
12691 2 73.8562 19.0206 52.2713
12692 2 72.8179 19.8114 53.2527
12693 1 73.6751 18.386 67.8536
12694 2 73.1352 19.2045 67.6575
12695 2 74.0945 18.0531 67.009
12696 1 46.0438 22.7912 65.905
12697 2 46.8163 23.3576 66.192
12698 2 45.1945 23.309 66.008
12699 1 50.9109 19.3161 40.1007
12700 2 50.3351 20.1015 39.8738
12701 2 51.8723 19.5903 40.0792
12702 1 65.8945 20.2433 20.1157
12703 2 65.3442 20.5517 20.8916
12704 2 66.0371 21.0055 19.4843
12705 1 47.6061 1.82312 54.4894
12706 2 47.0059 1.39584 55.1656
12707 2 48.5249 1.43645 54.5677
12708 1 50.5142 9.4671 35.6905
12709 2 50.5648 8.77806 36.4135
12710 2 49.5773 9.51965 35.3451
12711 1 39.2044 22.9525 86.0601
12712 2 38.6092 23.6746 86.4127
12713 2 39.7287 23.3022 85.2837
12714 1 28.6236 14.8958 85.8636
12715 2 29.5318 15.2978 85.9801
12716 2 28.11 15.4233 85.1869
12717 1 40.8737 19.2896 73.634
12718 2 40.0663 18.7218 73.7948
12719 2 41.2346 19.6112 74.5094
12720 1 72.3855 27.6888 77.7598
12721 2 72.8038 26.8418 78.0879
12722 2 72.9485 28.4675 78.0365
12723 1 22.0308 29.0335 74.9736
12724 2 21.1211 28.8944 75.3647
12725 2 21.9691 29.0265 73.9755
12726 1 69.7716 28.8298 71.0279
12727 2 69.8029 28.5443 71.9858
12728 2 70.4504 28.315 70.5043
12729 1 30.543 10.1584 39.2235
12730 2 29.9858 10.9367 38.934
12731 2 30.0437 9.30906 39.0526
12732 1 43.407 20.2989 43.7555
12733 2 42.803 19.565 44.0664
12734 2 43.2067 21.1346 44.2668
12735 1 15.2588 20.7519 23.5328
12736 2 16.1167 20.7796 24.0458
12737 2 15.4545 20.6008 22.5638
12738 1 57.4854 12.6863 47.6015
12739 2 56.6385 12.5068 48.102
12740 2 58.2228 12.1293 47.9834
12741 1 41.6667 29.3433 56.5992
12742 2 42.4949 28.9108 56.2427
12743 2 41.916 0.152073 57.1319
12744 1 22.0509 13.3738 44.2004
12745 2 22.6883 14.1257 44.369
12746 2 22.5476 12.506 44.2159
12747 1 13.5805 20.4926 59.2088
12748 2 13.9433 20.6666 60.1243
12749 2 13.2048 21.3396 58.8326
12750 1 61.905 2.87994 90.9136
12751 2 62.5011 3.59625 90.5509
12752 2 61.8881 2.9342 91.912
12753 1 32.8168 10.2889 48.8393
12754 2 32.9303 11.276 48.9524
12755 2 31.8545 10.0821 48.6624
12756 1 10.9714 10.5734 48.3692
12757 2 10.2247 10.5043 49.0308
12758 2 11.522 11.3834 48.5715
12759 1 79.833 22.4231 60.309
12760 2 79.2796 21.8722 60.9337
12761 2 79.3053 23.2176 60.0086
12762 1 45.0736 16.5179 51.4451
12763 2 44.6092 17.0974 52.1149
12764 2 45.9104 16.9702 51.1363
12765 1 14.8874 29.0546 29.3927
12766 2 15.7201 28.543 29.181
12767 2 14.2598 29.006 28.6157
12768 1 56.6252 27.2048 66.6365
12769 2 56.6369 26.2306 66.8622
12770 2 56.2046 27.3338 65.7385
12771 1 60.6468 5.55032 84.8672
12772 2 60.5369 5.89918 83.9364
12773 2 61.6143 5.36798 85.0427
12774 1 29.6829 19.5853 38.408
12775 2 29.5831 19.437 37.4241
12776 2 28.8895 19.2065 38.8843
12777 1 8.38405 15.1481 47.8677
12778 2 8.44521 15.5186 48.7945
12779 2 8.87434 15.7484 47.2357
12780 1 48.1169 12.6049 32.6928
12781 2 48.0469 13.3521 33.3538
12782 2 47.2137 12.1998 32.5508
12783 1 50.1161 20.2297 79.4798
12784 2 49.9914 21.0389 78.9058
12785 2 50.9223 20.3526 80.0586
12786 1 74.5142 6.72453 61.156
12787 2 75.2674 6.18449 60.7805
12788 2 74.7711 7.07311 62.0574
12789 1 67.0241 19.6232 80.9257
12790 2 67.6575 19.4807 80.1651
12791 2 67.3529 19.1286 81.7302
12792 1 54.914 15.768 66.5365
12793 2 55.612 15.4353 67.1706
12794 2 54.5941 16.6672 66.8348
12795 1 67.8142 4.10578 36.1178
12796 2 68.4196 4.437 36.8416
12797 2 66.9699 4.64164 36.1182
12798 1 23.3405 24.7962 23.9776
12799 2 23.7162 24.7499 24.9032
12800 2 22.4472 24.3472 23.9577
12801 1 77.5385 19.7753 81.5763
12802 2 77.4244 18.8135 81.825
12803 2 76.6412 20.1877 81.4188
12804 1 46.1328 22.015 80.5094
12805 2 45.5655 22.6985 80.9687
12806 2 46.9546 22.4538 80.1459
12807 1 35.8511 25.9128 57.9495
12808 2 36.2436 25.1839 57.3885
12809 2 36.0934 26.801 57.5591
12810 1 25.1038 17.0076 43.8763
12811 2 24.7083 16.7523 44.7585
12812 2 25.9414 16.4835 43.7223
12813 1 2.79136 16.8099 42.7611
12814 2 3.14157 17.7313 42.9298
12815 2 1.79624 16.8083 42.8598
12816 1 35.5965 1.97242 59.8267
12817 2 35.7236 1.60118 60.7465
12818 2 34.6872 1.72663 59.4908
12819 1 79.8232 16.7276 26.7402
12820 2 0.42941 17.458 27.0549
12821 2 0.332499 15.8682 26.6946
12822 1 54.9899 0.885533 35.2372
12823 2 55.7085 0.59899 35.8708
12824 2 54.1061 0.866157 35.7047
12825 1 23.7231 27.2995 53.3913
12826 2 23.9337 28.2044 53.761
12827 2 24.3513 26.6259 53.7806
12828 1 59.9002 17.4623 70.7212
12829 2 59.4604 17.3699 71.6145
12830 2 59.6536 18.3435 70.3178
12831 1 31.297 5.41617 90.7289
12832 2 31.7776 5.3423 89.855
12833 2 31.0316 4.50412 91.0414
12834 1 43.9339 16.0901 87.1206
12835 2 44.2093 15.4528 86.4009
12836 2 44.3178 16.9937 86.9304
12837 1 47.6696 17.3873 61.2098
12838 2 47.3083 18.3068 61.0548
12839 2 48.3652 17.182 60.5213
12840 1 10.6224 25.8346 10.3696
12841 2 11.5073 25.7179 10.8206
12842 2 10.0373 26.4206 10.9302
12843 1 59.7169 25.4235 16.0338
12844 2 59.9242 25.7895 15.1266
12845 2 60.5664 25.3065 16.5482
12846 1 31.4464 12.6243 36.8975
12847 2 31.362 13.387 37.5387
12848 2 31.9171 11.8636 37.3445
12849 1 4.33939 24.8767 65.676
12850 2 5.24649 25.1991 65.9466
12851 2 3.67025 25.1432 66.3697
12852 1 43.5468 22.5962 69.8207
12853 2 44.3566 22.4364 69.2561
12854 2 43.8292 22.8066 70.7566
12855 1 7.6525 28.3636 38.4702
12856 2 7.93893 28.541 37.5287
12857 2 7.38937 29.2241 38.9064
12858 1 73.5614 4.56188 27.1215
12859 2 72.8394 3.89078 26.9531
12860 2 74.4543 4.12217 27.0248
12861 1 69.4613 25.936 36.0122
12862 2 69.3831 24.9452 36.1224
12863 2 70.1064 26.2964 36.686
12864 1 36.2188 1.81084 40.8954
12865 2 35.9813 2.78124 40.8514
12866 2 35.3821 1.26397 40.9256
12867 1 27.6893 25.4725 27.8965
12868 2 27.5063 26.3931 27.5514
12869 2 27.5136 24.8045 27.1734
12870 1 47.8495 12.5774 76.3566
12871 2 48.8078 12.4992 76.6314
12872 2 47.627 13.5386 76.1933
12873 1 20.4193 15.0589 33.1339
12874 2 21.0408 15.1259 32.3533
12875 2 19.8582 14.2361 33.0436
12876 1 27.8683 20.7258 60.4273
12877 2 27.4291 21.289 61.1272
12878 2 28.8171 20.5487 60.6889
12879 1 30.5297 29.6005 84.079
12880 2 30.3148 0.237078 84.8196
12881 2 31.3204 29.0448 84.336
12882 1 76.086 5.63939 67.4114
12883 2 77.0575 5.41236 67.343
12884 2 75.8819 5.95508 68.3381
12885 1 38.4931 12.1776 74.7106
12886 2 39.2668 11.7686 75.1945
12887 2 38.1583 12.9674 75.2245
12888 1 30.5009 25.5 60.0299
12889 2 30.1978 25.7519 59.1108
12890 2 30.6027 24.5068 60.0867
12891 1 77.0171 5.86286 56.453
12892 2 77.8708 5.59181 56.8975
12893 2 76.2594 5.76448 57.0982
12894 1 78.922 4.85048 39.7099
12895 2 79.4037 5.24745 38.9287
12896 2 78.6828 5.57449 40.3569
12897 1 4.38006 23.3304 78.7689
12898 2 3.56677 23.249 79.345
12899 2 4.56567 24.2964 78.5889
12900 1 16.0877 22.5837 83.0233
12901 2 15.1837 22.1591 83.0737
12902 2 16.5685 22.4478 83.8895
12903 1 7.17957 2.47698 77.7773
12904 2 7.63863 2.0303 78.5452
12905 2 6.34209 1.9783 77.5538
12906 1 52.0366 18.3372 56.8692
12907 2 52.8432 18.3394 56.278
12908 2 51.7893 19.2784 57.0992
12909 1 59.4352 20.012 73.8732
12910 2 59.8164 19.6385 74.7189
12911 2 60.1185 20.5891 73.4259
12912 1 21.6981 1.38791 24.6848
12913 2 22.5118 0.930487 24.326
12914 2 21.8124 2.37854 24.6099
12915 1 13.4395 16.9687 27.112
12916 2 13.4692 16.4068 26.2853
12917 2 12.7958 17.7224 26.9798
12918 1 69.0161 6.63413 66.6543
12919 2 68.7005 7.49999 67.0424
12920 2 69.4943 6.80929 65.7936
12921 1 43.9782 4.05038 55.7316
12922 2 44.1763 3.44168 54.9634
12923 2 43.0571 3.86555 56.0744
12924 1 31.0086 4.08936 86.1549
12925 2 30.0937 4.17928 86.5486
12926 2 31.6942 4.24397 86.8662
12927 1 16.4301 1.33497 40.4716
12928 2 15.4877 1.26694 40.7994
12929 2 16.4394 1.29197 39.4726
12930 1 18.758 0.960202 23.1976
12931 2 19.6458 0.925763 23.6567
12932 2 18.896 1.06168 22.2124
12933 1 68.0114 21.8039 90.2998
12934 2 68.3564 22.616 89.8292
12935 2 67.9746 21.9793 91.2836
12936 1 20.0251 25.5553 73.9802
12937 2 20.9274 25.7057 73.5762
12938 2 20.0854 25.6473 74.9741
12939 1 36.7571 20.1543 68.9484
12940 2 37.2165 20.0157 69.8257
12941 2 35.9829 19.5256 68.8745
12942 1 65.325 27.5402 81.0327
12943 2 66.0017 27.3761 80.3149
12944 2 64.802 26.7035 81.1952
12945 1 1.36132 16.1873 62.4866
12946 2 0.893148 16.7305 63.1835
12947 2 1.23831 16.616 61.5916
12948 1 41.1981 5.1324 45.2332
12949 2 40.6066 5.64682 45.8541
12950 2 41.5182 4.30201 45.6893
12951 1 26.0862 29.7373 51.9576
12952 2 26.6444 0.517537 52.2397
12953 2 25.3786 29.5682 52.6437
12954 1 53.7993 25.5966 54.7151
12955 2 53.0361 25.1214 55.1528
12956 2 53.4519 26.1792 53.9803
12957 1 71.3192 28.8774 64.7035
12958 2 71.5744 27.9646 65.0226
12959 2 72.1287 29.4643 64.6908
12960 1 21.0107 11.7109 72.3544
12961 2 20.8385 11.6054 73.3338
12962 2 20.2307 11.3564 71.8387
12963 1 13.9671 1.08591 42.9069
12964 2 14.1221 0.83249 43.8618
12965 2 14.0702 2.07521 42.8037
12966 1 78.2001 1.43058 84.0311
12967 2 78.1876 0.703261 83.3449
12968 2 79.1329 1.55302 84.3701
12969 1 70.8937 23.2302 60.1354
12970 2 70.3888 23.4354 59.2969
12971 2 70.562 23.815 60.8757
12972 1 8.24847 16.6052 73.3715
12973 2 8.96832 17.2793 73.2061
12974 2 8.51612 16.011 74.13
12975 1 77.1652 25.6595 90.1205
12976 2 76.1736 25.5544 90.0447
12977 2 77.6039 24.7671 90.0149
12978 1 29.0329 3.71028 65.6829
12979 2 28.944 3.43218 66.6394
12980 2 28.1524 4.04845 65.3509
12981 1 55.7517 17.4094 86.4231
12982 2 54.9656 16.7944 86.4859
12983 2 55.903 17.6603 85.467
12984 1 31.3266 3.67589 64.2272
12985 2 31.0484 4.11174 63.3713
12986 2 30.892 4.14432 64.9964
12987 1 73.0524 29.9756 69.712
12988 2 73.5069 29.5669 70.5034
12989 2 72.5202 0.769374 70.0065
12990 1 2.6102 8.07125 14.7716
12991 2 1.79537 8.64709 14.8385
12992 2 3.12736 8.12503 15.6258
12993 1 45.1127 8.3586 71.0324
12994 2 45.6738 8.18703 70.2226
12995 2 45.629 8.11506 71.8534
12996 1 72.8121 9.54271 72.8331
12997 2 71.9813 9.0049 72.9767
12998 2 73.5464 9.18155 73.4079
12999 1 35.8185 22.321 46.5144
13000 2 36.7428 21.9395 46.4981
13001 2 35.465 22.3779 45.5807
13002 1 26.1652 7.67971 73.7608
13003 2 26.1351 7.36776 72.8112
13004 2 26.9016 7.20624 74.244
13005 1 75.0629 9.97481 10.7435
13006 2 75.0627 10.3261 9.80721
13007 2 75.0445 10.7403 11.3867
13008 1 13.5349 29.6405 51.4732
13009 2 13.4419 0.388817 52.1299
13010 2 14.1482 29.9197 50.7343
13011 1 47.2333 16.6845 41.7607
13012 2 46.618 17.4321 42.0109
13013 2 46.8136 16.1352 41.0381
13014 1 44.2923 11.8272 63.3906
13015 2 44.2048 12.3572 64.2341
13016 2 44.4776 12.4451 62.6265
13017 1 59.522 3.6919 70.9484
13018 2 58.6476 3.98867 70.5647
13019 2 59.4256 3.56038 71.935
13020 1 65.6377 21.5634 28.6485
13021 2 66.2325 22.2678 28.2612
13022 2 65.8782 20.6738 28.2603
13023 1 27.4149 18.3302 39.9909
13024 2 26.9779 19.0913 40.4702
13025 2 27.9761 17.8093 40.6342
13026 1 72.9594 1.525 44.6419
13027 2 72.3505 1.77852 45.3936
13028 2 73.5104 0.735079 44.9112
13029 1 8.82349 28.0628 34.3772
13030 2 7.98008 28.1307 34.9101
13031 2 8.7252 28.5845 33.5297
13032 1 22.9563 7.66581 45.0656
13033 2 22.1886 8.15398 45.4808
13034 2 23.8163 8.0562 45.394
13035 1 62.3756 20.9849 85.9508
13036 2 61.9133 21.0311 86.8363
13037 2 63.3136 20.6635 86.0809
13038 1 77.7779 4.34618 84.0645
13039 2 77.6036 5.13415 83.4739
13040 2 78.4099 3.72037 83.6073
13041 1 28.1118 3.86254 41.6766
13042 2 27.6571 3.7716 42.5627
13043 2 29.103 3.8351 41.8062
13044 1 6.09883 2.88766 51.0635
13045 2 6.56816 2.04487 50.8
13046 2 5.34543 3.06184 50.4294
13047 1 54.6377 16.8461 74.3204
13048 2 54.9669 17.7008 74.7217
13049 2 55.152 16.65 73.4855
13050 1 38.9613 3.50199 76.2882
13051 2 38.0648 3.53293 76.7302
13052 2 39.6508 3.21439 76.9529
13053 1 19.4833 6.93533 22.834
13054 2 19.4894 7.51095 22.0163
13055 2 18.6438 7.10047 23.3516
13056 1 36.2087 5.9284 55.4765
13057 2 35.817 6.44741 54.7168
13058 2 37.0622 5.49874 55.1816
13059 1 46.0221 5.29742 69.8123
13060 2 46.0086 6.23064 69.4532
13061 2 45.2818 5.18448 70.475
13062 1 23.7461 4.30232 21.1589
13063 2 24.3235 3.70743 21.7181
13064 2 23.2838 3.75677 20.4599
13065 1 33.1422 18.3755 83.828
13066 2 32.5111 18.8937 84.4052
13067 2 33.3842 18.9209 83.0255
13068 1 9.5268 11.5474 20.3981
13069 2 10.2389 12.201 20.142
13070 2 9.82904 10.6207 20.1749
13071 1 45.6729 18.2692 45.3251
13072 2 46.6029 17.9081 45.2561
13073 2 45.312 18.4381 44.4079
13074 1 26.7137 17.785 81.5087
13075 2 27.3223 18.0428 82.2591
13076 2 27.0436 18.1924 80.657
13077 1 23.3904 19.3064 57.0305
13078 2 23.5637 20.1561 57.5285
13079 2 24.0661 19.2044 56.3003
13080 1 74.0568 25.281 14.3463
13081 2 74.7529 24.5655 14.2869
13082 2 74.2391 25.9816 13.6564
13083 1 40.468 11.2758 76.2695
13084 2 40.5074 10.2791 76.1989
13085 2 41.1099 11.586 76.9707
13086 1 16.4268 13.8044 87.4703
13087 2 15.7511 14.1325 88.1304
13088 2 17.276 14.3214 87.5778
13089 1 11.4504 7.22944 57.6577
13090 2 11.6502 6.55696 58.3703
13091 2 10.9768 6.78105 56.8996
13092 1 74.4101 14.5543 89.9694
13093 2 73.5478 14.6067 89.4656
13094 2 74.4719 15.3238 90.6051
13095 1 6.67679 28.6589 61.6961
13096 2 6.2423 28.0925 62.3964
13097 2 6.97274 29.5232 62.1029
13098 1 41.4566 1.43666 44.0368
13099 2 42.3907 1.17918 44.284
13100 2 41.479 2.23579 43.4361
13101 1 39.1115 13.1521 35.9996
13102 2 39.3957 14.051 36.3329
13103 2 38.7746 12.6039 36.7652
13104 1 4.10029 27.6175 76.4571
13105 2 3.9197 27.1682 75.5821
13106 2 3.23768 27.9273 76.8569
13107 1 40.8564 4.5003 86.205
13108 2 41.7572 4.51393 86.639
13109 2 40.5974 5.4306 85.9453
13110 1 72.2035 29.225 75.2625
13111 2 73.0144 28.6503 75.1526
13112 2 72.4832 0.151311 75.5151
13113 1 69.3217 9.99836 56.7087
13114 2 70.3197 9.96009 56.7586
13115 2 68.9559 10.3119 57.585
13116 1 43.475 17.9911 75.9128
13117 2 43.922 17.6542 75.0841
13118 2 43.1564 18.927 75.7627
13119 1 7.98904 17.9337 45.9907
13120 2 8.68641 17.6166 45.3479
13121 2 8.43217 18.3477 46.7858
13122 1 10.4838 7.0807 13.7498
13123 2 9.53956 7.35312 13.5648
13124 2 10.5184 6.09707 13.9266
13125 1 64.8882 10.526 90.6551
13126 2 64.1231 11.1698 90.6433
13127 2 64.5485 9.60829 90.8612
13128 1 72.1955 14.8167 80.3585
13129 2 72.9524 14.5471 80.9539
13130 2 72.159 15.8141 80.2967
13131 1 49.9295 5.50364 75.6898
13132 2 49.6595 5.02404 76.5247
13133 2 50.9195 5.43137 75.5692
13134 1 67.0234 22.5939 23.5691
13135 2 66.6594 23.197 22.8593
13136 2 66.2856 22.3246 24.1881
13137 1 62.6834 24.3898 65.5656
13138 2 63.2214 25.0145 66.1315
13139 2 62.6081 24.7599 64.6396
13140 1 77.2388 28.5211 55.8269
13141 2 76.9383 28.469 54.8745
13142 2 77.3668 27.597 56.187
13143 1 56.1177 2.90509 63.6493
13144 2 55.854 3.24269 62.7457
13145 2 55.7506 1.98432 63.7813
13146 1 13.8199 10.8005 83.9005
13147 2 13.5312 11.3802 83.1384
13148 2 13.3612 11.0979 84.7378
13149 1 0.901404 2.4669 78.2239
13150 2 0.82078 3.04664 79.0347
13151 2 1.01214 1.51373 78.5053
13152 1 31.78 28.4559 51.7123
13153 2 32.397 28.8292 52.4051
13154 2 32.1568 27.6008 51.3563
13155 1 59.1283 8.55084 36.6946
13156 2 58.3274 8.31917 36.1425
13157 2 59.1023 8.03665 37.5519
13158 1 70.188 19.588 36.3529
13159 2 69.7351 20.1401 37.0529
13160 2 70.4023 20.1621 35.5626
13161 1 66.6819 5.87243 64.9202
13162 2 66.6635 6.33495 65.8067
13163 2 67.433 6.23677 64.3697
13164 1 19.3371 20.7906 85.8995
13165 2 20.2114 21.1344 86.242
13166 2 18.5956 21.3705 86.237
13167 1 43.6832 0.717082 82.6879
13168 2 44.3891 0.667523 81.9812
13169 2 43.0069 1.4091 82.4354
13170 1 4.26274 29.8792 59.5173
13171 2 3.64953 0.570931 59.1359
13172 2 4.1776 29.8712 60.5136
13173 1 3.12173 3.27852 35.9617
13174 2 2.57201 4.02567 35.5881
13175 2 3.91152 3.65547 36.4456
13176 1 24.7231 22.9753 44.6336
13177 2 23.7496 23.1808 44.7339
13178 2 25.0466 22.4896 45.4456
13179 1 19.3629 17.4376 32.5418
13180 2 19.9286 17.6101 31.7355
13181 2 19.6568 16.5879 32.9797
13182 1 53.9709 26.4396 86.9357
13183 2 53.6433 26.0134 87.7789
13184 2 54.9652 26.5386 86.9767
13185 1 2.07026 4.82898 40.0964
13186 2 1.79425 4.21272 40.834
13187 2 1.28536 5.37832 39.8098
13188 1 72.4136 16.5913 12.7098
13189 2 71.5975 16.0933 13.003
13190 2 73.1791 15.954 12.6212
13191 1 14.6741 23.9452 70.7781
13192 2 14.4985 24.5295 69.9858
13193 2 14.0252 24.1668 71.506
13194 1 57.9016 3.11062 21.4273
13195 2 57.7492 2.64918 22.3013
13196 2 57.4097 2.62577 20.7042
13197 1 26.6642 12.772 33.7993
13198 2 26.798 11.782 33.8449
13199 2 26.1241 13.0719 34.5856
13200 1 16.9837 8.04726 35.1146
13201 2 17.8094 7.52696 35.3323
13202 2 16.2355 7.41555 34.9118
13203 1 60.3175 16.464 32.527
13204 2 61.2684 16.729 32.6869
13205 2 60.2846 15.7391 31.839
13206 1 74.9815 5.26217 12.0636
13207 2 74.7901 6.02826 12.6772
13208 2 74.1546 5.03082 11.5512
13209 1 58.9731 22.386 58.9168
13210 2 59.5151 22.3183 59.7544
13211 2 58.6683 23.3303 58.7925
13212 1 62.423 10.0834 66.356
13213 2 62.0573 10.1241 67.2858
13214 2 62.7533 10.9884 66.0878
13215 1 59.9845 11.2676 51.9901
13216 2 59.8912 10.2722 51.9675
13217 2 59.2281 11.6615 52.5123
13218 1 2.08015 25.5167 33.0255
13219 2 1.33598 24.9452 33.3713
13220 2 2.92447 24.9818 32.9945
13221 1 21.6053 29.1206 37.9493
13222 2 21.986 28.7668 38.8037
13223 2 22.1197 28.7493 37.1763
13224 1 15.6881 7.15687 82.3785
13225 2 16.2273 6.41575 82.7786
13226 2 14.729 7.05058 82.6408
13227 1 58.0999 22.0429 24.2661
13228 2 58.5185 22.6008 24.9827
13229 2 58.1914 21.0751 24.5009
13230 1 35.2877 27.1463 73.6367
13231 2 34.8484 26.3302 73.2613
13232 2 35.2304 27.1265 74.6348
13233 1 28.5023 24.3926 48.0217
13234 2 28.4247 23.5849 47.4372
13235 2 29.1422 24.2047 48.7668
13236 1 38.5902 1.18578 31.947
13237 2 39.0708 0.318072 32.0742
13238 2 38.7111 1.49883 31.005
13239 1 0.437588 10.7499 80.2019
13240 2 1.10854 10.0162 80.0943
13241 2 0.858606 11.5186 80.6834
13242 1 47.6215 11.1177 64.1797
13243 2 47.905 10.5179 64.928
13244 2 47.9139 12.054 64.374
13245 1 72.7694 26.3597 10.4961
13246 2 72.6348 26.002 9.57204
13247 2 73.6101 25.9795 10.8815
13248 1 66.6403 13.5899 74.1984
13249 2 66.4918 12.7223 74.673
13250 2 67.0851 14.2368 74.8178
13251 1 66.5621 11.2463 15.0558
13252 2 67.5239 11.1902 15.3239
13253 2 66.0044 10.7286 15.7047
13254 1 38.7428 14.8328 30.2477
13255 2 39.1444 14.2033 30.9128
13256 2 38.2024 14.316 29.5838
13257 1 19.6745 10.2835 77.3542
13258 2 19.019 10.1195 78.0913
13259 2 19.985 9.4082 76.9834
13260 1 78.7145 24.3242 58.494
13261 2 78.3523 24.7035 57.6425
13262 2 79.5226 24.8432 58.7728
13263 1 72.1464 21.6349 42.3254
13264 2 72.1342 21.8085 43.3102
13265 2 71.3824 21.037 42.0829
13266 1 16.3551 16.6821 17.0608
13267 2 17.2351 16.2072 17.0704
13268 2 15.7843 16.3412 17.8077
13269 1 78.6438 29.7314 22.525
13270 2 77.7935 29.8429 22.0105
13271 2 78.4901 29.9816 23.4809
13272 1 20.6348 5.23464 16.6084
13273 2 21.6109 5.3682 16.437
13274 2 20.1929 6.12357 16.7289
13275 1 34.4575 11.8082 38.0052
13276 2 35.019 11.5952 38.8048
13277 2 34.3861 12.8004 37.9028
13278 1 3.75901 9.25864 64.0933
13279 2 3.8219 8.62383 63.3232
13280 2 2.8431 9.65905 64.1213
13281 1 64.8932 19.4533 68.977
13282 2 64.2727 19.0448 69.6464
13283 2 65.1718 20.3609 69.2911
13284 1 13.0665 4.27834 55.8461
13285 2 13.2868 4.90536 56.5933
13286 2 12.2264 4.5796 55.395
13287 1 66.3769 22.9249 18.3884
13288 2 67.2756 23.3633 18.3956
13289 2 65.6818 23.5849 18.6734
13290 1 60.1726 26.4978 57.8191
13291 2 59.4691 25.7875 57.8456
13292 2 60.9668 26.2003 58.349
13293 1 6.09764 26.283 69.9079
13294 2 6.07518 26.4794 70.8882
13295 2 6.88754 26.7365 69.4951
13296 1 3.39803 26.9076 15.7317
13297 2 2.50409 26.8678 16.1781
13298 2 3.28719 26.7557 14.7495
13299 1 49.3716 3.26912 67.1252
13300 2 50.1777 3.73687 66.7626
13301 2 49.4311 2.29281 66.9171
13302 1 31.5524 1.41133 85.6423
13303 2 32.5458 1.52585 85.6436
13304 2 31.1136 2.30608 85.7253
13305 1 21.0038 18.8287 54.8702
13306 2 20.8006 17.9651 54.4086
13307 2 21.9944 18.9599 54.9107
13308 1 73.9658 8.15541 45.2341
13309 2 74.1749 8.61362 44.3702
13310 2 72.9803 8.1904 45.4
13311 1 69.5951 26.6142 31.7208
13312 2 69.2225 25.8159 32.1941
13313 2 69.3813 26.5534 30.7458
13314 1 46.799 2.69113 86.1167
13315 2 46.746 1.89616 86.721
13316 2 47.5105 3.31247 86.4448
13317 1 4.17424 7.79036 11.3463
13318 2 3.70989 7.34103 10.5831
13319 2 5.15205 7.85827 11.1482
13320 1 74.6241 9.1801 66.2626
13321 2 74.5274 8.26713 65.8662
13322 2 75.3601 9.67007 65.7955
13323 1 69.6089 6.47989 61.053
13324 2 70.5919 6.66354 61.0535
13325 2 69.2029 6.83552 61.8948
13326 1 25.7783 0.486414 32.2385
13327 2 26.6241 0.879734 31.8779
13328 2 25.6871 0.721928 33.2061
13329 1 36.0361 9.55198 52.0748
13330 2 35.5317 9.40837 51.2233
13331 2 35.6399 8.98469 52.7967
13332 1 15.6818 1.69021 28.1348
13333 2 16.602 1.66882 27.7439
13334 2 15.0418 2.05901 27.4607
13335 1 62.5198 10.466 71.3792
13336 2 63.2729 10.2264 70.7664
13337 2 61.6868 10.607 70.8443
13338 1 66.8018 5.38549 77.8199
13339 2 66.8461 4.38689 77.7907
13340 2 67.0077 5.70134 78.7461
13341 1 31.7385 7.38571 38.2719
13342 2 32.663 7.67433 38.521
13343 2 31.1309 7.49887 39.0581
13344 1 19.9484 19.3753 73.9761
13345 2 19.402 18.6017 73.6553
13346 2 20.5101 19.0877 74.7519
13347 1 12.7363 3.02825 75.7495
13348 2 12.1011 3.47605 75.1202
13349 2 12.4126 3.14448 76.6885
13350 1 20.6753 21.4914 59.9093
13351 2 21.574 21.1374 60.1679
13352 2 20.6886 22.4908 59.9422
13353 1 30.137 27.7123 65.5959
13354 2 29.4442 28.192 65.0575
13355 2 30.2343 26.7768 65.2564
13356 1 14.5751 28.7538 77.9147
13357 2 14.1217 29.3139 78.608
13358 2 14.6468 29.2717 77.0623
13359 1 43.4038 15.0215 58.7688
13360 2 42.6208 14.6069 59.2325
13361 2 43.2321 15.9971 58.6323
13362 1 16.6186 24.0707 39.2743
13363 2 16.9782 23.1802 39.5528
13364 2 17.0545 24.7901 39.8152
13365 1 38.1835 29.8661 64.2294
13366 2 38.1118 28.9276 63.8916
13367 2 39.0851 0.234155 64.0021
13368 1 75.0323 19.9659 89.7898
13369 2 74.1105 19.9502 89.4024
13370 2 75.1974 20.8526 90.2216
13371 1 0.131205 22.0941 32.149
13372 2 0.722547 22.5244 32.8309
13373 2 79.6569 21.3166 32.5621
13374 1 17.9144 22.7411 43.0296
13375 2 17.9808 22.5215 44.003
13376 2 17.2307 23.4585 42.8957
13377 1 4.90547 4.19927 26.7028
13378 2 4.14132 4.76599 27.0108
13379 2 5.29845 3.71583 27.485
13380 1 19.5014 22.2535 74.632
13381 2 19.719 23.2295 74.6373
13382 2 18.9241 22.0364 75.4192
13383 1 9.97767 18.1261 83.2821
13384 2 9.00744 17.9378 83.1298
13385 2 10.455 17.2716 83.4868
13386 1 38.9402 23.037 78.0957
13387 2 39.3449 23.2982 78.972
13388 2 38.0534 22.6029 78.2543
13389 1 69.6684 29.1792 31.0579
13390 2 69.4 29.2052 30.0949
13391 2 69.7905 28.2289 31.3443
13392 1 41.877 13.468 88.5897
13393 2 41.8742 13.7761 89.541
13394 2 41.2081 12.7334 88.4753
13395 1 62.6266 19.2062 61.6437
13396 2 63.0036 19.7411 60.8876
13397 2 63.3364 19.0554 62.3318
13398 1 8.3191 4.31179 29.2414
13399 2 9.2992 4.49807 29.3101
13400 2 8.08278 3.54555 29.839
13401 1 20.991 19.5832 42.863
13402 2 20.69 19.5445 43.8159
13403 2 21.6437 20.3323 42.7499
13404 1 60.8502 17.0263 78.3298
13405 2 60.3518 17.5563 79.0159
13406 2 60.3528 16.1808 78.1359
13407 1 70.4362 27.1467 11.5696
13408 2 71.3901 26.9647 11.3307
13409 2 70.2637 26.8438 12.5069
13410 1 65.54 21.4956 89.3638
13411 2 65.2834 20.552 89.5729
13412 2 66.5023 21.6385 89.5955
13413 1 35.6701 28.4173 48.0078
13414 2 35.7161 27.6928 47.3201
13415 2 35.4494 29.2855 47.5632
13416 1 7.69855 20.5669 69.9794
13417 2 7.7274 21.1188 70.8129
13418 2 8.60722 20.545 69.5625
13419 1 9.35516 5.42947 78.9901
13420 2 9.06538 6.33175 79.3093
13421 2 8.55151 4.89331 78.7318
13422 1 61.9511 5.51976 89.1548
13423 2 62.9416 5.62717 89.2408
13424 2 61.5846 6.25406 88.5834
13425 1 48.512 23.0473 60.7889
13426 2 47.9649 22.4788 60.1745
13427 2 49.1804 23.5662 60.256
13428 1 56.4373 27.7779 72.8735
13429 2 55.8026 28.0011 73.6133
13430 2 56.9995 28.578 72.6638
13431 1 63.2512 3.22038 19.2302
13432 2 62.6172 2.8261 19.8955
13433 2 64.1273 3.40706 19.6747
13434 1 65.3441 19.6604 46.7891
13435 2 64.5124 19.391 47.2747
13436 2 65.1161 20.3337 46.0858
13437 1 28.5672 22.1045 49.7505
13438 2 29.3514 21.6787 49.2992
13439 2 28.6216 21.9432 50.7359
13440 1 63.697 8.17142 47.274
13441 2 63.567 8.39373 48.2403
13442 2 64.3736 7.44008 47.1884
13443 1 16.9327 26.1455 36.8095
13444 2 16.1024 26.6932 36.9128
13445 2 17.5101 26.5464 36.0982
13446 1 72.3935 17.5157 20.938
13447 2 72.5482 18.4565 20.6367
13448 2 72.3841 16.9085 20.1434
13449 1 49.7378 8.46113 46.5824
13450 2 49.1028 7.84443 46.1172
13451 2 49.9761 9.21664 45.9722
13452 1 65.1246 15.9893 68.8288
13453 2 65.0836 16.7428 69.485
13454 2 64.1979 15.7453 68.543
13455 1 73.8247 17.0157 90.8537
13456 2 74.4662 17.7783 90.7699
13457 2 72.9217 17.303 90.5343
13458 1 57.2326 11.3064 85.1164
13459 2 56.3101 11.3997 84.7419
13460 2 57.8974 11.6541 84.4552
13461 1 12.5817 19.4672 65.8703
13462 2 12.6818 18.5957 65.3901
13463 2 12.5008 20.2078 65.2033
13464 1 56.8581 6.02517 46.5809
13465 2 57.254 5.80035 47.4713
13466 2 56.3285 6.87012 46.6554
13467 1 11.786 18.3294 58.5298
13468 2 12.5491 18.8689 58.1739
13469 2 11.0702 18.9435 58.8623
13470 1 15.5845 15.5061 52.7113
13471 2 16.5166 15.1551 52.6217
13472 2 14.9862 14.7801 53.0503
13473 1 67.5301 11.2258 28.5963
13474 2 67.392 10.8219 27.692
13475 2 67.6624 10.4984 29.2697
13476 1 55.3136 12.6174 73.7387
13477 2 54.3249 12.4729 73.7786
13478 2 55.7845 11.7668 73.9728
13479 1 18.3022 5.90411 71.3189
13480 2 17.5565 5.50319 70.7867
13481 2 18.0105 6.01737 72.2687
13482 1 18.2547 15.9958 63.7591
13483 2 18.324 16.3767 64.6811
13484 2 18.9312 16.4327 63.1663
13485 1 70.2051 3.94673 18.4535
13486 2 70.0771 3.97567 19.4449
13487 2 70.4577 4.85621 18.1234
13488 1 5.26517 14.6382 36.3745
13489 2 5.59434 13.81 35.9208
13490 2 4.28631 14.5504 36.5592
13491 1 79.1046 23.2037 69.8667
13492 2 78.7922 22.3456 70.2743
13493 2 78.5164 23.952 70.1734
13494 1 6.76507 4.34115 19.1027
13495 2 7.07561 5.14175 18.5903
13496 2 5.8979 4.55044 19.5546
13497 1 32.8237 18.3174 70.6292
13498 2 33.3155 18.7445 71.388
13499 2 32.1009 18.9316 70.3127
13500 1 20.3887 9.57397 45.2916
13501 2 20.7636 9.21209 44.438
13502 2 21.1252 9.97751 45.8345
13503 1 29.9248 24.3184 36.7455
13504 2 29.1995 24.6578 37.3444
13505 2 30.0781 23.3467 36.9254
13506 1 9.71275 18.8884 17.26
13507 2 9.65582 19.4251 18.1019
13508 2 10.4992 18.2727 17.3097
13509 1 73.888 19.3832 45.5134
13510 2 74.036 19.1961 46.4845
13511 2 74.2715 20.2779 45.2841
13512 1 67.4871 12.7972 85.4366
13513 2 68.0428 12.6422 86.2534
13514 2 66.5193 12.8044 85.6883
13515 1 35.1655 19.4646 32.2323
13516 2 36.0716 19.1534 31.9459
13517 2 35.1777 20.4568 32.3565
13518 1 8.51794 5.23423 51.4174
13519 2 8.37159 6.20775 51.2418
13520 2 9.46205 4.99322 51.1925
13521 1 75.0365 0.837423 58.3277
13522 2 75.8551 0.92746 58.8949
13523 2 75.0321 1.55606 57.6323
13524 1 21.2784 12.556 18.5969
13525 2 21.5225 11.8375 17.9455
13526 2 20.5518 13.1238 18.21
13527 1 5.5863 8.66287 56.0412
13528 2 4.86654 8.36732 55.413
13529 2 5.26459 8.57114 56.9836
13530 1 32.1997 3.90819 36.1575
13531 2 31.3012 4.29131 36.3716
13532 2 32.8847 4.3024 36.7702
13533 1 55.2404 13.1108 25.6553
13534 2 55.4422 12.1716 25.3777
13535 2 55.8066 13.3545 26.4428
13536 1 78.9982 13.6326 36.8837
13537 2 78.6347 13.6501 37.8151
13538 2 79.4652 14.4958 36.6919
13539 1 20.3077 29.4788 40.9479
13540 2 19.9257 28.765 41.5349
13541 2 20.0595 29.2962 39.9966
13542 1 11.624 4.48891 38.0901
13543 2 10.8117 4.28483 38.6364
13544 2 12.0875 5.29017 38.4685
13545 1 18.2271 28.6844 49.7806
13546 2 18.7872 27.8931 49.5357
13547 2 17.8527 28.5564 50.699
13548 1 23.2675 4.04555 27.4884
13549 2 24.1355 4.48718 27.7155
13550 2 22.5214 4.70288 27.5942
13551 1 26.3287 25.5558 57.7693
13552 2 25.8741 24.9726 58.4425
13553 2 27.3087 25.3573 57.764
13554 1 59.8661 3.32615 30.208
13555 2 60.4985 2.73459 29.7079
13556 2 59.0018 2.84412 30.3517
13557 1 13.39 26.9964 72.8919
13558 2 14.247 27.2361 73.348
13559 2 12.7527 26.6129 73.5603
13560 1 72.6042 11.9763 85.3213
13561 2 72.6418 12.7046 84.6372
13562 2 71.7867 11.4201 85.1716
13563 1 42.3018 9.38898 87.597
13564 2 43.0903 9.07569 88.1261
13565 2 41.5097 8.81647 87.8085
13566 1 7.17292 29.2128 70.4593
13567 2 7.16881 28.8609 69.5233
13568 2 8.10774 29.2047 70.8143
13569 1 58.6316 19.2474 24.6555
13570 2 58.8188 18.2978 24.4041
13571 2 59.3065 19.5538 25.3268
13572 1 14.0364 2.65236 65.3218
13573 2 13.54 2.78157 64.4634
13574 2 13.4409 2.2015 65.9867
13575 1 23.5677 12.3626 70.9856
13576 2 23.7564 13.1679 70.4236
13577 2 23.2455 12.653 71.8866
13578 1 75.9578 28.4285 79.7838
13579 2 75.1003 28.9232 79.6424
13580 2 76.6575 29.062 80.1142
13581 1 76.9589 19.7231 23.8794
13582 2 77.9453 19.831 24.0031
13583 2 76.7765 18.8788 23.3755
13584 1 5.21631 16.6796 22.1353
13585 2 4.29294 16.3896 22.3868
13586 2 5.40689 17.5737 22.5406
13587 1 61.9127 0.488256 54.5387
13588 2 62.8543 0.622734 54.2299
13589 2 61.285 0.66181 53.7799
13590 1 58.1276 23.4431 15.4952
13591 2 58.5138 24.3593 15.6026
13592 2 58.2281 23.1482 14.545
13593 1 23.0493 4.4138 63.9907
13594 2 23.0088 4.79266 64.9153
13595 2 23.9802 4.10343 63.7981
13596 1 76.2429 18.2723 78.3745
13597 2 77.1204 18.3225 78.8514
13598 2 75.9209 17.3256 78.3677
13599 1 55.6506 13.7962 53.2313
13600 2 56.3752 13.1252 53.3886
13601 2 56.0052 14.7157 53.4011
13602 1 65.3415 0.264004 40.147
13603 2 65.8271 1.13662 40.1997
13604 2 65.8311 29.6468 39.531
13605 1 9.52829 9.63543 75.2797
13606 2 10.077 8.85444 75.578
13607 2 9.54498 10.3435 75.9857
13608 1 71.8292 11.8521 22.4009
13609 2 71.7875 12.5547 23.1114
13610 2 72.7151 11.8972 21.9392
13611 1 74.8681 16.9428 75.9879
13612 2 75.2033 17.8229 75.6518
13613 2 75.0484 16.87 76.9689
13614 1 54.0009 14.3716 80.8382
13615 2 53.7957 13.6681 81.5187
13616 2 54.8403 14.1299 80.3515
13617 1 15.5574 13.7442 26.4175
13618 2 14.9423 14.4598 26.0866
13619 2 15.0321 12.9148 26.6075
13620 1 22.7731 1.3356 61.1378
13621 2 22.4284 0.68267 61.8122
13622 2 23.6021 1.77105 61.4888
13623 1 78.6902 13.4382 25.7624
13624 2 78.5836 13.4466 26.7567
13625 2 78.0284 12.8048 25.3616
13626 1 43.4777 7.11027 74.4215
13627 2 43.5712 8.02776 74.8081
13628 2 44.3824 6.75169 74.1915
13629 1 66.9953 24.8516 36.0072
13630 2 66.073 25.1758 36.2175
13631 2 67.5339 25.6029 35.6258
13632 1 35.6691 13.2434 74.4215
13633 2 36.4386 12.7283 74.799
13634 2 35.0526 13.512 75.1616
13635 1 30.3376 0.179823 74.0573
13636 2 31.1792 29.7284 73.761
13637 2 29.8443 29.5831 74.6903
13638 1 11.2023 16.6439 79.588
13639 2 10.7768 17.203 80.2996
13640 2 11.4584 15.756 79.9702
13641 1 20.5968 18.8656 68.6322
13642 2 20.372 19.2027 69.5464
13643 2 19.9951 18.1009 68.4016
13644 1 19.5663 24.3855 29.4741
13645 2 18.744 24.8272 29.1151
13646 2 20.1284 25.063 29.9484
13647 1 5.16552 17.2821 57.8539
13648 2 5.69156 16.4495 57.6804
13649 2 5.75626 18.0803 57.7359
13650 1 53.3511 6.55636 58.6009
13651 2 53.9144 7.37652 58.501
13652 2 53.9387 5.74727 58.6087
13653 1 19.6244 24.5312 17.9213
13654 2 18.6872 24.7582 17.6565
13655 2 20.2393 25.2651 17.6327
13656 1 35.5135 9.85102 62.2374
13657 2 35.9407 10.7196 61.9864
13658 2 34.5197 9.9611 62.2547
13659 1 9.94503 14.8493 52.0152
13660 2 9.69808 14.4479 52.8972
13661 2 9.17337 14.7682 51.3844
13662 1 75.3176 29.2623 60.6145
13663 2 75.8916 28.7232 59.9982
13664 2 75.7305 0.162624 60.7524
13665 1 12.8461 14.3777 23.0969
13666 2 13.2497 14.5737 23.9906
13667 2 13.4309 14.7529 22.3777
13668 1 41.5709 26.1138 78.697
13669 2 42.5112 25.7919 78.5869
13670 2 41.2874 25.9955 79.6487
13671 1 9.52511 11.0209 11.3152
13672 2 9.97013 10.9231 12.2053
13673 2 10.0699 11.6263 10.7349
13674 1 3.95643 8.81414 70.1613
13675 2 4.53472 8.68149 69.3563
13676 2 4.14359 8.09326 70.8286
13677 1 55.3407 1.68706 53.3472
13678 2 55.6338 2.33831 52.6472
13679 2 54.3668 1.49106 53.2333
13680 1 48.4149 4.32227 57.8502
13681 2 49.0906 3.6644 57.5175
13682 2 48.0619 4.85521 57.0811
13683 1 37.8898 6.95327 51.962
13684 2 38.1617 7.72717 51.39
13685 2 36.8922 6.91382 52.0172
13686 1 45.7521 6.45873 56.7619
13687 2 45.8731 6.64539 55.7869
13688 2 45.231 5.61302 56.8771
13689 1 34.8819 4.19262 62.0664
13690 2 35.0476 3.74331 62.9443
13691 2 34.1024 3.76062 61.6127
13692 1 72.1434 12.9694 66.0622
13693 2 71.2075 12.6176 66.0476
13694 2 72.6948 12.4782 65.3879
13695 1 67.4463 8.85737 79.4075
13696 2 67.1961 9.58092 80.0508
13697 2 68.2876 8.41342 79.7159
13698 1 50.6672 29.2526 60.9694
13699 2 51.584 29.3964 60.5968
13700 2 50.7355 28.7896 61.8531
13701 1 25.7191 11.8965 83.3534
13702 2 25.7932 12.8829 83.5002
13703 2 26.6238 11.4784 83.4354
13704 1 59.4433 4.04635 86.8119
13705 2 60.0383 3.25903 86.9737
13706 2 59.8898 4.67647 86.1765
13707 1 10.0294 5.65147 11.0868
13708 2 10.222 5.00384 10.3496
13709 2 10.6172 5.44927 11.8701
13710 1 67.491 6.41277 43.3314
13711 2 67.487 5.43942 43.5606
13712 2 67.2922 6.52673 42.358
13713 1 57.6896 24.7201 21.4706
13714 2 56.9204 25.3008 21.2038
13715 2 58.3527 25.2619 21.987
13716 1 59.7082 0.49564 82.2384
13717 2 59.4264 29.8611 82.9582
13718 2 59.5051 1.43283 82.5221
13719 1 61.4898 25.7915 91.1381
13720 2 62.2173 26.4714 91.0464
13721 2 60.8511 25.8817 90.3739
13722 1 57.757 11.7111 53.2363
13723 2 57.029 11.1585 52.8306
13724 2 57.749 11.5955 54.2296
13725 1 55.3642 29.556 77.0356
13726 2 55.148 29.4591 76.0641
13727 2 54.5577 29.8874 77.5251
13728 1 13.887 25.6708 37.3503
13729 2 14.0947 25.7089 36.3729
13730 2 14.7293 25.7934 37.8751
13731 1 18.8213 21.7799 28.4987
13732 2 17.8579 21.5228 28.5747
13733 2 18.9692 22.6572 28.9553
13734 1 20.5214 0.748269 55.8033
13735 2 20.2878 1.67245 56.1055
13736 2 21.0269 0.278694 56.5272
13737 1 62.7508 25.8966 87.2147
13738 2 63.5139 25.7886 87.8518
13739 2 62.3785 26.8213 87.2942
13740 1 5.49765 6.33993 49.3503
13741 2 6.05685 7.09018 49.703
13742 2 4.53033 6.54965 49.4928
13743 1 4.27798 1.93925 15.4564
13744 2 3.67573 2.01645 14.6618
13745 2 4.57346 0.989498 15.5596
13746 1 44.3637 21.7277 86.3214
13747 2 43.7229 21.1171 85.856
13748 2 45.1966 21.2242 86.5512
13749 1 5.1964 19.5309 14.8003
13750 2 4.86686 20.289 15.3631
13751 2 5.1025 19.7681 13.8334
13752 1 61.6001 7.32519 23.1691
13753 2 61.7483 6.74756 23.9718
13754 2 60.6267 7.33477 22.9405
13755 1 15.1833 28.6329 70.3709
13756 2 14.5869 28.2199 71.0593
13757 2 15.0298 29.6207 70.3464
13758 1 3.02439 0.560825 10.5027
13759 2 2.55153 1.42361 10.6816
13760 2 4.01029 0.693754 10.6044
13761 1 0.895675 26.4599 87.482
13762 2 79.8962 26.492 87.4839
13763 2 1.21313 26.0097 86.6475
13764 1 18.451 29.2612 60.9197
13765 2 17.6971 29.1141 61.56
13766 2 18.2031 28.8943 60.0231
13767 1 58.7029 29.0069 31.3741
13768 2 58.0787 28.8685 32.143
13769 2 58.4815 29.8677 30.9157
13770 1 34.7052 6.18167 64.7016
13771 2 35.2626 6.66653 64.0277
13772 2 34.7182 5.20188 64.502
13773 1 9.63108 19.8894 27.4621
13774 2 8.9256 19.2337 27.7312
13775 2 10.2661 19.453 26.8247
13776 1 20.2276 4.31989 76.293
13777 2 21.0876 3.93394 76.6268
13778 2 19.4764 4.01669 76.8793
13779 1 74.0785 28.8561 27.1713
13780 2 73.2811 29.4283 27.3628
13781 2 73.8448 28.1825 26.4702
13782 1 16.3475 1.61027 33.6811
13783 2 16.8067 1.66026 32.7942
13784 2 16.7507 2.28102 34.3036
13785 1 59.01 17.1832 38.8168
13786 2 59.5221 17.9787 38.4929
13787 2 59.426 16.8391 39.6585
13788 1 55.2797 16.3471 89.8867
13789 2 56.0413 15.9831 90.4228
13790 2 54.8227 15.5987 89.4061
13791 1 59.7224 5.23684 46.7684
13792 2 59.4497 5.50161 45.8435
13793 2 59.2032 5.77172 47.435
13794 1 20.2142 19.2638 88.053
13795 2 19.2959 18.8909 88.1863
13796 2 20.1877 20.2585 88.1523
13797 1 63.0338 9.2281 49.9656
13798 2 62.9226 9.50982 50.9186
13799 2 62.1642 8.87717 49.6182
13800 1 13.679 29.6823 20.2433
13801 2 13.2237 0.569002 20.163
13802 2 13.1826 29.0026 19.7034
13803 1 1.72574 24.5085 49.1251
13804 2 1.30776 24.0053 48.3687
13805 2 2.41535 25.1375 48.7663
13806 1 65.0674 14.5418 47.2871
13807 2 64.5755 13.8096 46.816
13808 2 64.7876 14.5675 48.2469
13809 1 9.2975 26.1504 90.8666
13810 2 8.4369 26.4578 90.4606
13811 2 10.009 26.8319 90.6955
13812 1 58.9393 26.6342 81.8305
13813 2 58.2136 25.9704 82.0111
13814 2 59.4733 26.7791 82.6635
13815 1 37.7886 20.4308 49.6165
13816 2 38.0573 20.9622 48.8131
13817 2 37.7836 19.4577 49.3861
13818 1 5.03313 12.5646 73.6873
13819 2 4.46369 12.7684 74.4836
13820 2 4.82983 13.2163 72.9565
13821 1 7.65236 7.5504 19.9494
13822 2 7.6166 7.13914 19.0386
13823 2 8.60142 7.76266 20.1822
13824 1 79.1139 6.9094 55.1774
13825 2 78.9412 6.10248 55.7423
13826 2 79.2525 7.70533 55.7667
13827 1 18.3801 3.77998 31.8509
13828 2 19.0852 3.22369 32.2906
13829 2 18.8104 4.54175 31.3666
13830 1 29.0039 28.7368 57.0177
13831 2 29.0044 29.162 57.9228
13832 2 28.8822 27.7488 57.1136
13833 1 37.8377 24.364 62.3763
13834 2 37.1959 23.9057 61.7614
13835 2 37.3499 24.6854 63.188
13836 1 76.1473 20.0606 19.7116
13837 2 76.55 20.6511 19.0122
13838 2 75.8721 20.6145 20.4973
13839 1 8.87788 5.42753 54.8504
13840 2 9.87706 5.41454 54.8887
13841 2 8.53531 6.22089 55.3536
13842 1 74.109 11.1795 68.0832
13843 2 74.5724 10.392 67.677
13844 2 73.1233 11.0993 67.9347
13845 1 51.7337 0.931268 49.9432
13846 2 52.6275 0.679339 50.3141
13847 2 51.8115 1.07903 48.9573
13848 1 66.4955 29.4318 10.4294
13849 2 66.4302 29.4621 9.432
13850 2 65.8636 28.7427 10.784
13851 1 10.8078 1.69745 60.8806
13852 2 10.3524 0.810795 60.8002
13853 2 11.1489 1.81357 61.8134
13854 1 77.8317 3.03628 77.8142
13855 2 77.6156 3.74183 77.1392
13856 2 77.7426 3.41703 78.7345
13857 1 73.3684 14.8869 43.6654
13858 2 73.5479 13.9433 43.9435
13859 2 72.5635 15.2297 44.1497
13860 1 37.8061 9.50271 41.1611
13861 2 37.904 8.5092 41.219
13862 2 37.6522 9.87634 42.0758
13863 1 36.0666 17.0421 58.6497
13864 2 35.4009 17.0362 59.3959
13865 2 35.7243 17.6113 57.9022
13866 1 72.4353 20.008 55.2463
13867 2 72.0629 20.8396 55.6582
13868 2 72.0616 19.2076 55.7152
13869 1 45.6159 1.97274 34.6386
13870 2 45.6257 2.60669 35.4119
13871 2 45.9612 1.08181 34.9336
13872 1 26.7596 20.3575 41.3838
13873 2 27.1328 21.226 41.0575
13874 2 27.1161 20.1641 42.2979
13875 1 17.0718 28.7892 21.1658
13876 2 16.4846 28.741 20.3578
13877 2 17.0176 27.9269 21.6692
13878 1 35.3479 27.9032 36.8349
13879 2 35.5726 27.9836 37.806
13880 2 34.8205 28.7028 36.5475
13881 1 58.4144 13.6673 25.4953
13882 2 58.1275 13.903 26.4238
13883 2 57.774 13.0051 25.1064
13884 1 57.3851 5.90446 52.6322
13885 2 57.545 5.29323 51.857
13886 2 56.7382 5.47853 53.2646
13887 1 5.95687 11.118 82.4353
13888 2 5.80123 10.9622 81.4599
13889 2 6.92687 10.9909 82.6426
13890 1 0.65693 11.4053 69.8148
13891 2 0.985065 10.7021 70.4455
13892 2 0.167314 10.972 69.0581
13893 1 65.3707 12.972 82.9208
13894 2 66.2833 12.8165 83.2989
13895 2 64.7296 13.1616 83.6644
13896 1 47.9139 26.7301 78.1906
13897 2 47.7482 25.7495 78.2951
13898 2 48.7917 26.9661 78.6075
13899 1 75.981 27.4313 17.9684
13900 2 76.551 27.9322 17.3171
13901 2 75.1697 27.0808 17.5006
13902 1 36.9283 1.73291 72.0363
13903 2 36.2941 2.40583 71.6556
13904 2 37.3465 2.10143 72.8666
13905 1 77.5489 0.182567 16.3377
13906 2 78.1026 29.7072 17.0214
13907 2 77.469 29.6136 15.5193
13908 1 64.5139 23.1109 48.5281
13909 2 65.2409 23.4541 47.9333
13910 2 64.7039 23.3756 49.4735
13911 1 38.4333 29.5502 86.908
13912 2 37.5821 29.8908 87.3074
13913 2 39.1776 29.6588 87.567
13914 1 2.05873 19.7643 24.5852
13915 2 1.51208 19.4828 25.3739
13916 2 2.89205 19.2131 24.5435
13917 1 48.6303 21.2594 34.5602
13918 2 48.3555 22.1902 34.3194
13919 2 48.5493 21.1332 35.5489
13920 1 2.32286 29.5011 14.5757
13921 2 1.62134 0.212198 14.6227
13922 2 1.88794 28.6012 14.6076
13923 1 18.3761 28.6694 34.7919
13924 2 18.4433 28.4583 33.8168
13925 2 19.1619 29.2229 35.0681
13926 1 71.3966 26.3223 50.9263
13927 2 70.5589 26.2297 51.4647
13928 2 72.1679 26.4991 51.5378
13929 1 5.90103 0.705397 18.5361
13930 2 5.56263 0.837808 17.6045
13931 2 5.3628 1.26246 19.1685
13932 1 63.1311 15.6465 55.6143
13933 2 62.613 15.9302 56.4213
13934 2 62.5711 15.7764 54.7961
13935 1 1.87433 2.29096 18.7714
13936 2 2.50493 1.97265 19.4793
13937 2 1.88918 3.29024 18.7367
13938 1 72.8855 25.2285 79.7235
13939 2 72.0591 25.7868 79.6508
13940 2 73.4316 25.5411 80.5007
13941 1 75.0296 12.6366 32.9465
13942 2 74.3157 13.2054 32.5381
13943 2 74.7133 12.2866 33.8282
13944 1 72.7258 19.9293 78.583
13945 2 72.6042 19.0437 79.0313
13946 2 72.7355 20.6534 79.2726
13947 1 7.33873 25.1254 31.7802
13948 2 7.78875 25.9007 32.2234
13949 2 6.5131 25.4418 31.313
13950 1 78.044 18.2475 52.2126
13951 2 78.4396 18.7601 52.9747
13952 2 78.3956 17.3114 52.2224
13953 1 3.40239 22.6968 15.5572
13954 2 3.65463 22.036 16.264
13955 2 2.51924 23.1072 15.7844
13956 1 6.94095 25.2925 81.9801
13957 2 6.78074 25.1876 80.9986
13958 2 7.54524 24.5623 82.299
13959 1 8.69796 0.843111 76.3079
13960 2 8.50523 1.68009 76.8201
13961 2 8.45264 0.0485291 76.8633
13962 1 16.5506 12.0244 56.5064
13963 2 17.1713 11.9335 57.2851
13964 2 15.6105 11.8687 56.8096
13965 1 22.21 12.9875 32.1175
13966 2 22.4013 12.6026 33.0204
13967 2 21.2233 12.9814 31.9549
13968 1 52.2939 29.7163 58.4867
13969 2 52.9334 29.6462 59.2522
13970 2 52.6529 0.359566 57.8104
13971 1 65.4361 12.7565 64.8456
13972 2 64.5206 13.1424 64.9592
13973 2 66.0562 13.1671 65.514
13974 1 69.135 5.34075 40.3711
13975 2 69.2965 5.53399 39.4033
13976 2 68.3532 5.87549 40.6918
13977 1 36.1235 12.2986 84.6759
13978 2 35.9442 11.9027 83.7753
13979 2 35.9422 11.6148 85.3827
13980 1 37.9903 21.2958 52.3181
13981 2 38.7429 21.9508 52.25
13982 2 37.7021 21.0226 51.4004
13983 1 37.082 23.0176 38.8956
13984 2 37.6156 22.2084 38.6496
13985 2 37.6844 23.8148 38.935
13986 1 2.60064 5.31618 52.1402
13987 2 1.71542 4.88065 51.9769
13988 2 2.52958 5.93143 52.9254
13989 1 7.37117 7.55685 10.8805
13990 2 7.84051 7.65305 11.7583
13991 2 7.76945 6.79381 10.3715
13992 1 51.7653 6.19696 90.4929
13993 2 52.6797 5.8004 90.5745
13994 2 51.8306 7.19434 90.5242
13995 1 51.0837 18.3899 30.7753
13996 2 51.8897 18.9581 30.9409
13997 2 50.4711 18.4423 31.5639
13998 1 23.0265 1.43728 33.9703
13999 2 23.4626 2.24337 33.5703
14000 2 23.6843 0.955155 34.549
14001 1 10.0909 12.634 68.6616
14002 2 10.28 12.367 69.6065
14003 2 10.4519 11.9387 68.0401
14004 1 41.9718 20.9783 87.7107
14005 2 41.949 20.0868 87.2583
14006 2 42.6395 21.5666 87.2546
14007 1 78.8398 12.58 51.9702
14008 2 78.1178 13.0852 52.4429
14009 2 79.2516 13.1636 51.2703
14010 1 22.9769 15.661 62.1186
14011 2 22.7408 14.7274 62.3882
14012 2 23.8421 15.6545 61.6173
14013 1 19.6192 6.97385 79.116
14014 2 18.6796 6.64892 79.2235
14015 2 19.882 6.9209 78.1526
14016 1 25.8426 22.9315 77.0835
14017 2 24.9656 23.3369 77.3417
14018 2 26.1325 23.2993 76.2
14019 1 1.3597 4.2456 84.42
14020 2 1.6219 4.29043 85.384
14021 2 2.16456 4.40364 83.848
14022 1 32.9916 29.0267 73.9233
14023 2 33.8209 28.49 73.7675
14024 2 32.6754 28.8867 74.8616
14025 1 20.4842 4.11588 11.5349
14026 2 20.5494 3.22537 11.0846
14027 2 19.6302 4.16584 12.0526
14028 1 3.99049 7.58193 18.3064
14029 2 4.38819 7.81974 19.1925
14030 2 3.5463 8.38713 17.9135
14031 1 3.02782 4.38265 72.1641
14032 2 3.58101 5.20052 72.0058
14033 2 3.62459 3.58213 72.2192
14034 1 58.2022 9.3883 17.8412
14035 2 57.2558 9.56429 17.5704
14036 2 58.2168 8.97152 18.7501
14037 1 65.3273 4.06842 80.7952
14038 2 66.2708 3.74228 80.8526
14039 2 65.0653 4.48589 81.6653
14040 1 62.0746 26.7154 24.2478
14041 2 61.1958 26.5844 23.789
14042 2 61.9377 27.2444 25.0853
14043 1 37.6923 14.008 55.6307
14044 2 36.709 14.0307 55.8113
14045 2 37.9853 13.061 55.4996
14046 1 1.34643 22.163 46.6593
14047 2 0.390827 21.9155 46.8192
14048 2 1.53856 22.1341 45.6784
14049 1 20.3993 22.9368 37.8931
14050 2 20.8627 23.3595 37.1143
14051 2 20.3391 23.5957 38.6429
14052 1 10.7242 3.30204 64.1567
14053 2 11.0503 2.36217 64.0553
14054 2 10.1561 3.37106 64.9768
14055 1 45.001 4.33497 65.0181
14056 2 44.0463 4.59906 64.8811
14057 2 45.0656 3.33902 65.0807
14058 1 51.7171 4.45104 85.3746
14059 2 51.6334 3.86937 84.5655
14060 2 50.8807 4.98734 85.4875
14061 1 41.8083 21.5079 34.6626
14062 2 42.1133 22.4511 34.7947
14063 2 41.1158 21.4794 33.9418
14064 1 71.3978 7.75661 15.3789
14065 2 70.4848 7.74374 15.7867
14066 2 71.4087 7.17212 14.5676
14067 1 13.0781 12.302 13.0842
14068 2 13.5475 12.8021 13.8119
14069 2 12.6563 11.4787 13.464
14070 1 64.079 27.8883 68.1758
14071 2 63.9612 26.8955 68.2003
14072 2 63.7845 28.2805 69.0472
14073 1 51.458 10.8126 42.3889
14074 2 50.759 10.8199 41.6739
14075 2 51.022 10.9211 43.2823
14076 1 6.46533 6.41153 36.5823
14077 2 6.89916 7.19378 36.1352
14078 2 5.47149 6.49495 36.5094
14079 1 35.9411 7.34537 43.059
14080 2 36.5267 7.67999 43.7973
14081 2 36.5091 7.0505 42.2906
14082 1 14.0456 20.6076 39.808
14083 2 13.6784 21.251 40.4797
14084 2 14.0869 19.693 40.2104
14085 1 12.9257 1.60266 24.2369
14086 2 13.4865 2.33346 24.6261
14087 2 13.5173 0.925773 23.799
14088 1 73.8456 13.6941 73.6737
14089 2 73.8726 12.913 73.0499
14090 2 73.07 13.5961 74.2972
14091 1 44.2325 10.7131 44.288
14092 2 43.8235 9.80155 44.3296
14093 2 43.7446 11.326 44.9096
14094 1 75.0984 8.60904 27.4657
14095 2 75.5881 8.22386 28.2479
14096 2 75.5931 9.40767 27.1231
14097 1 27.9294 29.0219 64.33
14098 2 27.8434 28.0256 64.3317
14099 2 27.1197 29.427 64.7547
14100 1 64.2505 6.25083 67.5914
14101 2 65.1587 6.60211 67.8189
14102 2 63.7389 6.949 67.0906
14103 1 31.9436 13.8989 88.2735
14104 2 32.4474 14.7228 88.0139
14105 2 31.001 14.1426 88.5019
14106 1 71.701 2.02268 58.5729
14107 2 72.4816 1.44267 58.3398
14108 2 71.1619 1.58311 59.2913
14109 1 62.5753 4.33769 57.5249
14110 2 62.7156 3.91045 58.4181
14111 2 61.9147 5.08333 57.6121
14112 1 29.6517 14.2816 55.7385
14113 2 29.7178 14.4462 56.7226
14114 2 28.8392 14.7396 55.3777
14115 1 66.3167 20.158 77.3488
14116 2 65.9908 19.3327 77.81
14117 2 66.4953 20.8705 78.0273
14118 1 18.6437 9.8119 11.03
14119 2 19.0944 9.54603 11.8822
14120 2 19.0239 9.28158 10.2723
14121 1 68.4425 23.4275 56.0762
14122 2 67.6264 23.5349 55.5085
14123 2 68.6002 22.4559 56.2527
14124 1 74.45 26.8621 44.8658
14125 2 74.15 27.3612 44.0529
14126 2 75.3998 27.0986 45.0706
14127 1 77.0524 21.8236 35.8301
14128 2 76.9673 20.8566 35.5901
14129 2 76.1473 22.1979 36.032
14130 1 49.9409 1.88545 57.3424
14131 2 49.9376 1.55947 56.397
14132 2 50.3481 1.18927 57.9336
14133 1 41.7681 3.85841 90.0474
14134 2 42.5994 4.29051 89.6978
14135 2 41.1332 4.56368 90.3629
14136 1 78.7563 7.29228 72.5585
14137 2 78.9097 6.37838 72.1827
14138 2 78.2494 7.21871 73.4174
14139 1 9.09104 23.8356 73.1968
14140 2 9.22969 22.9036 73.5317
14141 2 9.21661 24.4823 73.9492
14142 1 78.9338 19.2818 57.525
14143 2 79.321 18.5417 56.9752
14144 2 78.2495 18.9088 58.1516
14145 1 63.8863 18.0946 81.952
14146 2 64.8136 18.1438 81.5808
14147 2 63.2852 17.6479 81.2893
14148 1 62.1276 6.72593 14.2904
14149 2 63.0206 6.88415 13.8689
14150 2 61.9401 7.44895 14.9552
14151 1 14.4526 23.2083 61.5409
14152 2 14.7675 24.1116 61.8322
14153 2 13.4618 23.1459 61.6614
14154 1 39.6252 22.3975 69.5736
14155 2 40.253 22.2197 68.8158
14156 2 38.7307 22.002 69.3652
14157 1 59.09 19.3457 49.4821
14158 2 59.3018 18.5052 48.9834
14159 2 59.9259 19.7086 49.894
14160 1 30.6603 28.8427 43.2813
14161 2 30.5697 27.8644 43.4677
14162 2 31.5255 29.0135 42.8098
14163 1 51.6128 8.44361 26.7033
14164 2 51.5999 9.18473 27.3745
14165 2 51.106 7.65987 27.0623
14166 1 58.885 1.24284 13.1409
14167 2 59.8118 1.32584 12.7747
14168 2 58.2286 1.58082 12.4665
14169 1 2.52892 26.4411 51.2327
14170 2 3.29222 26.3492 50.5933
14171 2 2.87509 26.4173 52.1706
14172 1 26.3167 25.3435 87.1741
14173 2 27.0237 24.659 86.9962
14174 2 26.7479 26.2152 87.4073
14175 1 57.0469 3.52419 74.523
14176 2 57.6673 2.75978 74.3476
14177 2 57.5572 4.3833 74.4843
14178 1 15.9669 0.448071 25.3497
14179 2 16.5523 0.359764 26.1556
14180 2 16.1589 1.31608 24.8917
14181 1 52.8603 3.08491 57.8407
14182 2 52.8421 2.20067 57.374
14183 2 53.8089 3.35684 58.0026
14184 1 25.6362 12.6311 90.1292
14185 2 25.5698 12.7435 89.1378
14186 2 24.8595 13.0824 90.5686
14187 1 60.9372 20.4121 67.8163
14188 2 60.345 21.196 68.0033
14189 2 61.405 20.1397 68.657
14190 1 50.744 4.03768 72.4207
14191 2 51.0221 3.24886 72.9688
14192 2 51.3989 4.17462 71.6774
14193 1 21.2805 17.7702 80.1234
14194 2 21.9447 18.3807 79.692
14195 2 20.3838 17.9009 79.7003
14196 1 53.4957 27.8725 82.6318
14197 2 54.177 28.5677 82.861
14198 2 53.9192 26.9672 82.665
14199 1 38.9291 27.5374 45.5909
14200 2 39.907 27.3725 45.7197
14201 2 38.4515 26.6626 45.5098
14202 1 46.8128 22.2572 74.0605
14203 2 47.5785 22.8618 73.841
14204 2 47.0778 21.6387 74.8002
14205 1 17.1564 8.68828 76.7776
14206 2 16.1592 8.65457 76.71
14207 2 17.4221 8.79368 77.7359
14208 1 53.9299 17.5234 50.347
14209 2 53.2501 17.5177 49.6137
14210 2 53.5444 17.968 51.1555
14211 1 35.6364 1.44044 66.284
14212 2 35.8744 2.29365 65.8199
14213 2 34.6414 1.34765 66.3212
14214 1 50.1022 8.38998 55.0868
14215 2 50.3222 8.64561 56.0282
14216 2 49.3485 8.95717 54.7548
14217 1 74.6002 2.82744 56.7604
14218 2 74.1131 2.56272 55.9282
14219 2 74.6248 3.82476 56.8293
14220 1 2.12396 19.1442 56.6174
14221 2 2.27087 18.3338 57.1846
14222 2 1.85184 19.9121 57.1973
14223 1 35.9509 19.1367 38.4799
14224 2 36.2839 18.5314 37.7569
14225 2 36.5615 19.0799 39.2698
14226 1 69.4555 15.8099 47.4931
14227 2 68.7268 16.2815 47.9897
14228 2 69.5145 14.8626 47.8081
14229 1 79.1348 7.00496 44.6562
14230 2 79.6605 6.57878 45.3924
14231 2 79.7373 7.18874 43.8796
14232 1 2.79371 1.31681 47.4606
14233 2 2.70572 0.399331 47.8485
14234 2 3.75974 1.57294 47.4262
14235 1 55.2729 19.8527 90.187
14236 2 55.4382 19.8753 91.173
14237 2 55.4871 20.7463 89.7926
14238 1 58.2718 5.46733 60.7227
14239 2 57.2989 5.23761 60.7494
14240 2 58.8047 4.64045 60.5432
14241 1 39.2779 24.1499 32.8833
14242 2 39.1022 23.1792 33.0473
14243 2 38.6291 24.6996 33.4095
14244 1 26.7642 2.31162 56.0899
14245 2 26.678 2.33971 57.0858
14246 2 26.3905 1.44971 55.7472
14247 1 17.7124 13.3653 84.8763
14248 2 17.4374 13.7184 85.7706
14249 2 17.7356 14.1148 84.2147
14250 1 35.3119 3.76576 72.4362
14251 2 34.3459 3.54627 72.3002
14252 2 35.3908 4.58703 73.0013
14253 1 41.1991 19.7703 70.9706
14254 2 41.3565 20.7074 71.2821
14255 2 40.8781 19.2138 71.7369
14256 1 57.3607 22.739 41.7094
14257 2 56.922 21.9246 42.0893
14258 2 57.7498 23.2848 42.4515
14259 1 54.0026 14.919 59.373
14260 2 54.5158 14.0765 59.2092
14261 2 54.5911 15.5836 59.8333
14262 1 77.2225 19.8657 27.4505
14263 2 77.4991 19.6875 26.5061
14264 2 78.0329 19.8922 28.0358
14265 1 79.3141 27.6438 78.218
14266 2 79.2114 26.7389 77.805
14267 2 78.9995 27.6147 79.1668
14268 1 30.4518 9.75643 34.8836
14269 2 31.3569 10.0249 34.5539
14270 2 30.2493 10.2421 35.734
14271 1 54.1934 20.0445 76.2827
14272 2 53.916 20.5764 77.0827
14273 2 54.9696 19.4615 76.5228
14274 1 17.6152 14.1758 18.3696
14275 2 17.1179 13.5102 18.9261
14276 2 18.3107 13.7039 17.8277
14277 1 42.4614 6.31266 62.4764
14278 2 43.1684 6.51807 63.1531
14279 2 42.3205 7.1097 61.8891
14280 1 76.7202 7.72493 87.3059
14281 2 76.8304 6.73102 87.3068
14282 2 75.812 7.95991 87.6524
14283 1 44.2073 21.6326 61.6423
14284 2 44.9924 22.1498 61.9831
14285 2 44.5154 20.9712 60.9584
14286 1 69.6818 10.5075 20.7782
14287 2 70.1742 9.65467 20.952
14288 2 68.7001 10.3547 20.8916
14289 1 71.1977 7.54269 83.5801
14290 2 71.8348 7.95299 84.2326
14291 2 70.2715 7.86945 83.7682
14292 1 58.6515 25.4228 23.9189
14293 2 58.5931 24.5286 24.3628
14294 2 58.4931 26.1419 24.5956
14295 1 7.17886 0.642326 64.1193
14296 2 6.64932 29.9182 64.5612
14297 2 6.57884 1.415 63.9121
14298 1 73.9039 16.8952 26.5336
14299 2 73.9468 17.894 26.5121
14300 2 72.9565 16.6051 26.669
14301 1 15.2634 14.3143 58.9466
14302 2 15.3675 13.3523 59.1992
14303 2 16.1665 14.7305 58.8403
14304 1 76.7295 5.25309 47.4739
14305 2 75.8413 4.79395 47.4926
14306 2 76.7437 5.97936 48.1612
14307 1 79.6951 3.85175 33.3778
14308 2 79.7927 2.88761 33.6247
14309 2 0.551411 4.33246 33.5668
14310 1 7.74477 6.16799 46.8912
14311 2 6.80616 5.90698 47.1168
14312 2 8.3293 5.35677 46.9072
14313 1 7.14887 21.6285 43.0397
14314 2 6.24293 21.3268 42.7426
14315 2 7.78007 21.6012 42.2645
14316 1 40.3273 28.8244 70.1461
14317 2 41.2777 29.0894 69.9831
14318 2 40.2823 28.2149 70.9376
14319 1 47.1333 0.406427 87.7386
14320 2 47.5392 29.5067 87.5784
14321 2 47.6495 0.883036 88.4502
14322 1 36.5272 29.6273 83.3979
14323 2 37.1591 28.8523 83.4057
14324 2 36.1447 29.7547 84.313
14325 1 64.5078 1.50977 24.6558
14326 2 64.686 2.43258 24.3142
14327 2 64.9096 1.40779 25.5658
14328 1 59.3062 17.3503 20.5616
14329 2 60.2364 17.2058 20.899
14330 2 59.3085 17.3372 19.5617
14331 1 27.5224 26.4797 64.9882
14332 2 27.1373 26.5452 65.9088
14333 2 28.3913 25.9861 65.0248
14334 1 61.7189 29.3293 34.3517
14335 2 62.0025 28.8665 33.5118
14336 2 60.7222 29.3001 34.4281
14337 1 19.6186 25.5708 36.0126
14338 2 19.4329 26.1741 35.237
14339 2 19.035 24.761 35.9521
14340 1 40.74 0.0254575 90.7907
14341 2 40.6024 29.1418 90.3433
14342 2 41.5733 29.9934 91.3426
14343 1 32.4983 14.1819 45.9188
14344 2 33.4046 14.5049 46.1914
14345 2 32.2621 13.3666 46.4474
14346 1 0.613516 5.36708 46.3212
14347 2 0.726458 6.12724 46.9611
14348 2 1.46334 5.23091 45.8121
14349 1 44.2549 23.2986 89.0717
14350 2 45.1101 22.8285 89.2899
14351 2 44.1094 23.2838 88.0825
14352 1 8.07703 21.4604 61.2287
14353 2 7.52301 21.023 61.937
14354 2 7.70435 22.3659 61.0259
14355 1 13.3429 25.1797 43.1592
14356 2 12.8102 26.0106 43.3202
14357 2 13.6488 24.8051 44.0345
14358 1 25.696 3.74784 29.8095
14359 2 25.4127 4.66481 29.5286
14360 2 26.6722 3.63018 29.6276
14361 1 17.0092 13.5911 15.5313
14362 2 17.9926 13.4234 15.4611
14363 2 16.8363 14.263 16.2515
14364 1 22.761 22.9092 82.9026
14365 2 23.3216 22.9932 83.7265
14366 2 21.8444 23.2648 83.0854
14367 1 73.3491 24.2224 67.8415
14368 2 73.7566 23.3114 67.9039
14369 2 73.3705 24.6595 68.7406
14370 1 19.7988 20.9811 70.333
14371 2 20.1622 21.4509 71.1374
14372 2 19.1963 21.6002 69.8292
14373 1 74.5826 7.02272 85.3518
14374 2 75.4133 7.57741 85.3988
14375 2 73.7875 7.62101 85.2524
14376 1 59.202 5.33294 38.4119
14377 2 58.6842 5.82933 39.1086
14378 2 60.1033 5.09411 38.7734
14379 1 17.2282 25.3713 28.8046
14380 2 17.8303 26.1621 28.6946
14381 2 16.4649 25.4416 28.1625
14382 1 79.576 28.3031 17.4668
14383 2 79.2758 27.8946 18.3288
14384 2 0.21994 27.6875 17.0126
14385 1 17.023 14.1394 36.886
14386 2 16.3403 14.8576 36.7515
14387 2 17.2546 14.0772 37.8568
14388 1 32.3104 23.8561 57.5698
14389 2 32.8733 23.0705 57.313
14390 2 31.9839 23.7398 58.5078
14391 1 4.62476 5.66248 20.1032
14392 2 4.23438 4.75287 20.2454
14393 2 4.10584 6.14091 19.3948
14394 1 45.2206 8.46325 39.6396
14395 2 45.9117 9.17739 39.5281
14396 2 45.0081 8.35388 40.6106
14397 1 57.279 10.1418 77.749
14398 2 57.0958 9.84815 76.8108
14399 2 57.681 9.38398 78.263
14400 1 29.2664 26.9985 78.7004
14401 2 28.5909 26.4408 78.2181
14402 2 28.9134 27.2425 79.6036
14403 1 26.4661 9.66176 30.7079
14404 2 27.3404 9.93813 30.3089
14405 2 26.6051 8.86526 31.2963
14406 1 1.56888 4.66984 69.4844
14407 2 1.16609 5.5591 69.7012
14408 2 2.30506 4.47078 70.1313
14409 1 10.7144 20.4214 39.4679
14410 2 10.6028 20.0635 40.3949
14411 2 10.5764 21.4118 39.4741
14412 1 8.35646 16.3741 50.2605
14413 2 8.88639 17.2028 50.0808
14414 2 7.60031 16.5894 50.8785
14415 1 61.9889 25.3456 11.871
14416 2 61.5077 25.7736 12.636
14417 2 62.8123 24.8894 12.2084
14418 1 30.6601 21.2212 48.3814
14419 2 30.0888 20.4694 48.0522
14420 2 31.6038 20.9049 48.4785
14421 1 37.8323 3.65924 45.1491
14422 2 37.4115 4.48289 45.5293
14423 2 38.3513 3.18994 45.8635
14424 1 14.1876 28.371 40.3215
14425 2 14.8458 27.7657 40.7692
14426 2 14.6745 29.1253 39.8809
14427 1 49.8425 22.6947 54.1301
14428 2 50.1953 23.5173 54.5761
14429 2 48.8778 22.5758 54.365
14430 1 24.9324 6.55628 25.9443
14431 2 25.6362 6.74749 26.6285
14432 2 25.3643 6.22563 25.1052
14433 1 8.05631 19.9172 87.8367
14434 2 8.04832 19.1534 88.4822
14435 2 7.28927 19.825 87.2018
14436 1 48.2622 11.7063 81.6309
14437 2 48.7491 10.9206 82.0125
14438 2 47.4507 11.8961 82.1837
14439 1 37.7473 5.74536 46.917
14440 2 37.3495 6.63568 47.1386
14441 2 37.434 5.06586 47.5804
14442 1 22.6259 17.8144 71.7041
14443 2 23.359 17.5221 72.3183
14444 2 22.9987 18.4289 71.0089
14445 1 38.6499 23.2059 43.427
14446 2 38.8592 23.6946 42.58
14447 2 38.3775 23.8614 44.1314
14448 1 53.4963 22.8526 43.8464
14449 2 52.8048 23.1279 44.5143
14450 2 53.0501 22.4139 43.0664
14451 1 25.8739 2.01825 87.8091
14452 2 25.0646 2.46736 88.1878
14453 2 25.7802 1.02719 87.9042
14454 1 12.7813 5.13308 49.5011
14455 2 11.8996 5.59447 49.6002
14456 2 12.708 4.42047 48.8033
14457 1 50.7219 12.2741 66.3044
14458 2 50.1597 13.0815 66.1252
14459 2 50.6216 12.0039 67.2619
14460 1 33.0044 16.1251 32.3088
14461 2 32.1927 15.7913 32.7882
14462 2 33.5241 15.3485 31.9527
14463 1 30.754 21.8032 37.3255
14464 2 31.4321 21.8824 36.5949
14465 2 30.5425 20.8382 37.4808
14466 1 21.6629 20.4241 51.2441
14467 2 22.3855 19.7332 51.2618
14468 2 21.6504 20.9159 52.1147
14469 1 62.7105 12.1123 90.7671
14470 2 61.7759 11.8696 91.0271
14471 2 62.7261 13.0479 90.4144
14472 1 42.9738 11.5792 52.5269
14473 2 42.5714 11.9838 51.7057
14474 2 43.5837 10.8312 52.2654
14475 1 9.53788 12.418 46.9066
14476 2 10.2925 11.8803 47.2827
14477 2 9.42282 13.2529 47.4448
14478 1 29.9215 24.8619 45.626
14479 2 30.6557 24.1839 45.6616
14480 2 29.5304 24.9779 46.539
14481 1 53.7334 5.62339 35.9027
14482 2 52.9934 6.17848 35.523
14483 2 53.4349 5.21526 36.7655
14484 1 11.4995 5.0632 81.9265
14485 2 12.0833 5.28078 82.7087
14486 2 11.9541 5.34681 81.0821
14487 1 57.9143 15.5401 61.4986
14488 2 56.9599 15.8388 61.4988
14489 2 58.1259 15.0998 62.3711
14490 1 24.7735 3.33877 53.9876
14491 2 25.1942 2.82481 54.7351
14492 2 24.0007 3.8668 54.3396
14493 1 26.7647 17.373 90.6318
14494 2 26.6488 18.355 90.7808
14495 2 25.9789 17.0177 90.1256
14496 1 65.3119 18.8746 88.9374
14497 2 66.2103 18.8233 88.5013
14498 2 65.2516 18.1846 89.6587
14499 1 38.9591 18.3259 51.8011
14500 2 38.625 17.8381 50.9946
14501 2 39.75 18.8836 51.5494
14502 1 79.7177 28.6882 40.8985
14503 2 0.0930647 27.7621 40.9358
14504 2 0.349346 29.3221 41.3448
14505 1 42.0703 25.9869 85.5046
14506 2 41.91 26.9564 85.3191
14507 2 42.7785 25.6423 84.8884
14508 1 53.7672 26.3662 92.1728
14509 2 53.914 26.0249 91.2444
14510 2 52.8727 26.0634 92.5017
14511 1 38.5895 6.83124 64.2394
14512 2 39.3009 6.20438 63.9216
14513 2 38.9999 7.7153 64.4631
14514 1 30.1501 8.8485 50.8574
14515 2 30.3943 9.53052 51.5468
14516 2 30.1996 9.26134 49.948
14517 1 14.5905 13.9187 61.7885
14518 2 14.8804 13.1261 61.2521
14519 2 14.3756 13.6293 62.7213
14520 1 25.6776 19.7472 87.4419
14521 2 25.7708 20.6065 86.939
14522 2 24.7573 19.3801 87.3068
14523 1 35.8364 25.2779 60.6685
14524 2 36.1422 25.8035 59.8746
14525 2 35.9992 25.807 61.5013
14526 1 48.7119 24.1333 79.5084
14527 2 48.9576 23.5846 78.7093
14528 2 48.737 23.5597 80.3271
14529 1 12.5267 23.0759 68.2959
14530 2 13.0834 22.255 68.4229
14531 2 11.5587 22.8376 68.374
14532 1 47.221 17.8919 47.8601
14533 2 47.5757 17.4459 47.0384
14534 2 46.8199 18.7742 47.6137
14535 1 72.4934 25.6571 35.6469
14536 2 72.6057 26.2155 36.4689
14537 2 72.5492 24.689 35.8914
14538 1 21.2466 5.57023 45.5049
14539 2 21.7133 5.76427 44.6421
14540 2 21.9145 5.5541 46.249
14541 1 42.3018 10.0583 32.8645
14542 2 41.7754 10.7623 32.3878
14543 2 43.1664 10.447 33.1829
14544 1 70.9683 19.3244 66.1871
14545 2 71.4187 20.2023 66.0244
14546 2 70.8736 19.1757 67.1715
14547 1 29.7117 24.7029 76.4101
14548 2 30.0285 25.1293 77.2573
14549 2 30.4402 24.132 76.0315
14550 1 76.0082 9.07957 83.602
14551 2 76.1827 8.13989 83.3077
14552 2 76.8312 9.63044 83.4635
14553 1 50.377 29.0885 71.1316
14554 2 51.1048 29.4674 71.7032
14555 2 49.7868 29.8286 70.8094
14556 1 69.2501 29.3449 52.7189
14557 2 69.0428 0.283925 52.9931
14558 2 68.8663 28.7095 53.389
14559 1 18.6194 1.73614 46.7931
14560 2 18.4286 0.791481 46.5262
14561 2 17.7781 2.2741 46.7392
14562 1 20.1086 0.641682 70.761
14563 2 20.8203 1.03933 71.3401
14564 2 19.2183 1.01267 71.0249
14565 1 6.50274 22.2746 86.235
14566 2 5.85087 22.623 86.9086
14567 2 6.59539 21.2847 86.3418
14568 1 41.5145 2.88662 71.0236
14569 2 41.2956 2.05428 71.5328
14570 2 42.4643 3.14512 71.1998
14571 1 33.4485 17.1717 61.3773
14572 2 33.3119 18.1313 61.1312
14573 2 33.0858 17.0081 62.2947
14574 1 55.6511 21.9533 22.7347
14575 2 56.1929 22.5108 23.3636
14576 2 54.8507 22.4721 22.4342
14577 1 18.8568 19.3428 21.2433
14578 2 18.4283 20.1874 21.5643
14579 2 18.269 18.9096 20.5601
14580 1 33.8404 8.72907 68.327
14581 2 34.0254 9.24787 67.4924
14582 2 32.8526 8.62592 68.4434
14583 1 66.8173 27.887 78.8257
14584 2 67.5727 27.5385 79.3807
14585 2 67.0022 28.8357 78.5693
14586 1 47.839 24.6828 76.0294
14587 2 47.8794 23.6877 76.1198
14588 2 48.4806 25.1021 76.6717
14589 1 17.5152 22.9829 63.0323
14590 2 18.4326 22.9097 63.4233
14591 2 17.5803 23.0275 62.0354
14592 1 15.378 22.9167 50.7829
14593 2 16.2881 22.572 51.0127
14594 2 15.4587 23.6389 50.0959
14595 1 55.4177 20.8683 65.0662
14596 2 54.6005 20.709 65.62
14597 2 55.1602 20.9288 64.1018
14598 1 10.0295 1.21787 11.8202
14599 2 10.4252 0.479173 12.3658
14600 2 10.756 1.83437 11.5169
14601 1 16.8901 28.3286 64.6043
14602 2 16.4875 28.9414 63.9243
14603 2 17.0588 28.8344 65.4503
14604 1 23.021 24.7218 38.883
14605 2 22.7667 25.4687 38.2686
14606 2 23.9108 24.355 38.6113
14607 1 10.4072 4.81233 31.9472
14608 2 11.3804 4.8962 32.1614
14609 2 9.87853 4.80421 32.796
14610 1 15.6691 9.32874 89.2398
14611 2 15.3818 10.1469 89.7377
14612 2 16.1046 8.68892 89.873
14613 1 69.503 4.71247 88.3894
14614 2 69.0471 3.96943 87.8994
14615 2 69.6933 5.4622 87.7557
14616 1 7.67057 26.696 22.9513
14617 2 6.93916 27.1412 22.4348
14618 2 7.88945 27.2438 23.7588
14619 1 27.1309 27.897 54.4751
14620 2 26.7401 26.9813 54.5686
14621 2 26.3954 28.5611 54.3409
14622 1 43.3874 8.14164 82.4475
14623 2 44.0341 7.68124 83.0556
14624 2 43.8903 8.69595 81.7843
14625 1 9.29585 4.20895 57.8084
14626 2 8.4665 3.96388 58.3105
14627 2 9.05232 4.76499 57.0137
14628 1 63.5368 14.9558 24.8228
14629 2 64.1337 14.5525 24.1292
14630 2 64.0256 15.0083 25.6936
14631 1 15.7678 8.0988 27.2272
14632 2 16.6949 7.87243 27.5258
14633 2 15.6692 7.8855 26.2552
14634 1 65.2825 21.3334 25.0572
14635 2 64.9674 22.0049 25.7278
14636 2 64.9709 20.4221 25.3262
14637 1 53.971 27.4779 37.2793
14638 2 53.2297 27.5029 36.6086
14639 2 53.6798 26.9522 38.0786
14640 1 77.8724 28.1203 88.926
14641 2 77.6713 27.3039 89.4674
14642 2 77.0441 28.4181 88.4515
14643 1 46.8489 18.5197 34.8968
14644 2 47.3128 19.4008 34.8043
14645 2 46.7843 18.277 35.8647
14646 1 16.1016 16.5533 61.66
14647 2 16.2662 17.1209 62.4667
14648 2 16.5787 16.9454 60.8735
14649 1 57.5149 19.97 42.563
14650 2 58.188 19.2505 42.7339
14651 2 56.5971 19.6186 42.7478
14652 1 38.1296 4.57534 42.5864
14653 2 37.953 4.66411 43.5666
14654 2 38.0186 5.46611 42.1457
14655 1 30.3841 8.43216 61.0646
14656 2 29.8992 8.35854 61.936
14657 2 30.0303 7.74752 60.4273
14658 1 56.328 4.2992 25.3261
14659 2 55.3295 4.26699 25.3699
14660 2 56.6736 3.43548 24.9593
14661 1 47.2853 29.1135 53.4544
14662 2 46.7604 28.627 52.7559
14663 2 46.929 0.0427383 53.5521
14664 1 0.970972 22.0861 50.2408
14665 2 1.27408 22.7903 49.5988
14666 2 79.9857 21.9464 50.1416
14667 1 19.0971 10.1371 21.7235
14668 2 18.5306 9.50881 22.2568
14669 2 18.5336 10.8933 21.3908
14670 1 32.4713 13.2093 58.1901
14671 2 31.7296 13.4643 58.8105
14672 2 33.2638 12.9118 58.7224
14673 1 39.1227 2.50073 65.9525
14674 2 39.6119 3.27046 65.5424
14675 2 38.5889 2.03201 65.2487
14676 1 29.8793 3.34076 68.3159
14677 2 30.2809 3.45475 69.2246
14678 2 29.4241 2.45201 68.2617
14679 1 27.2452 13.2571 46.7953
14680 2 26.2708 13.4767 46.748
14681 2 27.7669 13.9452 46.291
14682 1 49.0505 7.14761 79.9779
14683 2 49.8357 6.94752 80.5639
14684 2 48.4186 6.37261 79.9911
14685 1 61.6121 9.32866 32.4411
14686 2 61.99 10.2343 32.2487
14687 2 60.7365 9.42647 32.9141
14688 1 51.6636 7.99875 31.0085
14689 2 51.1032 7.39803 30.4383
14690 2 52.0728 8.71203 30.4394
14691 1 17.8611 4.41162 24.7257
14692 2 17.7707 5.37294 24.4656
14693 2 17.9399 4.34141 25.7201
14694 1 41.4308 2.89306 57.8541
14695 2 41.4531 3.18399 56.8976
14696 2 42.0569 2.12411 57.9833
14697 1 33.9577 25.2979 83.6517
14698 2 33.7649 24.7014 84.4309
14699 2 34.9466 25.3648 83.5198
14700 1 7.17133 19.0694 83.2205
14701 2 7.33053 19.8483 83.8272
14702 2 7.28222 18.2187 83.7342
14703 1 32.449 1.25274 56.2922
14704 2 32.3899 0.404911 55.7652
14705 2 32.7343 1.04451 57.2277
14706 1 7.24935 2.7893 16.7588
14707 2 6.99753 3.01177 17.7007
14708 2 7.9882 3.39322 16.4598
14709 1 2.75284 11.1712 12.9341
14710 2 3.44673 11.4505 12.2704
14711 2 2.11029 11.9233 13.081
14712 1 50.2011 7.38403 62.7204
14713 2 49.8202 7.99858 62.0295
14714 2 51.1495 7.63989 62.9076
14715 1 16.5956 10.4394 30.6688
14716 2 16.0623 9.79286 31.2143
14717 2 17.5554 10.1588 30.6635
14718 1 17.8022 27.9383 15.6346
14719 2 18.2857 27.7534 14.779
14720 2 18.3176 27.5509 16.3991
14721 1 28.0299 10.5639 84.0371
14722 2 27.5632 10.0058 84.7233
14723 2 28.5897 9.97559 83.4536
14724 1 8.92723 22.2259 14.9823
14725 2 9.65587 21.942 14.359
14726 2 9.26677 22.948 15.5851
14727 1 64.3181 17.4688 14.0841
14728 2 63.7773 18.2544 13.7836
14729 2 63.7525 16.6446 14.0563
14730 1 74.0927 12.3092 43.1882
14731 2 74.768 12.9115 43.6137
14732 2 73.9472 11.5084 43.7692
14733 1 76.8881 9.36132 20.6854
14734 2 77.6792 9.56369 21.2627
14735 2 76.357 10.1966 20.5431
14736 1 16.3897 23.0397 45.8624
14737 2 16.24 23.6643 46.6289
14738 2 17.3223 22.6808 45.9022
14739 1 36.0719 11.4258 79.7352
14740 2 35.8825 11.1671 80.6824
14741 2 35.9149 12.4067 79.6198
14742 1 32.2142 18.6904 36.0541
14743 2 32.6776 19.1998 36.7792
14744 2 31.2264 18.8262 36.1303
14745 1 79.387 19.8962 30.0021
14746 2 79.6088 18.9247 30.0846
14747 2 78.6499 20.125 30.638
14748 1 32.3775 25.4796 53.1757
14749 2 31.9025 26.0691 53.829
14750 2 32.4918 25.9662 52.3096
14751 1 38.6851 17.7597 61.0578
14752 2 39.0813 17.0521 61.6429
14753 2 39.4185 18.2951 60.639
14754 1 70.3899 22.5133 52.8087
14755 2 70.1951 23.449 53.103
14756 2 69.6674 21.9039 53.1353
14757 1 74.6119 19.8406 37.6605
14758 2 75.3274 20.1524 38.2857
14759 2 73.9339 19.3091 38.1684
14760 1 57.8648 28.3074 46.5722
14761 2 57.9163 27.4109 47.0123
14762 2 58.6611 28.853 46.8333
14763 1 31.914 27.7457 91.4251
14764 2 31.3329 28.333 90.8616
14765 2 32.3059 28.2827 92.1721
14766 1 36.1561 3.75485 53.3986
14767 2 35.9556 2.77746 53.3314
14768 2 35.3185 4.27843 53.2426
14769 1 62.1315 17.8738 69.5291
14770 2 61.7517 17.5952 70.4112
14771 2 61.5558 17.5204 68.7917
14772 1 5.49867 1.08127 11.2851
14773 2 5.56681 0.108418 11.5062
14774 2 6.31118 1.55729 11.6216
14775 1 7.25949 21.5614 12.3827
14776 2 6.66514 21.9864 13.0654
14777 2 7.68661 22.2722 11.8238
14778 1 65.0895 19.4556 85.1705
14779 2 64.8604 18.6099 85.6525
14780 2 66.0584 19.4463 84.9232
14781 1 46.8813 14.4771 29.8104
14782 2 47.037 15.3421 29.3334
14783 2 47.6141 14.3259 30.4739
14784 1 20.8245 19.529 37.0666
14785 2 21.6727 19.1285 36.7201
14786 2 20.064 19.2633 36.4741
14787 1 74.9294 28.3011 24.2982
14788 2 74.7642 29.0055 23.6079
14789 2 74.0855 27.7901 24.4616
14790 1 71.7902 19.6202 23.9877
14791 2 71.6446 19.1281 24.846
14792 2 71.1205 19.3149 23.3108
14793 1 38.382 10.4291 50.7518
14794 2 37.6478 10.2083 51.3938
14795 2 38.0654 10.2716 49.8164
14796 1 78.594 22.3167 47.3651
14797 2 77.6304 22.367 47.6277
14798 2 78.6631 22.1112 46.3889
14799 1 61.4697 13.0272 62.4528
14800 2 62.3694 13.3987 62.2235
14801 2 61.5737 12.2908 63.1214
14802 1 10.828 15.9405 87.086
14803 2 10.1704 16.3176 87.7383
14804 2 10.8321 14.9429 87.1558
14805 1 68.9516 17.7341 57.6671
14806 2 69.4839 17.4904 56.8563
14807 2 68.0054 17.9191 57.4014
14808 1 74.4892 17.5788 16.5263
14809 2 75.2256 17.6768 15.8569
14810 2 74.5132 18.3492 17.1635
14811 1 43.8257 9.45631 48.5954
14812 2 44.5702 9.8858 49.1066
14813 2 44.184 9.07173 47.7447
14814 1 12.7772 9.86246 30.4697
14815 2 13.3623 10.4485 31.0302
14816 2 13.2743 9.02938 30.2271
14817 1 79.4463 8.48268 38.122
14818 2 78.5418 8.5285 37.6981
14819 2 79.727 7.52656 38.2061
14820 1 7.72456 9.68598 66.8672
14821 2 7.18923 9.09059 67.4663
14822 2 8.63705 9.81576 67.2552
14823 1 32.0671 16.4714 59.1322
14824 2 32.7709 16.6704 59.8142
14825 2 31.1651 16.5148 59.5618
14826 1 35.5638 24.0949 79.4013
14827 2 35.7242 24.917 78.855
14828 2 34.7254 24.2076 79.9346
14829 1 22.1348 29.4748 63.053
14830 2 22.6216 28.6119 63.1891
14831 2 22.0695 29.9616 63.9241
14832 1 10.9326 17.9358 68.9833
14833 2 10.4773 17.5958 68.1604
14834 2 10.2463 18.1629 69.6742
14835 1 1.31032 0.38297 42.4935
14836 2 2.15154 29.8701 42.3223
14837 2 0.724523 29.8642 43.1162
14838 1 11.7301 11.8978 88.8796
14839 2 11.2635 11.1807 89.3973
14840 2 11.0634 12.5802 88.58
14841 1 78.7212 10.4297 82.7572
14842 2 78.7537 9.50038 82.3893
14843 2 78.7617 11.0875 82.0051
14844 1 1.97343 23.8414 38.8571
14845 2 1.14911 23.7379 39.4137
14846 2 2.15124 22.9903 38.3632
14847 1 35.1039 3.087 80.5774
14848 2 35.4654 2.16818 80.4189
14849 2 34.8375 3.17946 81.5368
14850 1 7.05329 2.49673 30.8908
14851 2 7.05819 1.5906 31.3138
14852 2 6.1092 2.80534 30.7749
14853 1 73.4095 26.6101 47.19
14854 2 73.2455 27.5635 47.4431
14855 2 73.88 26.5755 46.3083
14856 1 54.6006 5.06864 22.6855
14857 2 53.775 4.93012 22.1385
14858 2 54.3447 5.2518 23.6347
14859 1 68.1001 14.4304 71.5985
14860 2 67.9668 15.4028 71.4071
14861 2 67.3237 14.085 72.1256
14862 1 4.28029 0.697827 33.6044
14863 2 4.01062 29.8972 34.1395
14864 2 3.49857 1.31425 33.5097
14865 1 24.433 13.7303 28.7575
14866 2 24.9582 13.4809 27.9439
14867 2 24.9716 13.5306 29.5761
14868 1 58.078 1.6546 27.858
14869 2 57.7412 0.904954 27.2883
14870 2 57.5732 1.67015 28.7211
14871 1 7.02226 6.61498 62.9619
14872 2 7.01671 5.62852 63.1258
14873 2 6.65758 7.08816 63.7639
14874 1 56.8466 17.4606 21.8081
14875 2 56.8715 17.0394 22.7147
14876 2 57.7482 17.3876 21.3818
14877 1 65.0066 9.1816 88.1644
14878 2 65.0132 9.58844 89.0779
14879 2 65.2507 8.21398 88.2287
14880 1 69.6306 22.516 67.6221
14881 2 69.9677 23.2024 68.2665
14882 2 68.7027 22.7549 67.3358
14883 1 2.19272 22.3134 76.8292
14884 2 1.53625 22.309 77.5835
14885 2 3.11748 22.4258 77.1928
14886 1 56.7525 25.9259 55.2167
14887 2 57.4363 25.4821 55.7959
14888 2 55.8396 25.6141 55.4802
14889 1 58.2503 3.26745 57.3737
14890 2 57.4839 2.79615 57.8101
14891 2 58.0324 4.23853 57.276
14892 1 4.68161 5.0714 42.3688
14893 2 4.17471 5.44183 43.1471
14894 2 5.35876 5.7407 42.063
14895 1 25.9763 17.401 33.9152
14896 2 26.0138 18.4002 33.9272
14897 2 26.8542 17.0382 33.6026
14898 1 22.4053 3.07994 56.1516
14899 2 23.1257 3.7355 56.3779
14900 2 22.8189 2.2259 55.8361
14901 1 40.691 29.0305 59.6712
14902 2 40.1167 28.6285 58.9581
14903 2 41.4617 29.5077 59.249
14904 1 65.9333 2.72981 49.8786
14905 2 65.072 2.40831 50.2722
14906 2 66.5875 1.97422 49.8461
14907 1 24.2397 24.0054 41.7449
14908 2 24.8096 23.8558 42.553
14909 2 23.7898 23.1491 41.4912
14910 1 65.7441 10.6554 77.5616
14911 2 65.0149 10.1849 78.0584
14912 2 65.7635 11.6182 77.8311
14913 1 23.6388 4.4521 87.4198
14914 2 23.6689 5.20776 86.7655
14915 2 23.521 4.81577 88.3439
14916 1 64.0417 28.9448 26.5196
14917 2 63.3692 28.2128 26.6288
14918 2 63.9623 29.5868 27.2823
14919 1 77.4583 24.9262 45.4984
14920 2 78.3002 25.2194 45.9514
14921 2 77.5592 23.9813 45.1867
14922 1 68.4055 12.5859 42.6691
14923 2 68.2022 11.8731 43.3403
14924 2 68.8324 13.3646 43.1288
14925 1 72.4725 27.0421 60.3495
14926 2 73.0488 26.957 61.1623
14927 2 71.7059 26.4034 60.416
14928 1 32.8143 10.5131 61.7285
14929 2 31.9045 10.1031 61.7938
14930 2 32.8404 11.3542 62.2688
14931 1 53.1381 15.6326 24.293
14932 2 52.2635 15.6735 23.8098
14933 2 53.1265 14.8695 24.9392
14934 1 54.4954 22.0202 62.5675
14935 2 55.3295 22.0421 62.0162
14936 2 53.698 22.0943 61.9687
14937 1 71.8103 10.9775 30.4071
14938 2 72.2687 11.3218 29.5878
14939 2 71.6951 9.98694 30.3331
14940 1 32.2857 16.4374 54.2329
14941 2 31.5291 15.7864 54.2935
14942 2 32.5651 16.7103 55.1535
14943 1 14.2107 2.38375 50.8398
14944 2 13.6575 2.46733 50.011
14945 2 13.6372 2.55182 51.6416
14946 1 42.4174 29.3067 87.8252
14947 2 41.4765 28.997 87.9622
14948 2 42.8104 28.839 87.0335
14949 1 38.294 27.4321 83.0615
14950 2 38.2505 27.305 84.0524
14951 2 39.0961 26.9573 82.6994
14952 1 3.06193 24.4354 26.5535
14953 2 3.76955 24.4673 27.2593
14954 2 2.40964 25.1788 26.7015
14955 1 60.8584 3.5767 52.4402
14956 2 60.0379 3.00504 52.4362
14957 2 60.8759 4.14021 51.6142
14958 1 26.3285 1.29882 48.6259
14959 2 25.7465 1.92561 48.1077
14960 2 27.2535 1.67421 48.6843
14961 1 20.8825 15.1821 28.0952
14962 2 21.4903 14.8153 27.3909
14963 2 20.4856 16.0432 27.7775
14964 1 17.4572 1.66846 14.5522
14965 2 18.3082 1.14948 14.6331
14966 2 17.6583 2.64709 14.5956
14967 1 38.8131 13.1506 69.0996
14968 2 38.8985 12.9354 68.1268
14969 2 38.9617 14.1297 69.2387
14970 1 37.2419 4.43843 30.1551
14971 2 36.6469 4.23799 29.3768
14972 2 36.6958 4.47209 30.9922
14973 1 4.06151 14.8383 24.6051
14974 2 4.9917 14.5502 24.3777
14975 2 3.66991 15.3398 23.8337
14976 1 3.30216 2.96174 61.6304
14977 2 4.19604 2.7141 62.0041
14978 2 2.5818 2.60584 62.2257
14979 1 65.4596 21.6965 60.5531
14980 2 65.11 21.3233 59.6938
14981 2 66.4582 21.7365 60.5174
14982 1 16.5185 19.5558 77.7052
14983 2 16.0262 19.964 76.9365
14984 2 16.0035 18.7721 78.0525
14985 1 27.4325 22 39.4321
14986 2 27.0489 22.8324 39.8319
14987 2 26.9992 21.8245 38.5481
14988 1 13.9132 9.35414 70.2143
14989 2 14.4603 8.68368 70.7155
14990 2 12.991 8.99383 70.0739
14991 1 10.4125 20.5916 66.9628
14992 2 10.7439 19.9915 67.6909
14993 2 9.92452 21.366 67.3654
14994 1 66.5027 24.456 63.649
14995 2 65.9519 23.865 63.0596
14996 2 66.2357 24.3177 64.6028
14997 1 23.2497 21.9309 86.7128
14998 2 23.7572 22.3085 85.9383
14999 2 22.2687 21.9835 86.5259
15000 1 59.7062 27.6912 42.3093
15001 2 59.8057 28.6701 42.4877
15002 2 58.8362 27.5236 41.8457
15003 1 2.79803 15.3001 72.4168
15004 2 2.27736 14.6803 73.004
15005 2 3.69782 14.9056 72.2306
15006 1 18.3376 16.3087 53.8922
15007 2 18.3258 17.0485 54.5649
15008 2 19.2646 16.1991 53.5335
15009 1 46.5435 21.8966 89.6847
15010 2 46.1931 21.0445 89.2961
15011 2 47.4711 21.7497 90.0282
15012 1 46.4795 16.7275 73.5591
15013 2 46.7227 15.863 73.1193
15014 2 46.2313 16.5581 74.5129
15015 1 29.8376 3.64809 57.8487
15016 2 29.1737 4.18306 58.3713
15017 2 30.7209 4.11676 57.8532
15018 1 30.1973 16.2946 61.1211
15019 2 30.0567 17.1181 61.6707
15020 2 29.3136 15.8687 60.9266
15021 1 75.8517 0.563644 68.0297
15022 2 75.4304 1.0225 67.2474
15023 2 76.611 1.11722 68.3716
15024 1 5.26992 15.0934 45.8054
15025 2 5.95875 15.4674 46.4264
15026 2 4.36036 15.2204 46.2011
15027 1 52.8321 26.2773 39.6803
15028 2 52.0355 25.8361 40.0936
15029 2 53.0905 27.0757 40.2242
15030 1 24.9757 0.115939 35.3846
15031 2 24.2122 29.4748 35.4619
15032 2 25.8356 29.6308 35.5432
15033 1 62.0056 2.85426 86.6946
15034 2 62.3685 2.56538 85.8087
15035 2 62.282 3.79797 86.8764
15036 1 15.9714 0.911167 66.6684
15037 2 15.3226 1.37188 66.0628
15038 2 15.5511 0.0827891 67.0388
15039 1 39.7246 23.3326 49.6636
15040 2 39.5364 24.1759 49.1601
15041 2 40.1863 22.6811 49.0617
15042 1 46.8184 16.6912 68.3168
15043 2 47.0734 15.9432 67.7039
15044 2 47.3648 17.5003 68.1005
15045 1 26.109 6.90571 78.8466
15046 2 25.1335 6.70295 78.9321
15047 2 26.279 7.85012 79.128
15048 1 25.4619 11.3082 67.4645
15049 2 25.7623 11.8399 68.2563
15050 2 24.7015 11.7784 67.0164
15051 1 62.7035 14.4468 32.8052
15052 2 62.9601 13.4909 32.9482
15053 2 61.8793 14.6531 33.3326
15054 1 44.7622 26.692 58.2144
15055 2 45.2766 26.0762 58.8112
15056 2 43.911 26.9598 58.6659
15057 1 26.5574 10.7903 64.091
15058 2 26.4916 10.8451 63.0947
15059 2 27.4415 10.3982 64.3456
15060 1 46.88 14.4602 72.3551
15061 2 46.8828 13.4922 72.606
15062 2 47.7689 14.7071 71.9692
15063 1 29.4463 9.92235 79.6341
15064 2 30.018 10.7038 79.8839
15065 2 28.5823 9.96758 80.1356
15066 1 49.0416 28.9378 58.5947
15067 2 49.6266 28.5669 57.8735
15068 2 49.4613 28.7655 59.4859
15069 1 45.2445 18.3105 39.5561
15070 2 45.0296 17.4844 39.0352
15071 2 44.396 18.7389 39.8668
15072 1 49.1444 14.2363 40.7344
15073 2 49.2599 13.3557 40.2748
15074 2 49.3628 14.1368 41.7052
15075 1 51.1415 28.6332 90.0212
15076 2 50.8636 27.7054 89.7724
15077 2 51.2783 29.1741 89.1913
15078 1 23.358 18.9798 53.1767
15079 2 23.8001 18.9911 54.0736
15080 2 23.6842 18.192 52.6543
15081 1 54.3515 29.5791 26.493
15082 2 54.0524 29.2315 27.3817
15083 2 53.7906 29.1745 25.7708
15084 1 62.7249 29.3884 85.118
15085 2 63.6503 29.6077 84.8092
15086 2 62.673 29.4867 86.1118
15087 1 62.1664 23.4136 83.248
15088 2 62.8413 24.1045 82.9888
15089 2 62.3772 23.0682 84.1625
15090 1 3.57502 3.4905 24.2273
15091 2 3.72085 2.50124 24.2374
15092 2 4.36638 3.94822 24.6326
15093 1 72.3546 8.13636 26.6957
15094 2 72.4806 7.61879 25.8493
15095 2 73.2407 8.47051 27.017
15096 1 58.8676 14.4003 58.0076
15097 2 58.1545 14.3774 57.307
15098 2 59.5356 13.6784 57.8271
15099 1 18.1739 0.258153 83.2864
15100 2 18.2155 29.471 83.9018
15101 2 18.0147 1.08945 83.819
15102 1 74.2095 14.5585 58.2999
15103 2 74.9149 13.9444 58.6539
15104 2 73.8849 15.1526 59.036
15105 1 45.571 10.1019 80.8936
15106 2 46.4568 9.82178 80.5237
15107 2 45.6974 10.8816 81.5069
15108 1 10.7369 3.23075 14.489
15109 2 9.85345 3.30516 14.9516
15110 2 11.4712 3.42495 15.1394
15111 1 40.5086 0.932837 29.926
15112 2 40.1346 0.425216 29.1499
15113 2 41.4836 0.730438 30.018
15114 1 7.89787 0.945348 79.8326
15115 2 7.7404 1.43863 80.6881
15116 2 8.76266 0.446482 79.8898
15117 1 2.39687 21.4922 31.0989
15118 2 1.6041 22.0794 31.2623
15119 2 3.23459 21.9988 31.3029
15120 1 28.8162 27.3158 90.6818
15121 2 28.1425 26.9313 91.3128
15122 2 28.397 27.4417 89.7826
15123 1 5.65007 1.57437 28.0324
15124 2 5.85308 1.08762 27.1828
15125 2 4.99138 1.04725 28.5693
15126 1 34.5105 17.5768 86.2721
15127 2 35.4597 17.8783 86.1817
15128 2 33.9821 17.8997 85.4868
15129 1 44.757 18.5133 86.0955
15130 2 43.9719 19.0537 85.793
15131 2 45.5739 18.8047 85.5975
15132 1 69.537 14.221 75.8154
15133 2 68.7917 13.7571 76.2944
15134 2 70.3066 14.3489 76.441
15135 1 61.2937 23.143 46.7223
15136 2 61.1676 23.8137 47.4532
15137 2 61.4464 22.2392 47.122
15138 1 12.9372 27.161 66.7802
15139 2 13.8827 27.4291 66.9649
15140 2 12.4974 27.8585 66.2144
15141 1 19.9302 2.55233 57.8366
15142 2 20.4397 1.97733 58.4768
15143 2 19.7364 3.43558 58.2636
15144 1 66.9563 15.6058 59.0428
15145 2 66.6951 14.6553 58.8747
15146 2 66.6658 16.1726 58.2719
15147 1 5.24467 21.7008 73.3341
15148 2 5.87125 21.4625 74.0761
15149 2 4.30724 21.7175 73.6818
15150 1 13.2065 0.32815 12.0648
15151 2 13.549 29.4406 11.7568
15152 2 13.0823 0.929646 11.2757
15153 1 2.22686 4.65653 87.0284
15154 2 1.38569 4.72343 87.565
15155 2 2.87087 4.04843 87.4926
15156 1 16.2451 3.95317 75.9277
15157 2 16.683 3.14564 75.5326
15158 2 16.9267 4.67408 76.0533
15159 1 11.4726 7.6691 80.1321
15160 2 10.5956 7.21177 79.9847
15161 2 12.2082 7.11121 79.7477
15162 1 13.7368 1.86227 87.0687
15163 2 14.1521 1.64058 86.1865
15164 2 13.3378 1.036 87.4664
15165 1 7.97234 16.1514 65.8601
15166 2 7.42844 15.5138 66.4057
15167 2 8.94453 15.9902 66.03
15168 1 10.3352 25.488 23.4959
15169 2 11.164 25.0073 23.7822
15170 2 9.84109 25.8104 24.3033
15171 1 72.2481 3.83391 61.9145
15172 2 71.5928 4.08708 62.6261
15173 2 72.8571 3.12035 62.2608
15174 1 62.8402 16.253 47.0045
15175 2 63.177 15.3159 46.9129
15176 2 62.2812 16.4856 46.2087
15177 1 41.6613 26.0374 56.3764
15178 2 41.4633 26.8718 55.8621
15179 2 42.5034 25.6242 56.0298
15180 1 40.8688 22.9151 47.2206
15181 2 40.0047 22.4553 47.0162
15182 2 41.5367 22.7018 46.5076
15183 1 47.2513 17.6838 30.4453
15184 2 46.2561 17.6739 30.5432
15185 2 47.52 18.441 29.85
15186 1 27.39 7.48024 41.4546
15187 2 28.129 7.00411 41.9311
15188 2 27.7669 7.99424 40.684
15189 1 12.3019 14.0498 85.4824
15190 2 11.7684 13.4919 86.1181
15191 2 11.7596 14.8396 85.196
15192 1 0.804425 17.0181 85.7038
15193 2 0.869004 17.4044 86.6239
15194 2 0.251671 17.6201 85.1275
15195 1 6.76774 26.6807 72.5865
15196 2 6.86128 25.763 72.9726
15197 2 7.53126 27.2499 72.8914
15198 1 50.0176 1.00646 86.0082
15199 2 50.6875 0.701771 86.6853
15200 2 49.205 0.425922 86.0587
15201 1 41.7196 4.5279 33.1877
15202 2 41.4243 5.31059 33.7356
15203 2 41.7309 4.78306 32.2209
15204 1 39.8005 23.7287 65.3684
15205 2 39.4904 24.675 65.4601
15206 2 40.2652 23.6138 64.4905
15207 1 8.50223 10.3877 83.1525
15208 2 8.86776 10.9985 83.8549
15209 2 9.21628 10.1854 82.4822
15210 1 31.1484 6.41664 45.7127
15211 2 32.0326 6.75543 45.3911
15212 2 30.9248 5.56556 45.2376
15213 1 69.8741 19.0763 21.4819
15214 2 69.6599 19.9254 20.999
15215 2 70.4402 18.4944 20.898
15216 1 51.4054 9.15746 90.7911
15217 2 52.06 9.8398 90.4656
15218 2 51.5994 8.9391 91.7475
15219 1 53.5279 9.89772 45.9193
15220 2 53.1193 9.94098 46.831
15221 2 54.0824 9.06916 45.8416
15222 1 60.5133 21.7997 52.15
15223 2 60.3695 21.7755 53.1393
15224 2 61.1191 22.5612 51.9197
15225 1 47.8595 26.105 73.1178
15226 2 48.1696 25.1888 73.3714
15227 2 48.6485 26.7149 73.0422
15228 1 17.3884 23.8982 56.3975
15229 2 17.6846 24.7104 56.9001
15230 2 18.0491 23.1606 56.537
15231 1 36.8182 8.14891 58.9991
15232 2 37.3748 7.87571 58.2145
15233 2 37.2847 8.8771 59.5013
15234 1 60.5757 7.23182 87.413
15235 2 60.3803 6.83344 86.5168
15236 2 60.7634 8.20861 87.3098
15237 1 62.4275 28.8782 58.616
15238 2 61.6185 28.9327 59.2012
15239 2 62.7344 27.9281 58.5591
15240 1 51.2556 8.72052 49.4689
15241 2 51.0256 8.4899 50.4144
15242 2 52.2047 9.03209 49.4232
15243 1 44.2643 17.6006 89.758
15244 2 44.3078 18.5989 89.7202
15245 2 45.0536 17.2514 90.2632
15246 1 47.1927 8.32045 61.8462
15247 2 46.3935 8.92142 61.8524
15248 2 47.3234 7.94917 60.927
15249 1 79.8263 7.10616 21.7966
15250 2 79.5306 8.05141 21.6586
15251 2 0.787919 7.09444 22.0709
15252 1 67.6342 4.18064 54.1637
15253 2 67.5935 4.73305 53.3311
15254 2 66.7294 4.15082 54.5884
15255 1 60.4128 11.8695 80.955
15256 2 60.2713 11.5238 80.0274
15257 2 60.1085 11.1839 81.6163
15258 1 65.337 5.38786 16.6762
15259 2 65.1405 6.27421 17.0955
15260 2 64.8317 5.3061 15.8172
15261 1 24.9463 13.7185 31.6917
15262 2 25.539 13.2105 32.3167
15263 2 23.9894 13.5323 31.9147
15264 1 52.2784 18.3119 33.7521
15265 2 51.3398 18.3901 33.4162
15266 2 52.2856 17.7842 34.6015
15267 1 28.738 0.470795 46.8229
15268 2 29.4668 29.8193 47.0337
15269 2 27.9687 29.9869 46.4057
15270 1 41.1827 25.9076 59.0816
15271 2 41.4142 24.9854 59.3912
15272 2 41.3065 25.9677 58.0911
15273 1 19.6885 22.8475 45.7339
15274 2 20.0913 22.4705 46.568
15275 2 20.1146 23.728 45.5265
15276 1 0.875765 27.1968 35.2063
15277 2 1.4776 27.9938 35.1555
15278 2 0.92316 26.6881 34.3466
15279 1 22.215 9.77354 82.5421
15280 2 22.1084 10.6893 82.1547
15281 2 21.8706 9.09497 81.8933
15282 1 20.0621 19.3635 66.0535
15283 2 20.2704 19.4415 67.0284
15284 2 19.4816 18.5639 65.8996
15285 1 21.6807 14.5087 73.2225
15286 2 21.6867 13.5188 73.0809
15287 2 20.989 14.7436 73.9054
15288 1 13.4116 23.2018 19.7989
15289 2 13.2905 23.4657 20.7558
15290 2 13.965 23.8906 19.3307
15291 1 71.7888 16.2713 65.5452
15292 2 71.3207 17.0673 65.1615
15293 2 72.741 16.2653 65.2399
15294 1 19.102 7.77138 32.9841
15295 2 19.957 7.52834 33.4421
15296 2 18.3315 7.37901 33.4865
15297 1 45.9823 0.932854 31.2247
15298 2 46.4058 1.6429 30.6621
15299 2 45.1125 0.657674 30.8151
15300 1 38.7695 25.1705 39.2976
15301 2 38.6928 25.8813 38.5984
15302 2 39.5877 24.6216 39.1265
15303 1 47.583 22.0296 76.5704
15304 2 46.6843 21.7051 76.8657
15305 2 48.196 22.0765 77.3591
15306 1 62.3053 25.2445 71.3268
15307 2 63.0809 25.2903 71.9563
15308 2 61.4573 25.4114 71.8299
15309 1 8.28535 12.6855 37.3139
15310 2 7.76401 13.2834 37.9227
15311 2 8.5485 13.1931 36.4934
15312 1 50.3058 27.4819 74.2634
15313 2 50.3841 26.4912 74.3745
15314 2 49.8504 27.8721 75.0636
15315 1 20.0053 10.2976 30.9576
15316 2 19.5075 11.1338 31.1879
15317 2 19.9773 9.66834 31.7342
15318 1 43.7946 3.73708 38.98
15319 2 42.9718 4.16349 38.6042
15320 2 44.6046 4.18863 38.6059
15321 1 0.781431 17.0799 50.8146
15322 2 79.8149 16.9119 51.0086
15323 2 1.11555 17.8183 51.4004
15324 1 68.6659 17.2892 38.495
15325 2 69.056 16.6158 37.867
15326 2 68.395 16.8355 39.344
15327 1 42.7326 4.33563 51.5702
15328 2 43.1965 3.45231 51.6378
15329 2 41.7432 4.19634 51.6095
15330 1 29.579 24.7425 65.5478
15331 2 29.2956 23.9785 64.9681
15332 2 30.0732 24.3919 66.3433
15333 1 15.1243 14.4294 10.9891
15334 2 14.6575 13.6 10.6823
15335 2 16.1099 14.264 11.0234
15336 1 54.0857 6.59448 55.6886
15337 2 54.2515 5.62892 55.4881
15338 2 54.9094 7.12352 55.4846
15339 1 68.5722 6.18905 31.1061
15340 2 67.7971 6.6967 30.7297
15341 2 68.6387 5.29928 30.6546
15342 1 29.0801 27.8965 68.9023
15343 2 29.4437 26.979 69.0634
15344 2 28.0821 27.8749 68.9624
15345 1 0.762012 25.5875 60.0529
15346 2 0.290938 25.3346 60.8979
15347 2 0.395466 26.4537 59.7133
15348 1 46.2154 22.6066 69.3696
15349 2 45.898 23.1845 70.1215
15350 2 46.7004 23.1683 68.6993
15351 1 34.5258 13.5071 32.4929
15352 2 34.6708 12.6126 32.9157
15353 2 34.858 13.4879 31.5499
15354 1 41.2042 14.0494 70.468
15355 2 41.1158 15.0453 70.4483
15356 2 42.1611 13.7968 70.3253
15357 1 75.5692 23.2547 51.8958
15358 2 74.6838 22.8983 52.1941
15359 2 75.4777 24.2231 51.6639
15360 1 67.1726 25.2637 20.3074
15361 2 66.5976 25.9631 19.8829
15362 2 67.515 25.6008 21.1844
15363 1 50.4898 26.5442 60.4425
15364 2 49.5139 26.6675 60.6224
15365 2 51.0195 26.9332 61.1961
15366 1 14.6236 10.4308 59.3877
15367 2 14.7489 9.49661 59.7218
15368 2 15.1843 11.0567 59.9299
15369 1 2.22257 15.8691 79.914
15370 2 3.03079 15.5922 79.3943
15371 2 1.54378 16.2592 79.2919
15372 1 40.0553 6.44003 90.4756
15373 2 39.8354 7.25434 91.0128
15374 2 39.8069 6.59445 89.5193
15375 1 39.3457 24.3636 57.1942
15376 2 39.5843 25.0961 57.8318
15377 2 39.3019 24.7314 56.2654
15378 1 16.0328 28.7207 37.7609
15379 2 16.9137 28.2685 37.9002
15380 2 16.1433 29.7081 37.8744
15381 1 11.3118 18.3262 11.6629
15382 2 11.7835 17.69 12.2734
15383 2 11.9513 19.0321 11.3584
15384 1 37.337 20.5717 45.2814
15385 2 37.926 20.9172 46.012
15386 2 36.6446 19.9642 45.6707
15387 1 31.923 28.2148 69.4067
15388 2 31.8938 27.9437 70.3688
15389 2 31.0848 27.9158 68.9506
15390 1 65.3441 10.4938 85.7507
15391 2 64.9457 9.77201 86.3165
15392 2 65.9768 10.0889 85.0905
15393 1 18.5617 5.8161 47.1558
15394 2 19.0845 5.37642 46.4255
15395 2 19.1811 6.34139 47.7393
15396 1 75.2279 21.4403 22.4103
15397 2 75.9644 20.9218 22.8449
15398 2 75.2164 22.3717 22.7741
15399 1 65.4224 15.8784 83.9923
15400 2 65.9792 15.1975 83.5166
15401 2 65.552 15.7842 84.9794
15402 1 36.9869 13.2316 87.8948
15403 2 37.8802 12.8631 88.1521
15404 2 37.0023 13.5014 86.932
15405 1 75.6236 19.0223 61.615
15406 2 75.3159 19.9708 61.5396
15407 2 76.547 19.0009 61.9982
15408 1 35.4523 27.5368 86.7358
15409 2 36.0952 27.0543 86.141
15410 2 35.1542 28.3806 86.2895
15411 1 23.2629 6.70995 83.5551
15412 2 23.1454 5.88683 84.1107
15413 2 23.8028 6.48947 82.7427
15414 1 67.3272 2.89478 40.4743
15415 2 68.0428 2.62285 41.1177
15416 2 66.8544 3.70357 40.824
15417 1 54.3328 11.0383 59.543
15418 2 54.048 10.9008 60.4917
15419 2 55.0539 10.3846 59.3134
15420 1 14.057 15.9074 18.9696
15421 2 14.0835 16.9045 19.041
15422 2 14.6225 15.5065 19.6903
15423 1 40.0995 28.5056 43.0904
15424 2 39.896 28.7961 44.0254
15425 2 39.2889 28.0779 42.6904
15426 1 11.2423 16.1652 76.9003
15427 2 10.5033 15.8409 76.3098
15428 2 10.9953 16.0134 77.8573
15429 1 24.2814 19.6056 83.084
15430 2 24.0653 19.2685 84.0003
15431 2 24.2661 20.6055 83.0844
15432 1 10.9313 12.4828 36.2891
15433 2 10.1861 11.9743 36.7205
15434 2 11.687 12.5801 36.9367
15435 1 53.7499 19.6806 42.216
15436 2 53.8503 18.8899 41.6121
15437 2 53.5251 20.489 41.6721
15438 1 76.7341 11.4137 25.1637
15439 2 76.0397 10.8914 24.6687
15440 2 76.5285 11.3979 26.1422
15441 1 59.4239 3.66083 89.4156
15442 2 59.3452 3.67027 88.4188
15443 2 60.1704 4.26388 89.6968
15444 1 64.0042 8.32118 60.6963
15445 2 64.0762 9.31822 60.6692
15446 2 63.2339 8.05835 61.2773
15447 1 53.6546 8.31929 61.5085
15448 2 53.8609 7.99589 60.585
15449 2 53.6156 9.31853 61.5108
15450 1 23.0556 3.67245 59.4867
15451 2 22.9995 2.87734 60.0906
15452 2 22.3258 3.62516 58.8047
15453 1 22.9179 7.082 75.2589
15454 2 22.2578 7.25733 75.9893
15455 2 23.7508 7.60864 75.429
15456 1 22.9773 14.9794 21.0465
15457 2 23.9525 14.7593 21.0246
15458 2 22.4804 14.2461 21.5104
15459 1 17.6944 12.2983 24.4985
15460 2 16.9583 11.6602 24.7246
15461 2 17.3596 12.9742 23.842
15462 1 40.8975 8.5763 30.7195
15463 2 40.4125 9.40321 31.0041
15464 2 40.2902 7.78674 30.8075
15465 1 29.5391 9.56826 74.7885
15466 2 28.8655 9.64437 75.5236
15467 2 30.0913 8.74604 74.9263
15468 1 44.5065 16.4195 48.1376
15469 2 43.9454 16.2295 47.3319
15470 2 45.455 16.1634 47.9511
15471 1 22.3124 27.6209 85.8498
15472 2 21.8966 27.2578 85.016
15473 2 21.5961 27.8315 86.515
15474 1 52.8548 16.1292 31.3237
15475 2 52.0827 16.5762 30.872
15476 2 53.0025 15.2276 30.9172
15477 1 40.0908 10.0915 28.5836
15478 2 40.1202 9.7111 29.5079
15479 2 39.3461 9.6643 28.0708
15480 1 27.9358 13.626 42.0484
15481 2 27.8221 14.3717 42.7049
15482 2 28.4855 13.9432 41.2755
15483 1 74.0368 19.7655 17.999
15484 2 74.7806 20.0672 18.5954
15485 2 73.2318 19.5515 18.5524
15486 1 71.9188 13.255 58.2583
15487 2 72.8562 13.5513 58.4414
15488 2 71.8777 12.2559 58.2653
15489 1 72.2813 19.7709 49.4856
15490 2 72.041 19.4471 50.4007
15491 2 73.0718 19.2598 49.1481
15492 1 60.2294 28.9845 60.2844
15493 2 59.8183 29.7188 60.8245
15494 2 60.4967 28.2349 60.89
15495 1 17.7874 24.6573 14.6856
15496 2 18.6545 24.1651 14.6093
15497 2 17.5441 24.7561 15.6505
15498 1 53.421 25.1376 74.2115
15499 2 52.4727 24.823 74.1702
15500 2 53.4932 25.894 74.8617
15501 1 32.4891 12.623 78.5104
15502 2 32.0211 12.3449 79.3492
15503 2 33.3582 13.0597 78.7427
15504 1 78.4609 29.7647 30.6661
15505 2 77.8119 29.3624 30.0205
15506 2 78.6253 29.1242 31.4162
15507 1 29.9166 29.2756 32.4046
15508 2 30.2727 29.1148 33.3251
15509 2 30.6625 29.5641 31.8043
15510 1 18.9176 29.0057 37.9804
15511 2 19.8456 28.9181 37.6185
15512 2 18.4249 29.7091 37.468
15513 1 9.1811 3.94504 83.1865
15514 2 9.85218 4.23634 82.5047
15515 2 8.57892 3.25367 82.7872
15516 1 6.78748 9.07026 64.1307
15517 2 7.00484 8.82886 65.0765
15518 2 7.14333 9.98287 63.9294
15519 1 41.4783 22.3347 71.9293
15520 2 41.9736 22.753 72.6907
15521 2 41.3681 23.0047 71.1951
15522 1 22.708 8.41742 59.8212
15523 2 22.6487 9.41249 59.9008
15524 2 21.7935 8.02137 59.9046
15525 1 73.5665 26.9826 65.0904
15526 2 73.7458 27.7721 64.5035
15527 2 74.0343 26.1796 64.721
15528 1 60.7832 18.4743 36.2053
15529 2 61.5556 18.0001 35.7829
15530 2 61.1135 19.0462 36.9563
15531 1 29.1944 11.1681 61.0469
15532 2 29.4875 10.7555 61.9094
15533 2 29.414 12.1437 61.0526
15534 1 33.1135 2.66858 67.3282
15535 2 32.8595 2.7103 66.3619
15536 2 32.4927 3.24348 67.8612
15537 1 22.7757 25.0188 48.5319
15538 2 22.7857 25.8452 49.0949
15539 2 21.889 24.9361 48.077
15540 1 22.6466 12.7434 60.2562
15541 2 22.7041 12.1022 59.491
15542 2 21.8067 13.2805 60.1786
15543 1 13.7601 11.6402 86.7277
15544 2 14.7539 11.7078 86.8153
15545 2 13.3324 11.8596 87.6046
15546 1 75.1286 21.3816 61.3027
15547 2 75.1606 22.2248 60.7661
15548 2 74.3685 21.4277 61.9509
15549 1 68.563 15.4787 40.2556
15550 2 68.5525 15.193 39.2974
15551 2 68.7859 14.6946 40.8348
15552 1 63.8036 11.187 60.7041
15553 2 63.7367 11.4053 59.7305
15554 2 63.804 12.0337 61.2363
15555 1 70.2846 7.96037 41.4194
15556 2 70.7974 8.63282 40.8857
15557 2 70.233 7.1007 40.9112
15558 1 47.0463 2.56058 69.3167
15559 2 46.3309 3.21507 69.5612
15560 2 46.6404 1.79284 68.8209
15561 1 44.5791 19.3568 30.1653
15562 2 44.272 19.8633 29.3596
15563 2 45.2716 19.8906 30.6506
15564 1 27.7891 7.98896 27.6563
15565 2 27.3034 7.66463 28.468
15566 2 28.5692 7.39062 27.4733
15567 1 66.2732 20.2005 74.271
15568 2 65.8872 20.0491 75.1809
15569 2 67.2101 19.8519 74.2442
15570 1 46.2829 26.7058 90.2963
15571 2 46.307 25.801 90.7215
15572 2 47.1431 27.1824 90.4778
15573 1 23.2042 14.2273 24.1551
15574 2 24.0278 14.0842 24.7039
15575 2 22.9343 13.3644 23.7277
15576 1 8.9336 27.9894 15.2164
15577 2 8.98707 26.9946 15.3025
15578 2 9.85511 28.3656 15.12
15579 1 66.9342 6.57807 73.6458
15580 2 67.5984 5.84284 73.5103
15581 2 67.3463 7.30143 74.1999
15582 1 57.3346 13.1796 44.5615
15583 2 57.4537 13.0871 45.55
15584 2 58.0065 13.8284 44.2041
15585 1 7.19101 7.96246 53.6985
15586 2 7.4431 8.8771 53.3825
15587 2 7.28065 7.91712 54.6935
15588 1 24.1065 6.76702 47.7196
15589 2 24.5023 7.23061 46.9268
15590 2 23.6883 7.44289 48.3265
15591 1 23.8678 6.46747 30.4795
15592 2 24.2303 5.66201 30.9484
15593 2 24.5163 6.76548 29.7791
15594 1 21.6745 9.55712 38.1839
15595 2 21.6948 10.0347 39.0622
15596 2 22.301 8.77823 38.2134
15597 1 35.6607 25.1769 64.1563
15598 2 34.8175 24.8427 64.5775
15599 2 35.446 25.9258 63.5294
15600 1 36.5807 17.2215 90.6726
15601 2 36.0167 16.4004 90.5845
15602 2 36.7273 17.4228 91.6411
15603 1 29.3201 5.44999 54.7673
15604 2 28.6336 5.20254 55.451
15605 2 30.2337 5.26985 55.1319
15606 1 72.1333 16.5021 50.548
15607 2 73.0406 16.8496 50.3112
15608 2 71.9025 15.7365 49.9476
15609 1 47.7299 27.4448 44.6864
15610 2 48.7202 27.3093 44.7157
15611 2 47.3835 27.1778 43.7871
15612 1 12.9496 17.6745 44.2166
15613 2 13.3321 18.5494 44.5137
15614 2 13.6354 16.9555 44.3293
15615 1 71.1844 20.7571 81.1426
15616 2 71.0182 21.5896 81.6713
15617 2 70.3333 20.4629 80.7078
15618 1 47.7425 23.6547 34.9813
15619 2 47.3153 23.4453 35.861
15620 2 48.1373 24.5729 35.0127
15621 1 20.6494 15.4044 76.0719
15622 2 21.2252 14.6212 76.3063
15623 2 19.8895 15.4651 76.7191
15624 1 4.95049 25.4759 85.6055
15625 2 5.8345 25.898 85.8062
15626 2 4.34457 25.5801 86.3942
15627 1 47.4581 28.8761 64.3349
15628 2 47.4313 27.9187 64.0475
15629 2 48.2999 29.0469 64.847
15630 1 44.8866 0.129367 71.279
15631 2 43.9921 0.00492527 70.8494
15632 2 45.5187 0.537473 70.6204
15633 1 16.5282 5.80031 13.1437
15634 2 16.9075 4.99212 13.5942
15635 2 16.8327 6.62313 13.6235
15636 1 46.2987 11.7114 69.2567
15637 2 47.2214 12.0544 69.0808
15638 2 45.629 12.4047 68.9904
15639 1 19.8528 27.1599 13.0424
15640 2 19.1971 27.0188 12.3006
15641 2 20.3128 28.039 12.9179
15642 1 12.6036 1.11534 46.1226
15643 2 13.4293 0.553546 46.1729
15644 2 12.6194 1.79739 46.8537
15645 1 23.6284 18.2206 27.2612
15646 2 23.3238 18.4851 28.1762
15647 2 22.8977 18.3988 26.6022
15648 1 55.1011 10.1829 26.1863
15649 2 54.3415 9.5401 26.2854
15650 2 55.5281 10.3343 27.0778
15651 1 4.01225 17.5634 25.2324
15652 2 4.63083 17.6782 26.0097
15653 2 4.16484 16.6678 24.8145
15654 1 62.1598 14.2833 41.503
15655 2 61.4809 15.0079 41.3845
15656 2 62.1392 13.6742 40.7102
15657 1 51.5875 7.51106 87.4698
15658 2 51.1355 7.69573 88.3425
15659 2 51.5561 6.5299 87.2792
15660 1 78.6058 17.436 80.1739
15661 2 79.2593 17.8319 80.8191
15662 2 78.9908 17.462 79.2514
15663 1 58.6923 3.77185 78.7428
15664 2 58.9044 3.62517 77.7766
15665 2 58.793 4.7422 78.9625
15666 1 62.6553 19.1472 23.5202
15667 2 62.2529 18.5741 22.8064
15668 2 63.2713 18.5958 24.0827
15669 1 35.3275 19.9896 59.3045
15670 2 34.4021 19.9212 59.6771
15671 2 35.3364 19.6399 58.3677
15672 1 24.3284 28.2014 32.4496
15673 2 25.0442 27.967 33.1074
15674 2 24.5574 29.0656 32.0017
15675 1 62.5616 4.04326 67.0746
15676 2 63.1342 4.856 67.1825
15677 2 62.7018 3.43114 67.8529
15678 1 71.6996 16.6622 24.2237
15679 2 72.6921 16.7806 24.2554
15680 2 71.4728 15.7031 24.3929
15681 1 26.8107 15.4019 37.1593
15682 2 27.7774 15.5013 36.9232
15683 2 26.4719 14.5263 36.815
15684 1 71.2614 13.4319 55.5039
15685 2 71.5649 12.9034 56.2967
15686 2 71.5835 12.9909 54.6662
15687 1 76.7914 18.6833 45.8304
15688 2 76.6786 19.1679 44.9629
15689 2 77.7499 18.4217 45.9438
15690 1 74.3011 14.0159 40.4752
15691 2 73.3482 13.719 40.5375
15692 2 74.5864 14.4067 41.3504
15693 1 10.2083 15.3835 33.8028
15694 2 11.0351 15.5823 34.329
15695 2 10.1773 15.9728 32.9954
15696 1 58.2655 2.89378 48.1143
15697 2 57.9404 3.00904 49.053
15698 2 58.8405 3.67229 47.8628
15699 1 16.7513 9.72073 70.8879
15700 2 16.0448 9.62361 70.1869
15701 2 16.3197 9.85755 71.7795
15702 1 22.4821 10.7416 62.238
15703 2 21.59 10.4063 61.9353
15704 2 22.4852 11.7415 62.2226
15705 1 19.6239 19.4513 40.0239
15706 2 20.2244 18.7623 39.6181
15707 2 20.0482 19.817 40.8523
15708 1 78.3604 24.7836 48.7563
15709 2 78.6016 23.8514 48.4863
15710 2 77.3731 24.9125 48.6634
15711 1 68.2319 8.11572 83.4886
15712 2 68.3721 7.34405 82.8682
15713 2 67.3197 8.05599 83.8939
15714 1 21.6203 7.41974 19.5239
15715 2 21.0826 8.05006 18.964
15716 2 22.589 7.65953 19.4589
15717 1 71.9751 0.12965 89.1155
15718 2 71.8666 29.1538 88.9261
15719 2 72.41 0.574729 88.3327
15720 1 44.7416 16.0557 82.0937
15721 2 44.1258 16.618 81.5419
15722 2 45.6882 16.3237 81.9145
15723 1 69.3752 11.8005 86.9903
15724 2 69.6526 11.5515 86.0623
15725 2 70.1334 11.6343 87.6207
15726 1 12.8322 24.5643 40.1685
15727 2 13.5902 24.1134 39.6972
15728 2 12.6725 24.1157 41.0479
15729 1 61.7442 9.57654 87.434
15730 2 61.2942 10.4642 87.5321
15731 2 62.7355 9.69792 87.4855
15732 1 55.2034 20.7105 56.8722
15733 2 54.4135 20.9313 56.3001
15734 2 54.8975 20.5268 57.8063
15735 1 33.1215 19.9296 38.2974
15736 2 33.9432 20.4392 38.0422
15737 2 32.9727 20.0091 39.2831
15738 1 59.0471 28.7545 34.8378
15739 2 58.8694 27.7704 34.8324
15740 2 58.2888 29.2326 34.3947
15741 1 28.5118 23.9924 80.0235
15742 2 27.5988 24.3977 79.9766
15743 2 29.1275 24.6132 80.5089
15744 1 37.9005 25.1961 67.7014
15745 2 37.7691 25.7013 68.5543
15746 2 37.6577 24.2362 67.8417
15747 1 56.7302 29.0564 43.0497
15748 2 57.2599 29.0317 42.2019
15749 2 57.3525 29.122 43.8298
15750 1 59.1748 13.0643 73.7741
15751 2 58.6364 12.2299 73.6564
15752 2 59.2839 13.2558 74.7495
15753 1 32.2352 27.4386 62.1542
15754 2 31.3356 27.8669 62.239
15755 2 32.9315 28.1464 62.0348
15756 1 35.6196 3.71151 68.1995
15757 2 34.9995 3.14806 67.6536
15758 2 35.4953 3.50063 69.1691
15759 1 42.9983 28.562 52.9873
15760 2 43.993 28.6175 52.9012
15761 2 42.7512 28.4848 53.9532
15762 1 21.8215 29.6939 58.018
15763 2 22.236 28.8182 57.7705
15764 2 22.3508 0.117327 58.7532
15765 1 23.3426 7.54779 54.693
15766 2 23.3263 8.45678 55.1095
15767 2 23.447 6.85571 55.4073
15768 1 65.5667 13.5003 40.3837
15769 2 66.3471 13.6341 39.7729
15770 2 65.8713 13.5694 41.3337
15771 1 45.6152 27.1059 30.9088
15772 2 46.1071 26.6565 30.1631
15773 2 46.1258 26.9926 31.7611
15774 1 4.99884 28.34 12.0393
15775 2 5.00504 28.2304 13.0332
15776 2 5.5173 27.5955 11.6186
15777 1 16.7671 1.12916 17.2245
15778 2 17.2829 1.60506 17.9369
15779 2 16.9327 1.56988 16.3423
15780 1 72.3691 26.7089 38.1882
15781 2 71.6698 27.412 38.3172
15782 2 72.6757 26.3762 39.08
15783 1 9.78165 22.3266 31.4425
15784 2 9.29092 22.7779 30.6972
15785 2 10.7455 22.5917 31.4156
15786 1 8.40401 25.0582 38.6337
15787 2 7.53954 24.5666 38.7382
15788 2 9.13096 24.5581 39.1042
15789 1 47.1462 27.7175 55.9412
15790 2 46.6394 28.0879 55.1628
15791 2 48.1086 27.6103 55.6918
15792 1 12.311 13.4918 26.8321
15793 2 11.7641 12.9158 26.2245
15794 2 13.2419 13.5643 26.4741
15795 1 69.7738 22.4057 86.3504
15796 2 69.7227 22.9288 87.2012
15797 2 70.7322 22.274 86.0972
15798 1 7.34203 5.99851 59.986
15799 2 6.65103 6.65921 59.6927
15800 2 7.51292 6.10741 60.9653
15801 1 23.239 14.7054 77.911
15802 2 23.5631 13.9847 78.5239
15803 2 22.4816 15.1948 78.3431
15804 1 65.4356 10.9135 52.158
15805 2 64.4441 10.7939 52.2102
15806 2 65.8308 10.8229 53.0721
15807 1 18.7413 7.47131 26.9363
15808 2 18.3143 7.48939 26.0323
15809 2 19.0832 6.55075 27.1251
15810 1 28.7962 11.8829 77.4429
15811 2 28.4976 12.5668 78.1086
15812 2 29.2627 11.1368 77.918
15813 1 16.253 2.5129 23.5412
15814 2 17.1097 2.96555 23.7885
15815 2 16.4108 1.90156 22.7657
15816 1 24.2241 11.1311 49.9608
15817 2 24.1768 10.457 49.2238
15818 2 23.2984 11.3711 50.253
15819 1 52.5925 22.6835 27.8814
15820 2 52.1439 23.1688 27.1309
15821 2 52.2069 22.9876 28.7525
15822 1 46.2035 4.2219 90.9086
15823 2 46.2331 4.24782 91.9078
15824 2 45.2779 4.4367 90.5968
15825 1 75.423 16.1046 24.4878
15826 2 76.4188 16.1489 24.5668
15827 2 75.0063 16.6498 25.2152
15828 1 78.187 19.037 76.203
15829 2 78.7622 18.2363 76.3704
15830 2 77.2959 18.9039 76.6368
15831 1 14.5246 13.5507 76.4283
15832 2 14.5158 12.8226 77.1137
15833 2 13.6542 14.0425 76.4532
15834 1 28.551 4.57685 29.4365
15835 2 28.8611 4.7548 28.5026
15836 2 28.0757 5.38294 29.7891
15837 1 33.7984 1.94278 89.3783
15838 2 33.3161 2.77907 89.1176
15839 2 34.718 2.17371 89.6964
15840 1 61.8607 12.959 73.2501
15841 2 62.3573 13.085 74.1088
15842 2 60.8797 12.9058 73.437
15843 1 72.2808 4.78787 83.6999
15844 2 72.5266 4.36268 84.571
15845 2 72.1272 5.76628 83.8381
15846 1 5.46711 21.2888 81.4453
15847 2 5.31832 21.0321 82.4003
15848 2 4.63957 21.7172 81.0825
15849 1 17.58 25.0636 11.9521
15850 2 17.4764 24.1173 11.6458
15851 2 17.764 25.0776 12.9349
15852 1 54.0715 20.2022 35.1011
15853 2 53.5968 19.3674 34.8223
15854 2 53.7148 20.5096 35.9833
15855 1 75.6437 13.1407 78.3119
15856 2 76.4604 12.5929 78.1305
15857 2 75.0467 12.649 78.9458
15858 1 0.376147 11.0147 43.9425
15859 2 0.174566 10.4079 43.1737
15860 2 79.9494 11.9053 43.7851
15861 1 40.1153 25.7034 36.3717
15862 2 40.6342 25.3534 37.1516
15863 2 39.6142 26.5242 36.6461
15864 1 26.2889 17.7588 53.1755
15865 2 26.2501 16.9008 53.6878
15866 2 25.9722 18.5085 53.7566
15867 1 5.67162 15.8575 90.4911
15868 2 5.06166 16.0861 89.7324
15869 2 5.13214 15.5193 91.2622
15870 1 69.5362 1.05722 60.5759
15871 2 70.182 1.22157 61.3215
15872 2 68.6034 1.05949 60.9363
15873 1 25.3015 4.81269 82.2586
15874 2 25.4942 4.68147 83.231
15875 2 24.8251 4.00909 81.9018
15876 1 22.9907 3.37582 77.4297
15877 2 23.0505 2.52823 76.9025
15878 2 22.7216 3.16542 78.3696
15879 1 18.1101 29.8186 57.1111
15880 2 18.2628 29.0153 57.6868
15881 2 18.9774 0.10875 56.7068
15882 1 76.4038 14.7862 87.966
15883 2 76.6468 15.7316 88.1832
15884 2 75.872 14.3974 88.7184
15885 1 6.35222 16.262 27.51
15886 2 6.18699 15.5337 28.1752
15887 2 6.85013 17.009 27.9505
15888 1 77.6535 1.5712 69.778
15889 2 77.4139 2.26858 70.4534
15890 2 77.883 0.718141 70.2466
15891 1 12.9089 10.9431 56.9625
15892 2 12.8646 11.7665 57.5283
15893 2 13.4923 10.2638 57.4077
15894 1 51.1692 9.39316 39.3627
15895 2 50.5723 10.1652 39.1443
15896 2 50.6772 8.53674 39.2063
15897 1 58.9686 1.9492 65.7131
15898 2 59.7566 1.40726 66.005
15899 2 58.938 1.98166 64.7141
15900 1 25.7797 24.2889 51.6123
15901 2 26.2895 23.5238 52.0058
15902 2 25.697 25.0186 52.291
15903 1 28.861 18.2987 62.2977
15904 2 28.2618 18.5654 63.0525
15905 2 28.5974 18.796 61.4711
15906 1 52.6562 15.8032 84.699
15907 2 53.1873 15.2583 84.0501
15908 2 53.0644 15.7291 85.6089
15909 1 25.0835 25.7177 70.1822
15910 2 24.7747 25.0024 70.8091
15911 2 25.9667 26.0718 70.4897
15912 1 42.3516 6.30754 54.4255
15913 2 42.3749 5.68959 53.6396
15914 2 41.4275 6.67378 54.5342
15915 1 64.1793 21.7836 66.8035
15916 2 65.1646 21.8874 66.6677
15917 2 63.8664 22.4403 67.4896
15918 1 38.964 14.6277 76.7839
15919 2 39.8601 15.0686 76.7326
15920 2 38.739 14.4401 77.74
15921 1 5.29224 10.3897 29.5202
15922 2 4.87069 9.59854 29.9633
15923 2 6.28542 10.3412 29.6263
15924 1 26.3896 7.27215 82.9842
15925 2 26.7414 6.3452 82.8538
15926 2 26.7668 7.65637 83.8269
15927 1 70.1541 19.0197 48.3166
15928 2 69.4242 18.6713 48.9046
15929 2 70.9417 19.2737 48.8779
15930 1 10.3853 17.4095 90.0609
15931 2 10.0855 18.3266 90.3237
15932 2 11.1964 17.1596 90.5897
15933 1 16.3806 16.4262 24.8536
15934 2 15.5017 15.9722 24.7074
15935 2 16.7128 16.7966 23.9862
15936 1 37.2934 10.1699 73.0163
15937 2 37.355 10.9714 73.6111
15938 2 37.3962 9.33957 73.5641
15939 1 62.8073 24.5004 44.2716
15940 2 62.4269 24.5198 45.1962
15941 2 63.7922 24.6685 44.3128
15942 1 7.21755 13.6807 28.9271
15943 2 6.80092 12.9796 28.3485
15944 2 7.67345 14.3599 28.3519
15945 1 23.8596 20.5885 60.9612
15946 2 22.9644 20.2456 61.246
15947 2 23.9733 21.5292 61.2808
15948 1 78.5655 19.8316 17.6525
15949 2 78.0171 19.0246 17.8717
15950 2 78.5639 19.977 16.6632
15951 1 79.8205 4.71229 56.8187
15952 2 0.801529 4.86075 56.6937
15953 2 79.6728 4.09295 57.5898
15954 1 74.3142 13.9948 30.3094
15955 2 73.8979 14.6326 30.9574
15956 2 75.3096 14.0831 30.3475
15957 1 57.9525 16.1993 28.3164
15958 2 57.4577 16.5638 27.5275
15959 2 58.9154 16.0747 28.0774
15960 1 9.21205 11.7906 42.4623
15961 2 9.07521 11.815 41.472
15962 2 9.06818 10.8589 42.7958
15963 1 7.72155 23.9278 70.9295
15964 2 6.7302 23.9778 71.0508
15965 2 8.16106 23.8132 71.8204
15966 1 24.0972 14.4914 52.5778
15967 2 25.0145 14.7832 52.8488
15968 2 23.6711 13.9898 53.3307
15969 1 35.9428 22.5237 31.9334
15970 2 36.1403 22.2283 30.9987
15971 2 35.2076 23.2015 31.9204
15972 1 49.1254 0.78605 49.6656
15973 2 50.1069 0.921963 49.8007
15974 2 48.8823 29.8472 49.9094
15975 1 8.91162 19.2295 12.9042
15976 2 8.74628 20.1258 12.4928
15977 2 9.72138 18.8159 12.4879
15978 1 43.7383 17.6006 56.2382
15979 2 44.5168 17.528 55.6148
15980 2 44.0642 17.8447 57.1515
15981 1 35.2118 21.7207 37.1346
15982 2 35.7547 21.3286 37.8772
15983 2 35.7658 22.3831 36.6304
15984 1 69.6136 23.8309 50.3029
15985 2 69.2645 23.5893 49.3975
15986 2 70.3857 24.4588 50.2057
15987 1 40.6275 26.8389 40.7861
15988 2 40.0518 26.2761 40.1929
15989 2 40.1796 26.9547 41.6727
15990 1 32.4628 8.29897 72.6951
15991 2 31.5833 8.16671 72.2379
15992 2 33.0608 7.52195 72.4985
15993 1 7.41265 2.48047 24.4532
15994 2 6.6871 1.86456 24.7601
15995 2 7.29222 2.67875 23.4805
15996 1 77.5895 2.91397 24.0861
15997 2 76.9992 3.29314 24.7987
15998 2 78.0155 2.07265 24.4189
15999 1 21.5416 9.34249 25.9568
16000 2 21.2725 10.259 25.6609
16001 2 21.1269 9.14371 26.8448
16002 1 78.7121 29.8483 86.8715
16003 2 79.3463 0.608886 86.7324
16004 2 79.1369 29.1644 87.4646
16005 1 65.9882 24.8344 67.0096
16006 2 65.739 25.0726 67.9483
16007 2 66.5358 23.9976 67.0122
16008 1 57.4683 11.1374 67.7357
16009 2 57.3531 11.6478 66.8835
16010 2 57.322 11.7492 68.513
16011 1 57.7351 0.638484 74.5109
16012 2 56.979 0.0453422 74.7873
16013 2 58.5709 0.0958485 74.4269
16014 1 25.1853 16.1682 40.7524
16015 2 24.9885 16.7218 41.5616
16016 2 25.9197 16.5967 40.226
16017 1 52.1962 12.7771 23.5183
16018 2 52.8095 13.5147 23.8007
16019 2 51.6461 12.4832 24.2999
16020 1 79.7637 13.9355 42.2802
16021 2 78.7936 13.7017 42.2152
16022 2 0.0495079 14.4073 41.4461
16023 1 29.3803 9.34999 65.5326
16024 2 29.5318 9.40131 66.5197
16025 2 28.5139 8.88432 65.3522
16026 1 66.3972 17.6082 15.8585
16027 2 65.9347 17.5893 14.9721
16028 2 66.4888 16.6752 16.2065
16029 1 58.9044 8.54043 52.2876
16030 2 58.9022 7.84768 51.5664
16031 2 58.4695 8.16905 53.1079
16032 1 76.4237 7.92876 13.895
16033 2 76.58 8.12141 14.8637
16034 2 75.7017 8.52756 13.5483
16035 1 44.9703 16.104 34.1965
16036 2 45.4792 15.5733 34.8743
16037 2 44.6958 16.9788 34.5957
16038 1 28.769 6.40176 68.3381
16039 2 29.1781 5.71258 67.74
16040 2 27.8184 6.55523 68.0683
16041 1 74.8841 8.20411 74.2655
16042 2 74.1679 7.52484 74.4258
16043 2 75.4034 8.34623 75.1082
16044 1 12.708 27.1163 75.8149
16045 2 12.8052 26.2095 75.4047
16046 2 13.6103 27.5357 75.9143
16047 1 44.1743 5.0948 46.0179
16048 2 43.6133 4.36206 46.4031
16049 2 43.6621 5.56361 45.2983
16050 1 26.3275 15.7495 76.1854
16051 2 25.6537 16.2995 76.6789
16052 2 26.1561 14.7794 76.357
16053 1 10.8445 16.129 27.1355
16054 2 11.532 15.4852 26.7995
16055 2 10.6089 16.7744 26.4089
16056 1 50.811 14.8013 38.302
16057 2 49.9277 14.3448 38.4077
16058 2 51.5384 14.116 38.2669
16059 1 29.2734 6.87778 72.9061
16060 2 29.3309 7.03918 73.8913
16061 2 28.4392 7.29699 72.5478
16062 1 56.0464 1.88945 33.0555
16063 2 55.5353 1.81274 32.1994
16064 2 55.4173 2.11155 33.8005
16065 1 47.9132 9.77544 79.6153
16066 2 48.3919 8.90802 79.7511
16067 2 48.3343 10.2734 78.8572
16068 1 10.7894 2.2405 49.2305
16069 2 11.1348 2.88175 48.5453
16070 2 11.0765 1.31247 48.9932
16071 1 39.1766 20.3784 60.2306
16072 2 39.6436 20.6099 61.084
16073 2 38.9427 21.218 59.7403
16074 1 72.4818 29.7886 35.4241
16075 2 72.6123 0.544749 36.0653
16076 2 73.2935 29.6969 34.8473
16077 1 58.1941 7.2932 86.0797
16078 2 57.5043 7.98801 86.2832
16079 2 57.7894 6.57904 85.5085
16080 1 0.0135535 13.4314 64.2598
16081 2 79.4937 12.5809 64.18
16082 2 79.3824 14.2067 64.2849
16083 1 52.8666 27.6365 66.3428
16084 2 52.931 28.3099 67.0793
16085 2 51.9627 27.6921 65.9185
16086 1 7.69782 2.39817 69.248
16087 2 7.59186 2.69355 68.2985
16088 2 8.52475 1.84248 69.3339
16089 1 14.7265 26.852 49.6892
16090 2 14.1078 27.5014 49.247
16091 2 14.2086 26.0526 49.9938
16092 1 74.4388 11.2146 21.2558
16093 2 74.4689 11.3411 22.2473
16094 2 73.6833 10.6032 21.0206
16095 1 47.7861 18.6258 90.8407
16096 2 47.5063 18.6019 91.8004
16097 2 48.5769 19.2294 90.739
16098 1 2.30967 27.4049 24.1786
16099 2 2.47505 27.7887 25.0871
16100 2 3.10758 27.5669 23.598
16101 1 71.3815 5.29943 30.8791
16102 2 71.2441 6.27699 31.0388
16103 2 71.3769 4.81495 31.7539
16104 1 1.16349 20.253 84.9539
16105 2 0.219875 19.9227 84.9318
16106 2 1.20208 21.1773 84.5742
16107 1 75.6802 21.8867 28.9818
16108 2 75.9379 21.0934 28.4303
16109 2 75.7081 21.642 29.9511
16110 1 5.07957 19.0017 27.2664
16111 2 4.35591 18.4466 27.6765
16112 2 5.81304 19.1379 27.9323
16113 1 65.8404 25.8366 28.5996
16114 2 66.7776 25.8174 28.9478
16115 2 65.2201 25.4676 29.2918
16116 1 0.0383683 26.8918 47.5386
16117 2 79.5508 26.2869 48.1682
16118 2 0.542263 27.58 48.0607
16119 1 22.821 24.0915 76.8543
16120 2 21.9999 24.4942 77.2588
16121 2 23.3513 24.8051 76.3965
16122 1 49.42 21.5349 39.8448
16123 2 48.4972 21.4747 40.2255
16124 2 49.6986 22.494 39.7962
16125 1 11.3154 28.3571 25.2702
16126 2 11.1135 27.5963 24.6535
16127 2 10.7172 28.3058 26.0698
16128 1 71.1038 3.95289 78.3885
16129 2 71.9564 3.45824 78.557
16130 2 70.6897 4.2103 79.2616
16131 1 53.1521 17.0777 76.7091
16132 2 53.4117 17.0452 75.7439
16133 2 53.9116 17.4448 77.2463
16134 1 62.7244 22.2288 60.718
16135 2 62.2766 23.1212 60.6627
16136 2 63.7149 22.3557 60.7719
16137 1 33.0221 24.2765 61.6426
16138 2 33.8893 23.9743 61.2469
16139 2 33.1677 24.5541 62.5922
16140 1 32.2077 7.03371 62.4367
16141 2 31.7556 7.75841 61.9167
16142 2 32.3882 7.35372 63.3668
16143 1 64.3024 14.5376 58.0016
16144 2 64.0081 15.4815 58.1518
16145 2 64.1187 13.9966 58.8224
16146 1 20.9766 3.5204 48.7041
16147 2 20.3416 4.18453 49.0987
16148 2 21.9153 3.78412 48.9261
16149 1 79.6473 17.0539 45.3218
16150 2 79.3291 16.6793 46.1927
16151 2 79.4814 18.0399 45.3026
16152 1 67.7337 7.80703 38.2631
16153 2 67.4095 8.72906 38.4747
16154 2 67.3328 7.15655 38.9082
16155 1 1.7269 9.34901 53.3927
16156 2 2.16964 8.78612 52.6948
16157 2 2.03228 9.05738 54.2992
16158 1 10.3024 1.42195 20.8271
16159 2 11.1307 1.86806 20.4883
16160 2 10.4661 0.439624 20.9178
16161 1 3.91073 19.7275 20.3187
16162 2 3.80529 20.6999 20.5268
16163 2 3.21236 19.4503 19.6588
16164 1 62.1772 28.4615 51.473
16165 2 61.4337 29.1103 51.635
16166 2 62.5979 28.6514 50.5859
16167 1 38.6367 1.45743 81.9653
16168 2 38.4711 0.471248 81.9585
16169 2 38.6911 1.7798 82.9103
16170 1 53.9311 8.28657 76.8121
16171 2 54.576 8.90671 76.3654
16172 2 54.3585 7.39035 76.931
16173 1 69.4327 27.8757 77.0257
16174 2 70.4324 27.8914 77.0061
16175 2 69.1229 27.1712 77.6642
16176 1 16.5628 18.6054 64.3248
16177 2 16.0149 19.2128 64.9
16178 2 17.1852 18.0739 64.8995
16179 1 47.6321 12.952 56.3048
16180 2 46.9214 13.5753 55.9786
16181 2 47.8203 12.2647 55.6033
16182 1 32.2234 3.05303 39.6842
16183 2 32.9207 3.26933 40.3676
16184 2 32.3947 2.14158 39.3101
16185 1 42.0693 2.23129 85.7437
16186 2 41.5402 1.6716 85.1059
16187 2 41.5265 3.02424 86.0206
16188 1 11.6873 9.92873 63.3617
16189 2 11.584 10.1971 64.3195
16190 2 11.9832 8.97477 63.3129
16191 1 62.7418 13.1976 10.5433
16192 2 63.6955 13.3419 10.8072
16193 2 62.6947 12.9834 9.56769
16194 1 65.6057 22.3698 15.4162
16195 2 64.9427 23.1092 15.299
16196 2 65.7619 22.2136 16.3915
16197 1 18.4061 10.8988 37.9736
16198 2 17.6055 10.8355 37.3778
16199 2 18.3994 11.7788 38.4486
16200 1 67.5162 20.8667 55.4851
16201 2 68.0023 20.0235 55.7148
16202 2 67.1232 21.2616 56.3156
16203 1 14.6003 2.62972 77.9991
16204 2 14.1605 1.95231 78.5887
16205 2 14.5708 2.31508 77.0503
16206 1 17.0727 15.4689 69.2382
16207 2 17.2362 15.3207 68.2628
16208 2 16.2405 14.9876 69.5135
16209 1 8.68975 25.8608 56.776
16210 2 7.96997 25.6718 56.108
16211 2 8.73456 25.113 57.4383
16212 1 50.7172 28.2299 38.7786
16213 2 50.1357 29.0212 38.9674
16214 2 50.6473 27.9881 37.8108
16215 1 49.9106 7.95496 77.4376
16216 2 49.6185 7.82846 78.3855
16217 2 50.8732 8.22547 77.4187
16218 1 29.7185 4.09592 37.9279
16219 2 30.3494 3.98391 38.6956
16220 2 28.8767 3.58823 38.1115
16221 1 59.1698 3.18014 59.8479
16222 2 58.9148 3.21068 58.8814
16223 2 59.1912 2.22938 60.1571
16224 1 45.3063 10.0442 77.7281
16225 2 45.1482 10.992 77.4514
16226 2 45.0804 9.9374 78.6963
16227 1 61.2031 26.2807 60.8219
16228 2 61.9007 26.1349 60.1204
16229 2 61.5264 25.9148 61.6946
16230 1 29.1961 2.09928 48.9161
16231 2 29.1251 2.0575 47.9195
16232 2 29.6518 1.27521 49.2527
16233 1 28.8838 9.05546 55.6757
16234 2 28.5577 9.94686 55.9904
16235 2 29.7692 9.16496 55.2239
16236 1 8.58634 10.7263 79.2301
16237 2 9.28253 11.4077 79.4558
16238 2 8.929 9.8135 79.4524
16239 1 48.8366 22.502 67.836
16240 2 48.0619 22.0046 67.4456
16241 2 48.9883 23.3432 67.317
16242 1 19.5299 25.7564 86.5527
16243 2 20.4472 25.4316 86.7831
16244 2 19.4297 26.7073 86.8453
16245 1 9.7724 16.5161 41.7303
16246 2 9.4008 17.4153 41.9614
16247 2 10.6199 16.629 41.2117
16248 1 52.8325 22.6668 65.2721
16249 2 53.4482 22.6741 64.4842
16250 2 53.1114 23.3759 65.9197
16251 1 79.7688 17.9834 73.5438
16252 2 79.7056 18.9176 73.8949
16253 2 0.458304 17.9451 72.8205
16254 1 44.9251 17.5598 42.507
16255 2 44.2127 18.0136 41.9716
16256 2 44.5131 17.1201 43.3051
16257 1 8.16605 16.1401 15.2882
16258 2 8.51401 15.2051 15.2199
16259 2 8.16497 16.4262 16.2464
16260 1 36.0335 25.7577 77.5434
16261 2 35.9705 26.6416 77.08
16262 2 36.5695 25.1255 76.9839
16263 1 17.1959 0.685989 70.9567
16264 2 16.356 1.225 70.8928
16265 2 17.0048 29.826 71.43
16266 1 45.3665 19.3444 79.5
16267 2 45.4776 20.3344 79.5872
16268 2 44.8479 18.9971 80.2813
16269 1 72.487 9.8112 90.218
16270 2 71.4915 9.88272 90.1561
16271 2 72.9079 10.5147 89.6454
16272 1 79.6965 0.546766 51.7519
16273 2 78.7803 0.640407 52.1414
16274 2 79.656 0.698505 50.7643
16275 1 52.5562 24.3315 83.2644
16276 2 53.3589 24.9272 83.2923
16277 2 52.8502 23.3799 83.1745
16278 1 24.955 0.483251 56.5534
16279 2 24.7408 0.324503 55.5896
16280 2 24.4046 29.8721 57.1222
16281 1 13.9979 11.6303 28.0033
16282 2 14.6766 11.3881 28.6966
16283 2 13.4913 10.8118 27.7325
16284 1 78.6158 4.49742 21.9688
16285 2 79.0242 5.40553 22.0611
16286 2 78.4318 4.12082 22.8767
16287 1 40.3364 11.7293 42.0872
16288 2 40.3525 10.754 42.3076
16289 2 39.6953 11.8909 41.3369
16290 1 22.7437 29.0937 68.8846
16291 2 22.8553 29.9227 68.3366
16292 2 21.8497 29.1081 69.3326
16293 1 79.1664 24.5821 15.3329
16294 2 79.9961 24.4705 14.786
16295 2 79.2491 24.0509 16.1762
16296 1 1.32797 4.32471 65.1106
16297 2 2.21694 4.4343 65.5553
16298 2 0.974646 3.40726 65.2935
16299 1 8.69928 25.1157 79.4265
16300 2 7.76616 25.4731 79.4665
16301 2 9.3491 25.8666 79.5443
16302 1 17.1358 22.4952 26.1076
16303 2 17.3898 22.0329 26.9572
16304 2 16.1506 22.6664 26.103
16305 1 21.4044 7.74424 85.1103
16306 2 22.1507 7.29338 84.6206
16307 2 21.7604 8.16814 85.9431
16308 1 55.5595 7.9827 74.183
16309 2 56.0642 8.75109 73.7896
16310 2 56.1892 7.2267 74.3616
16311 1 54.9874 6.86869 88.0906
16312 2 55.3345 7.67199 87.6067
16313 2 54.5399 7.15712 88.9372
16314 1 17.7177 19.2137 49.0145
16315 2 16.8114 19.0788 48.6141
16316 2 18.084 20.0965 48.7203
16317 1 79.8617 28.663 82.911
16318 2 79.8408 27.9307 82.2304
16319 2 79.0416 28.6117 83.4811
16320 1 69.5069 20.3054 45.4889
16321 2 69.9757 19.929 44.6898
16322 2 69.9619 19.99 46.3216
16323 1 31.5294 0.169901 66.421
16324 2 31.1305 29.2578 66.3267
16325 2 32.2622 0.284204 65.7502
16326 1 26.485 20.1142 51.5939
16327 2 26.3333 19.3377 52.2055
16328 2 26.9262 20.8556 52.0996
16329 1 56.4606 25.2337 39.4366
16330 2 56.4117 24.6014 40.2098
16331 2 55.7421 25.0109 38.7778
16332 1 48.0994 20.4716 37.0702
16333 2 48.2778 19.5134 37.2941
16334 2 47.4603 20.8561 37.7364
16335 1 11.5768 0.425467 53.3833
16336 2 10.9304 1.07226 53.7879
16337 2 11.6707 29.6297 53.9815
16338 1 76.3944 18.0971 29.9206
16339 2 76.9944 17.7563 30.6444
16340 2 76.7644 17.834 29.0296
16341 1 67.1236 15.5305 65.6241
16342 2 67.2819 16.166 66.3798
16343 2 67.1899 14.5907 65.9595
16344 1 62.7052 13.6833 46.0376
16345 2 61.7689 13.7418 46.3838
16346 2 62.8508 12.7861 45.6206
16347 1 11.9088 9.9035 59.4102
16348 2 11.9147 8.93397 59.1653
16349 2 12.8279 10.2812 59.2982
16350 1 64.8621 27.7476 23.52
16351 2 64.4829 27.3986 24.377
16352 2 65.6257 27.1691 23.2333
16353 1 68.6738 26.23 28.9584
16354 2 69.0826 26.9033 28.3424
16355 2 69.0718 25.3301 28.7801
16356 1 63.815 25.466 34.7138
16357 2 63.6084 25.8269 35.6232
16358 2 64.1996 24.5469 34.7994
16359 1 16.1707 8.64643 52.5818
16360 2 16.3283 9.62713 52.466
16361 2 16.9886 8.2209 52.9692
16362 1 42.6094 9.78489 72.1711
16363 2 43.3534 9.2268 72.5385
16364 2 42.9858 10.4831 71.5622
16365 1 7.25439 6.4345 82.3602
16366 2 7.41691 6.82654 81.4547
16367 2 7.76387 5.57863 82.4492
16368 1 63.1495 28.6712 70.4579
16369 2 63.107 29.6393 70.7047
16370 2 63.2259 28.1187 71.2879
16371 1 5.52766 8.73973 39.2983
16372 2 4.85285 9.35927 39.6993
16373 2 6.26326 8.57729 39.9559
16374 1 64.2853 26.5803 50.8832
16375 2 64.3418 26.5287 49.8861
16376 2 64.7687 27.3952 51.2027
16377 1 31.8168 9.14257 78.691
16378 2 30.8467 9.18742 78.9296
16379 2 32.3658 9.44989 79.4683
16380 1 8.29399 13.6068 15.4159
16381 2 8.35801 13.1428 16.2994
16382 2 7.68198 13.0941 14.8137
16383 1 63.3588 9.43625 78.5148
16384 2 62.548 10.02 78.5581
16385 2 63.0779 8.47676 78.4925
16386 1 18.26 9.92355 74.8111
16387 2 17.5608 10.1105 74.1211
16388 2 17.8257 9.56231 75.6363
16389 1 1.23299 24.7459 23.7988
16390 2 1.11738 25.4137 24.5341
16391 2 1.70913 25.1746 23.031
16392 1 61.9131 6.59071 71.0064
16393 2 61.7722 7.28423 70.2999
16394 2 61.1187 5.98431 71.0414
16395 1 46.9882 4.46672 37.4787
16396 2 46.1952 5.0759 37.4789
16397 2 47.2537 4.26544 36.5358
16398 1 14.4782 6.42059 21.4691
16399 2 13.7971 6.83257 20.8639
16400 2 14.9765 5.70854 20.9744
16401 1 4.01648 2.61998 87.0634
16402 2 4.80687 3.178 86.8106
16403 2 4.31497 1.68367 87.2483
16404 1 68.8957 1.91987 53.1521
16405 2 68.4513 2.51894 53.8181
16406 2 69.8323 1.73049 53.447
16407 1 12.943 7.3018 82.94
16408 2 12.5996 7.55682 83.8439
16409 2 12.819 8.067 82.3082
16410 1 74.0218 1.62088 24.4862
16411 2 73.8978 0.632028 24.4039
16412 2 73.352 1.9882 25.1316
16413 1 4.59355 27.0407 81.65
16414 2 3.71717 26.8597 81.2037
16415 2 5.32867 26.6063 81.1295
16416 1 8.33605 20.6794 37.5507
16417 2 9.25072 20.8356 37.9235
16418 2 7.73449 21.4325 37.817
16419 1 68.1633 24.5139 80.1083
16420 2 68.6662 24.5524 80.9717
16421 2 68.7319 24.0784 79.4104
16422 1 62.847 16.3312 30.1317
16423 2 61.8809 16.099 30.019
16424 2 63.0013 17.2716 29.8287
16425 1 38.9875 7.19215 69.1119
16426 2 38.9335 6.2204 68.8821
16427 2 39.8694 7.55679 68.8131
16428 1 61.3875 7.44886 68.1887
16429 2 60.943 6.88424 67.4932
16430 2 60.7105 7.73895 68.8651
16431 1 60.1451 27.9016 87.5208
16432 2 60.2583 27.2299 88.2529
16433 2 60.1399 27.4338 86.6371
16434 1 35.251 0.448968 80.8143
16435 2 34.9397 0.601889 81.7523
16436 2 35.5095 29.4896 80.7012
16437 1 8.50308 28.4659 19.9772
16438 2 8.0734 29.0102 20.6977
16439 2 9.02497 27.7193 20.3899
16440 1 13.2096 7.63271 28.1275
16441 2 13.9713 7.89166 27.5335
16442 2 13.5515 7.45826 29.0509
16443 1 68.2871 3.45208 20.9726
16444 2 68.5406 4.2702 21.4888
16445 2 67.3388 3.53233 20.6656
16446 1 78.532 26.8558 67.165
16447 2 79.3927 26.4676 66.8357
16448 2 78.724 27.5636 67.8448
16449 1 13.1816 11.7003 68.519
16450 2 13.6149 12.5021 68.1075
16451 2 12.3749 11.986 69.0363
16452 1 32.6222 15.2128 80.331
16453 2 31.7404 14.82 80.07
16454 2 32.6874 15.2525 81.328
16455 1 42.2031 27.8374 27.8244
16456 2 42.9152 28.539 27.797
16457 2 41.3464 28.2442 28.1414
16458 1 20.4583 27.102 69.1648
16459 2 21.1675 26.4537 68.8878
16460 2 19.6057 26.887 68.6885
16461 1 11.5576 5.425 59.3344
16462 2 11.7104 5.26728 60.31
16463 2 10.6283 5.14534 59.0931
16464 1 69.0656 0.19639 90.8433
16465 2 68.3513 29.9268 90.1974
16466 2 69.9347 29.7841 90.5702
16467 1 10.5073 7.92184 22.474
16468 2 10.4694 8.16747 21.5054
16469 2 10.4609 6.92733 22.5677
16470 1 0.513346 5.01414 24.3965
16471 2 1.3654 5.04262 23.8738
16472 2 79.8324 5.5992 23.956
16473 1 51.9479 7.16717 67.667
16474 2 52.7273 6.93321 68.2482
16475 2 51.523 8.00825 68.0018
16476 1 35.5791 28.589 71.2148
16477 2 36.1085 29.4366 71.177
16478 2 35.6095 28.2182 72.143
16479 1 54.4478 13.6311 90.4203
16480 2 54.2821 13.1921 89.5372
16481 2 55.419 13.5641 90.6488
16482 1 79.1436 28.0969 12.2333
16483 2 79.4071 27.8592 13.1683
16484 2 78.207 27.7907 12.063
16485 1 24.7036 14.0557 45.6633
16486 2 24.7674 15.0123 45.9477
16487 2 25.0677 13.9583 44.7371
16488 1 19.9277 2.04121 29.1018
16489 2 19.5443 1.94386 30.0203
16490 2 20.886 1.7557 29.1087
16491 1 60.322 2.96159 62.8879
16492 2 60.0406 2.07548 62.5197
16493 2 60.9634 3.39663 62.256
16494 1 68.0867 28.6033 47.164
16495 2 67.9008 29.2847 46.4561
16496 2 67.3202 28.5714 47.8054
16497 1 4.77449 4.82727 64.1557
16498 2 4.84389 4.1405 63.4321
16499 2 5.66553 4.93916 64.5956
16500 1 64.1283 15.5828 27.3381
16501 2 63.7172 16.1519 28.0502
16502 2 65.1224 15.6899 27.3582
16503 1 49.0742 14.2591 89.848
16504 2 49.0929 14.364 90.8423
16505 2 48.2313 13.7938 89.5778
16506 1 8.16828 29.0956 86.7565
16507 2 7.72826 28.1996 86.6964
16508 2 7.56085 29.7916 86.3735
16509 1 35.2798 8.17942 73.9625
16510 2 35.3982 8.49499 73.021
16511 2 35.2624 7.17972 73.9792
16512 1 19.464 27.2622 63.843
16513 2 19.4192 27.7891 62.9943
16514 2 18.6254 27.4049 64.3687
16515 1 69.1966 25.2529 47.3705
16516 2 68.374 24.6843 47.3718
16517 2 69.9709 24.7182 47.032
16518 1 10.3258 9.57471 27.1172
16519 2 9.56028 10.1851 26.9137
16520 2 11.1478 9.90496 26.6533
16521 1 0.735557 16.2602 13.0543
16522 2 0.0812254 15.5709 12.7434
16523 2 1.64865 15.8553 13.1024
16524 1 32.703 17.9695 74.2582
16525 2 32.761 17.0363 74.613
16526 2 33.3503 18.5532 74.7484
16527 1 65.8233 13.2858 90.7071
16528 2 65.6287 12.313 90.5816
16529 2 66.8051 13.4454 90.604
16530 1 79.4218 19.4848 53.9857
16531 2 79.3139 18.8029 54.7091
16532 2 79.0536 20.3612 54.2962
16533 1 17.3735 4.17062 35.4871
16534 2 17.7988 3.30258 35.7434
16535 2 17.95 4.92774 35.7944
16536 1 32.5855 2.06064 30.4985
16537 2 33.0706 1.74857 31.3153
16538 2 33.2355 2.47948 29.8644
16539 1 22.5233 16.1785 39.4319
16540 2 22.8139 17.0135 38.9647
16541 2 22.6556 16.2848 40.4174
16542 1 41.8436 14.9473 46.4039
16543 2 40.8487 14.852 46.4358
16544 2 42.0891 15.6633 45.7503
16545 1 69.4988 23.3562 33.9887
16546 2 69.8847 22.4412 33.8714
16547 2 68.5568 23.2812 34.3159
16548 1 74.8112 26.422 39.8631
16549 2 75.4819 26.909 40.4225
16550 2 74.0842 26.065 40.4497
16551 1 64.0249 5.08195 74.0991
16552 2 64.8031 5.71001 74.0951
16553 2 63.2673 5.49323 74.6059
16554 1 23.2053 23.0074 52.6544
16555 2 23.52 23.0642 53.6019
16556 2 23.8904 22.5306 52.1037
16557 1 14.0606 3.18544 36.9655
16558 2 13.5048 3.12672 37.7948
16559 2 14.6547 2.38337 36.9049
16560 1 75.8858 5.44706 29.113
16561 2 75.7585 5.5848 28.1307
16562 2 76.3594 6.23735 29.5018
16563 1 42.693 20.4379 78.5624
16564 2 43.3987 19.8545 78.9643
16565 2 42.6032 21.2737 79.104
16566 1 25.8342 4.23314 84.7471
16567 2 25.6839 4.97818 85.397
16568 2 26.8029 3.98517 84.7425
16569 1 59.8956 4.35451 27.3367
16570 2 60.7395 4.18257 27.8449
16571 2 59.1135 4.28525 27.9559
16572 1 25.0914 25.135 34.3629
16573 2 24.4636 25.9124 34.4013
16574 2 25.6981 25.157 35.1575
16575 1 70.4275 13.0979 82.3599
16576 2 70.5347 14.0479 82.0667
16577 2 71.3279 12.6704 82.4411
16578 1 3.87723 11.3657 33.5244
16579 2 4.32479 12.0333 34.1194
16580 2 3.53997 10.6019 34.0748
16581 1 50.4884 1.22364 83.3565
16582 2 50.0561 1.18951 84.2575
16583 2 50.5867 2.17662 83.0698
16584 1 31.9444 2.28176 43.0881
16585 2 32.8446 1.90223 43.3015
16586 2 32.0342 3.2556 42.8793
16587 1 27.181 11.9142 80.6629
16588 2 26.3561 12.4713 80.7581
16589 2 26.9235 10.9688 80.4632
16590 1 1.46091 26.5004 72.7938
16591 2 2.35152 26.1758 73.1122
16592 2 0.784779 25.7704 72.8939
16593 1 68.8311 17.4259 43.0675
16594 2 67.8927 17.1032 42.944
16595 2 69.2785 16.8852 43.7799
16596 1 73.1061 1.94173 41.7286
16597 2 72.8412 1.9093 42.6924
16598 2 73.3691 1.02623 41.4243
16599 1 67.328 25.3867 33.2146
16600 2 66.5165 25.213 32.6567
16601 2 67.0499 25.5895 34.1535
16602 1 70.7643 12.2181 71.2632
16603 2 70.099 11.8399 71.9068
16604 2 70.8379 11.6165 70.4678
16605 1 70.2628 11.6782 62.0661
16606 2 70.985 11.0829 62.4182
16607 2 69.5879 11.8446 62.785
16608 1 51.0012 28.8092 82.0257
16609 2 50.9479 29.7648 82.3155
16610 2 51.9326 28.4712 82.1614
16611 1 19.0496 25.6452 83.9533
16612 2 20.0299 25.653 83.7561
16613 2 18.9088 25.639 84.9433
16614 1 59.427 18.0187 43.2568
16615 2 59.3153 17.3346 42.536
16616 2 60.1974 17.7643 43.8413
16617 1 49.6189 1.05042 64.0771
16618 2 50.3152 1.75791 63.956
16619 2 50.0629 0.175499 64.2705
16620 1 50.5781 5.8188 44.707
16621 2 49.8208 5.36596 45.1776
16622 2 51.2529 5.13582 44.4274
16623 1 35.484 22.9028 41.3093
16624 2 35.5597 23.6601 41.958
16625 2 36.0924 23.0669 40.5328
16626 1 60.7695 24.9011 26.5153
16627 2 61.1353 25.8014 26.751
16628 2 59.986 24.6956 27.1018
16629 1 21.6722 25.9068 30.3733
16630 2 22.1952 26.3683 31.0898
16631 2 21.2312 26.5893 29.7904
16632 1 44.1381 15.0015 71.354
16633 2 44.2178 14.133 70.8647
16634 2 45.041 15.4242 71.432
16635 1 28.5444 11.3906 36.4739
16636 2 27.5647 11.5797 36.4065
16637 2 28.9026 11.7855 37.3199
16638 1 1.68534 17.1128 70.6835
16639 2 0.797329 17.553 70.8163
16640 2 1.66033 16.1896 71.067
16641 1 35.1751 16.1462 41.2754
16642 2 35.9603 15.6618 41.6611
16643 2 34.9946 16.9698 41.8131
16644 1 50.9952 28.2904 63.7315
16645 2 50.5551 28.1514 64.6186
16646 2 51.7701 28.9135 63.8378
16647 1 1.77791 0.920458 39.2525
16648 2 2.61027 0.552472 39.667
16649 2 0.980848 0.599438 39.764
16650 1 8.9752 11.9502 30.2924
16651 2 8.44744 12.5434 29.6844
16652 2 8.4711 11.101 30.4498
16653 1 27.2515 16.962 48.4072
16654 2 28.045 16.807 48.9958
16655 2 27.5554 17.0759 47.4613
16656 1 29.3499 26.6617 62.2132
16657 2 29.8658 26.3651 61.4095
16658 2 28.5466 27.1806 61.9208
16659 1 66.9143 28.2898 31.4821
16660 2 67.3057 28.6604 30.6398
16661 2 67.5531 27.6355 31.8867
16662 1 62.8369 17.5748 87.6975
16663 2 63.5175 17.5161 88.4278
16664 2 62.9935 16.8412 87.0362
16665 1 16.8193 14.38 22.8826
16666 2 16.4119 14.6321 23.7603
16667 2 16.108 14.3535 22.1803
16668 1 31.3744 7.43404 41.8274
16669 2 30.7518 6.78854 42.2698
16670 2 31.9618 7.85682 42.5175
16671 1 4.1728 6.89264 72.4772
16672 2 5.14139 6.9914 72.249
16673 2 3.94752 7.49555 73.2426
16674 1 63.6972 27.1248 21.1615
16675 2 63.9473 27.308 22.1122
16676 2 64.443 27.4104 20.5596
16677 1 16.0237 27.2008 25.897
16678 2 16.8723 27.3886 26.3917
16679 2 15.5632 26.4157 26.3111
16680 1 77.8494 12.7394 33.7563
16681 2 76.9589 12.6607 33.3082
16682 2 78.3778 13.469 33.3221
16683 1 67.7246 2.57383 71.7685
16684 2 68.0392 1.64943 71.9841
16685 2 67.7145 3.12553 72.6025
16686 1 28.724 16.649 76.9218
16687 2 27.9337 16.0611 76.7488
16688 2 29.4881 16.0927 77.2484
16689 1 12.0254 28.4636 18.4937
16690 2 11.6901 29.3985 18.3773
16691 2 12.5775 28.2063 17.7007
16692 1 61.5555 12.0034 49.375
16693 2 61.5429 11.7164 50.3329
16694 2 60.7891 11.5816 48.8906
16695 1 23.1137 1.95798 85.9003
16696 2 23.5484 1.26104 86.4707
16697 2 22.9003 2.75984 86.4583
16698 1 69.6637 3.49334 42.9816
16699 2 69.5593 2.92199 43.7956
16700 2 69.6157 2.92007 42.1636
16701 1 28.9253 19.2944 47.8758
16702 2 29.3752 18.4953 47.4771
16703 2 28.7117 19.9517 47.1531
16704 1 38.8105 16.7315 55.577
16705 2 38.5066 15.8266 55.8751
16706 2 38.0197 17.2689 55.2841
16707 1 40.6366 19.4809 41.6326
16708 2 41.0886 18.6944 42.0535
16709 2 41.0205 20.3253 42.0061
16710 1 53.8986 27.4944 61.56
16711 2 53.5614 26.9197 62.3056
16712 2 54.836 27.2301 61.3332
16713 1 50.3423 15.2554 67.9228
16714 2 50.0159 15.4942 67.0082
16715 2 50.216 16.0353 68.5359
16716 1 32.3185 0.690003 71.8539
16717 2 32.2191 1.59773 72.2615
16718 2 32.8393 0.101946 72.4727
16719 1 31.3599 22.378 45.5522
16720 2 31.796 22.2083 46.4359
16721 2 31.0062 21.518 45.1844
16722 1 11.827 21.5 51.8862
16723 2 12.745 21.5366 52.2811
16724 2 11.2282 22.1341 52.3754
16725 1 18.9619 7.67819 86.2576
16726 2 18.9524 7.80071 87.25
16727 2 19.8876 7.83126 85.9117
16728 1 42.9981 5.91962 35.8474
16729 2 43.8682 6.40314 35.9424
16730 2 42.3929 6.17094 36.6027
16731 1 77.0884 8.95491 36.1857
16732 2 76.7661 8.44564 35.3877
16733 2 76.3373 9.06467 36.8367
16734 1 69.5616 8.52619 33.5783
16735 2 68.7342 9.07629 33.4652
16736 2 70.2909 9.09531 33.958
16737 1 1.60297 26.2492 76.1585
16738 2 2.56999 26.0278 76.0327
16739 2 1.26625 25.8104 76.9916
16740 1 69.6584 20.6389 33.3045
16741 2 69.386 20.0497 32.5439
16742 2 70.6563 20.6866 33.3485
16743 1 2.09758 18.0859 10.903
16744 2 3.08215 17.9876 11.0478
16745 2 1.92495 18.8697 10.3065
16746 1 71.5501 28.7343 86.1418
16747 2 71.9417 29.6529 86.1954
16748 2 71.6581 28.274 87.023
16749 1 72.972 4.14048 10.5507
16750 2 73.0674 3.9575 9.57227
16751 2 72.4894 3.38067 10.9864
16752 1 48.1183 26.2684 63.8734
16753 2 48.8808 25.6464 63.6954
16754 2 47.9904 26.365 64.8605
16755 1 48.4705 17.1587 87.1913
16756 2 48.0326 17.9705 86.8052
16757 2 48.526 16.4456 86.4924
16758 1 7.05233 15.8412 87.2334
16759 2 7.57155 15.0834 87.6285
16760 2 7.4101 16.0519 86.3237
16761 1 78.7374 16.5826 66.9849
16762 2 78.0843 16.1783 67.6252
16763 2 78.5506 16.2468 66.0617
16764 1 66.7953 22.0746 83.6602
16765 2 67.1245 21.416 84.3369
16766 2 66.6957 22.9721 84.0897
16767 1 57.5163 22.1533 73.3321
16768 2 56.8425 21.4159 73.3799
16769 2 58.2597 21.9677 73.9746
16770 1 13.4841 19.2294 72.442
16771 2 14.3313 18.7251 72.609
16772 2 13.0838 19.5071 73.3153
16773 1 16.4043 10.8765 17.1295
16774 2 16.7101 11.5701 16.4772
16775 2 17.0639 10.8093 17.8781
16776 1 15.7597 29.3078 55.549
16777 2 15.6212 29.6662 54.6258
16778 2 16.7383 29.2823 55.7534
16779 1 52.3242 2.90327 74.3522
16780 2 53.2729 2.58713 74.3428
16781 2 51.9818 2.9021 75.2917
16782 1 65.5792 10.6513 12.4393
16783 2 65.7986 10.7411 13.4108
16784 2 65.8591 11.4809 11.9563
16785 1 39.1149 0.747165 77.8583
16786 2 38.6263 1.47272 78.3429
16787 2 38.7174 0.627819 76.9484
16788 1 74.0408 27.2665 74.9068
16789 2 74.5725 27.5475 74.1078
16790 2 74.5409 26.5605 75.4084
16791 1 16.7496 17.7689 22.7239
16792 2 15.8564 18.1652 22.936
16793 2 16.8537 17.6931 21.7322
16794 1 5.40961 19.7943 49.0201
16795 2 6.3136 19.7451 49.4448
16796 2 5.02733 18.8736 48.9422
16797 1 8.74733 2.1054 43.0725
16798 2 9.01183 1.22998 43.4771
16799 2 7.90563 2.43092 43.5033
16800 1 0.750791 1.66876 86.7193
16801 2 1.32712 2.2083 87.3331
16802 2 0.789064 2.05739 85.7987
16803 1 46.7421 19.447 88.4868
16804 2 47.2523 19.2122 87.6594
16805 2 47.2677 19.1718 89.2918
16806 1 20.5946 3.30006 33.4592
16807 2 21.0737 2.42361 33.5068
16808 2 21.2195 4.03612 33.7194
16809 1 25.0929 10.5282 58.1637
16810 2 25.2858 11.4715 58.4338
16811 2 24.1896 10.4816 57.7373
16812 1 19.4166 29.9868 80.9926
16813 2 19.0589 0.346611 80.1309
16814 2 18.8598 0.324597 81.7515
16815 1 39.8818 21.067 80.0724
16816 2 40.2946 21.9744 79.994
16817 2 40.4833 20.3894 79.6493
16818 1 9.29812 13.5995 73.6334
16819 2 10.1104 13.3738 74.1712
16820 2 9.193 12.9349 72.8936
16821 1 65.6419 6.43613 46.6312
16822 2 66.2222 5.88507 47.2309
16823 2 65.0087 5.83871 46.1392
16824 1 79.1334 6.5566 52.2735
16825 2 79.0657 5.8491 51.5701
16826 2 78.8669 6.17373 53.1581
16827 1 73.0734 15.8614 18.7667
16828 2 73.1906 14.9004 19.0172
16829 2 73.8859 16.1801 18.2786
16830 1 39.3845 11.161 64.2761
16831 2 39.1976 10.8133 63.3573
16832 2 38.6174 10.9403 64.8785
16833 1 27.9849 4.46932 25.5875
16834 2 28.4877 3.60739 25.5223
16835 2 28.5806 5.1745 25.972
16836 1 62.3233 28.1418 46.1414
16837 2 61.6036 27.9695 46.8139
16838 2 62.9053 28.8899 46.4602
16839 1 21.2863 28.4569 49.0013
16840 2 21.1329 28.0389 48.1058
16841 2 22.1981 28.8665 49.0262
16842 1 39.3671 17.4711 29.6072
16843 2 39.2664 16.4801 29.6955
16844 2 38.4814 17.9108 29.756
16845 1 70.1455 9.91015 37.2362
16846 2 70.5667 9.06468 36.908
16847 2 69.5139 10.2586 36.5436
16848 1 31.419 13.7795 32.1618
16849 2 31.6714 12.8161 32.0716
16850 2 30.5886 13.8562 32.7136
16851 1 62.2932 26.3323 17.5385
16852 2 63.128 25.9131 17.8952
16853 2 61.9671 27.0253 18.1814
16854 1 38.4641 19.4754 75.3245
16855 2 38.7704 20.423 75.2338
16856 2 38.0126 19.1888 74.4795
16857 1 68.7799 12.7911 64.1345
16858 2 68.8939 12.2774 64.9849
16859 2 68.7686 13.7706 64.3356
16860 1 31.5271 25.0911 71.2807
16861 2 31.1162 24.6674 72.0879
16862 2 32.5181 25.1474 71.4019
16863 1 62.967 12.76 39.3222
16864 2 63.7188 12.4838 39.9209
16865 2 63.3276 13.2998 38.5615
16866 1 23.9282 5.93416 61.7663
16867 2 23.7312 6.90148 61.9259
16868 2 23.1656 5.37936 62.0988
16869 1 4.24133 20.5265 84.534
16870 2 3.72528 19.738 84.1993
16871 2 4.77937 20.2578 85.333
16872 1 62.4103 16.9055 42.9599
16873 2 62.0555 17.0822 43.8779
16874 2 61.6969 16.4799 42.403
16875 1 41.5435 12.9538 64.0724
16876 2 40.6832 12.4902 64.2845
16877 2 41.5009 13.8993 64.3952
16878 1 64.0898 26.2793 56.2376
16879 2 63.7776 26.1603 57.1801
16880 2 63.3159 26.1704 55.6137
16881 1 78.3892 11.401 10.8237
16882 2 77.8954 11.7422 10.0239
16883 2 79.0291 12.0998 11.1435
16884 1 22.6959 1.6209 28.335
16885 2 23.5514 1.11756 28.2131
16886 2 22.8586 2.59602 28.1845
16887 1 61.9755 6.99171 30.2962
16888 2 61.3287 7.32235 29.6089
16889 2 61.6311 7.20873 31.2096
16890 1 5.59339 25.094 45.1955
16891 2 5.04766 24.2593 45.1223
16892 2 5.0774 25.7864 45.6998
16893 1 32.4715 17.3866 66.8024
16894 2 32.3467 18.3573 66.5968
16895 2 32.5306 16.8699 65.9483
16896 1 63.0243 29.8655 17.3843
16897 2 62.6564 29.3256 18.1413
16898 2 62.5957 0.769023 17.3801
16899 1 35.7361 18.0298 53.5922
16900 2 35.9191 17.201 53.0634
16901 2 36.5951 18.5119 53.7641
16902 1 1.06392 15.0649 20.9721
16903 2 1.59165 15.3047 21.787
16904 2 1.67751 14.9982 20.1853
16905 1 41.1189 17.9847 65.7768
16906 2 40.2108 17.9392 65.3607
16907 2 41.5859 17.109 65.6545
16908 1 1.73211 20.6851 58.9051
16909 2 0.904908 20.9265 59.4125
16910 2 1.95212 21.4161 58.2591
16911 1 22.5045 29.4073 90.4996
16912 2 21.5529 29.2636 90.2281
16913 2 22.7345 0.376224 90.4086
16914 1 54.2026 7.65817 90.5114
16915 2 53.9064 8.6128 90.5415
16916 2 55.2012 7.62008 90.4735
16917 1 36.9534 23.2917 72.722
16918 2 36.8467 23.9818 73.4378
16919 2 36.0958 23.2012 72.2158
16920 1 35.0568 9.74569 30.0775
16921 2 35.2879 9.82343 29.1076
16922 2 35.5876 9.00434 30.4882
16923 1 22.5601 27.0948 60.2835
16924 2 22.334 26.3073 59.7101
16925 2 23.2583 27.6482 59.8294
16926 1 20.7162 24.5543 54.4366
16927 2 21.2391 24.8408 55.2394
16928 2 21.2495 23.8921 53.9103
16929 1 78.4321 0.770948 79.4468
16930 2 79.3601 0.911541 79.7917
16931 2 78.164 1.55222 78.8831
16932 1 4.34714 14.0309 15.32
16933 2 4.96667 13.7354 16.0472
16934 2 3.41531 13.7404 15.5375
16935 1 26.4112 10.4747 47.2131
16936 2 26.5401 11.4594 47.0961
16937 2 25.7169 10.1506 46.5705
16938 1 47.5426 24.5091 55.5433
16939 2 48.304 25.0444 55.909
16940 2 47.0451 25.0548 54.869
16941 1 63.2094 27.832 90.1632
16942 2 63.8658 28.0727 90.8782
16943 2 63.4419 28.3174 89.3203
16944 1 65.8729 8.80949 16.2969
16945 2 65.1447 8.83544 16.9817
16946 2 65.527 8.3884 15.4584
16947 1 34.4325 3.35755 46.063
16948 2 33.9805 3.55702 46.9324
16949 2 34.5681 4.20815 45.5549
16950 1 60.7229 26.9646 64.8926
16951 2 61.4429 26.2712 64.8645
16952 2 61.0337 27.7875 64.4171
16953 1 56.8485 13.8688 27.8763
16954 2 57.08 12.9181 28.0827
16955 2 57.3931 14.4773 28.4535
16956 1 3.92745 12.7097 60.1328
16957 2 3.77401 11.9015 60.7014
16958 2 3.05083 13.0474 59.79
16959 1 48.125 4.43457 61.8467
16960 2 48.1138 4.06138 62.7744
16961 2 48.4963 3.75198 61.2173
16962 1 78.1104 25.4412 77.0207
16963 2 77.8778 24.9152 77.8387
16964 2 77.2734 25.6778 76.5273
16965 1 48.9274 26.7345 54.0455
16966 2 48.1805 27.3515 53.7975
16967 2 49.635 26.7671 53.3397
16968 1 66.6377 15.7198 86.7793
16969 2 66.9322 16.0995 87.6563
16970 2 67.4402 15.4577 86.2432
16971 1 53.5782 29.3833 51.1298
16972 2 53.3449 28.6578 51.7773
16973 2 54.1482 29.0073 50.3992
16974 1 66.7805 17.1437 78.7216
16975 2 66.4961 16.6497 77.8999
16976 2 66.6111 16.576 79.5272
16977 1 9.27144 13.2348 54.449
16978 2 9.10004 12.4303 55.0176
16979 2 9.47375 14.0198 55.0345
16980 1 29.9695 10.7664 31.8597
16981 2 30.0378 10.6228 30.8724
16982 2 30.1705 9.91033 32.3358
16983 1 66.5211 20.6907 12.2935
16984 2 67.0322 19.9004 11.9556
16985 2 66.977 21.5318 12.0024
16986 1 4.8394 0.787022 43.7494
16987 2 4.46114 29.9469 43.3607
16988 2 4.09502 1.41864 43.9661
16989 1 25.3368 2.34435 64.0198
16990 2 25.7295 3.21544 64.3148
16991 2 25.281 1.72239 64.8009
16992 1 29.0155 7.05047 78.9362
16993 2 28.286 6.9609 79.6142
16994 2 29.169 8.01847 78.7376
16995 1 20.4347 1.92701 51.4581
16996 2 19.8264 2.46173 52.0446
16997 2 20.9606 1.28719 52.0186
16998 1 21.8781 29.8 82.8
16999 2 21.4994 29.7542 83.7244
17000 2 21.134 29.8992 82.1394
17001 1 15.9547 9.84763 63.3854
17002 2 16.4456 10.6543 63.7145
17003 2 14.9768 9.95669 63.564
17004 1 35.9701 11.7905 34.1306
17005 2 36.2147 11.9535 35.0865
17006 2 36.1013 10.8233 33.9133
17007 1 69.8597 1.12638 45.0756
17008 2 69.4212 0.305135 44.7106
17009 2 70.3982 0.885733 45.8832
17010 1 56.5656 20.031 35.494
17011 2 56.6099 19.855 36.4774
17012 2 55.6108 20.0241 35.1969
17013 1 55.0063 14.536 40.904
17014 2 55.975 14.7659 40.9979
17015 2 54.5089 15.3273 40.5486
17016 1 79.0838 28.3697 49.881
17017 2 79.7253 28.7339 49.2058
17018 2 78.3281 29.0131 50.0036
17019 1 35.9594 8.58499 77.013
17020 2 35.8139 9.57435 77.0095
17021 2 35.6925 8.20572 76.1271
17022 1 66.9145 26.872 90.4623
17023 2 67.6672 26.4809 90.9919
17024 2 67.2721 27.2653 89.6152
17025 1 56.2976 0.917829 85.564
17026 2 56.5299 0.0791202 85.0715
17027 2 56.7114 1.70171 85.1011
17028 1 39.5388 4.24311 55.7423
17029 2 40.3194 3.66458 55.5058
17030 2 39.0787 4.54037 54.9057
17031 1 71.2996 8.36534 45.6929
17032 2 71.0007 9.13609 46.2556
17033 2 71.4796 7.57509 46.2787
17034 1 7.89714 23.9392 44.1707
17035 2 7.59038 24.5905 43.4767
17036 2 7.49898 23.041 43.9841
17037 1 68.6345 26.1727 57.1554
17038 2 68.7805 25.2837 56.7213
17039 2 67.8293 26.1267 57.7466
17040 1 70.263 24.1009 78.1771
17041 2 71.0256 24.6931 77.9166
17042 2 69.5588 24.133 77.4679
17043 1 16.7586 19.1784 39.8187
17044 2 16.1597 19.9703 39.9381
17045 2 17.7016 19.4888 39.6983
17046 1 5.95049 18.522 65.4372
17047 2 6.30585 19.2614 66.0091
17048 2 6.59328 17.756 65.4453
17049 1 64.0844 29.267 36.0003
17050 2 64.7374 0.0146447 35.8795
17051 2 63.1566 29.6067 35.8463
17052 1 31.3283 10.53 87.0447
17053 2 31.9194 11.1681 86.5513
17054 2 30.5836 11.035 87.4811
17055 1 72.3235 25.0515 62.2388
17056 2 72.9808 24.5805 62.827
17057 2 71.3948 24.7843 62.4959
17058 1 25.4123 4.68097 23.9515
17059 2 24.7702 3.94886 24.1788
17060 2 26.2612 4.55066 24.4638
17061 1 16.6667 28.09 43.2471
17062 2 16.0639 27.7227 43.9554
17063 2 16.7764 27.4134 42.519
17064 1 13.4604 22.9765 10.9477
17065 2 13.0247 22.0778 10.9979
17066 2 13.9242 23.0735 10.0671
17067 1 7.14872 11.3893 40.0003
17068 2 7.21337 11.3533 39.0031
17069 2 7.28988 12.3297 40.3097
17070 1 30.5613 26.8715 86.2195
17071 2 30.6072 25.9176 86.5161
17072 2 30.7963 27.4703 86.9851
17073 1 12.1642 19.2915 15.4882
17074 2 12.4464 18.3609 15.2551
17075 2 11.1718 19.3187 15.6082
17076 1 51.9298 16.1099 71.5452
17077 2 52.7818 15.5983 71.6569
17078 2 51.1524 15.4902 71.653
17079 1 69.8722 22.7667 36.8356
17080 2 70.6159 22.5044 37.4504
17081 2 70.2472 22.9949 35.9371
17082 1 55.3252 21.4691 78.3925
17083 2 55.7147 22.1744 77.8001
17084 2 55.8359 20.6172 78.2766
17085 1 72.1908 6.70892 62.8193
17086 2 71.9197 7.60954 62.4796
17087 2 72.6018 6.18201 62.0753
17088 1 1.29599 16.7688 57.9043
17089 2 1.13368 16.9583 58.8726
17090 2 0.439285 16.8653 57.3976
17091 1 21.0012 24.5852 26.6739
17092 2 21.8405 25.0491 26.3905
17093 2 20.9407 24.5857 27.672
17094 1 23.8041 23.8605 21.4329
17095 2 24.318 24.5865 20.976
17096 2 23.623 24.1256 22.3799
17097 1 77.7814 3.38554 52.2458
17098 2 76.8407 3.71891 52.1829
17099 2 77.7783 2.43635 52.5605
17100 1 64.6042 17.8269 25.2484
17101 2 65.2576 18.0331 25.9768
17102 2 63.9085 17.1967 25.5933
17103 1 53.383 13.4383 30.6698
17104 2 54.2845 13.0125 30.7478
17105 2 53.0157 13.2756 29.7541
17106 1 56.8113 16.4172 36.2664
17107 2 55.9399 16.5999 36.7216
17108 2 57.0641 17.2035 35.7026
17109 1 72.4542 21.0834 67.7644
17110 2 72.1853 21.8324 67.1589
17111 2 72.1468 21.2806 68.6953
17112 1 4.71613 11.6545 41.1968
17113 2 4.51639 11.7722 42.1695
17114 2 5.66719 11.3667 41.0842
17115 1 68.9098 18.5784 12.8746
17116 2 69.8151 18.949 13.0823
17117 2 69.0041 17.6498 12.5157
17118 1 17.1083 24.2926 86.088
17119 2 17.0539 23.2991 85.9885
17120 2 18.0507 24.5559 86.2943
17121 1 50.3652 3.84624 26.6462
17122 2 50.1935 4.45859 27.4179
17123 2 49.6185 3.9249 25.9857
17124 1 62.1422 9.68163 39.0897
17125 2 61.2594 9.28544 39.3422
17126 2 62.0105 10.6278 38.7939
17127 1 59.456 22.7833 75.237
17128 2 60.2552 22.2111 75.4208
17129 2 58.887 22.8347 76.0577
17130 1 74.1176 4.81475 79.8481
17131 2 73.823 4.08962 79.2256
17132 2 74.8056 4.4543 80.4779
17133 1 5.74837 21.6412 39.6313
17134 2 6.05688 21.7711 38.689
17135 2 4.80798 21.3011 39.6303
17136 1 12.9374 8.94247 85.6333
17137 2 13.4148 9.39481 84.88
17138 2 12.699 9.61844 86.3306
17139 1 51.4299 13.1088 45.9857
17140 2 51.1692 12.2467 45.5511
17141 2 52.0472 12.9234 46.7502
17142 1 60.1035 16.1216 54.8132
17143 2 60.3768 16.2904 55.7603
17144 2 59.1891 15.7172 54.7972
17145 1 66.2323 13.3716 56.6131
17146 2 65.7306 13.8993 57.2986
17147 2 65.6461 12.643 56.2588
17148 1 49.9302 22.7082 32.1094
17149 2 49.4393 21.837 32.1167
17150 2 50.0654 23.0225 33.0491
17151 1 72.0433 26.2517 28.0524
17152 2 73.0392 26.1931 28.1213
17153 2 71.7835 27.1686 27.7494
17154 1 53.8846 29.2572 45.0571
17155 2 53.1052 29.2065 44.4327
17156 2 54.3983 28.4001 45.0192
17157 1 68.6225 2.22793 57.3753
17158 2 69.0414 1.36495 57.6579
17159 2 69.3068 2.9565 57.4067
17160 1 19.0567 26.2795 21.1206
17161 2 18.3205 25.7783 21.5754
17162 2 19.5786 26.7948 21.8004
17163 1 58.6545 13.4387 63.9783
17164 2 59.6396 13.6054 64.0211
17165 2 58.3594 12.9698 64.8108
17166 1 43.5296 25.6633 69.0541
17167 2 44.4998 25.9059 69.0543
17168 2 43.4028 24.7964 69.5363
17169 1 40.9383 3.79087 78.5923
17170 2 40.4671 4.42479 79.2056
17171 2 41.6748 4.27226 78.1171
17172 1 46.3588 12.9871 35.2897
17173 2 47.0494 13.5835 34.8806
17174 2 46.2873 13.1821 36.2679
17175 1 33.8313 9.36514 82.2949
17176 2 33.9919 9.08863 81.3474
17177 2 34.3963 10.1617 82.51
17178 1 42.1328 13.1382 37.2611
17179 2 43.1327 13.1539 37.2692
17180 2 41.785 13.6567 38.0422
17181 1 49.9421 12.176 36.7369
17182 2 50.3149 11.2504 36.8014
17183 2 49.1608 12.2644 37.3548
17184 1 3.51576 10.6545 19.9442
17185 2 3.62244 10.9013 18.981
17186 2 2.78792 11.2065 20.3511
17187 1 14.1983 16.4847 40.1288
17188 2 15.0662 16.2621 39.6848
17189 2 14.3286 17.2619 40.7444
17190 1 1.75152 10.3754 59.2741
17191 2 1.10789 10.7006 58.5813
17192 2 1.29038 9.72598 59.8788
17193 1 69.6135 9.1475 27.735
17194 2 68.8202 9.2578 27.1362
17195 2 70.2956 8.57325 27.2822
17196 1 75.0672 10.8815 47.3146
17197 2 74.5428 10.3251 47.9591
17198 2 75.5601 10.2837 46.6824
17199 1 42.0543 19.3668 39.1228
17200 2 42.8283 19.995 39.203
17201 2 41.9549 18.8502 39.9732
17202 1 41.8307 15.5853 49.29
17203 2 41.1017 15.1272 48.7815
17204 2 42.1399 16.3876 48.7793
17205 1 25.9494 14.7506 83.6679
17206 2 25.8758 15.3024 82.8372
17207 2 25.5872 15.2667 84.4441
17208 1 13.8719 5.00988 12.9309
17209 2 14.7581 5.47139 12.8891
17210 2 13.7414 4.62104 13.8429
17211 1 2.98457 12.8622 90.2235
17212 2 3.68986 13.0883 90.8954
17213 2 2.2049 13.4777 90.3387
17214 1 43.7632 16.331 78.0973
17215 2 43.428 16.895 78.852
17216 2 43.5096 16.7535 77.2272
17217 1 9.64969 4.33197 67.012
17218 2 10.1591 4.26218 67.8696
17219 2 9.28721 3.43315 66.7655
17220 1 40.8035 22.1408 61.744
17221 2 40.962 23.0178 62.1976
17222 2 41.4452 21.461 62.0992
17223 1 72.4998 18.8427 88.9504
17224 2 73.0674 18.3998 88.2564
17225 2 71.5349 18.7316 88.7124
17226 1 31.866 19.869 50.5477
17227 2 32.721 20.3799 50.6366
17228 2 31.1098 20.5073 50.4034
17229 1 29.8181 10.2143 72.1965
17230 2 29.1241 9.8239 71.5917
17231 2 29.5569 10.057 73.1489
17232 1 19.2581 16.4268 24.8207
17233 2 20.0908 16.9749 24.899
17234 2 18.4846 17.0242 24.6086
17235 1 32.4327 10.8689 71.8172
17236 2 33.1485 10.2196 72.0741
17237 2 31.543 10.4133 71.847
17238 1 20.1573 6.74091 10.9564
17239 2 20.55 5.82275 11.0096
17240 2 20.6197 7.33954 11.6105
17241 1 45.3863 5.61333 40.7567
17242 2 44.6169 6.12472 40.3739
17243 2 45.2067 5.41204 41.7196
17244 1 70.0148 14.6279 31.0979
17245 2 70.7072 14.9111 30.4342
17246 2 70.2174 15.0389 31.9867
17247 1 2.22552 0.420846 24.0036
17248 2 1.6996 29.8154 24.6009
17249 2 3.1893 0.154974 24.0247
17250 1 4.02858 21.8625 63.2059
17251 2 4.19794 22.1118 62.2524
17252 2 4.81094 22.1353 63.7658
17253 1 35.1318 13.2799 63.9953
17254 2 34.3327 12.8065 64.3659
17255 2 35.4891 12.7688 63.2136
17256 1 5.50507 7.75037 15.8308
17257 2 6.1392 7.32242 16.4748
17258 2 5.09505 8.55837 16.2539
17259 1 35.4907 22.5547 69.8098
17260 2 35.3451 21.7344 69.2567
17261 2 35.3725 23.367 69.2388
17262 1 5.03687 16.0138 62.9893
17263 2 6.03053 16.1246 63.0079
17264 2 4.63161 16.7341 62.4264
17265 1 40.4838 26.506 64.6626
17266 2 40.8031 25.6828 64.1933
17267 2 39.8152 26.9788 64.0885
17268 1 17.2991 23.0933 19.5028
17269 2 17.3186 23.5974 18.6394
17270 2 16.8149 22.2281 19.3727
17271 1 67.0988 4.00141 11.672
17272 2 66.2004 3.5765 11.5609
17273 2 67.8007 3.29049 11.7147
17274 1 38.2754 19.2201 54.479
17275 2 38.7903 20.0357 54.743
17276 2 38.5041 18.9717 53.5377
17277 1 56.4642 19.2413 73.8627
17278 2 57.4628 19.2921 73.8523
17279 2 56.0991 19.688 73.0459
17280 1 19.576 26.8295 25.5095
17281 2 19.9295 27.1778 24.6414
17282 2 20.2258 26.1746 25.8953
17283 1 39.3003 24.9099 75.9295
17284 2 39.397 24.2213 76.6482
17285 2 38.3494 24.9386 75.6213
17286 1 42.5486 21.8142 63.9141
17287 2 42.251 22.6163 63.3964
17288 2 43.0847 21.2142 63.3203
17289 1 70.4564 18.0689 63.6517
17290 2 70.6352 18.403 64.5772
17291 2 71.3071 18.0718 63.1261
17292 1 20.0332 17.7795 27.2355
17293 2 19.0418 17.8026 27.3643
17294 2 20.3457 18.6658 26.8938
17295 1 63.68 2.01634 13.5708
17296 2 64.1395 2.89036 13.7287
17297 2 63.3823 1.96369 12.6175
17298 1 38.2043 19.4795 66.7054
17299 2 38.9809 20.0529 66.4445
17300 2 37.621 19.9796 67.3455
17301 1 65.7073 28.099 14.2146
17302 2 66.3328 27.4844 14.6954
17303 2 65.692 27.8652 13.2424
17304 1 19.2196 3.70102 55.6125
17305 2 19.4886 3.3263 56.4998
17306 2 20.0284 3.79739 55.0324
17307 1 25.1365 27.163 43.1632
17308 2 25.1518 26.3363 43.7258
17309 2 25.261 26.9148 42.2025
17310 1 58.5991 27.7846 25.4305
17311 2 59.4716 27.7882 25.919
17312 2 58.0098 28.5054 25.7954
17313 1 8.88993 26.2659 52.3525
17314 2 8.20867 25.8713 52.9691
17315 2 9.80681 26.0253 52.671
17316 1 20.684 0.836011 67.9434
17317 2 20.3864 0.734538 68.8927
17318 2 20.1125 1.51724 67.4859
17319 1 3.71906 1.29082 52.1749
17320 2 3.20158 1.86705 51.5423
17321 2 4.52226 1.79022 52.4996
17322 1 38.6223 18.2718 78.3444
17323 2 38.7518 17.9947 79.2964
17324 2 39.1384 17.6592 77.7458
17325 1 60.003 19.0078 55.2147
17326 2 59.5806 18.7062 54.36
17327 2 60.4201 18.2241 55.6751
17328 1 12.6907 16.4518 47.3031
17329 2 13.374 17.1321 47.5682
17330 2 13.1431 15.6844 46.8489
17331 1 56.9742 29.3555 26.7588
17332 2 56.0615 29.3718 26.3503
17333 2 56.9316 29.7305 27.6848
17334 1 40.7056 18.8806 86.4569
17335 2 41.4324 19.218 85.8586
17336 2 40.2941 18.0634 86.0533
17337 1 44.3429 12.2698 90.9135
17338 2 45.0068 12.5605 91.6025
17339 2 44.7183 12.4296 90.0006
17340 1 66.9903 10.3549 40.2938
17341 2 67.5339 10.3114 41.132
17342 2 66.046 10.5929 40.5209
17343 1 22.7303 21.7664 78.7971
17344 2 22.4169 22.1525 77.9295
17345 2 22.8346 20.7763 78.7029
17346 1 49.3412 13.6853 74.2446
17347 2 50.1163 13.6019 73.6182
17348 2 48.5398 14.0095 73.742
17349 1 78.6202 23.4202 89.8253
17350 2 79.6111 23.3494 89.7107
17351 2 78.1916 23.5712 88.9345
17352 1 74.6072 3.62179 39.8496
17353 2 75.1762 3.48779 39.0383
17354 2 74.6127 2.7882 40.402
17355 1 65.3542 1.50995 55.579
17356 2 65.8564 0.686479 55.843
17357 2 64.8781 1.34727 54.7148
17358 1 20.5371 7.24295 67.713
17359 2 20.05 7.59849 68.5107
17360 2 21.3321 6.71684 68.0152
17361 1 14.0645 7.51027 59.6096
17362 2 13.3571 6.80512 59.6584
17363 2 14.8415 7.24287 60.1794
17364 1 70.6321 14.7834 73.141
17365 2 69.9046 14.4195 72.5594
17366 2 70.6423 14.2894 74.0104
17367 1 74.9407 5.67795 77.1855
17368 2 74.8534 5.70678 78.1813
17369 2 75.5506 4.92923 76.9259
17370 1 52.7802 0.396387 76.5966
17371 2 51.9928 29.9567 77.0288
17372 2 52.7195 1.38661 76.7222
17373 1 64.1472 8.15257 36.6825
17374 2 63.4541 7.54716 37.0737
17375 2 63.9632 9.09475 36.9626
17376 1 16.0076 29.9579 59.1657
17377 2 16.6875 29.3783 58.7166
17378 2 15.0907 29.6769 58.8823
17379 1 19.971 11.9164 83.8232
17380 2 19.8062 12.054 82.8465
17381 2 19.1864 12.2526 84.3442
17382 1 20.6293 8.95724 28.4422
17383 2 19.8484 8.52513 27.9913
17384 2 20.3014 9.57963 29.1529
17385 1 11.9162 1.47304 31.4287
17386 2 12.4154 2.26908 31.0865
17387 2 12.5633 0.81091 31.8066
17388 1 5.3166 25.6167 50.6122
17389 2 5.66184 25.8489 51.5216
17390 2 5.99226 25.0573 50.132
17391 1 30.1521 20.1688 28.2454
17392 2 30.2291 20.1654 29.2424
17393 2 30.6854 20.9281 27.8726
17394 1 65.0759 16.53 90.5929
17395 2 66.0721 16.4606 90.5407
17396 2 64.6688 15.6385 90.3943
17397 1 17.1536 4.80089 50.133
17398 2 18.0991 4.71873 50.448
17399 2 16.7489 3.89003 50.0521
17400 1 44.8845 3.93174 42.9032
17401 2 44.6577 2.98718 42.6657
17402 2 45.877 4.02731 42.9788
17403 1 76.6313 7.86312 53.6328
17404 2 76.5605 6.97184 53.1849
17405 2 77.4143 7.86234 54.2547
17406 1 49.7634 1.976 52.185
17407 2 49.6839 1.37027 52.9767
17408 2 48.9256 1.92582 51.6414
17409 1 50.7998 0.738327 67.2041
17410 2 50.2464 0.0249794 66.7741
17411 2 51.7446 0.421703 67.2886
17412 1 0.391739 10.903 73.7508
17413 2 1.21798 10.5784 73.2904
17414 2 0.573233 11.0044 74.7289
17415 1 68.8964 29.5682 28.4281
17416 2 68.0799 29.5408 27.8515
17417 2 69.5432 28.8691 28.1234
17418 1 68.056 20.0189 30.9862
17419 2 68.2239 20.7727 30.3508
17420 2 68.0481 19.1546 30.4833
17421 1 29.896 27.9669 76.0624
17422 2 30.8712 28.1756 76.1353
17423 2 29.4673 28.0596 76.9611
17424 1 33.9685 27.0049 81.0288
17425 2 33.711 26.9032 81.9897
17426 2 34.7905 27.5704 80.962
17427 1 21.9388 11.4731 47.0926
17428 2 21.8645 12.3834 47.4999
17429 2 22.5408 10.905 47.6537
17430 1 46.4839 19.7328 61.4376
17431 2 46.5669 20.3211 60.6331
17432 2 45.577 19.3116 61.4503
17433 1 36.1697 1.58338 48.2462
17434 2 35.4571 1.29739 48.8868
17435 2 36.3338 2.56472 48.3464
17436 1 60.1898 1.36261 37.1654
17437 2 59.4037 1.05994 37.7043
17438 2 61.0337 1.05664 37.6061
17439 1 75.5522 13.9376 21.6192
17440 2 75.0097 13.2914 21.0824
17441 2 76.432 13.5225 21.8507
17442 1 8.30564 9.89302 22.256
17443 2 8.73587 10.5449 21.6316
17444 2 9.00017 9.27307 22.6211
17445 1 31.0153 0.609648 90.654
17446 2 30.4561 1.3927 90.3819
17447 2 31.9831 0.853958 90.5929
17448 1 13.7441 7.20318 30.5686
17449 2 14.3943 6.44347 30.5724
17450 2 12.9576 6.97157 31.1412
17451 1 31.3777 22.6323 42.2623
17452 2 32.067 21.9754 41.9567
17453 2 31.8012 23.531 42.3766
17454 1 77.6883 2.96943 17.8171
17455 2 77.0309 3.72029 17.8807
17456 2 77.9799 2.86135 16.8667
17457 1 22.8676 17.5576 34.1682
17458 2 23.4989 17.8825 34.8724
17459 2 23.3878 17.2347 33.3775
17460 1 6.44644 4.8658 39.0589
17461 2 5.96085 4.02253 38.8285
17462 2 5.88497 5.65359 38.8057
17463 1 66.1779 18.2563 58.2228
17464 2 66.5641 19.1781 58.2571
17465 2 65.184 18.3076 58.3205
17466 1 13.5546 3.1732 27.5053
17467 2 12.8354 3.72417 27.9286
17468 2 13.9163 3.65402 26.7066
17469 1 70.5154 0.337967 25.0785
17470 2 70.4324 29.7871 25.9089
17471 2 70.7236 29.7422 24.3028
17472 1 74.8487 27.6785 36.0023
17473 2 74.1211 27.9384 36.6372
17474 2 75.6574 28.2411 36.1738
17475 1 1.59413 4.28497 14.1055
17476 2 1.81438 4.39864 13.1367
17477 2 0.75749 3.74473 14.1959
17478 1 54.9019 24.1628 78.6678
17479 2 55.6456 24.0386 79.3247
17480 2 55.2812 24.4266 77.7809
17481 1 47.1493 23.486 87.4946
17482 2 47.769 23.4025 86.7142
17483 2 46.8752 22.5746 87.8015
17484 1 65.4788 4.892 32.7885
17485 2 66.0277 4.73391 31.9677
17486 2 65.6755 4.1806 33.4632
17487 1 79.0481 10.3245 60.5342
17488 2 79.5992 9.49065 60.5015
17489 2 79.3007 10.921 59.7725
17490 1 46.72 29.7736 73.2158
17491 2 45.7915 29.9221 72.8754
17492 2 47.3443 29.6607 72.4428
17493 1 39.5735 14.8764 43.0688
17494 2 38.6253 15.1219 42.867
17495 2 40.1317 15.7053 43.1059
17496 1 2.38 6.12286 49.3409
17497 2 2.0129 6.20484 50.2675
17498 2 1.73894 6.53121 48.6911
17499 1 3.43679 7.1821 62.5688
17500 2 2.90295 7.30443 63.4054
17501 2 3.72078 6.2264 62.4913
17502 1 66.4169 8.13497 67.3089
17503 2 66.9742 8.17256 68.1383
17504 2 65.8372 8.94833 67.2596
17505 1 76.9827 18.0049 55.4446
17506 2 77.7328 17.4923 55.8623
17507 2 76.1147 17.5537 55.6518
17508 1 74.949 14.4909 84.6181
17509 2 75.2143 15.4539 84.6663
17510 2 74.478 14.3178 83.7532
17511 1 54.2079 13.7985 77.6438
17512 2 53.872 13.0219 78.1767
17513 2 53.4626 14.1704 77.0904
17514 1 74.4337 29.7289 45.897
17515 2 75.2559 0.298085 45.8995
17516 2 74.1882 29.4937 46.8374
17517 1 10.3033 24.4267 50.5571
17518 2 9.84419 24.9974 51.2379
17519 2 9.62075 24.008 49.9582
17520 1 46.8244 5.86447 77.6941
17521 2 47.6467 5.55976 78.1748
17522 2 46.7206 5.34273 76.8474
17523 1 48.1007 24.7023 31.1114
17524 2 48.7918 24.0705 31.4624
17525 2 47.8452 24.4344 30.1825
17526 1 31.551 5.31012 83.8046
17527 2 31.0592 4.73697 84.46
17528 2 30.999 5.42016 82.978
17529 1 14.1662 9.63253 41.3429
17530 2 13.7568 10.1375 42.1028
17531 2 14.6424 10.27 40.7371
17532 1 71.228 0.662025 83.5159
17533 2 71.1238 0.143014 82.6675
17534 2 71.6246 0.0732906 84.2202
17535 1 72.357 13.9168 33.6587
17536 2 71.6593 14.1483 34.3367
17537 2 72.3948 14.6327 32.9615
17538 1 66.8245 10.6831 37.3334
17539 2 67.3546 10.4434 38.1468
17540 2 65.963 11.1085 37.6105
17541 1 54.3057 5.59567 40.278
17542 2 55.0362 5.13201 40.7795
17543 2 54.057 5.05413 39.475
17544 1 64.9394 10.2006 68.2464
17545 2 64.0201 9.80773 68.2206
17546 2 64.8892 11.1793 68.0473
17547 1 63.9937 21.4256 12.1606
17548 2 63.4759 20.6437 12.5076
17549 2 64.9721 21.2236 12.2048
17550 1 14.8782 22.6108 37.9452
17551 2 15.0869 21.751 38.4111
17552 2 15.4323 23.3453 38.3369
17553 1 25.1673 22.7379 32.8746
17554 2 25.9852 22.163 32.8983
17555 2 25.4183 23.6833 33.0826
17556 1 29.6117 15.1514 47.1298
17557 2 30.0644 15.3894 46.2705
17558 2 30.268 15.2165 47.8815
17559 1 72.5357 10.8821 78.5326
17560 2 72.1073 11.4227 79.2566
17561 2 73.2643 10.3196 78.9234
17562 1 58.0186 28.4877 58.6554
17563 2 57.768 28.6392 59.6116
17564 2 59.0074 28.3553 58.587
17565 1 39.6989 0.0782277 74.292
17566 2 39.1522 29.3082 73.9629
17567 2 40.5068 0.185124 73.7125
17568 1 41.9539 18.8854 60.2264
17569 2 42.4564 19.5464 59.669
17570 2 42.5981 18.3608 60.783
17571 1 51.1115 7.32838 83.3256
17572 2 51.8008 7.11594 82.633
17573 2 50.7786 8.26143 83.1893
17574 1 6.76589 13.0428 50.011
17575 2 7.02596 13.9621 50.3061
17576 2 5.77042 12.9864 49.9343
17577 1 78.4066 11.2848 77.3037
17578 2 77.8621 11.6285 76.5386
17579 2 79.2637 10.903 76.958
17580 1 69.8449 25.913 90.6344
17581 2 70.5757 26.5229 90.3278
17582 2 69.845 25.0847 90.0741
17583 1 59.8046 15.9783 86.6432
17584 2 60.6821 15.7456 86.2239
17585 2 59.0894 15.3882 86.2687
17586 1 49.0767 28.8588 35.3479
17587 2 48.4484 28.4095 35.9831
17588 2 50.0083 28.5373 35.5175
17589 1 18.3396 4.13231 15.3267
17590 2 17.678 4.42659 16.0164
17591 2 19.2376 4.51647 15.541
17592 1 63.4038 22.2622 26.7867
17593 2 63.3824 21.7054 27.617
17594 2 62.731 22.9983 26.8617
17595 1 61.1997 7.92039 27.6749
17596 2 61.7346 8.63334 27.2214
17597 2 61.0983 7.13811 27.0602
17598 1 60.0484 23.6214 61.791
17599 2 60.8406 24.2317 61.7913
17600 2 59.223 24.1467 61.5843
17601 1 46.0092 8.0235 87.3728
17602 2 45.621 7.39564 88.0474
17603 2 46.9876 8.13599 87.5465
17604 1 21.2132 25.4554 62.5583
17605 2 20.4105 25.8703 62.9867
17606 2 20.9227 24.8772 61.7959
17607 1 6.25558 17.3139 12.39
17608 2 6.32273 18.1301 11.8161
17609 2 5.90658 16.5513 11.8454
17610 1 47.8562 18.9625 39.393
17611 2 47.0171 18.8616 38.8584
17612 2 47.6276 19.265 40.3183
17613 1 8.80129 23.3993 82.5898
17614 2 8.85332 22.4322 82.8387
17615 2 9.41047 23.5779 81.8171
17616 1 55.9287 29.633 57.2681
17617 2 55.5871 0.56799 57.3637
17618 2 56.4251 29.3732 58.0964
17619 1 60.3333 9.0775 12.7195
17620 2 61.0245 9.76386 12.4931
17621 2 60.4851 8.74613 13.6507
17622 1 60.8314 13.8013 30.3074
17623 2 60.6502 14.1785 29.3992
17624 2 59.974 13.7343 30.8176
17625 1 10.4325 14.0245 13.6493
17626 2 9.76007 13.78 14.3479
17627 2 10.7934 13.1923 13.2283
17628 1 31.8048 28.7226 34.706
17629 2 32.3947 28.042 34.2716
17630 2 32.2947 29.1529 35.4643
17631 1 11.5056 28.0516 59.1253
17632 2 12.4163 28.1741 59.5199
17633 2 11.3512 27.0815 58.9382
17634 1 69.9788 29.7456 56.6996
17635 2 69.611 29.0688 56.0619
17636 2 70.7647 0.203027 56.2835
17637 1 7.74506 19.6855 50.8208
17638 2 8.55661 19.5557 50.2512
17639 2 7.99788 19.6033 51.7849
17640 1 66.9069 11.3024 44.8398
17641 2 65.9951 11.6316 44.5945
17642 2 66.9193 10.3029 44.8115
17643 1 25.6072 19.9667 90.4406
17644 2 25.8651 19.8617 89.4801
17645 2 24.8643 20.6319 90.5154
17646 1 63.2221 10.0013 75.016
17647 2 63.163 9.55441 75.9086
17648 2 63.4334 10.9706 75.1418
17649 1 76.7216 18.1292 48.5672
17650 2 76.3403 17.35 48.0698
17651 2 76.4271 18.9795 48.1311
17652 1 29.1637 13.4894 64.996
17653 2 29.9258 13.867 65.5219
17654 2 28.7537 14.2111 64.4382
17655 1 35.7126 7.53088 83.3065
17656 2 35.5156 7.51235 84.2867
17657 2 35.389 8.39352 82.9177
17658 1 19.5518 16.5782 61.6044
17659 2 19.9888 15.682 61.528
17660 2 19.0905 16.7984 60.7449
17661 1 14.4795 20.6839 76.206
17662 2 13.7564 21.3445 76.4076
17663 2 14.1997 20.1074 75.4384
17664 1 25.6042 6.6845 68.0416
17665 2 24.9559 6.54148 67.2937
17666 2 25.3053 6.16934 68.8449
17667 1 48.056 20.1419 69.8736
17668 2 47.9436 19.777 70.7978
17669 2 47.3274 20.8002 69.6843
17670 1 3.0352 28.4832 26.5888
17671 2 2.64452 28.0856 27.419
17672 2 4.0327 28.4886 26.6593
17673 1 32.0144 6.99984 81.3773
17674 2 31.4017 7.73543 81.6661
17675 2 32.8767 7.06797 81.8791
17676 1 35.5048 11.1139 40.4405
17677 2 35.543 11.4379 41.3858
17678 2 36.0194 10.2603 40.3597
17679 1 28.8849 10.9408 29.0995
17680 2 28.7851 10.0865 28.5894
17681 2 28.4533 11.6854 28.5904
17682 1 38.5537 16.1576 35.8378
17683 2 38.5687 16.4167 36.8035
17684 2 39.3932 16.4726 35.3951
17685 1 10.5828 1.97745 68.7246
17686 2 10.684 1.94005 69.7188
17687 2 11.3406 1.48754 68.2937
17688 1 38.6271 25.0967 70.3266
17689 2 38.921 24.9629 71.273
17690 2 38.905 24.3091 69.7767
17691 1 69.5824 23.5836 28.5797
17692 2 69.4153 22.7511 28.0513
17693 2 69.1993 23.4784 29.4974
17694 1 47.1802 5.3044 80.5393
17695 2 47.401 4.33234 80.4597
17696 2 47.5618 5.66416 81.3908
17697 1 78.7899 3.34011 73.3524
17698 2 78.3213 3.60194 72.5087
17699 2 78.1779 3.4802 74.1308
17700 1 44.5406 15.5075 62.977
17701 2 44.4693 16.3652 62.4677
17702 2 43.6674 15.3111 63.4231
17703 1 68.6271 22.5905 71.3647
17704 2 68.569 23.2069 70.5794
17705 2 69.417 22.8388 71.9255
17706 1 10.7252 24.149 61.4561
17707 2 11.0204 24.9973 61.8957
17708 2 10.9835 23.37 62.0276
17709 1 20.2393 14.2417 59.9775
17710 2 19.4 13.8258 60.3276
17711 2 20.1141 14.4864 59.016
17712 1 72.6602 3.38102 20.8306
17713 2 72.8006 3.26235 19.8476
17714 2 71.8877 2.81955 21.1271
17715 1 53.9197 3.14372 71.7939
17716 2 53.3277 2.98822 72.5847
17717 2 53.4242 3.67351 71.1056
17718 1 37.5169 17.0899 40.3304
17719 2 38.0555 17.2907 41.1487
17720 2 36.5807 16.8596 40.5959
17721 1 67.541 5.42024 82.5385
17722 2 67.6913 4.55807 82.0547
17723 2 66.5968 5.45859 82.8657
17724 1 56.7195 16.5051 31.3722
17725 2 57.2527 17.3267 31.1705
17726 2 57.3342 15.7718 31.6627
17727 1 71.608 10.993 34.1592
17728 2 71.0128 11.6182 34.6642
17729 2 72.543 11.0705 34.5053
17730 1 76.6279 28.6381 65.0518
17731 2 76.9776 28.007 65.7442
17732 2 75.7271 28.9718 65.3294
17733 1 12.3119 3.48963 44.0054
17734 2 11.829 4.24092 44.4553
17735 2 12.3482 2.70145 44.6198
17736 1 31.8763 22.3072 70.128
17737 2 31.7124 23.1222 70.6839
17738 2 31.1116 22.1745 69.4975
17739 1 0.433409 3.14083 30.449
17740 2 79.6546 3.24104 31.0682
17741 2 1.20992 2.75795 30.9495
17742 1 75.3725 24.7722 20.6847
17743 2 74.5435 24.3473 20.3212
17744 2 76.157 24.178 20.5071
17745 1 64.1059 20.0153 17.5685
17746 2 64.7692 19.9215 18.3109
17747 2 63.3247 20.5531 17.8856
17748 1 7.51483 7.58974 69.7867
17749 2 6.83639 7.95109 69.1471
17750 2 7.05151 7.07732 70.5098
17751 1 38.0132 4.73267 88.1036
17752 2 37.8594 3.89147 87.5853
17753 2 38.9654 4.76768 88.4071
17754 1 27.9584 7.05643 88.5689
17755 2 27.4909 6.65491 89.3564
17756 2 27.5355 6.72471 87.7256
17757 1 69.8871 20.9367 27.6587
17758 2 69.3326 20.5743 26.9096
17759 2 70.8565 20.8222 27.4415
17760 1 30.1408 23.8706 90.4356
17761 2 29.8909 22.9362 90.6896
17762 2 29.3566 24.4751 90.5755
17763 1 32.262 20.2884 81.0121
17764 2 31.9282 20.737 81.8412
17765 2 33.2226 20.038 81.1324
17766 1 61.3284 14.7091 69.7266
17767 2 61.7968 14.9103 68.8663
17768 2 60.9956 13.7662 69.7123
17769 1 63.2614 15.8248 74.5816
17770 2 63.7906 16.2577 75.3114
17771 2 62.6405 15.1478 74.9767
17772 1 68.4686 8.69493 69.1319
17773 2 69.2868 9.26848 69.0918
17774 2 68.3738 8.31339 70.0513
17775 1 49.7202 15.1234 29.8549
17776 2 49.3114 15.4169 28.9908
17777 2 50.5274 14.5633 29.6685
17778 1 75.9298 11.9374 65.7115
17779 2 76.6053 12.3439 66.3268
17780 2 75.0568 11.8437 66.1902
17781 1 23.2647 6.08589 89.4922
17782 2 23.4626 6.88783 88.9285
17783 2 23.6076 6.2373 90.4193
17784 1 22.2822 11.6078 65.6361
17785 2 21.8425 12.1712 64.9367
17786 2 22.4825 12.1693 66.439
17787 1 58.461 21.8429 67.6774
17788 2 57.5305 21.7629 68.0349
17789 2 58.7671 22.7918 67.7541
17790 1 69.7072 24.0716 25.7056
17791 2 70.4998 24.4183 26.2071
17792 2 69.0697 23.6421 26.3453
17793 1 61.1466 28.6967 79.915
17794 2 61.5205 27.8508 80.2953
17795 2 60.2128 28.8277 80.248
17796 1 8.81785 19.3796 34.3982
17797 2 8.37311 18.7737 33.7386
17798 2 9.37018 18.8362 35.0304
17799 1 14.2013 16.7403 86.3314
17800 2 14.1185 17.4409 87.0401
17801 2 13.5673 15.992 86.5267
17802 1 28.1129 22.8871 72.5424
17803 2 27.5882 23.3269 73.2713
17804 2 28.086 21.895 72.6643
17805 1 5.12017 3.60444 32.7937
17806 2 4.28126 3.07228 32.9079
17807 2 5.17859 3.93675 31.8524
17808 1 41.4479 24.246 53.7535
17809 2 40.7939 24.786 54.2833
17810 2 42.3791 24.4997 54.0151
17811 1 14.2354 7.82125 56.8413
17812 2 14.5876 7.82181 57.7772
17813 2 13.2411 7.71628 56.8595
17814 1 13.9066 4.48398 88.8563
17815 2 13.65 4.84805 87.961
17816 2 14.3978 5.18523 89.373
17817 1 37.6737 27.49 42.1492
17818 2 37.7199 28.3361 41.6181
17819 2 36.8288 27.4779 42.684
17820 1 64.0929 10.8423 41.7386
17821 2 63.1128 10.8551 41.5407
17822 2 64.314 11.5808 42.3756
17823 1 18.7826 12.0262 87.8621
17824 2 19.6385 12.3278 88.2823
17825 2 18.2349 11.5333 88.5382
17826 1 3.54287 27.9525 29.6174
17827 2 4.25357 27.3465 29.9748
17828 2 2.7408 27.4119 29.3634
17829 1 42.5448 10.6885 58.5026
17830 2 43.4449 10.5837 58.9256
17831 2 42.446 11.6213 58.1561
17832 1 43.2658 28.6684 66.6502
17833 2 43.985 28.635 65.9563
17834 2 43.6173 29.1144 67.4734
17835 1 67.024 13.2673 26.0674
17836 2 66.3691 12.6314 26.4758
17837 2 66.6641 13.6031 25.197
17838 1 57.721 27.0086 49.0788
17839 2 58.0157 27.7392 49.6946
17840 2 56.7443 26.8374 49.2079
17841 1 65.1162 29.1893 45.6926
17842 2 65.3422 28.4352 46.3092
17843 2 65.6953 29.1394 44.8788
17844 1 53.3184 10.7949 90.0821
17845 2 53.7079 11.029 89.1913
17846 2 54.0569 10.6311 90.7362
17847 1 20.7218 12.9376 37.5326
17848 2 20.2947 13.8352 37.4231
17849 2 21.0189 12.8234 38.4806
17850 1 52.0807 25.0881 49.4746
17851 2 51.6916 24.8979 50.376
17852 2 51.3642 25.433 48.8683
17853 1 23.3721 9.46145 70.0835
17854 2 23.5566 8.71433 70.7221
17855 2 23.4979 10.3371 70.5497
17856 1 18.1665 10.2044 19.0058
17857 2 17.8676 9.57439 19.7226
17858 2 19.0499 9.90469 18.6457
17859 1 29.4164 29.5169 38.6699
17860 2 29.9185 29.9179 37.9037
17861 2 30.0075 28.8726 39.1552
17862 1 52.7234 0.844926 85.4058
17863 2 51.7554 1.02756 85.5779
17864 2 52.9765 1.20665 84.5085
17865 1 55.7905 18.5906 28.6735
17866 2 55.4104 18.6117 29.5982
17867 2 56.731 18.2525 28.7074
17868 1 75.9756 7.5555 71.4435
17869 2 75.7639 7.28759 72.3834
17870 2 76.9563 7.44939 71.2796
17871 1 2.07812 11.2652 65.3871
17872 2 1.79007 10.386 65.7666
17873 2 1.44648 11.9804 65.6863
17874 1 74.3789 0.769146 38.1121
17875 2 75.1417 1.13484 38.6454
17876 2 74.4523 29.773 38.0652
17877 1 7.68352 18.1806 90.2118
17878 2 7.66497 17.1808 90.2122
17879 2 6.75159 18.5313 90.3042
17880 1 36.2046 15.1296 62.1471
17881 2 36.1422 14.1329 62.1996
17882 2 35.7907 15.5329 62.9632
17883 1 50.2075 28.1823 78.7857
17884 2 51.0327 27.7884 78.381
17885 2 50.2868 28.1705 79.7825
17886 1 67.6822 2.91 80.521
17887 2 67.5086 3.06653 79.5487
17888 2 68.3959 2.21734 80.6249
17889 1 67.623 29.8903 23.704
17890 2 66.9137 0.029805 23.013
17891 2 67.2626 0.131395 24.6051
17892 1 72.546 26.7313 21.7344
17893 2 72.2728 27.6896 21.8178
17894 2 72.756 26.3645 22.6407
17895 1 56.0334 7.27326 81.7206
17896 2 55.4203 6.69973 82.2639
17897 2 55.6869 7.33815 80.7848
17898 1 36.2622 17.1886 73.8885
17899 2 35.8713 18.0383 74.2424
17900 2 37.0938 16.9668 74.3976
17901 1 24.7506 23.8949 29.9347
17902 2 24.9916 24.8351 29.6938
17903 2 25.5623 23.419 30.2732
17904 1 17.5841 27.9121 72.9258
17905 2 16.9568 27.8865 73.7041
17906 2 17.4054 27.1307 72.3278
17907 1 78.3402 19.6391 42.8907
17908 2 78.8185 20.2688 43.5028
17909 2 78.9545 18.8931 42.6337
17910 1 55.5132 4.82274 58.2755
17911 2 56.2905 5.45065 58.2362
17912 2 55.8033 3.91403 57.9753
17913 1 38.1385 6.00008 61.236
17914 2 38.8325 6.48411 60.7029
17915 2 37.6085 6.65907 61.7696
17916 1 29.8334 19.5426 42.1856
17917 2 30.2195 18.6202 42.1817
17918 2 29.8922 19.9247 43.1079
17919 1 58.2434 28.2593 55.4166
17920 2 57.6471 27.5006 55.6789
17921 2 58.6093 28.6952 56.2389
17922 1 27.1081 26.2297 84.6901
17923 2 26.7779 26.6978 83.8704
17924 2 27.4962 25.3442 84.4347
17925 1 73.2571 7.98873 48.5659
17926 2 72.9176 8.421 49.4013
17927 2 72.5677 7.35527 48.2146
17928 1 17.2782 6.1461 80.1492
17929 2 16.7196 5.32832 80.0105
17930 2 16.7807 6.79609 80.7236
17931 1 23.7083 16.47 89.8404
17932 2 23.024 16.2566 89.1431
17933 2 24.0174 17.4141 89.7261
17934 1 1.4778 24.6114 82.6171
17935 2 0.640748 25.1218 82.4199
17936 2 1.79035 24.1502 81.7867
17937 1 50.6502 1.19622 27.4983
17938 2 49.9363 1.00367 28.1715
17939 2 50.8722 2.17108 27.5174
17940 1 44.9482 13.2409 80.781
17941 2 45.5343 12.8125 81.4687
17942 2 44.7049 14.164 81.0789
17943 1 74.8063 25.8883 51.2412
17944 2 74.7563 26.4881 50.4426
17945 2 74.4347 26.3635 52.0387
17946 1 55.7084 20.233 81.4784
17947 2 55.5405 21.1465 81.8488
17948 2 56.0048 20.3086 80.5263
17949 1 1.81053 28.6784 77.6683
17950 2 1.657 29.2538 78.4716
17951 2 1.05872 28.0253 77.5775
17952 1 28.9661 1.00192 27.4195
17953 2 28.7934 0.0205679 27.3352
17954 2 28.1064 1.47674 27.6076
17955 1 45.0376 8.24384 42.6941
17956 2 44.1108 8.23263 43.0694
17957 2 45.6327 7.67151 43.2583
17958 1 34.6334 8.46961 79.9033
17959 2 35.5043 7.97944 79.9386
17960 2 34.52 8.88306 78.9999
17961 1 9.66032 18.7147 78.29
17962 2 9.95495 17.7987 78.5625
17963 2 9.32133 18.6898 77.3496
17964 1 50.1743 2.89995 60.1743
17965 2 50.6897 2.05313 60.3055
17966 2 49.9161 2.98738 59.2122
17967 1 14.8373 12.0437 90.7758
17968 2 15.1369 12.992 90.6714
17969 2 13.9884 12.0185 91.3037
17970 1 13.5333 17.1032 76.6678
17971 2 12.6482 16.6662 76.8277
17972 2 13.9226 17.3969 77.5408
17973 1 77.424 26.0735 29.1951
17974 2 78.0954 26.8146 29.1947
17975 2 77.4664 25.5858 30.0671
17976 1 27.8493 22.7822 88.4666
17977 2 27.7787 22.9654 87.4861
17978 2 26.9706 22.971 88.9051
17979 1 1.16177 13.683 60.2537
17980 2 0.838029 13.4491 59.337
17981 2 1.03872 14.6629 60.4107
17982 1 78.5174 12.757 73.0704
17983 2 77.8956 12.5799 73.8333
17984 2 79.3557 12.2259 73.1935
17985 1 16.5382 27.4208 10.4495
17986 2 17.306 27.6914 9.86883
17987 2 16.7791 26.5934 10.9567
17988 1 22.6889 4.3443 84.8607
17989 2 23.0314 3.41428 84.994
17990 2 21.69 4.34155 84.9073
17991 1 17.5255 27.7174 82.1394
17992 2 17.7916 28.6549 82.3634
17993 2 18.1233 27.077 82.6216
17994 1 64.2315 26.7607 37.3059
17995 2 63.233 26.7556 37.3602
17996 2 64.5272 27.476 36.6727
17997 1 63.3463 17.503 59.1529
17998 2 62.6152 17.1167 58.5906
17999 2 62.9606 18.1739 59.7863
18000 1 41.7456 12.0539 30.6459
18001 2 41.0978 12.5645 31.2113
18002 2 41.2581 11.6243 29.8857
18003 1 3.87321 23.8882 31.2121
18004 2 4.16985 23.6275 32.1308
18005 2 4.20317 24.8089 31.004
18006 1 25.1285 14.0155 42.9867
18007 2 25.9262 13.7802 42.4314
18008 2 24.7739 14.9055 42.7004
18009 1 60.2361 20.0979 22.0549
18010 2 60.2523 19.1454 22.3589
18011 2 60.7573 20.6613 22.6959
18012 1 19.8567 8.6909 13.383
18013 2 19.8883 9.57511 13.849
18014 2 19.1847 8.10159 13.8315
18015 1 65.4407 1.49506 33.1601
18016 2 64.4877 1.5988 32.8754
18017 2 65.4793 1.34828 34.1485
18018 1 24.7372 15.6889 55.696
18019 2 24.8452 16.1469 56.5783
18020 2 25.6333 15.4012 55.3579
18021 1 8.94266 0.739017 46.7317
18022 2 8.97506 1.69336 46.4348
18023 2 9.32525 0.66327 47.6525
18024 1 32.4247 26.4719 66.6835
18025 2 32.0274 25.638 67.0666
18026 2 31.9047 27.265 67.0006
18027 1 46.4044 16.0502 89.9578
18028 2 46.1953 15.8486 89.0009
18029 2 47.2356 16.6038 90.0078
18030 1 44.4266 25.0173 62.8989
18031 2 43.5728 24.6019 62.585
18032 2 44.8303 25.5513 62.1561
18033 1 11.3858 5.23539 22.5821
18034 2 10.8899 4.5188 23.0725
18035 2 11.4963 4.96878 21.6246
18036 1 63.0736 28.7129 43.4931
18037 2 63.3066 28.275 44.3614
18038 2 62.5918 29.5709 43.6713
18039 1 20.4241 20.7188 26.5559
18040 2 19.9554 21.115 27.3454
18041 2 21.3095 21.1673 26.4343
18042 1 13.4281 27.7863 47.2223
18043 2 14.0102 27.7008 46.4137
18044 2 12.8004 27.009 47.2648
18045 1 28.9807 27.5549 45.6509
18046 2 29.5951 27.8897 46.3653
18047 2 29.3092 26.6719 45.3156
18048 1 17.2014 29.0454 76.8373
18049 2 17.0335 29.5688 77.6727
18050 2 16.3496 28.6169 76.5356
18051 1 16.3082 2.82363 90.2989
18052 2 16.8767 3.64456 90.2449
18053 2 15.3536 3.08772 90.4365
18054 1 21.4475 0.0765395 18.7735
18055 2 20.9219 0.782895 19.2478
18056 2 21.7824 0.438023 17.9034
18057 1 2.28007 2.28451 32.867
18058 2 1.93958 3.07689 33.3732
18059 2 1.68024 1.50137 33.031
18060 1 42.6592 9.29496 76.2495
18061 2 43.5145 9.80646 76.3324
18062 2 42.2277 9.21929 77.1485
18063 1 11.829 25.2762 58.435
18064 2 11.2685 25.388 59.2556
18065 2 12.2592 24.3736 58.4457
18066 1 62.7886 3.12837 27.4139
18067 2 63.412 2.36625 27.5888
18068 2 63.0279 3.56196 26.5451
18069 1 34.1232 29.2374 27.918
18070 2 34.4612 0.156337 27.7144
18071 2 33.9114 29.1685 28.8928
18072 1 5.10906 15.5388 75.0437
18073 2 4.8984 15.0079 74.2229
18074 2 4.47136 16.3056 75.1175
18075 1 59.1778 14.5795 49.0502
18076 2 58.6527 13.7537 48.8448
18077 2 59.3646 14.6202 50.0318
18078 1 5.4704 23.4659 18.9291
18079 2 4.91284 23.1323 18.1689
18080 2 6.38859 23.0748 18.8657
18081 1 31.5295 20.2635 75.849
18082 2 31.268 21.2132 75.6762
18083 2 31.5436 20.0958 76.8347
18084 1 54.2123 18.1894 79.6981
18085 2 54.6805 18.8024 80.3345
18086 2 54.7192 18.1526 78.8369
18087 1 78.1988 16.6452 15.6038
18088 2 78.1147 17.6268 15.4324
18089 2 79.1525 16.4228 15.8065
18090 1 68.2644 15.0754 83.2369
18091 2 68.7059 14.1783 83.2223
18092 2 68.3766 15.4875 84.1411
18093 1 15.8044 17.8729 69.4651
18094 2 16.3705 17.051 69.5277
18095 2 15.9416 18.435 70.2807
18096 1 23.6219 16.866 81.1421
18097 2 22.7378 17.2006 80.8159
18098 2 24.2413 17.6392 81.2779
18099 1 47.6037 24.8463 67.0794
18100 2 48.5409 25.093 67.3259
18101 2 46.9674 25.4945 67.4976
18102 1 1.83237 27.6997 84.6776
18103 2 0.975912 28.111 84.3656
18104 2 2.04271 26.9004 84.1148
18105 1 12.2331 14.1903 57.4468
18106 2 12.9398 14.8955 57.5049
18107 2 12.2262 13.655 58.2914
18108 1 44.5641 23.7199 31.588
18109 2 43.7703 23.1182 31.6777
18110 2 45.3438 23.1944 31.2476
18111 1 74.3186 3.62404 70.6687
18112 2 75.268 3.8521 70.8847
18113 2 74.1663 2.64819 70.8253
18114 1 58.2228 18.5371 17.8954
18115 2 58.0766 18.3245 16.9293
18116 2 58.3284 19.5252 18.007
18117 1 78.5633 6.34875 13.6957
18118 2 77.6893 6.83417 13.7197
18119 2 78.4336 5.41243 14.022
18120 1 24.6763 22.6461 89.631
18121 2 23.9241 22.1812 89.164
18122 2 24.433 22.7937 90.5897
18123 1 64.0066 24.1708 57.8755
18124 2 63.3095 24.7308 58.3232
18125 2 64.9149 24.5006 58.1328
18126 1 54.3639 10.4217 54.4913
18127 2 54.2701 11.3578 54.8302
18128 2 54.9516 10.4175 53.6822
18129 1 57.1534 13.2578 90.5619
18130 2 57.8572 13.9451 90.3824
18131 2 57.5308 12.3453 90.4041
18132 1 3.35811 4.74323 90.0185
18133 2 3.28798 5.36729 89.2403
18134 2 2.44108 4.48347 90.3211
18135 1 24.4729 29.7846 72.3008
18136 2 23.7582 29.1097 72.4844
18137 2 24.0603 0.691136 72.2116
18138 1 47.4952 17.2485 50.5042
18139 2 47.6318 17.3168 49.5159
18140 2 48.3834 17.1904 50.9601
18141 1 1.3328 11.9847 49.9796
18142 2 2.24552 12.2593 49.677
18143 2 1.28408 10.9871 50.029
18144 1 63.0543 11.1933 58.1937
18145 2 63.7928 10.9813 57.5535
18146 2 62.2096 11.3593 57.6849
18147 1 7.01647 9.7019 36.5724
18148 2 7.97816 9.50105 36.759
18149 2 6.86429 10.6884 36.6323
18150 1 37.0998 14.8336 53.2405
18151 2 36.2076 14.6724 53.6623
18152 2 37.8081 14.3667 53.77
18153 1 28.276 15.5175 30.5022
18154 2 29.2068 15.5451 30.1377
18155 2 27.8749 16.4326 30.4616
18156 1 63.4848 12.8245 68.7875
18157 2 62.708 12.1947 68.7864
18158 2 63.7169 13.0691 67.846
18159 1 32.831 19.1666 47.9135
18160 2 33.5247 19.4428 48.5788
18161 2 33.2787 18.7973 47.0991
18162 1 78.9434 10.1435 53.099
18163 2 79.8698 9.78163 53.2028
18164 2 78.8967 10.7089 52.2755
18165 1 67.7819 29.9776 72.8208
18166 2 67.6112 28.9944 72.8848
18167 2 67.6941 0.390879 73.7271
18168 1 61.6752 0.098269 24.8007
18169 2 62.5789 0.461655 24.5742
18170 2 61.7247 29.102 24.8712
18171 1 58.3941 7.97708 79.742
18172 2 58.4728 8.12784 80.7275
18173 2 59.0565 7.28441 79.4569
18174 1 19.8545 10.6209 59.4077
18175 2 20.5872 11.163 58.9963
18176 2 20.1585 10.2662 60.2919
18177 1 40.3691 0.460276 36.9831
18178 2 40.6903 1.18339 36.3716
18179 2 39.9954 0.869325 37.8156
18180 1 25.3376 21.239 74.028
18181 2 24.9402 21.8732 74.6912
18182 2 26.2661 20.999 74.3113
18183 1 79.6638 14.3534 78.0421
18184 2 79.7501 15.2858 77.691
18185 2 0.571741 13.9421 78.1221
18186 1 60.3553 8.28534 48.7988
18187 2 59.525 7.74949 48.6454
18188 2 60.2867 9.15405 48.3083
18189 1 54.507 7.05444 68.4585
18190 2 55.38 7.5374 68.5266
18191 2 54.2899 6.63269 69.3388
18192 1 38.609 8.72152 80.6697
18193 2 39.2264 8.02829 81.0415
18194 2 38.1131 9.16207 81.4181
18195 1 34.9792 0.0958731 46.0565
18196 2 34.8467 0.723752 46.8234
18197 2 34.138 29.578 45.9005
18198 1 30.6818 0.183982 79.7042
18199 2 31.031 0.904175 80.3037
18200 2 30.7377 0.486199 78.7526
18201 1 28.3305 18.4246 58.3479
18202 2 28.6878 17.6987 58.9356
18203 2 28.7408 19.2981 58.61
18204 1 1.97937 15.5292 75.458
18205 2 1.93586 16.5231 75.5592
18206 2 2.31619 15.3016 74.5443
18207 1 77.4733 11.7339 13.7305
18208 2 76.8223 10.9785 13.8046
18209 2 78.0194 11.623 12.9002
18210 1 35.549 4.65332 83.2321
18211 2 35.2923 3.86989 83.7981
18212 2 36.5165 4.86348 83.3729
18213 1 15.0602 21.1858 56.6614
18214 2 15.6867 21.5085 57.3709
18215 2 14.1185 21.26 56.9894
18216 1 49.5974 19.9912 58.2917
18217 2 48.71 20.292 58.6412
18218 2 49.5246 19.8075 57.3114
18219 1 35.9755 12.2243 50.7099
18220 2 36.0094 11.8688 49.7758
18221 2 36.5147 13.0646 50.7664
18222 1 38.1809 15.7342 86.4526
18223 2 37.3484 16.2796 86.3547
18224 2 38.9229 16.1631 85.9374
18225 1 21.1126 5.22501 42.4563
18226 2 20.1552 4.95136 42.3643
18227 2 21.699 4.53306 42.0351
18228 1 45.2321 2.03257 78.0294
18229 2 45.837 2.57692 77.4482
18230 2 45.614 1.98141 78.9522
18231 1 4.70561 28.8687 85.4726
18232 2 4.13375 28.2486 86.0096
18233 2 5.37503 29.3078 86.0718
18234 1 67.6086 16.3167 89.2379
18235 2 68.324 16.8212 88.7544
18236 2 68.0016 15.4957 89.6521
18237 1 77.6089 19.8272 65.7691
18238 2 77.3573 20.0141 66.7187
18239 2 76.8541 19.3583 65.3104
18240 1 60.1502 1.78821 76.7006
18241 2 60.8053 2.53398 76.822
18242 2 60.6033 0.91449 76.8776
18243 1 50.3255 25.2064 77.0117
18244 2 50.62 24.2981 76.7145
18245 2 51.1227 25.8041 77.0964
18246 1 16.9254 20.4835 80.7462
18247 2 16.4607 19.6187 80.556
18248 2 16.3502 21.0476 81.3386
18249 1 28.4022 5.74788 52.3828
18250 2 28.8837 5.17144 51.7226
18251 2 28.7734 5.58853 53.2976
18252 1 33.8128 25.9982 47.0423
18253 2 34.6736 25.6234 47.3866
18254 2 33.0473 25.574 47.5262
18255 1 18.4292 11.6823 64.8736
18256 2 18.1511 11.9802 65.7868
18257 2 18.1553 12.3697 64.2009
18258 1 18.9667 15.9819 49.1033
18259 2 19.8181 16.3994 48.7859
18260 2 18.3504 16.6947 49.4381
18261 1 31.0079 16.183 72.447
18262 2 30.2027 16.6928 72.144
18263 2 31.8135 16.5068 71.9509
18264 1 25.988 10.8676 76.5877
18265 2 26.1078 11.8379 76.7981
18266 2 26.8602 10.3918 76.7017
18267 1 69.6473 19.4461 41.2646
18268 2 69.4666 18.8461 42.0438
18269 2 69.2082 20.3316 41.4169
18270 1 38.7452 25.1733 54.7745
18271 2 37.923 24.6209 54.9118
18272 2 38.633 26.0569 55.229
18273 1 45.3252 1.58341 37.6626
18274 2 46.0171 0.984904 38.0665
18275 2 44.4523 1.09812 37.6136
18276 1 40.7924 25.5127 87.8629
18277 2 40.4465 26.3497 88.2868
18278 2 41.1494 25.723 86.9527
18279 1 41.2123 16.9994 58.6434
18280 2 41.3806 17.7605 59.2698
18281 2 41.0121 16.1728 59.1694
18282 1 15.5888 13.2291 82.1755
18283 2 15.4812 14.129 81.7529
18284 2 16.5412 13.1028 82.4527
18285 1 17.9301 12.4162 58.8559
18286 2 18.6534 11.8488 59.2495
18287 2 17.0578 12.1936 59.2912
18288 1 38.7961 27.712 37.9734
18289 2 39.0878 28.2181 37.1618
18290 2 38.8717 28.3006 38.7783
18291 1 20.4159 6.87494 49.0065
18292 2 20.0412 6.34699 49.7686
18293 2 21.1162 7.50188 49.3478
18294 1 35.5032 22.5399 58.01
18295 2 35.4705 23.2391 57.2958
18296 2 35.2702 21.6505 57.6166
18297 1 72.6797 23.0768 47.1519
18298 2 73.2565 23.3043 47.9365
18299 2 71.7178 23.1856 47.4028
18300 1 68.2839 19.1147 88.1617
18301 2 68.8456 18.2935 88.262
18302 2 68.6874 19.8613 88.6906
18303 1 9.41688 5.48769 71.0753
18304 2 10.3796 5.73412 71.1869
18305 2 8.89123 6.30126 70.8267
18306 1 20.7952 29.8273 12.523
18307 2 20.3898 0.61681 12.0623
18308 2 20.3426 29.6865 13.4035
18309 1 64.2053 20.224 32.8073
18310 2 63.9484 19.6915 33.6138
18311 2 63.5134 20.1051 32.0951
18312 1 31.6981 20.1039 73.0484
18313 2 30.9611 20.0166 72.3781
18314 2 31.9877 19.1941 73.3457
18315 1 47.7568 6.27623 89.773
18316 2 48.6578 6.12598 89.3661
18317 2 47.2986 5.39682 89.9023
18318 1 12.9135 16.7678 34.5264
18319 2 13.7172 16.4677 35.0401
18320 2 12.9031 17.7665 34.4772
18321 1 14.65 17.9813 29.282
18322 2 14.2677 17.3753 28.5844
18323 2 14.455 18.932 29.0408
18324 1 34.4909 28.9237 68.659
18325 2 33.6539 28.7012 69.1589
18326 2 35.2293 29.1043 69.3088
18327 1 31.6912 27.2297 40.337
18328 2 31.9798 26.8656 39.4515
18329 2 32.3333 27.9375 40.6317
18330 1 53.4286 27.3499 75.8236
18331 2 53.0012 27.5087 76.7136
18332 2 53.554 28.2236 75.3535
18333 1 24.419 24.4294 67.0177
18334 2 23.4709 24.6433 67.2529
18335 2 24.4724 24.1671 66.0542
18336 1 15.7221 2.47493 30.8543
18337 2 16.1355 3.2973 30.4634
18338 2 15.4966 1.83417 30.1204
18339 1 78.0877 11.8413 40.5102
18340 2 77.8717 12.8073 40.3682
18341 2 78.8489 11.5792 39.9169
18342 1 20.2698 4.2549 71.8378
18343 2 19.6593 4.95732 71.4719
18344 2 19.7434 3.6134 72.3957
18345 1 9.89246 27.0788 62.3058
18346 2 9.32186 26.4644 62.8507
18347 2 10.6467 27.4189 62.8675
18348 1 52.2975 2.26615 80.1984
18349 2 52.1086 3.1965 79.8841
18350 2 52.294 2.24489 81.1981
18351 1 11.2523 20.492 19.371
18352 2 11.2411 20.1608 20.3145
18353 2 12.1958 20.5291 19.0419
18354 1 4.66945 25.8408 90.3696
18355 2 3.87538 25.4898 89.8734
18356 2 5.43905 25.2128 90.254
18357 1 7.72316 28.1503 25.3328
18358 2 8.43551 28.0003 26.0184
18359 2 7.09217 28.8554 25.6565
18360 1 67.5331 21.2469 52.9231
18361 2 67.3051 21.2301 53.8966
18362 2 67.1529 22.0723 52.5059
18363 1 15.9905 19.1826 86.0355
18364 2 15.9059 18.6893 86.9012
18365 2 16.49 20.0358 86.1856
18366 1 48.8991 7.09001 48.7407
18367 2 48.7165 7.80633 49.4142
18368 2 48.0878 6.95178 48.1728
18369 1 13.3728 25.5737 83.6354
18370 2 13.5764 26.531 83.4301
18371 2 12.4078 25.3906 83.4477
18372 1 60.8564 22.2521 39.8616
18373 2 60.4002 21.5065 39.3759
18374 2 61.3084 22.8524 39.2018
18375 1 61.9008 8.40544 20.8374
18376 2 62.0284 7.97144 19.9455
18377 2 61.9876 7.71776 21.5582
18378 1 57.0374 6.05269 77.0959
18379 2 57.8671 6.52439 76.7973
18380 2 56.7146 5.4513 76.365
18381 1 77.5505 3.6754 58.478
18382 2 77.887 2.7404 58.59
18383 2 76.9738 3.91781 59.2581
18384 1 68.9073 9.89619 72.6128
18385 2 68.651 9.68162 73.5553
18386 2 69.191 9.05878 72.1457
18387 1 4.30149 13.3001 82.2879
18388 2 4.9806 12.6029 82.5174
18389 2 4.5127 14.1454 82.7787
18390 1 72.9077 22.6158 16.2856
18391 2 73.5533 21.9345 15.9407
18392 2 73.3761 23.2249 16.9255
18393 1 26.2628 13.783 68.3229
18394 2 26.0114 14.6552 67.9032
18395 2 26.5775 13.9419 69.2587
18396 1 1.57133 17.6326 15.5865
18397 2 1.00266 17.2494 14.8587
18398 2 2.05695 18.436 15.2421
18399 1 64.5248 26.0866 61.1181
18400 2 63.7386 25.7739 61.6511
18401 2 64.462 27.075 60.98
18402 1 57.6657 14.1927 80.6486
18403 2 58.2055 14.7421 81.2863
18404 2 57.5659 13.2654 81.0094
18405 1 0.757866 1.50297 72.6616
18406 2 0.0989984 2.10737 73.1094
18407 2 1.68563 1.76871 72.9236
18408 1 0.484312 16.8599 23.9285
18409 2 1.39769 16.5498 23.6648
18410 2 0.439159 16.956 24.9229
18411 1 10.547 17.6597 20.688
18412 2 11.3856 17.7952 20.1603
18413 2 10.5256 18.3053 21.4514
18414 1 34.7701 13.6859 81.6835
18415 2 35.0944 14.5156 82.1378
18416 2 35.1137 12.8831 82.1707
18417 1 62.9212 21.7689 90.2406
18418 2 63.8654 21.5318 90.0121
18419 2 62.2974 21.1477 89.7663
18420 1 69.4524 25.1735 39.4497
18421 2 68.6467 25.3388 38.8809
18422 2 69.3791 24.2727 39.8777
18423 1 8.84847 5.37367 86.4362
18424 2 8.76257 4.7615 87.2223
18425 2 9.57041 6.04286 86.6122
18426 1 58.8057 28.2866 77.2995
18427 2 58.6835 27.9484 78.2326
18428 2 59.5485 27.7839 76.8574
18429 1 2.89785 28.5552 33.6029
18430 2 3.49464 27.7703 33.7695
18431 2 2.76056 29.0567 34.4571
18432 1 33.4477 7.0676 58.6716
18433 2 32.9178 7.90533 58.8038
18434 2 32.8393 6.33197 58.3737
18435 1 22.9544 26.6408 64.1056
18436 2 22.485 26.3171 63.284
18437 2 22.2884 26.7727 64.8398
18438 1 76.0219 8.43675 56.3324
18439 2 76.0026 7.46007 56.1186
18440 2 75.1466 8.70767 56.7328
18441 1 60.0275 25.8482 20.1368
18442 2 60.3189 26.6961 19.6939
18443 2 60.7749 25.4908 20.6969
18444 1 20.4027 0.934307 85.708
18445 2 21.3507 1.23718 85.8052
18446 2 19.9317 1.51982 85.0482
18447 1 29.9195 2.64409 89.1417
18448 2 29.3822 2.48738 88.313
18449 2 30.7933 3.06476 88.8979
18450 1 50.689 9.93896 80.3313
18451 2 51.5246 9.68105 79.8463
18452 2 50.8974 10.0895 81.2976
18453 1 68.0373 20.4479 85.8324
18454 2 67.8168 19.7748 86.5383
18455 2 68.5942 21.1773 86.2296
18456 1 51.0037 25.159 52.0785
18457 2 51.5612 25.9689 52.2608
18458 2 51.5375 24.3361 52.2732
18459 1 11.6142 1.08833 81.3769
18460 2 12.1543 0.547977 80.7317
18461 2 11.797 2.06076 81.2322
18462 1 44.7004 6.59876 33.4263
18463 2 44.028 6.6515 32.6881
18464 2 44.2722 6.87285 34.2875
18465 1 78.2729 15.5721 74.6012
18466 2 78.2472 14.8831 73.8769
18467 2 79.0201 16.213 74.4252
18468 1 4.88097 3.55184 59.2429
18469 2 4.52555 3.64995 60.1724
18470 2 4.899 2.58363 58.9934
18471 1 36.9686 7.00422 66.9914
18472 2 37.4685 6.63178 66.2095
18473 2 37.5958 7.52474 67.5708
18474 1 38.3506 7.9252 56.649
18475 2 38.3459 7.7839 55.659
18476 2 39.1406 8.4834 56.9023
18477 1 9.17732 29.0685 81.2869
18478 2 9.42545 29.9855 81.5991
18479 2 9.64461 28.3869 81.85
18480 1 64.6724 4.03024 76.9064
18481 2 63.9952 3.71029 76.2438
18482 2 65.4876 4.34847 76.4227
18483 1 67.0063 8.6 58.99
18484 2 66.5021 8.34568 59.8153
18485 2 67.9749 8.38285 59.111
18486 1 42.4009 25.6232 32.6222
18487 2 43.0983 25.0536 32.1873
18488 2 41.6101 25.0589 32.8595
18489 1 63.1671 5.45598 86.148
18490 2 63.1918 5.8428 87.0699
18491 2 63.9635 5.7721 85.6324
18492 1 76.2379 27.6091 32.3093
18493 2 75.8163 28.3106 32.884
18494 2 77.233 27.6985 32.3501
18495 1 25.8603 24.0932 37.6312
18496 2 26.2505 23.8827 36.7348
18497 2 26.4501 24.7461 38.1064
18498 1 41.579 8.59077 64.4358
18499 2 41.508 8.18511 63.5246
18500 2 42.198 8.04201 64.9977
18501 1 69.3233 21.0965 58.5359
18502 2 69.8983 21.0827 57.7179
18503 2 68.3811 20.8748 58.2848
18504 1 74.6936 10.5192 13.9765
18505 2 73.7539 10.4619 13.6395
18506 2 74.6884 10.5417 14.9762
18507 1 68.531 1.51526 50.4627
18508 2 68.5032 0.516205 50.496
18509 2 68.8642 1.8688 51.3368
18510 1 72.0859 21.0304 61.0905
18511 2 72.5466 21.4966 61.8457
18512 2 71.4621 21.6669 60.6368
18513 1 13.6073 29.2205 64.786
18514 2 14.4496 29.1093 64.2586
18515 2 13.0429 29.9315 64.3666
18516 1 13.785 1.18901 56.5477
18517 2 14.1925 0.294177 56.3654
18518 2 14.1803 1.57131 57.3829
18519 1 18.3196 24.1758 59.5518
18520 2 18.1848 25.1666 59.5371
18521 2 19.2261 23.9682 59.9196
18522 1 61.3958 12.4524 83.8975
18523 2 61.09 11.5533 84.2106
18524 2 60.6133 13.0733 83.8517
18525 1 50.9982 13.2228 80.826
18526 2 51.7368 13.0799 81.4847
18527 2 50.1519 12.8276 81.1833
18528 1 28.5446 7.21788 45.4428
18529 2 29.5378 7.123 45.5105
18530 2 28.1451 6.34638 45.1584
18531 1 65.0434 5.19856 35.7491
18532 2 64.6708 4.39754 35.2805
18533 2 64.3249 5.62957 36.2949
18534 1 67.4121 0.392318 69.9715
18535 2 67.6586 0.329896 70.9386
18536 2 68.242 0.37143 69.414
18537 1 31.0753 11.1923 52.5355
18538 2 31.5924 11.6242 51.7965
18539 2 31.6062 11.2333 53.382
18540 1 16.411 23.8332 22.1589
18541 2 16.2375 24.7971 22.3613
18542 2 16.8889 23.7572 21.2838
18543 1 59.4257 0.299647 47.9951
18544 2 59.6393 0.874547 47.2053
18545 2 58.8432 0.807847 48.6295
18546 1 31.7861 24.3903 49.5812
18547 2 31.9046 25.2111 50.14
18548 2 32.2955 23.6328 49.9894
18549 1 0.281423 1.94258 15.6969
18550 2 79.5018 2.5257 15.4684
18551 2 0.464179 1.99998 16.6784
18552 1 64.2598 7.56091 18.6357
18553 2 63.8907 6.69153 18.9643
18554 2 64.6028 8.09159 19.4108
18555 1 74.8396 23.1421 71.7524
18556 2 74.7467 22.695 70.8627
18557 2 74.0265 22.9578 72.3045
18558 1 0.754616 13.9165 39.3326
18559 2 1.45225 14.3962 38.8004
18560 2 79.852 14.1053 38.9458
18561 1 78.6557 3.76324 28.3588
18562 2 77.8168 4.29315 28.4832
18563 2 79.0503 3.54924 29.2524
18564 1 68.601 15.5335 55.9986
18565 2 69.1072 16.2439 55.5097
18566 2 67.7534 15.3308 55.5082
18567 1 1.18215 6.22007 71.6744
18568 2 1.56994 7.08116 72.0032
18569 2 1.76085 5.45973 71.9693
18570 1 72.2623 22.1057 22.9256
18571 2 72.213 21.1317 23.1465
18572 2 72.6698 22.6012 23.6927
18573 1 6.81626 1.63683 61.4218
18574 2 6.08915 1.31187 60.8171
18575 2 6.42377 1.90154 62.3026
18576 1 8.13943 7.61574 39.261
18577 2 8.74345 6.9768 38.7847
18578 2 7.47918 7.99607 38.6134
18579 1 14.3431 3.96116 25.0422
18580 2 14.229 4.91516 24.7649
18581 2 15.2466 3.63797 24.7608
18582 1 31.1602 8.71695 68.6891
18583 2 31.2555 9.70984 68.6177
18584 2 30.5814 8.49318 69.4733
18585 1 13.9178 4.80595 67.0377
18586 2 13.9688 5.0712 68.0006
18587 2 13.813 3.81374 66.9704
18588 1 9.50942 11.7316 77.0258
18589 2 10.3807 11.9267 77.4762
18590 2 8.85363 11.3936 77.7009
18591 1 54.5267 1.5991 43.8768
18592 2 54.5373 0.833467 44.52
18593 2 53.9751 1.35643 43.0788
18594 1 5.64278 12.8708 19.9336
18595 2 5.11485 13.7193 19.896
18596 2 5.63208 12.4315 19.0354
18597 1 52.4568 10.0489 56.6007
18598 2 53.2142 9.49027 56.9389
18599 2 52.8141 10.7719 56.0094
18600 1 51.0561 6.11763 35.7473
18601 2 50.1955 6.60328 35.5938
18602 2 51.0673 5.74439 36.6749
18603 1 73.4853 24.6794 32.6055
18604 2 74.2753 24.4199 32.0501
18605 2 73.3119 23.9712 33.2899
18606 1 17.5109 11.6774 27.343
18607 2 17.2385 11.1755 28.1639
18608 2 17.2668 11.1465 26.5315
18609 1 77.7371 1.7197 37.2004
18610 2 76.9125 2.2822 37.2614
18611 2 77.4785 0.759712 37.093
18612 1 17.1949 19.7011 45.279
18613 2 16.3407 20.2018 45.1384
18614 2 17.9698 20.3053 45.0932
18615 1 27.0759 2.144 59.2877
18616 2 27.8815 1.57137 59.1355
18617 2 27.0326 2.40907 60.251
18618 1 0.0234038 21.681 27.7846
18619 2 0.304825 21.4265 28.7098
18620 2 79.4536 22.5019 27.8234
18621 1 32.3171 9.24637 76.028
18622 2 32.5247 9.26358 77.0061
18623 2 31.8227 8.40571 75.807
18624 1 14.7 10.1788 80.3321
18625 2 14.3803 10.5982 81.1817
18626 2 14.6579 10.8504 79.5924
18627 1 77.2591 14.1252 44.6418
18628 2 77.5137 14.4246 45.5613
18629 2 76.9882 13.1629 44.6677
18630 1 46.6768 29.9224 68.9821
18631 2 46.1198 0.154886 68.1848
18632 2 46.7491 28.928 69.0597
18633 1 29.7657 13.3867 34.6007
18634 2 29.0504 12.7009 34.4662
18635 2 30.3166 13.1416 35.3985
18636 1 40.2352 14.1021 53.8536
18637 2 40.9773 14.4565 53.2847
18638 2 39.7698 13.3605 53.3704
18639 1 44.8539 1.45235 64.462
18640 2 44.4012 0.715743 63.9596
18641 2 45.296 1.07737 65.2768
18642 1 63.4577 20.6366 37.077
18643 2 64.2906 21.1802 37.1815
18644 2 62.8569 21.0727 36.4071
18645 1 35.572 11.5924 43.119
18646 2 36.5417 11.5413 43.358
18647 2 35.156 10.6885 43.2186
18648 1 22.4075 25.7483 45.355
18649 2 21.5872 26.2281 45.6663
18650 2 22.21 24.7718 45.2689
18651 1 54.1254 7.62254 48.5575
18652 2 54.6441 8.42743 48.8458
18653 2 54.2778 7.45926 47.5828
18654 1 4.99172 22.4108 88.9566
18655 2 4.3488 23.0948 88.612
18656 2 4.48942 21.5931 89.2378
18657 1 20.6663 24.619 40.3245
18658 2 21.658 24.7047 40.2281
18659 2 20.4507 24.2346 41.2221
18660 1 79.6381 23.8749 86.5447
18661 2 79.5053 23.3226 85.7217
18662 2 0.276495 23.4103 87.1584
18663 1 39.4114 13.8732 90.298
18664 2 39.4771 12.9577 89.9012
18665 2 40.299 14.1375 90.6753
18666 1 35.7662 22.8379 60.9891
18667 2 35.8317 23.8259 60.849
18668 2 35.9454 22.3662 60.1257
18669 1 49.3354 1.44481 70.3625
18670 2 49.2559 2.36264 70.7514
18671 2 48.5414 1.25806 69.784
18672 1 34.8841 19.1054 76.4267
18673 2 35.5784 19.825 76.4364
18674 2 34.8108 18.7006 77.3382
18675 1 20.3331 22.0259 88.4714
18676 2 20.9867 22.7827 88.474
18677 2 19.4089 22.3832 88.6063
18678 1 5.43071 25.0298 22.1159
18679 2 5.21064 25.9231 21.724
18680 2 6.14479 25.1361 22.8079
18681 1 67.4931 23.3026 11.7878
18682 2 67.4452 23.8681 10.9645
18683 2 66.9538 23.7267 12.5153
18684 1 13.1456 7.82023 19.6881
18685 2 12.1513 7.72535 19.6389
18686 2 13.4428 8.54252 19.0636
18687 1 42.3657 0.592066 73.2402
18688 2 43.1495 1.21012 73.3012
18689 2 42.6771 29.6864 72.9524
18690 1 31.8114 19.4127 63.6308
18691 2 31.7367 19.5026 62.6377
18692 2 32.3722 18.6149 63.852
18693 1 15.3461 4.12787 80.4978
18694 2 14.4906 4.53298 80.1753
18695 2 15.4923 3.25038 80.041
18696 1 64.9147 9.18663 57.0174
18697 2 65.7112 9.25869 57.6177
18698 2 64.8693 9.99153 56.4257
18699 1 41.8794 13.6547 80.851
18700 2 41.4781 13.9831 81.706
18701 2 41.2419 13.0283 80.4025
18702 1 15.4607 28.6153 67.6879
18703 2 16.372 28.9944 67.527
18704 2 15.3051 28.5276 68.6718
18705 1 17.8835 2.08053 49.5598
18706 2 18.0964 2.95554 49.125
18707 2 17.9812 2.16848 50.5512
18708 1 70.5508 15.3854 14.2767
18709 2 70.591 14.4187 14.5295
18710 2 69.6648 15.5838 13.8577
18711 1 16.6653 7.43466 15.6952
18712 2 16.0732 8.04264 16.2243
18713 2 16.4526 6.48375 15.9201
18714 1 77.4642 26.7423 22.1285
18715 2 77.1243 27.271 22.9063
18716 2 76.8991 25.9262 22.0077
18717 1 13.0623 0.454624 67.1068
18718 2 13.5021 0.493941 68.004
18719 2 13.4719 29.7195 66.5666
18720 1 51.0412 19.2429 73.4026
18721 2 50.7027 18.4632 73.9292
18722 2 51.5741 19.8424 73.9998
18723 1 40.9724 27.1257 51.3019
18724 2 40.7406 26.7835 52.2125
18725 2 41.7973 26.6659 50.9731
18726 1 20.3146 26.0141 80.7887
18727 2 19.3889 25.6496 80.6872
18728 2 20.5729 26.0036 81.7547
18729 1 4.40557 23.1308 46.8457
18730 2 3.56068 23.2944 47.355
18731 2 4.18692 22.9487 45.887
18732 1 48.4263 24.4365 26.5734
18733 2 47.8858 23.5952 26.5623
18734 2 47.9537 25.1433 26.0469
18735 1 36.0617 16.7844 70.5649
18736 2 35.8833 17.7019 70.9204
18737 2 35.5511 16.1135 71.1027
18738 1 50.2445 16.3932 64.85
18739 2 49.6615 15.5854 64.7629
18740 2 51.1106 16.2318 64.3769
18741 1 45.6537 11.6472 74.3036
18742 2 46.4952 11.1109 74.3695
18743 2 45.3444 11.8961 75.2214
18744 1 4.98798 4.02186 30.2135
18745 2 4.17844 4.50067 29.8738
18746 2 5.66341 3.94726 29.4799
18747 1 62.2805 18.0701 33.1953
18748 2 63.1453 17.6377 33.4506
18749 2 62.4261 18.6657 32.4053
18750 1 71.4565 22.1724 64.8489
18751 2 72.2543 21.8418 64.3447
18752 2 70.7753 22.5194 64.2043
18753 1 19.6482 7.81046 81.8542
18754 2 20.3718 7.81262 81.1639
18755 2 19.0585 7.01464 81.7164
18756 1 35.5477 1.26278 37.0389
18757 2 36.2567 0.975264 37.6829
18758 2 34.8394 0.558849 36.9869
18759 1 23.3716 9.91883 76.3308
18760 2 24.3454 10.1396 76.3859
18761 2 22.8357 10.6839 76.6877
18762 1 10.6608 10.0008 81.52
18763 2 11.3202 10.7331 81.3502
18764 2 11.0099 9.14351 81.1416
18765 1 74.1584 2.38484 84.0169
18766 2 74.1185 2.61489 83.0445
18767 2 73.231 2.34811 84.3891
18768 1 40.9797 17.1348 77.3042
18769 2 41.4779 17.831 76.7873
18770 2 41.1728 17.242 78.2795
18771 1 45.3157 6.72141 37.4032
18772 2 46.1477 7.03619 36.9464
18773 2 45.0727 7.36191 38.1317
18774 1 69.0072 10.3216 54.0205
18775 2 69.9269 10.7114 54.068
18776 2 68.8031 9.8441 54.8751
18777 1 75.9163 15.2166 15.5812
18778 2 76.8764 15.494 15.6162
18779 2 75.5402 15.1998 16.5077
18780 1 32.7802 27.9727 84.1291
18781 2 33.0705 28.8505 84.5101
18782 2 33.0309 27.237 84.7583
18783 1 57.7775 18.3534 89.0724
18784 2 57.3081 17.7841 88.3974
18785 2 57.1067 18.9071 89.5657
18786 1 56.2702 9.03405 42.3877
18787 2 56.5962 9.10772 43.3302
18788 2 55.8854 8.12319 42.2384
18789 1 56.2002 4.48644 89.2101
18790 2 55.3286 3.99708 89.2398
18791 2 56.029 5.47155 89.1945
18792 1 21.8486 11.9936 77.5519
18793 2 21.7702 12.9063 77.953
18794 2 21.1305 11.4041 77.9218
18795 1 0.401299 7.91507 60.5777
18796 2 0.397883 7.35071 61.4033
18797 2 79.7399 7.55068 59.9221
18798 1 0.297166 7.77621 75.2722
18799 2 0.185604 8.62392 75.7908
18800 2 1.03255 7.88861 74.6039
18801 1 11.9816 16.4768 13.5209
18802 2 12.8912 16.3121 13.9023
18803 2 11.543 15.6021 13.3149
18804 1 41.6441 28.1755 36.5788
18805 2 41.1372 28.9814 36.8848
18806 2 42.5152 28.1243 37.0673
18807 1 68.0159 4.27547 29.3659
18808 2 67.904 3.78637 28.5009
18809 2 67.1262 4.60841 29.6781
18810 1 61.192 1.68255 11.544
18811 2 61.2863 2.67454 11.46
18812 2 62.0744 1.24746 11.3649
18813 1 58.4224 1.00684 15.8097
18814 2 57.8582 1.8021 16.0316
18815 2 58.5474 0.952851 14.819
18816 1 61.4644 6.05778 39.7935
18817 2 61.973 5.9623 38.9378
18818 2 62.0755 5.88379 40.5657
18819 1 12.7937 21.8492 31.3599
18820 2 13.2149 21.3291 30.617
18821 2 12.9448 22.8263 31.2102
18822 1 73.9421 25.0018 23.4331
18823 2 74.6566 24.599 24.0052
18824 2 73.7651 24.4044 22.6509
18825 1 17.8918 12.7434 78.844
18826 2 18.398 12.412 78.0478
18827 2 17.145 13.3357 78.5414
18828 1 70.3121 28.9324 38.1565
18829 2 70.4775 28.8862 39.1416
18830 2 70.8725 29.6586 37.7582
18831 1 38.5762 4.77018 67.8459
18832 2 37.6266 4.9683 68.0886
18833 2 38.6208 3.89782 67.3591
18834 1 10.2701 19.9902 60.7239
18835 2 10.5136 20.3316 61.6318
18836 2 9.28855 20.1098 60.575
18837 1 7.90149 6.11338 33.905
18838 2 8.54406 6.80063 33.5662
18839 2 8.38798 5.25576 34.0718
18840 1 27.5432 24.7512 41.0688
18841 2 27.6969 24.9004 40.092
18842 2 28.2441 25.2337 41.5941
18843 1 34.5893 19.3714 63.2942
18844 2 34.2304 18.4401 63.356
18845 2 34.1216 19.8607 62.5582
18846 1 43.4765 15.9183 30.9242
18847 2 43.2618 16.5489 30.1783
18848 2 43.9977 16.4003 31.6285
18849 1 39.5753 23.3247 89.1432
18850 2 38.6399 23.4816 88.8262
18851 2 40.1947 23.9593 88.6811
18852 1 44.1386 8.03303 89.9315
18853 2 43.1681 7.93734 90.1531
18854 2 44.603 7.16083 90.0849
18855 1 66.9338 29.6444 81.4029
18856 2 66.1646 29.0102 81.3253
18857 2 67.3176 29.5918 82.3249
18858 1 14.4595 22.1756 65.6397
18859 2 14.7228 21.8823 64.7207
18860 2 14.4309 21.3819 66.2475
18861 1 71.3371 8.91586 52.7367
18862 2 71.3776 9.82835 53.1438
18863 2 71.335 8.22719 53.4618
18864 1 71.6836 25.5097 16.2022
18865 2 72.5088 25.6031 15.6451
18866 2 71.8903 24.9658 17.0155
18867 1 54.8514 22.9478 39.5868
18868 2 55.405 22.9104 40.4188
18869 2 54.0094 22.4259 39.723
18870 1 33.9789 9.90226 90.7417
18871 2 34.8863 9.50323 90.6097
18872 2 33.2811 9.24419 90.459
18873 1 25.8007 3.85538 77.2176
18874 2 26.4957 4.24207 77.8238
18875 2 24.8977 4.18582 77.4923
18876 1 55.3639 10.9015 79.3966
18877 2 56.0283 10.8409 78.6517
18878 2 55.8272 11.1928 80.2336
18879 1 6.88801 23.3876 90.4634
18880 2 6.81654 22.6556 91.1409
18881 2 6.1723 23.2748 89.7741
18882 1 1.78223 12.479 77.9517
18883 2 1.87903 12.1556 78.893
18884 2 1.4111 11.7446 77.3835
18885 1 65.4941 17.5852 41.0192
18886 2 66.4605 17.8391 41.0587
18887 2 65.2522 17.0658 41.8388
18888 1 76.5746 7.98012 79.7519
18889 2 76.5914 7.60746 80.6797
18890 2 75.6757 8.37841 79.569
18891 1 61.1777 16.8673 81.5504
18892 2 60.3614 16.6517 82.0862
18893 2 61.4505 16.0641 81.0207
18894 1 10.4618 7.48013 31.4749
18895 2 10.5508 6.48866 31.3797
18896 2 10.9811 7.78636 32.2727
18897 1 47.7374 29.4223 90.7314
18898 2 47.3841 0.313263 90.4462
18899 2 48.6122 29.5451 91.2001
18900 1 73.1432 13.2095 19.1736
18901 2 72.1656 13.0049 19.1242
18902 2 73.6415 12.6083 18.5489
18903 1 12.5292 14.0737 45.5547
18904 2 13.4613 14.4339 45.5908
18905 2 12.1916 13.9287 46.4847
18906 1 67.3017 17.0037 67.7868
18907 2 66.4604 16.7596 68.269
18908 2 67.7274 17.7893 68.236
18909 1 27.2628 2.26441 90.2083
18910 2 28.1861 2.4189 89.8566
18911 2 26.603 2.75553 89.6397
18912 1 74.1751 29.9726 15.5
18913 2 73.6549 29.3541 16.089
18914 2 74.4091 29.5037 14.6483
18915 1 49.8435 18.5568 55.1549
18916 2 49.5235 17.6101 55.192
18917 2 50.7784 18.6066 55.5062
18918 1 5.29917 18.924 89.2067
18919 2 4.52929 18.303 89.0598
18920 2 5.59931 19.2964 88.3285
18921 1 74.9646 21.7062 66.2814
18922 2 74.7498 21.2951 65.3955
18923 2 74.3856 21.2982 66.9873
18924 1 10.7917 7.19434 50.1238
18925 2 11.4475 7.90491 50.379
18926 2 9.86871 7.48765 50.3727
18927 1 78.1355 26.8118 81.0209
18928 2 78.2412 25.8701 80.7017
18929 2 77.2991 27.2023 80.6362
18930 1 33.5971 17.8263 43.3107
18931 2 33.5196 16.8297 43.3411
18932 2 33.3868 18.149 42.3878
18933 1 26.4527 0.26377 61.922
18934 2 25.662 0.359847 62.5265
18935 2 26.7255 29.3026 61.8802
18936 1 71.5066 3.50755 23.67
18937 2 71.1046 3.93576 24.4793
18938 2 72.3433 3.02507 23.929
18939 1 72.402 12.8276 76.0265
18940 2 73.061 12.3031 76.5657
18941 2 71.7435 13.2651 76.6389
18942 1 66.556 13.8743 29.2317
18943 2 67.3775 14.4284 29.3664
18944 2 66.8199 12.9385 28.9975
18945 1 54.5862 7.48114 30.2144
18946 2 55.0657 7.70882 29.3669
18947 2 53.5993 7.49903 30.0541
18948 1 6.17657 23.8027 52.8475
18949 2 6.78691 23.4449 52.1408
18950 2 6.71682 24.2579 53.5553
18951 1 67.9019 24.1489 76.9446
18952 2 67.9562 23.3312 77.5176
18953 2 66.9971 24.5638 77.0407
18954 1 22.6486 10.3172 41.5889
18955 2 23.2389 9.58219 41.2553
18956 2 22.8103 11.1446 41.0509
18957 1 27.7278 0.517072 83.1341
18958 2 28.4801 29.9607 83.4869
18959 2 27.806 1.4481 83.4906
18960 1 70.924 4.41049 72.3516
18961 2 71.5524 4.11517 73.0712
18962 2 70.0024 4.49911 72.7296
18963 1 8.01385 21.4079 74.2777
18964 2 7.63824 20.4857 74.1857
18965 2 7.52236 21.8976 74.9978
18966 1 47.1287 19.6414 42.5856
18967 2 46.2479 19.212 42.7852
18968 2 46.9912 20.4081 41.9585
18969 1 73.7723 11.3254 53.0544
18970 2 74.0401 11.4373 54.0114
18971 2 72.7768 11.2534 52.9931
18972 1 76.7143 8.27809 16.8653
18973 2 76.8387 9.1894 17.2578
18974 2 77.075 7.59132 17.4964
18975 1 56.0034 25.0683 75.8909
18976 2 56.6338 24.3612 76.2111
18977 2 55.2806 24.6472 75.3429
18978 1 13.673 21.8461 35.4616
18979 2 14.3561 22.2356 36.0794
18980 2 13.7381 20.8484 35.4791
18981 1 60.451 29.7343 73.5294
18982 2 61.1575 0.439962 73.5822
18983 2 60.7277 28.944 74.0761
18984 1 78.5291 5.6904 35.764
18985 2 78.7591 4.85079 35.2719
18986 2 78.9522 5.67229 36.6699
18987 1 68.1365 0.668971 42.1002
18988 2 67.5899 29.8654 42.3358
18989 2 68.9529 0.381575 41.5994
18990 1 71.1513 14.7996 77.7205
18991 2 71.0809 15.7972 77.7166
18992 2 71.6196 14.5018 78.5524
18993 1 32.5497 12.7451 50.4679
18994 2 32.3366 13.6001 49.9951
18995 2 33.4598 12.4319 50.1965
18996 1 39.8805 0.128586 49.3823
18997 2 39.273 0.739177 49.8903
18998 2 40.1174 0.547749 48.5058
18999 1 68.8928 24.2804 18.197
19000 2 68.4991 24.8787 18.8948
19001 2 69.7709 24.6524 17.8959
19002 1 72.0417 21.7962 45.0513
19003 2 71.1791 21.4755 45.4424
19004 2 72.6355 22.1308 45.7831
19005 1 51.3633 24.2177 40.9122
19006 2 51.5052 24.4412 41.8765
19007 2 51.9912 23.4872 40.6435
19008 1 8.39947 18.4417 55.4674
19009 2 7.75867 18.996 55.9986
19010 2 8.57991 17.5854 55.9513
19011 1 12.6736 22.9511 48.7764
19012 2 12.669 23.9432 48.6514
19013 2 13.6092 22.6407 48.9451
19014 1 43.6445 25.9448 51.9607
19015 2 43.556 26.9406 51.9849
19016 2 44.1023 25.6306 52.7923
19017 1 3.62984 10.0756 16.6366
19018 2 4.10978 10.9352 16.8119
19019 2 2.6555 10.2586 16.5056
19020 1 20.1604 23.4623 13.895
19021 2 20.8522 23.692 14.5796
19022 2 20.0234 22.4718 13.8789
19023 1 11.0634 28.2049 29.3543
19024 2 11.8612 27.6382 29.1487
19025 2 10.44 28.1991 28.5723
19026 1 4.52552 18.3278 32.9206
19027 2 3.92908 18.7934 33.5745
19028 2 5.28154 18.9325 32.6699
19029 1 2.20471 5.00252 17.9303
19030 2 2.38491 4.55284 17.0555
19031 2 2.68887 5.87694 17.9615
19032 1 4.2892 17.2956 35.7104
19033 2 4.87737 16.4905 35.787
19034 2 3.50994 17.0842 35.1204
19035 1 59.5383 27.9133 22.467
19036 2 59.0881 27.4564 23.2343
19037 2 59.4995 27.3248 21.6595
19038 1 12.6774 26.9293 55.3775
19039 2 13.0046 26.0476 55.0376
19040 2 13.323 27.6473 55.1171
19041 1 2.77444 24.204 88.9741
19042 2 2.63114 23.3008 88.5695
19043 2 2.06866 24.8319 88.6461
19044 1 73.9503 5.73638 74.8048
19045 2 73.2394 5.03481 74.8539
19046 2 74.4578 5.75765 75.6662
19047 1 67.8588 12.9346 46.7354
19048 2 67.1727 13.095 47.4449
19049 2 67.4741 12.3421 46.0276
19050 1 78.4868 12.8445 88.7112
19051 2 78.0308 13.4851 88.0934
19052 2 79.398 13.1896 88.9361
19053 1 13.9945 20.4764 48.079
19054 2 14.6012 20.9581 47.4465
19055 2 14.3393 19.5502 48.2313
19056 1 62.099 1.58152 57.2557
19057 2 62.8511 2.07988 56.8244
19058 2 62.0453 1.83052 58.2227
19059 1 8.46976 5.07117 21.6744
19060 2 8.32473 5.73956 20.9449
19061 2 9.18938 4.43214 21.4028
19062 1 56.6293 12.2946 23.0539
19063 2 55.858 12.9109 23.2129
19064 2 56.2879 11.4045 22.752
19065 1 28.7892 24.9671 52.0143
19066 2 27.8825 25.1328 51.6266
19067 2 29.0004 23.991 51.9628
19068 1 62.8735 25.8575 30.1956
19069 2 63.0117 25.1557 30.8944
19070 2 63.7549 26.2599 29.9483
19071 1 54.3302 2.34733 41.1341
19072 2 53.3303 2.36277 41.1388
19073 2 54.6678 2.86642 40.3489
19074 1 69.0616 9.77922 65.2674
19075 2 68.9332 8.86002 64.8951
19076 2 69.9917 9.86749 65.624
19077 1 75.5564 13.7303 27.2354
19078 2 75.4844 12.7655 27.4881
19079 2 75.9845 14.2394 27.9821
19080 1 45.7002 29.4331 61.3687
19081 2 45.0765 29.4374 62.1503
19082 2 46.2197 28.5786 61.3615
19083 1 79.4566 7.30998 84.5685
19084 2 78.9097 7.36987 83.7334
19085 2 79.0226 6.67355 85.2061
19086 1 27.9948 17.8558 87.4986
19087 2 27.3237 18.5685 87.7028
19088 2 27.5209 17.0273 87.2003
19089 1 17.6649 19.1573 75.4516
19090 2 17.7528 19.2321 76.445
19091 2 18.4577 19.5816 75.014
19092 1 74.5342 8.48807 30.1955
19093 2 75.0126 9.25666 30.6203
19094 2 74.0521 8.80577 29.379
19095 1 20.5123 6.63879 55.9027
19096 2 20.6837 5.77946 56.3845
19097 2 21.0694 6.67255 55.0729
19098 1 52.4367 0.473054 36.3929
19099 2 52.0956 29.6955 35.8646
19100 2 52.0632 0.435845 37.3198
19101 1 16.102 26.2875 79.9217
19102 2 16.0328 26.6888 80.835
19103 2 16.3821 26.9913 79.2688
19104 1 45.7758 2.80922 62.3066
19105 2 45.2773 2.45982 63.1
19106 2 45.1283 3.19454 61.6492
19107 1 53.2862 10.4169 31.746
19108 2 54.2711 10.3043 31.8776
19109 2 52.9259 11.0388 32.4412
19110 1 12.7166 7.72 15.021
19111 2 12.1808 7.36402 14.2553
19112 2 12.6655 7.08146 15.7889
19113 1 8.24878 13.2524 60.1438
19114 2 8.73875 12.4366 60.4509
19115 2 7.89922 13.7499 60.9377
19116 1 5.91882 11.0004 45.236
19117 2 5.15333 11.2764 44.6548
19118 2 5.56963 10.5258 46.044
19119 1 15.8537 13.7783 29.5228
19120 2 16.7938 13.4695 29.379
19121 2 15.2505 13.3283 28.8643
19122 1 35.288 28.1821 43.2628
19123 2 35.2679 28.4194 44.2341
19124 2 34.7476 28.8462 42.7462
19125 1 23.4409 29.7423 48.1474
19126 2 23.7047 29.0142 47.5147
19127 2 24.2622 0.186091 48.5059
19128 1 11.437 26.1114 52.7496
19129 2 12.2168 25.7458 52.2415
19130 2 11.7662 26.6181 53.5464
19131 1 27.1476 4.8113 79.8657
19132 2 26.4818 4.65279 80.5948
19133 2 26.9574 5.68894 79.4257
19134 1 22.2476 16.8009 23.594
19135 2 22.531 15.8544 23.7477
19136 2 22.7158 17.1623 22.7876
19137 1 59.319 17.9358 67.715
19138 2 59.8496 18.6839 67.3166
19139 2 58.3593 18.2082 67.785
19140 1 70.7526 14.1952 10.8032
19141 2 70.1101 13.429 10.8113
19142 2 70.885 14.5093 9.86311
19143 1 69.0175 7.09193 19.8668
19144 2 68.2643 7.45146 20.4177
19145 2 69.8844 7.44996 20.2134
19146 1 1.73235 21.274 10.8485
19147 2 1.36446 22.1581 11.1365
19148 2 1.9162 21.2937 9.8657
19149 1 72.78 21.9778 20.1924
19150 2 72.2582 21.1782 19.8949
19151 2 72.9385 21.9244 21.1783
19152 1 73.6942 27.4709 90.4232
19153 2 72.8375 27.572 89.9174
19154 2 74.1997 26.6842 90.0688
19155 1 45.7418 17.3168 54.2086
19156 2 46.4463 17.9092 54.5994
19157 2 44.9849 17.8766 53.8715
19158 1 36.4198 1.01104 43.9781
19159 2 36.059 1.72898 43.3828
19160 2 35.8312 0.916798 44.781
19161 1 47.5718 4.052 43.0907
19162 2 47.7799 3.26261 43.6683
19163 2 48.3838 4.63028 43.0114
19164 1 3.01715 8.34061 27.7806
19165 2 3.85715 8.48026 27.2563
19166 2 2.92853 7.37291 28.0166
19167 1 60.9722 6.4855 32.9324
19168 2 59.9854 6.55688 33.0777
19169 2 61.3172 5.66346 33.3854
19170 1 25.8207 21.6445 57.9661
19171 2 26.6051 21.9079 58.5277
19172 2 26.1316 21.4251 57.0413
19173 1 40.8942 14.3241 83.439
19174 2 41.7666 13.9249 83.7209
19175 2 40.6987 15.1283 84.0004
19176 1 14.8758 25.289 18.433
19177 2 15.7532 25.1271 17.9815
19178 2 14.3505 25.9601 17.9098
19179 1 44.0893 26.5718 46.394
19180 2 43.3111 27.0097 45.9437
19181 2 44.5313 25.9407 45.7566
19182 1 6.67948 16.9573 60.6238
19183 2 6.01015 17.6571 60.8733
19184 2 6.38887 16.5034 59.7815
19185 1 47.0812 10.4976 38.6771
19186 2 46.1773 10.923 38.6322
19187 2 47.7093 11.1007 39.1688
19188 1 33.6548 14.7288 43.2745
19189 2 34.5017 14.8293 42.7523
19190 2 33.8114 14.1157 44.0488
19191 1 10.3836 4.99645 89.6682
19192 2 9.5724 4.80669 90.2213
19193 2 10.6508 5.95292 89.7855
19194 1 16.0583 3.72234 61.1909
19195 2 15.8902 4.68336 60.9714
19196 2 16.465 3.65474 62.1019
19197 1 44.5606 20.0836 58.7153
19198 2 45.4992 20.4092 58.8296
19199 2 44.07 20.6931 58.0925
19200 1 19.2271 25.1299 89.6483
19201 2 20.0168 24.6978 89.2127
19202 2 19.1808 26.091 89.3761
19203 1 3.49911 27.2333 39.0167
19204 2 2.95354 26.6216 39.5895
19205 2 3.10431 28.1518 39.0397
19206 1 75.6702 4.69371 53.9737
19207 2 75.7422 5.01883 54.9166
19208 2 75.0137 3.94066 53.9299
19209 1 23.2213 18.4634 45.6605
19210 2 22.5183 18.775 46.2997
19211 2 23.8511 17.8464 46.1324
19212 1 46.0749 20.1729 51.1724
19213 2 46.6705 20.8074 51.665
19214 2 46.0983 19.2786 51.6192
19215 1 23.3422 1.25674 50.9696
19216 2 22.7118 1.49064 51.7098
19217 2 24.2423 1.04777 51.3518
19218 1 43.9683 12.2295 71.6535
19219 2 44.9481 12.0468 71.5725
19220 2 43.7366 12.3861 72.6136
19221 1 5.11054 4.16713 46.8867
19222 2 4.68047 4.84346 46.2887
19223 2 5.28644 4.57737 47.7816
19224 1 16.3145 5.11445 65.0042
19225 2 16.8279 5.05409 65.8603
19226 2 15.6475 4.37059 64.9625
19227 1 37.0502 9.47983 64.623
19228 2 36.5679 9.32133 63.7615
19229 2 36.9095 8.69941 65.2323
19230 1 56.7059 17.779 71.1614
19231 2 57.3552 18.3029 70.61
19232 2 57.1642 17.4393 71.9827
19233 1 22.8622 0.966562 44.0176
19234 2 22.1954 0.333668 43.6242
19235 2 23.7804 0.580262 43.9299
19236 1 36.6771 18.9908 86.4585
19237 2 36.6687 19.4062 85.5489
19238 2 36.3022 19.6369 87.1234
19239 1 17.3405 24.4452 77.3786
19240 2 17.202 24.7514 76.4367
19241 2 16.4611 24.1841 77.7768
19242 1 57.7903 28.5912 80.2083
19243 2 57.9191 29.4589 80.6884
19244 2 58.0086 27.834 80.824
19245 1 7.24031 9.86876 58.4598
19246 2 6.67936 10.6907 58.5582
19247 2 6.7428 9.0804 58.8217
19248 1 3.71322 8.93549 79.5645
19249 2 4.30777 8.16438 79.3367
19250 2 4.26983 9.70283 79.8829
19251 1 14.157 26.9091 86.2648
19252 2 13.7996 27.0214 85.3376
19253 2 13.8306 27.6584 86.8409
19254 1 17.5037 12.6415 34.1327
19255 2 17.9178 13.1449 34.891
19256 2 18.2141 12.378 33.4802
19257 1 34.6898 6.68449 35.7734
19258 2 34.8584 5.76973 36.1405
19259 2 34.1508 6.61269 34.9342
19260 1 6.33591 21.5319 76.7739
19261 2 6.94801 21.6232 77.5593
19262 2 5.85764 20.6551 76.8242
19263 1 66.5774 0.544655 77.6845
19264 2 66.7925 0.150423 76.7911
19265 2 66.9916 1.45195 77.757
19266 1 4.12865 29.7186 40.1432
19267 2 4.27833 28.7503 40.3435
19268 2 4.99518 0.212141 40.2175
19269 1 44.4126 20.7756 74.9847
19270 2 44.611 21.7328 74.7743
19271 2 45.1588 20.3924 75.5292
19272 1 40.7729 14.5655 67.2607
19273 2 40.7717 15.0373 66.379
19274 2 40.1235 15.0101 67.8776
19275 1 38.989 10.5986 67.0868
19276 2 39.3782 10.1466 67.8894
19277 2 39.7118 10.7693 66.4172
19278 1 72.4244 12.6363 37.1182
19279 2 73.4206 12.6342 37.206
19280 2 72.1274 13.5009 36.7129
19281 1 53.2748 19.7488 47.5131
19282 2 53.655 20.6027 47.8685
19283 2 54.0167 19.1021 47.3355
19284 1 59.6302 27.5058 70.3448
19285 2 60.0595 28.374 70.5939
19286 2 59.9859 26.7779 70.9311
19287 1 12.0032 4.94599 16.7246
19288 2 12.452 4.53916 17.5203
19289 2 11.1853 4.41761 16.4969
19290 1 20.0039 14.4414 90.464
19291 2 20.4093 13.6514 90.0041
19292 2 19.0728 14.5815 90.1273
19293 1 12.7376 15.4623 38.1038
19294 2 13.3406 15.6142 38.887
19295 2 13.2798 15.447 37.2637
19296 1 76.1058 2.24017 80.4423
19297 2 76.1614 1.79257 79.5498
19298 2 76.6026 1.69701 81.1192
19299 1 26.6539 28.1089 33.8437
19300 2 27.3185 27.5719 34.3632
19301 2 26.9385 28.1553 32.8861
19302 1 73.1432 25.4587 70.2662
19303 2 72.5735 26.1911 69.8935
19304 2 73.0961 25.4751 71.2649
19305 1 11.1483 18.6654 36.5433
19306 2 10.6243 17.8143 36.5756
19307 2 12.1172 18.466 36.6899
19308 1 9.04152 12.0758 85.4092
19309 2 9.50531 12.438 86.2177
19310 2 8.72958 12.8338 84.8363
19311 1 40.961 5.12158 73.0361
19312 2 40.6526 6.03414 73.3047
19313 2 41.4992 5.18553 72.1957
19314 1 16.7269 15.5947 31.7028
19315 2 17.4653 15.019 31.3518
19316 2 16.3523 16.1472 30.9582
19317 1 11.3106 0.709042 43.6755
19318 2 11.674 0.806412 44.602
19319 2 12.067 0.680106 43.0221
19320 1 42.4798 8.92018 36.9008
19321 2 41.5673 9.28126 37.0927
19322 2 42.5994 8.04761 37.3745
19323 1 50.8122 13.4545 49.1451
19324 2 50.3656 13.3063 50.0276
19325 2 51.5493 12.7888 49.0287
19326 1 44.6378 22.8722 72.1714
19327 2 44.0017 22.6935 72.922
19328 2 45.5297 22.4756 72.3889
19329 1 50.2868 3.99632 42.1202
19330 2 51.0086 3.34299 42.3484
19331 2 50.6982 4.86759 41.8526
19332 1 17.635 7.00646 73.7307
19333 2 17.1596 7.5892 73.0716
19334 2 18.0283 7.57371 74.4542
19335 1 57.1857 25.6875 30.7423
19336 2 57.6298 25.5068 29.8647
19337 2 56.9599 24.8204 31.1864
19338 1 41.1727 19.9587 54.1843
19339 2 40.8215 20.8867 54.0596
19340 2 41.534 19.6195 53.3158
19341 1 15.9482 4.62598 20.2853
19342 2 16.4109 3.81597 20.6455
19343 2 16.4728 4.99615 19.5186
19344 1 24.8049 8.74958 65.2215
19345 2 25.2077 9.58244 64.842
19346 2 23.9648 8.97962 65.7128
19347 1 65.5913 7.79708 70.1243
19348 2 66.0996 7.91075 70.978
19349 2 65.3339 8.69511 69.7676
19350 1 42.4044 23.0462 40.6525
19351 2 41.8619 23.118 39.8155
19352 2 41.87 22.5789 41.3569
19353 1 19.2201 0.869341 20.4693
19354 2 18.5226 0.631569 19.7933
19355 2 19.6341 1.74664 20.2265
19356 1 10.826 22.0744 13.0897
19357 2 11.1935 21.415 12.4339
19358 2 10.2502 22.7363 12.6097
19359 1 24.8717 10.6577 86.8379
19360 2 24.7811 9.67707 87.0118
19361 2 24.1639 10.9489 86.1944
19362 1 7.50294 5.03413 76.5496
19363 2 6.50704 5.00501 76.6353
19364 2 7.87924 4.12423 76.7242
19365 1 46.9736 28.915 41.8677
19366 2 46.6759 29.7241 42.3744
19367 2 47.8184 28.5621 42.2698
19368 1 16.1618 13.3247 64.3584
19369 2 16.0717 14.0924 64.9928
19370 2 15.7592 12.5056 64.767
19371 1 13.2358 2.45635 21.1794
19372 2 13.404 2.63834 22.1483
19373 2 13.6552 3.17689 20.6272
19374 1 50.147 20.3203 26.3814
19375 2 49.967 19.3976 26.0402
19376 2 50.1363 20.3139 27.3813
19377 1 68.5451 27.4617 54.5958
19378 2 68.0339 26.8574 55.2069
19379 2 69.4841 27.1294 54.5073
19380 1 3.63335 16.5746 55.4701
19381 2 3.52561 16.6418 56.462
19382 2 3.15802 15.76 55.1377
19383 1 73.9432 23.5013 49.468
19384 2 74.1398 24.2522 50.0985
19385 2 74.795 23.0357 49.2282
19386 1 49.0653 2.79754 33.716
19387 2 48.6632 3.45552 34.3527
19388 2 49.9433 2.48048 34.0746
19389 1 25.7896 1.12073 28.3171
19390 2 25.9774 1.74095 29.0787
19391 2 26.2151 0.233798 28.4967
19392 1 61.4987 4.84923 60.3341
19393 2 61.3979 3.90582 60.0182
19394 2 60.856 5.43615 59.8418
19395 1 49.7217 4.33632 55.1681
19396 2 49.3022 4.76091 54.3658
19397 2 50.0683 3.43089 54.9232
19398 1 45.4552 17.4768 58.4584
19399 2 45.8918 17.1048 59.2775
19400 2 44.6937 18.0673 58.7255
19401 1 74.1783 24.903 54.1664
19402 2 73.8727 25.8106 53.8787
19403 2 73.6369 24.2049 53.6978
19404 1 46.1042 15.9354 76.2512
19405 2 45.4406 15.5326 76.8816
19406 2 47.0062 15.9524 76.6828
19407 1 41.2607 23.3433 29.577
19408 2 41.8278 23.8735 28.9467
19409 2 41.2958 23.7581 30.4863
19410 1 46.6923 19.7971 82.5575
19411 2 47.0754 18.9341 82.2283
19412 2 46.3676 20.3358 81.7801
19413 1 73.7381 9.5295 82.6145
19414 2 74.6531 9.31718 82.9575
19415 2 73.1688 9.86106 83.3669
19416 1 44.4825 11.5384 38.7677
19417 2 43.5696 11.2849 38.4476
19418 2 44.6638 12.4939 38.5351
19419 1 72.9381 6.10862 18.1185
19420 2 73.2719 5.18103 17.9507
19421 2 72.1006 6.26145 17.5939
19422 1 77.6544 25.4665 33.7217
19423 2 78.643 25.4085 33.8603
19424 2 77.3904 26.4233 33.5999
19425 1 58.0782 7.56264 44.5607
19426 2 57.7641 6.849 45.1869
19427 2 58.0496 8.44853 45.0238
19428 1 23.9613 29.5122 87.9206
19429 2 23.2535 28.8327 87.727
19430 2 23.852 29.8503 88.8553
19431 1 23.7537 19.9404 48.9761
19432 2 23.7903 18.9419 48.935
19433 2 22.9202 20.2622 48.5268
19434 1 7.72655 22.9032 33.4459
19435 2 7.22437 22.0805 33.1798
19436 2 7.57576 23.6205 32.7656
19437 1 74.9803 13.876 70.4349
19438 2 74.72 13.001 70.843
19439 2 75.7786 14.2424 70.9128
19440 1 48.6508 16.38 77.0408
19441 2 48.8914 16.1958 77.9938
19442 2 48.6313 17.3679 76.887
19443 1 17.4568 25.8076 45.1887
19444 2 17.0634 26.0218 44.2946
19445 2 16.8607 25.1648 45.6698
19446 1 36.8998 26.1245 92.0003
19447 2 35.9509 26.2862 92.2713
19448 2 37.14 25.1706 92.1804
19449 1 6.02491 12.2324 77.1418
19450 2 5.11105 12.1466 76.745
19451 2 5.94947 12.5521 78.0863
19452 1 71.8023 7.5136 67.1038
19453 2 72.0082 8.48549 67.2178
19454 2 70.982 7.28304 67.6273
19455 1 74.6738 3.03312 15.5351
19456 2 74.524 3.4584 16.4277
19457 2 73.9254 2.40002 15.3377
19458 1 66.4723 8.69021 45.5316
19459 2 66.3852 7.74777 45.8544
19460 2 65.5735 9.12863 45.5366
19461 1 0.543066 28.3582 37.765
19462 2 79.768 28.4609 37.1416
19463 2 1.33376 28.8476 37.3973
19464 1 21.6292 10.0728 89.2375
19465 2 22.4043 10.0606 88.6058
19466 2 21.1812 10.9659 89.1983
19467 1 6.01966 29.5136 15.0435
19468 2 7.01937 29.5225 15.0213
19469 2 5.70121 28.6197 15.359
19470 1 2.40565 5.52395 75.9806
19471 2 3.19861 5.70164 76.5634
19472 2 2.18691 6.34641 75.4556
19473 1 70.7973 1.27866 62.9534
19474 2 70.4092 0.406851 63.2522
19475 2 71.7732 1.16299 62.7679
19476 1 10.3776 10.2589 90.3737
19477 2 9.98766 9.3381 90.3598
19478 2 9.74974 10.8796 90.8433
19479 1 10.3238 21.606 70.4708
19480 2 10.1991 20.8912 71.1588
19481 2 10.9824 22.2799 70.8058
19482 1 57.2013 23.713 33.2155
19483 2 57.8622 22.9627 33.2274
19484 2 56.4902 23.5417 33.8974
19485 1 59.6629 8.23975 39.7933
19486 2 60.3155 7.51696 39.566
19487 2 59.647 8.37495 40.784
