ITEM: TIMESTEP
0
ITEM: NUMBER OF ATOMS
19487
ITEM: BOX BOUNDS pp pp ff
0.0000000000000000e+00 8.0000000000000000e+01
0.0000000000000000e+00 3.0000000000000000e+01
0.0000000000000000e+00 1.1647665900000000e+02
ITEM: ATOMS id type x y z
1 5 0 0 0
2 5 1.24592 2.158 0
3 5 0 4.316 0
4 5 1.24592 6.474 0
5 5 0 8.632 0
6 5 1.24592 10.79 0
7 5 0 12.948 0
8 5 1.24592 15.106 0
9 5 0 17.264 0
10 5 1.24592 19.422 0
11 5 0 21.58 0
12 5 1.24592 23.738 0
13 5 2.49184 0 0
14 5 3.73777 2.158 0
15 5 2.49184 4.316 0
16 5 3.73777 6.474 0
17 5 2.49184 8.632 0
18 5 3.73777 10.79 0
19 5 2.49184 12.948 0
20 5 3.73777 15.106 0
21 5 2.49184 17.264 0
22 5 3.73777 19.422 0
23 5 2.49184 21.58 0
24 5 3.73777 23.738 0
25 5 4.98369 0 0
26 5 6.22961 2.158 0
27 5 4.98369 4.316 0
28 5 6.22961 6.474 0
29 5 4.98369 8.632 0
30 5 6.22961 10.79 0
31 5 4.98369 12.948 0
32 5 6.22961 15.106 0
33 5 4.98369 17.264 0
34 5 6.22961 19.422 0
35 5 4.98369 21.58 0
36 5 6.22961 23.738 0
37 5 7.47553 0 0
38 5 8.72146 2.158 0
39 5 7.47553 4.316 0
40 5 8.72146 6.474 0
41 5 7.47553 8.632 0
42 5 8.72146 10.79 0
43 5 7.47553 12.948 0
44 5 8.72146 15.106 0
45 5 7.47553 17.264 0
46 5 8.72146 19.422 0
47 5 7.47553 21.58 0
48 5 8.72146 23.738 0
49 5 9.96738 0 0
50 5 11.2133 2.158 0
51 5 9.96738 4.316 0
52 5 11.2133 6.474 0
53 5 9.96738 8.632 0
54 5 11.2133 10.79 0
55 5 9.96738 12.948 0
56 5 11.2133 15.106 0
57 5 9.96738 17.264 0
58 5 11.2133 19.422 0
59 5 9.96738 21.58 0
60 5 11.2133 23.738 0
61 5 12.4592 0 0
62 5 13.7051 2.158 0
63 5 12.4592 4.316 0
64 5 13.7051 6.474 0
65 5 12.4592 8.632 0
66 5 13.7051 10.79 0
67 5 12.4592 12.948 0
68 5 13.7051 15.106 0
69 5 12.4592 17.264 0
70 5 13.7051 19.422 0
71 5 12.4592 21.58 0
72 5 13.7051 23.738 0
73 5 14.9511 0 0
74 5 16.197 2.158 0
75 5 14.9511 4.316 0
76 5 16.197 6.474 0
77 5 14.9511 8.632 0
78 5 16.197 10.79 0
79 5 14.9511 12.948 0
80 5 16.197 15.106 0
81 5 14.9511 17.264 0
82 5 16.197 19.422 0
83 5 14.9511 21.58 0
84 5 16.197 23.738 0
85 5 17.4429 0 0
86 5 18.6888 2.158 0
87 5 17.4429 4.316 0
88 5 18.6888 6.474 0
89 5 17.4429 8.632 0
90 5 18.6888 10.79 0
91 5 17.4429 12.948 0
92 5 18.6888 15.106 0
93 5 17.4429 17.264 0
94 5 18.6888 19.422 0
95 5 17.4429 21.58 0
96 5 18.6888 23.738 0
97 5 19.9348 0 0
98 5 21.1807 2.158 0
99 5 19.9348 4.316 0
100 5 21.1807 6.474 0
101 5 19.9348 8.632 0
102 5 21.1807 10.79 0
103 5 19.9348 12.948 0
104 5 21.1807 15.106 0
105 5 19.9348 17.264 0
106 5 21.1807 19.422 0
107 5 19.9348 21.58 0
108 5 21.1807 23.738 0
109 5 22.4266 0 0
110 5 23.6725 2.158 0
111 5 22.4266 4.316 0
112 5 23.6725 6.474 0
113 5 22.4266 8.632 0
114 5 23.6725 10.79 0
115 5 22.4266 12.948 0
116 5 23.6725 15.106 0
117 5 22.4266 17.264 0
118 5 23.6725 19.422 0
119 5 22.4266 21.58 0
120 5 23.6725 23.738 0
121 5 24.9184 0 0
122 5 26.1644 2.158 0
123 5 24.9184 4.316 0
124 5 26.1644 6.474 0
125 5 24.9184 8.632 0
126 5 26.1644 10.79 0
127 5 24.9184 12.948 0
128 5 26.1644 15.106 0
129 5 24.9184 17.264 0
130 5 26.1644 19.422 0
131 5 24.9184 21.58 0
132 5 26.1644 23.738 0
133 5 27.4103 0 0
134 5 28.6562 2.158 0
135 5 27.4103 4.316 0
136 5 28.6562 6.474 0
137 5 27.4103 8.632 0
138 5 28.6562 10.79 0
139 5 27.4103 12.948 0
140 5 28.6562 15.106 0
141 5 27.4103 17.264 0
142 5 28.6562 19.422 0
143 5 27.4103 21.58 0
144 5 28.6562 23.738 0
145 5 29.9021 0 0
146 5 31.1481 2.158 0
147 5 29.9021 4.316 0
148 5 31.1481 6.474 0
149 5 29.9021 8.632 0
150 5 31.1481 10.79 0
151 5 29.9021 12.948 0
152 5 31.1481 15.106 0
153 5 29.9021 17.264 0
154 5 31.1481 19.422 0
155 5 29.9021 21.58 0
156 5 31.1481 23.738 0
157 5 32.394 0 0
158 5 33.6399 2.158 0
159 5 32.394 4.316 0
160 5 33.6399 6.474 0
161 5 32.394 8.632 0
162 5 33.6399 10.79 0
163 5 32.394 12.948 0
164 5 33.6399 15.106 0
165 5 32.394 17.264 0
166 5 33.6399 19.422 0
167 5 32.394 21.58 0
168 5 33.6399 23.738 0
169 5 34.8858 0 0
170 5 36.1317 2.158 0
171 5 34.8858 4.316 0
172 5 36.1317 6.474 0
173 5 34.8858 8.632 0
174 5 36.1317 10.79 0
175 5 34.8858 12.948 0
176 5 36.1317 15.106 0
177 5 34.8858 17.264 0
178 5 36.1317 19.422 0
179 5 34.8858 21.58 0
180 5 36.1317 23.738 0
181 5 37.3777 0 0
182 5 38.6236 2.158 0
183 5 37.3777 4.316 0
184 5 38.6236 6.474 0
185 5 37.3777 8.632 0
186 5 38.6236 10.79 0
187 5 37.3777 12.948 0
188 5 38.6236 15.106 0
189 5 37.3777 17.264 0
190 5 38.6236 19.422 0
191 5 37.3777 21.58 0
192 5 38.6236 23.738 0
193 5 39.8695 0 0
194 5 41.1154 2.158 0
195 5 39.8695 4.316 0
196 5 41.1154 6.474 0
197 5 39.8695 8.632 0
198 5 41.1154 10.79 0
199 5 39.8695 12.948 0
200 5 41.1154 15.106 0
201 5 39.8695 17.264 0
202 5 41.1154 19.422 0
203 5 39.8695 21.58 0
204 5 41.1154 23.738 0
205 5 42.3614 0 0
206 5 43.6073 2.158 0
207 5 42.3614 4.316 0
208 5 43.6073 6.474 0
209 5 42.3614 8.632 0
210 5 43.6073 10.79 0
211 5 42.3614 12.948 0
212 5 43.6073 15.106 0
213 5 42.3614 17.264 0
214 5 43.6073 19.422 0
215 5 42.3614 21.58 0
216 5 43.6073 23.738 0
217 5 44.8532 0 0
218 5 46.0991 2.158 0
219 5 44.8532 4.316 0
220 5 46.0991 6.474 0
221 5 44.8532 8.632 0
222 5 46.0991 10.79 0
223 5 44.8532 12.948 0
224 5 46.0991 15.106 0
225 5 44.8532 17.264 0
226 5 46.0991 19.422 0
227 5 44.8532 21.58 0
228 5 46.0991 23.738 0
229 5 47.345 0 0
230 5 48.591 2.158 0
231 5 47.345 4.316 0
232 5 48.591 6.474 0
233 5 47.345 8.632 0
234 5 48.591 10.79 0
235 5 47.345 12.948 0
236 5 48.591 15.106 0
237 5 47.345 17.264 0
238 5 48.591 19.422 0
239 5 47.345 21.58 0
240 5 48.591 23.738 0
241 5 49.8369 0 0
242 5 51.0828 2.158 0
243 5 49.8369 4.316 0
244 5 51.0828 6.474 0
245 5 49.8369 8.632 0
246 5 51.0828 10.79 0
247 5 49.8369 12.948 0
248 5 51.0828 15.106 0
249 5 49.8369 17.264 0
250 5 51.0828 19.422 0
251 5 49.8369 21.58 0
252 5 51.0828 23.738 0
253 5 52.3287 0 0
254 5 53.5746 2.158 0
255 5 52.3287 4.316 0
256 5 53.5746 6.474 0
257 5 52.3287 8.632 0
258 5 53.5746 10.79 0
259 5 52.3287 12.948 0
260 5 53.5746 15.106 0
261 5 52.3287 17.264 0
262 5 53.5746 19.422 0
263 5 52.3287 21.58 0
264 5 53.5746 23.738 0
265 5 54.8206 0 0
266 5 56.0665 2.158 0
267 5 54.8206 4.316 0
268 5 56.0665 6.474 0
269 5 54.8206 8.632 0
270 5 56.0665 10.79 0
271 5 54.8206 12.948 0
272 5 56.0665 15.106 0
273 5 54.8206 17.264 0
274 5 56.0665 19.422 0
275 5 54.8206 21.58 0
276 5 56.0665 23.738 0
277 5 57.3124 0 0
278 5 58.5583 2.158 0
279 5 57.3124 4.316 0
280 5 58.5583 6.474 0
281 5 57.3124 8.632 0
282 5 58.5583 10.79 0
283 5 57.3124 12.948 0
284 5 58.5583 15.106 0
285 5 57.3124 17.264 0
286 5 58.5583 19.422 0
287 5 57.3124 21.58 0
288 5 58.5583 23.738 0
289 5 59.8043 0 0
290 5 61.0502 2.158 0
291 5 59.8043 4.316 0
292 5 61.0502 6.474 0
293 5 59.8043 8.632 0
294 5 61.0502 10.79 0
295 5 59.8043 12.948 0
296 5 61.0502 15.106 0
297 5 59.8043 17.264 0
298 5 61.0502 19.422 0
299 5 59.8043 21.58 0
300 5 61.0502 23.738 0
301 5 62.2961 0 0
302 5 63.542 2.158 0
303 5 62.2961 4.316 0
304 5 63.542 6.474 0
305 5 62.2961 8.632 0
306 5 63.542 10.79 0
307 5 62.2961 12.948 0
308 5 63.542 15.106 0
309 5 62.2961 17.264 0
310 5 63.542 19.422 0
311 5 62.2961 21.58 0
312 5 63.542 23.738 0
313 5 64.7879 0 0
314 5 66.0339 2.158 0
315 5 64.7879 4.316 0
316 5 66.0339 6.474 0
317 5 64.7879 8.632 0
318 5 66.0339 10.79 0
319 5 64.7879 12.948 0
320 5 66.0339 15.106 0
321 5 64.7879 17.264 0
322 5 66.0339 19.422 0
323 5 64.7879 21.58 0
324 5 66.0339 23.738 0
325 5 67.2798 0 0
326 5 68.5257 2.158 0
327 5 67.2798 4.316 0
328 5 68.5257 6.474 0
329 5 67.2798 8.632 0
330 5 68.5257 10.79 0
331 5 67.2798 12.948 0
332 5 68.5257 15.106 0
333 5 67.2798 17.264 0
334 5 68.5257 19.422 0
335 5 67.2798 21.58 0
336 5 68.5257 23.738 0
337 5 69.7716 0 0
338 5 71.0176 2.158 0
339 5 69.7716 4.316 0
340 5 71.0176 6.474 0
341 5 69.7716 8.632 0
342 5 71.0176 10.79 0
343 5 69.7716 12.948 0
344 5 71.0176 15.106 0
345 5 69.7716 17.264 0
346 5 71.0176 19.422 0
347 5 69.7716 21.58 0
348 5 71.0176 23.738 0
349 5 72.2635 0 0
350 5 73.5094 2.158 0
351 5 72.2635 4.316 0
352 5 73.5094 6.474 0
353 5 72.2635 8.632 0
354 5 73.5094 10.79 0
355 5 72.2635 12.948 0
356 5 73.5094 15.106 0
357 5 72.2635 17.264 0
358 5 73.5094 19.422 0
359 5 72.2635 21.58 0
360 5 73.5094 23.738 0
361 5 74.7553 0 0
362 5 76.0012 2.158 0
363 5 74.7553 4.316 0
364 5 76.0012 6.474 0
365 5 74.7553 8.632 0
366 5 76.0012 10.79 0
367 5 74.7553 12.948 0
368 5 76.0012 15.106 0
369 5 74.7553 17.264 0
370 5 76.0012 19.422 0
371 5 74.7553 21.58 0
372 5 76.0012 23.738 0
373 5 77.2472 0 0
374 5 78.4931 2.158 0
375 5 77.2472 4.316 0
376 5 78.4931 6.474 0
377 5 77.2472 8.632 0
378 5 78.4931 10.79 0
379 5 77.2472 12.948 0
380 5 78.4931 15.106 0
381 5 77.2472 17.264 0
382 5 78.4931 19.422 0
383 5 77.2472 21.58 0
384 5 78.4931 23.738 0
385 5 0.83061 1.43867 2.03458
386 5 2.07654 3.59667 2.03458
387 5 0.83061 5.75467 2.03458
388 5 2.07654 7.91267 2.03458
389 5 0.83061 10.0707 2.03458
390 5 2.07654 12.2287 2.03458
391 5 0.83061 14.3867 2.03458
392 5 2.07654 16.5447 2.03458
393 5 0.83061 18.7027 2.03458
394 5 2.07654 20.8607 2.03458
395 5 0.83061 23.0187 2.03458
396 5 2.07654 25.1767 2.03458
397 5 3.32246 1.43867 2.03458
398 5 4.56838 3.59667 2.03458
399 5 3.32246 5.75467 2.03458
400 5 4.56838 7.91267 2.03458
401 5 3.32246 10.0707 2.03458
402 5 4.56838 12.2287 2.03458
403 5 3.32246 14.3867 2.03458
404 5 4.56838 16.5447 2.03458
405 5 3.32246 18.7027 2.03458
406 5 4.56838 20.8607 2.03458
407 5 3.32246 23.0187 2.03458
408 5 4.56838 25.1767 2.03458
409 5 5.8143 1.43867 2.03458
410 5 7.06023 3.59667 2.03458
411 5 5.8143 5.75467 2.03458
412 5 7.06023 7.91267 2.03458
413 5 5.8143 10.0707 2.03458
414 5 7.06023 12.2287 2.03458
415 5 5.8143 14.3867 2.03458
416 5 7.06023 16.5447 2.03458
417 5 5.8143 18.7027 2.03458
418 5 7.06023 20.8607 2.03458
419 5 5.8143 23.0187 2.03458
420 5 7.06023 25.1767 2.03458
421 5 8.30615 1.43867 2.03458
422 5 9.55207 3.59667 2.03458
423 5 8.30615 5.75467 2.03458
424 5 9.55207 7.91267 2.03458
425 5 8.30615 10.0707 2.03458
426 5 9.55207 12.2287 2.03458
427 5 8.30615 14.3867 2.03458
428 5 9.55207 16.5447 2.03458
429 5 8.30615 18.7027 2.03458
430 5 9.55207 20.8607 2.03458
431 5 8.30615 23.0187 2.03458
432 5 9.55207 25.1767 2.03458
433 5 10.798 1.43867 2.03458
434 5 12.0439 3.59667 2.03458
435 5 10.798 5.75467 2.03458
436 5 12.0439 7.91267 2.03458
437 5 10.798 10.0707 2.03458
438 5 12.0439 12.2287 2.03458
439 5 10.798 14.3867 2.03458
440 5 12.0439 16.5447 2.03458
441 5 10.798 18.7027 2.03458
442 5 12.0439 20.8607 2.03458
443 5 10.798 23.0187 2.03458
444 5 12.0439 25.1767 2.03458
445 5 13.2898 1.43867 2.03458
446 5 14.5358 3.59667 2.03458
447 5 13.2898 5.75467 2.03458
448 5 14.5358 7.91267 2.03458
449 5 13.2898 10.0707 2.03458
450 5 14.5358 12.2287 2.03458
451 5 13.2898 14.3867 2.03458
452 5 14.5358 16.5447 2.03458
453 5 13.2898 18.7027 2.03458
454 5 14.5358 20.8607 2.03458
455 5 13.2898 23.0187 2.03458
456 5 14.5358 25.1767 2.03458
457 5 15.7817 1.43867 2.03458
458 5 17.0276 3.59667 2.03458
459 5 15.7817 5.75467 2.03458
460 5 17.0276 7.91267 2.03458
461 5 15.7817 10.0707 2.03458
462 5 17.0276 12.2287 2.03458
463 5 15.7817 14.3867 2.03458
464 5 17.0276 16.5447 2.03458
465 5 15.7817 18.7027 2.03458
466 5 17.0276 20.8607 2.03458
467 5 15.7817 23.0187 2.03458
468 5 17.0276 25.1767 2.03458
469 5 18.2735 1.43867 2.03458
470 5 19.5194 3.59667 2.03458
471 5 18.2735 5.75467 2.03458
472 5 19.5194 7.91267 2.03458
473 5 18.2735 10.0707 2.03458
474 5 19.5194 12.2287 2.03458
475 5 18.2735 14.3867 2.03458
476 5 19.5194 16.5447 2.03458
477 5 18.2735 18.7027 2.03458
478 5 19.5194 20.8607 2.03458
479 5 18.2735 23.0187 2.03458
480 5 19.5194 25.1767 2.03458
481 5 20.7654 1.43867 2.03458
482 5 22.0113 3.59667 2.03458
483 5 20.7654 5.75467 2.03458
484 5 22.0113 7.91267 2.03458
485 5 20.7654 10.0707 2.03458
486 5 22.0113 12.2287 2.03458
487 5 20.7654 14.3867 2.03458
488 5 22.0113 16.5447 2.03458
489 5 20.7654 18.7027 2.03458
490 5 22.0113 20.8607 2.03458
491 5 20.7654 23.0187 2.03458
492 5 22.0113 25.1767 2.03458
493 5 23.2572 1.43867 2.03458
494 5 24.5031 3.59667 2.03458
495 5 23.2572 5.75467 2.03458
496 5 24.5031 7.91267 2.03458
497 5 23.2572 10.0707 2.03458
498 5 24.5031 12.2287 2.03458
499 5 23.2572 14.3867 2.03458
500 5 24.5031 16.5447 2.03458
501 5 23.2572 18.7027 2.03458
502 5 24.5031 20.8607 2.03458
503 5 23.2572 23.0187 2.03458
504 5 24.5031 25.1767 2.03458
505 5 25.7491 1.43867 2.03458
506 5 26.995 3.59667 2.03458
507 5 25.7491 5.75467 2.03458
508 5 26.995 7.91267 2.03458
509 5 25.7491 10.0707 2.03458
510 5 26.995 12.2287 2.03458
511 5 25.7491 14.3867 2.03458
512 5 26.995 16.5447 2.03458
513 5 25.7491 18.7027 2.03458
514 5 26.995 20.8607 2.03458
515 5 25.7491 23.0187 2.03458
516 5 26.995 25.1767 2.03458
517 5 28.2409 1.43867 2.03458
518 5 29.4868 3.59667 2.03458
519 5 28.2409 5.75467 2.03458
520 5 29.4868 7.91267 2.03458
521 5 28.2409 10.0707 2.03458
522 5 29.4868 12.2287 2.03458
523 5 28.2409 14.3867 2.03458
524 5 29.4868 16.5447 2.03458
525 5 28.2409 18.7027 2.03458
526 5 29.4868 20.8607 2.03458
527 5 28.2409 23.0187 2.03458
528 5 29.4868 25.1767 2.03458
529 5 30.7327 1.43867 2.03458
530 5 31.9787 3.59667 2.03458
531 5 30.7327 5.75467 2.03458
532 5 31.9787 7.91267 2.03458
533 5 30.7327 10.0707 2.03458
534 5 31.9787 12.2287 2.03458
535 5 30.7327 14.3867 2.03458
536 5 31.9787 16.5447 2.03458
537 5 30.7327 18.7027 2.03458
538 5 31.9787 20.8607 2.03458
539 5 30.7327 23.0187 2.03458
540 5 31.9787 25.1767 2.03458
541 5 33.2246 1.43867 2.03458
542 5 34.4705 3.59667 2.03458
543 5 33.2246 5.75467 2.03458
544 5 34.4705 7.91267 2.03458
545 5 33.2246 10.0707 2.03458
546 5 34.4705 12.2287 2.03458
547 5 33.2246 14.3867 2.03458
548 5 34.4705 16.5447 2.03458
549 5 33.2246 18.7027 2.03458
550 5 34.4705 20.8607 2.03458
551 5 33.2246 23.0187 2.03458
552 5 34.4705 25.1767 2.03458
553 5 35.7164 1.43867 2.03458
554 5 36.9624 3.59667 2.03458
555 5 35.7164 5.75467 2.03458
556 5 36.9624 7.91267 2.03458
557 5 35.7164 10.0707 2.03458
558 5 36.9624 12.2287 2.03458
559 5 35.7164 14.3867 2.03458
560 5 36.9624 16.5447 2.03458
561 5 35.7164 18.7027 2.03458
562 5 36.9624 20.8607 2.03458
563 5 35.7164 23.0187 2.03458
564 5 36.9624 25.1767 2.03458
565 5 38.2083 1.43867 2.03458
566 5 39.4542 3.59667 2.03458
567 5 38.2083 5.75467 2.03458
568 5 39.4542 7.91267 2.03458
569 5 38.2083 10.0707 2.03458
570 5 39.4542 12.2287 2.03458
571 5 38.2083 14.3867 2.03458
572 5 39.4542 16.5447 2.03458
573 5 38.2083 18.7027 2.03458
574 5 39.4542 20.8607 2.03458
575 5 38.2083 23.0187 2.03458
576 5 39.4542 25.1767 2.03458
577 5 40.7001 1.43867 2.03458
578 5 41.946 3.59667 2.03458
579 5 40.7001 5.75467 2.03458
580 5 41.946 7.91267 2.03458
581 5 40.7001 10.0707 2.03458
582 5 41.946 12.2287 2.03458
583 5 40.7001 14.3867 2.03458
584 5 41.946 16.5447 2.03458
585 5 40.7001 18.7027 2.03458
586 5 41.946 20.8607 2.03458
587 5 40.7001 23.0187 2.03458
588 5 41.946 25.1767 2.03458
589 5 43.192 1.43867 2.03458
590 5 44.4379 3.59667 2.03458
591 5 43.192 5.75467 2.03458
592 5 44.4379 7.91267 2.03458
593 5 43.192 10.0707 2.03458
594 5 44.4379 12.2287 2.03458
595 5 43.192 14.3867 2.03458
596 5 44.4379 16.5447 2.03458
597 5 43.192 18.7027 2.03458
598 5 44.4379 20.8607 2.03458
599 5 43.192 23.0187 2.03458
600 5 44.4379 25.1767 2.03458
601 5 45.6838 1.43867 2.03458
602 5 46.9297 3.59667 2.03458
603 5 45.6838 5.75467 2.03458
604 5 46.9297 7.91267 2.03458
605 5 45.6838 10.0707 2.03458
606 5 46.9297 12.2287 2.03458
607 5 45.6838 14.3867 2.03458
608 5 46.9297 16.5447 2.03458
609 5 45.6838 18.7027 2.03458
610 5 46.9297 20.8607 2.03458
611 5 45.6838 23.0187 2.03458
612 5 46.9297 25.1767 2.03458
613 5 48.1757 1.43867 2.03458
614 5 49.4216 3.59667 2.03458
615 5 48.1757 5.75467 2.03458
616 5 49.4216 7.91267 2.03458
617 5 48.1757 10.0707 2.03458
618 5 49.4216 12.2287 2.03458
619 5 48.1757 14.3867 2.03458
620 5 49.4216 16.5447 2.03458
621 5 48.1757 18.7027 2.03458
622 5 49.4216 20.8607 2.03458
623 5 48.1757 23.0187 2.03458
624 5 49.4216 25.1767 2.03458
625 5 50.6675 1.43867 2.03458
626 5 51.9134 3.59667 2.03458
627 5 50.6675 5.75467 2.03458
628 5 51.9134 7.91267 2.03458
629 5 50.6675 10.0707 2.03458
630 5 51.9134 12.2287 2.03458
631 5 50.6675 14.3867 2.03458
632 5 51.9134 16.5447 2.03458
633 5 50.6675 18.7027 2.03458
634 5 51.9134 20.8607 2.03458
635 5 50.6675 23.0187 2.03458
636 5 51.9134 25.1767 2.03458
637 5 53.1594 1.43867 2.03458
638 5 54.4053 3.59667 2.03458
639 5 53.1594 5.75467 2.03458
640 5 54.4053 7.91267 2.03458
641 5 53.1594 10.0707 2.03458
642 5 54.4053 12.2287 2.03458
643 5 53.1594 14.3867 2.03458
644 5 54.4053 16.5447 2.03458
645 5 53.1594 18.7027 2.03458
646 5 54.4053 20.8607 2.03458
647 5 53.1594 23.0187 2.03458
648 5 54.4053 25.1767 2.03458
649 5 55.6512 1.43867 2.03458
650 5 56.8971 3.59667 2.03458
651 5 55.6512 5.75467 2.03458
652 5 56.8971 7.91267 2.03458
653 5 55.6512 10.0707 2.03458
654 5 56.8971 12.2287 2.03458
655 5 55.6512 14.3867 2.03458
656 5 56.8971 16.5447 2.03458
657 5 55.6512 18.7027 2.03458
658 5 56.8971 20.8607 2.03458
659 5 55.6512 23.0187 2.03458
660 5 56.8971 25.1767 2.03458
661 5 58.143 1.43867 2.03458
662 5 59.389 3.59667 2.03458
663 5 58.143 5.75467 2.03458
664 5 59.389 7.91267 2.03458
665 5 58.143 10.0707 2.03458
666 5 59.389 12.2287 2.03458
667 5 58.143 14.3867 2.03458
668 5 59.389 16.5447 2.03458
669 5 58.143 18.7027 2.03458
670 5 59.389 20.8607 2.03458
671 5 58.143 23.0187 2.03458
672 5 59.389 25.1767 2.03458
673 5 60.6349 1.43867 2.03458
674 5 61.8808 3.59667 2.03458
675 5 60.6349 5.75467 2.03458
676 5 61.8808 7.91267 2.03458
677 5 60.6349 10.0707 2.03458
678 5 61.8808 12.2287 2.03458
679 5 60.6349 14.3867 2.03458
680 5 61.8808 16.5447 2.03458
681 5 60.6349 18.7027 2.03458
682 5 61.8808 20.8607 2.03458
683 5 60.6349 23.0187 2.03458
684 5 61.8808 25.1767 2.03458
685 5 63.1267 1.43867 2.03458
686 5 64.3726 3.59667 2.03458
687 5 63.1267 5.75467 2.03458
688 5 64.3726 7.91267 2.03458
689 5 63.1267 10.0707 2.03458
690 5 64.3726 12.2287 2.03458
691 5 63.1267 14.3867 2.03458
692 5 64.3726 16.5447 2.03458
693 5 63.1267 18.7027 2.03458
694 5 64.3726 20.8607 2.03458
695 5 63.1267 23.0187 2.03458
696 5 64.3726 25.1767 2.03458
697 5 65.6186 1.43867 2.03458
698 5 66.8645 3.59667 2.03458
699 5 65.6186 5.75467 2.03458
700 5 66.8645 7.91267 2.03458
701 5 65.6186 10.0707 2.03458
702 5 66.8645 12.2287 2.03458
703 5 65.6186 14.3867 2.03458
704 5 66.8645 16.5447 2.03458
705 5 65.6186 18.7027 2.03458
706 5 66.8645 20.8607 2.03458
707 5 65.6186 23.0187 2.03458
708 5 66.8645 25.1767 2.03458
709 5 68.1104 1.43867 2.03458
710 5 69.3563 3.59667 2.03458
711 5 68.1104 5.75467 2.03458
712 5 69.3563 7.91267 2.03458
713 5 68.1104 10.0707 2.03458
714 5 69.3563 12.2287 2.03458
715 5 68.1104 14.3867 2.03458
716 5 69.3563 16.5447 2.03458
717 5 68.1104 18.7027 2.03458
718 5 69.3563 20.8607 2.03458
719 5 68.1104 23.0187 2.03458
720 5 69.3563 25.1767 2.03458
721 5 70.6023 1.43867 2.03458
722 5 71.8482 3.59667 2.03458
723 5 70.6023 5.75467 2.03458
724 5 71.8482 7.91267 2.03458
725 5 70.6023 10.0707 2.03458
726 5 71.8482 12.2287 2.03458
727 5 70.6023 14.3867 2.03458
728 5 71.8482 16.5447 2.03458
729 5 70.6023 18.7027 2.03458
730 5 71.8482 20.8607 2.03458
731 5 70.6023 23.0187 2.03458
732 5 71.8482 25.1767 2.03458
733 5 73.0941 1.43867 2.03458
734 5 74.34 3.59667 2.03458
735 5 73.0941 5.75467 2.03458
736 5 74.34 7.91267 2.03458
737 5 73.0941 10.0707 2.03458
738 5 74.34 12.2287 2.03458
739 5 73.0941 14.3867 2.03458
740 5 74.34 16.5447 2.03458
741 5 73.0941 18.7027 2.03458
742 5 74.34 20.8607 2.03458
743 5 73.0941 23.0187 2.03458
744 5 74.34 25.1767 2.03458
745 5 75.5859 1.43867 2.03458
746 5 76.8319 3.59667 2.03458
747 5 75.5859 5.75467 2.03458
748 5 76.8319 7.91267 2.03458
749 5 75.5859 10.0707 2.03458
750 5 76.8319 12.2287 2.03458
751 5 75.5859 14.3867 2.03458
752 5 76.8319 16.5447 2.03458
753 5 75.5859 18.7027 2.03458
754 5 76.8319 20.8607 2.03458
755 5 75.5859 23.0187 2.03458
756 5 76.8319 25.1767 2.03458
757 5 78.0778 1.43867 2.03458
758 5 79.3237 3.59667 2.03458
759 5 78.0778 5.75467 2.03458
760 5 79.3237 7.91267 2.03458
761 5 78.0778 10.0707 2.03458
762 5 79.3237 12.2287 2.03458
763 5 78.0778 14.3867 2.03458
764 5 79.3237 16.5447 2.03458
765 5 78.0778 18.7027 2.03458
766 5 79.3237 20.8607 2.03458
767 5 78.0778 23.0187 2.03458
768 5 79.3237 25.1767 2.03458
769 5 1.66123 2.87733 4.06916
770 5 2.90715 5.03533 4.06916
771 5 1.66123 7.19333 4.06916
772 5 2.90715 9.35134 4.06916
773 5 1.66123 11.5093 4.06916
774 5 2.90715 13.6673 4.06916
775 5 1.66123 15.8253 4.06916
776 5 2.90715 17.9833 4.06916
777 5 1.66123 20.1413 4.06916
778 5 2.90715 22.2993 4.06916
779 5 1.66123 24.4573 4.06916
780 5 2.90715 26.6153 4.06916
781 5 4.15307 2.87733 4.06916
782 5 5.399 5.03533 4.06916
783 5 4.15307 7.19333 4.06916
784 5 5.399 9.35134 4.06916
785 5 4.15307 11.5093 4.06916
786 5 5.399 13.6673 4.06916
787 5 4.15307 15.8253 4.06916
788 5 5.399 17.9833 4.06916
789 5 4.15307 20.1413 4.06916
790 5 5.399 22.2993 4.06916
791 5 4.15307 24.4573 4.06916
792 5 5.399 26.6153 4.06916
793 5 6.64492 2.87733 4.06916
794 5 7.89084 5.03533 4.06916
795 5 6.64492 7.19333 4.06916
796 5 7.89084 9.35134 4.06916
797 5 6.64492 11.5093 4.06916
798 5 7.89084 13.6673 4.06916
799 5 6.64492 15.8253 4.06916
800 5 7.89084 17.9833 4.06916
801 5 6.64492 20.1413 4.06916
802 5 7.89084 22.2993 4.06916
803 5 6.64492 24.4573 4.06916
804 5 7.89084 26.6153 4.06916
805 5 9.13676 2.87733 4.06916
806 5 10.3827 5.03533 4.06916
807 5 9.13676 7.19333 4.06916
808 5 10.3827 9.35134 4.06916
809 5 9.13676 11.5093 4.06916
810 5 10.3827 13.6673 4.06916
811 5 9.13676 15.8253 4.06916
812 5 10.3827 17.9833 4.06916
813 5 9.13676 20.1413 4.06916
814 5 10.3827 22.2993 4.06916
815 5 9.13676 24.4573 4.06916
816 5 10.3827 26.6153 4.06916
817 5 11.6286 2.87733 4.06916
818 5 12.8745 5.03533 4.06916
819 5 11.6286 7.19333 4.06916
820 5 12.8745 9.35134 4.06916
821 5 11.6286 11.5093 4.06916
822 5 12.8745 13.6673 4.06916
823 5 11.6286 15.8253 4.06916
824 5 12.8745 17.9833 4.06916
825 5 11.6286 20.1413 4.06916
826 5 12.8745 22.2993 4.06916
827 5 11.6286 24.4573 4.06916
828 5 12.8745 26.6153 4.06916
829 5 14.1204 2.87733 4.06916
830 5 15.3664 5.03533 4.06916
831 5 14.1204 7.19333 4.06916
832 5 15.3664 9.35134 4.06916
833 5 14.1204 11.5093 4.06916
834 5 15.3664 13.6673 4.06916
835 5 14.1204 15.8253 4.06916
836 5 15.3664 17.9833 4.06916
837 5 14.1204 20.1413 4.06916
838 5 15.3664 22.2993 4.06916
839 5 14.1204 24.4573 4.06916
840 5 15.3664 26.6153 4.06916
841 5 16.6123 2.87733 4.06916
842 5 17.8582 5.03533 4.06916
843 5 16.6123 7.19333 4.06916
844 5 17.8582 9.35134 4.06916
845 5 16.6123 11.5093 4.06916
846 5 17.8582 13.6673 4.06916
847 5 16.6123 15.8253 4.06916
848 5 17.8582 17.9833 4.06916
849 5 16.6123 20.1413 4.06916
850 5 17.8582 22.2993 4.06916
851 5 16.6123 24.4573 4.06916
852 5 17.8582 26.6153 4.06916
853 5 19.1041 2.87733 4.06916
854 5 20.3501 5.03533 4.06916
855 5 19.1041 7.19333 4.06916
856 5 20.3501 9.35134 4.06916
857 5 19.1041 11.5093 4.06916
858 5 20.3501 13.6673 4.06916
859 5 19.1041 15.8253 4.06916
860 5 20.3501 17.9833 4.06916
861 5 19.1041 20.1413 4.06916
862 5 20.3501 22.2993 4.06916
863 5 19.1041 24.4573 4.06916
864 5 20.3501 26.6153 4.06916
865 5 21.596 2.87733 4.06916
866 5 22.8419 5.03533 4.06916
867 5 21.596 7.19333 4.06916
868 5 22.8419 9.35134 4.06916
869 5 21.596 11.5093 4.06916
870 5 22.8419 13.6673 4.06916
871 5 21.596 15.8253 4.06916
872 5 22.8419 17.9833 4.06916
873 5 21.596 20.1413 4.06916
874 5 22.8419 22.2993 4.06916
875 5 21.596 24.4573 4.06916
876 5 22.8419 26.6153 4.06916
877 5 24.0878 2.87733 4.06916
878 5 25.3337 5.03533 4.06916
879 5 24.0878 7.19333 4.06916
880 5 25.3337 9.35134 4.06916
881 5 24.0878 11.5093 4.06916
882 5 25.3337 13.6673 4.06916
883 5 24.0878 15.8253 4.06916
884 5 25.3337 17.9833 4.06916
885 5 24.0878 20.1413 4.06916
886 5 25.3337 22.2993 4.06916
887 5 24.0878 24.4573 4.06916
888 5 25.3337 26.6153 4.06916
889 5 26.5797 2.87733 4.06916
890 5 27.8256 5.03533 4.06916
891 5 26.5797 7.19333 4.06916
892 5 27.8256 9.35134 4.06916
893 5 26.5797 11.5093 4.06916
894 5 27.8256 13.6673 4.06916
895 5 26.5797 15.8253 4.06916
896 5 27.8256 17.9833 4.06916
897 5 26.5797 20.1413 4.06916
898 5 27.8256 22.2993 4.06916
899 5 26.5797 24.4573 4.06916
900 5 27.8256 26.6153 4.06916
901 5 29.0715 2.87733 4.06916
902 5 30.3174 5.03533 4.06916
903 5 29.0715 7.19333 4.06916
904 5 30.3174 9.35134 4.06916
905 5 29.0715 11.5093 4.06916
906 5 30.3174 13.6673 4.06916
907 5 29.0715 15.8253 4.06916
908 5 30.3174 17.9833 4.06916
909 5 29.0715 20.1413 4.06916
910 5 30.3174 22.2993 4.06916
911 5 29.0715 24.4573 4.06916
912 5 30.3174 26.6153 4.06916
913 5 31.5634 2.87733 4.06916
914 5 32.8093 5.03533 4.06916
915 5 31.5634 7.19333 4.06916
916 5 32.8093 9.35134 4.06916
917 5 31.5634 11.5093 4.06916
918 5 32.8093 13.6673 4.06916
919 5 31.5634 15.8253 4.06916
920 5 32.8093 17.9833 4.06916
921 5 31.5634 20.1413 4.06916
922 5 32.8093 22.2993 4.06916
923 5 31.5634 24.4573 4.06916
924 5 32.8093 26.6153 4.06916
925 5 34.0552 2.87733 4.06916
926 5 35.3011 5.03533 4.06916
927 5 34.0552 7.19333 4.06916
928 5 35.3011 9.35134 4.06916
929 5 34.0552 11.5093 4.06916
930 5 35.3011 13.6673 4.06916
931 5 34.0552 15.8253 4.06916
932 5 35.3011 17.9833 4.06916
933 5 34.0552 20.1413 4.06916
934 5 35.3011 22.2993 4.06916
935 5 34.0552 24.4573 4.06916
936 5 35.3011 26.6153 4.06916
937 5 36.547 2.87733 4.06916
938 5 37.793 5.03533 4.06916
939 5 36.547 7.19333 4.06916
940 5 37.793 9.35134 4.06916
941 5 36.547 11.5093 4.06916
942 5 37.793 13.6673 4.06916
943 5 36.547 15.8253 4.06916
944 5 37.793 17.9833 4.06916
945 5 36.547 20.1413 4.06916
946 5 37.793 22.2993 4.06916
947 5 36.547 24.4573 4.06916
948 5 37.793 26.6153 4.06916
949 5 39.0389 2.87733 4.06916
950 5 40.2848 5.03533 4.06916
951 5 39.0389 7.19333 4.06916
952 5 40.2848 9.35134 4.06916
953 5 39.0389 11.5093 4.06916
954 5 40.2848 13.6673 4.06916
955 5 39.0389 15.8253 4.06916
956 5 40.2848 17.9833 4.06916
957 5 39.0389 20.1413 4.06916
958 5 40.2848 22.2993 4.06916
959 5 39.0389 24.4573 4.06916
960 5 40.2848 26.6153 4.06916
961 5 41.5307 2.87733 4.06916
962 5 42.7767 5.03533 4.06916
963 5 41.5307 7.19333 4.06916
964 5 42.7767 9.35134 4.06916
965 5 41.5307 11.5093 4.06916
966 5 42.7767 13.6673 4.06916
967 5 41.5307 15.8253 4.06916
968 5 42.7767 17.9833 4.06916
969 5 41.5307 20.1413 4.06916
970 5 42.7767 22.2993 4.06916
971 5 41.5307 24.4573 4.06916
972 5 42.7767 26.6153 4.06916
973 5 44.0226 2.87733 4.06916
974 5 45.2685 5.03533 4.06916
975 5 44.0226 7.19333 4.06916
976 5 45.2685 9.35134 4.06916
977 5 44.0226 11.5093 4.06916
978 5 45.2685 13.6673 4.06916
979 5 44.0226 15.8253 4.06916
980 5 45.2685 17.9833 4.06916
981 5 44.0226 20.1413 4.06916
982 5 45.2685 22.2993 4.06916
983 5 44.0226 24.4573 4.06916
984 5 45.2685 26.6153 4.06916
985 5 46.5144 2.87733 4.06916
986 5 47.7604 5.03533 4.06916
987 5 46.5144 7.19333 4.06916
988 5 47.7604 9.35134 4.06916
989 5 46.5144 11.5093 4.06916
990 5 47.7604 13.6673 4.06916
991 5 46.5144 15.8253 4.06916
992 5 47.7604 17.9833 4.06916
993 5 46.5144 20.1413 4.06916
994 5 47.7604 22.2993 4.06916
995 5 46.5144 24.4573 4.06916
996 5 47.7604 26.6153 4.06916
997 5 49.0063 2.87733 4.06916
998 5 50.2522 5.03533 4.06916
999 5 49.0063 7.19333 4.06916
1000 5 50.2522 9.35134 4.06916
1001 5 49.0063 11.5093 4.06916
1002 5 50.2522 13.6673 4.06916
1003 5 49.0063 15.8253 4.06916
1004 5 50.2522 17.9833 4.06916
1005 5 49.0063 20.1413 4.06916
1006 5 50.2522 22.2993 4.06916
1007 5 49.0063 24.4573 4.06916
1008 5 50.2522 26.6153 4.06916
1009 5 51.4981 2.87733 4.06916
1010 5 52.744 5.03533 4.06916
1011 5 51.4981 7.19333 4.06916
1012 5 52.744 9.35134 4.06916
1013 5 51.4981 11.5093 4.06916
1014 5 52.744 13.6673 4.06916
1015 5 51.4981 15.8253 4.06916
1016 5 52.744 17.9833 4.06916
1017 5 51.4981 20.1413 4.06916
1018 5 52.744 22.2993 4.06916
1019 5 51.4981 24.4573 4.06916
1020 5 52.744 26.6153 4.06916
1021 5 53.99 2.87733 4.06916
1022 5 55.2359 5.03533 4.06916
1023 5 53.99 7.19333 4.06916
1024 5 55.2359 9.35134 4.06916
1025 5 53.99 11.5093 4.06916
1026 5 55.2359 13.6673 4.06916
1027 5 53.99 15.8253 4.06916
1028 5 55.2359 17.9833 4.06916
1029 5 53.99 20.1413 4.06916
1030 5 55.2359 22.2993 4.06916
1031 5 53.99 24.4573 4.06916
1032 5 55.2359 26.6153 4.06916
1033 5 56.4818 2.87733 4.06916
1034 5 57.7277 5.03533 4.06916
1035 5 56.4818 7.19333 4.06916
1036 5 57.7277 9.35134 4.06916
1037 5 56.4818 11.5093 4.06916
1038 5 57.7277 13.6673 4.06916
1039 5 56.4818 15.8253 4.06916
1040 5 57.7277 17.9833 4.06916
1041 5 56.4818 20.1413 4.06916
1042 5 57.7277 22.2993 4.06916
1043 5 56.4818 24.4573 4.06916
1044 5 57.7277 26.6153 4.06916
1045 5 58.9736 2.87733 4.06916
1046 5 60.2196 5.03533 4.06916
1047 5 58.9736 7.19333 4.06916
1048 5 60.2196 9.35134 4.06916
1049 5 58.9736 11.5093 4.06916
1050 5 60.2196 13.6673 4.06916
1051 5 58.9736 15.8253 4.06916
1052 5 60.2196 17.9833 4.06916
1053 5 58.9736 20.1413 4.06916
1054 5 60.2196 22.2993 4.06916
1055 5 58.9736 24.4573 4.06916
1056 5 60.2196 26.6153 4.06916
1057 5 61.4655 2.87733 4.06916
1058 5 62.7114 5.03533 4.06916
1059 5 61.4655 7.19333 4.06916
1060 5 62.7114 9.35134 4.06916
1061 5 61.4655 11.5093 4.06916
1062 5 62.7114 13.6673 4.06916
1063 5 61.4655 15.8253 4.06916
1064 5 62.7114 17.9833 4.06916
1065 5 61.4655 20.1413 4.06916
1066 5 62.7114 22.2993 4.06916
1067 5 61.4655 24.4573 4.06916
1068 5 62.7114 26.6153 4.06916
1069 5 63.9573 2.87733 4.06916
1070 5 65.2033 5.03533 4.06916
1071 5 63.9573 7.19333 4.06916
1072 5 65.2033 9.35134 4.06916
1073 5 63.9573 11.5093 4.06916
1074 5 65.2033 13.6673 4.06916
1075 5 63.9573 15.8253 4.06916
1076 5 65.2033 17.9833 4.06916
1077 5 63.9573 20.1413 4.06916
1078 5 65.2033 22.2993 4.06916
1079 5 63.9573 24.4573 4.06916
1080 5 65.2033 26.6153 4.06916
1081 5 66.4492 2.87733 4.06916
1082 5 67.6951 5.03533 4.06916
1083 5 66.4492 7.19333 4.06916
1084 5 67.6951 9.35134 4.06916
1085 5 66.4492 11.5093 4.06916
1086 5 67.6951 13.6673 4.06916
1087 5 66.4492 15.8253 4.06916
1088 5 67.6951 17.9833 4.06916
1089 5 66.4492 20.1413 4.06916
1090 5 67.6951 22.2993 4.06916
1091 5 66.4492 24.4573 4.06916
1092 5 67.6951 26.6153 4.06916
1093 5 68.941 2.87733 4.06916
1094 5 70.1869 5.03533 4.06916
1095 5 68.941 7.19333 4.06916
1096 5 70.1869 9.35134 4.06916
1097 5 68.941 11.5093 4.06916
1098 5 70.1869 13.6673 4.06916
1099 5 68.941 15.8253 4.06916
1100 5 70.1869 17.9833 4.06916
1101 5 68.941 20.1413 4.06916
1102 5 70.1869 22.2993 4.06916
1103 5 68.941 24.4573 4.06916
1104 5 70.1869 26.6153 4.06916
1105 5 71.4329 2.87733 4.06916
1106 5 72.6788 5.03533 4.06916
1107 5 71.4329 7.19333 4.06916
1108 5 72.6788 9.35134 4.06916
1109 5 71.4329 11.5093 4.06916
1110 5 72.6788 13.6673 4.06916
1111 5 71.4329 15.8253 4.06916
1112 5 72.6788 17.9833 4.06916
1113 5 71.4329 20.1413 4.06916
1114 5 72.6788 22.2993 4.06916
1115 5 71.4329 24.4573 4.06916
1116 5 72.6788 26.6153 4.06916
1117 5 73.9247 2.87733 4.06916
1118 5 75.1706 5.03533 4.06916
1119 5 73.9247 7.19333 4.06916
1120 5 75.1706 9.35134 4.06916
1121 5 73.9247 11.5093 4.06916
1122 5 75.1706 13.6673 4.06916
1123 5 73.9247 15.8253 4.06916
1124 5 75.1706 17.9833 4.06916
1125 5 73.9247 20.1413 4.06916
1126 5 75.1706 22.2993 4.06916
1127 5 73.9247 24.4573 4.06916
1128 5 75.1706 26.6153 4.06916
1129 5 76.4166 2.87733 4.06916
1130 5 77.6625 5.03533 4.06916
1131 5 76.4166 7.19333 4.06916
1132 5 77.6625 9.35134 4.06916
1133 5 76.4166 11.5093 4.06916
1134 5 77.6625 13.6673 4.06916
1135 5 76.4166 15.8253 4.06916
1136 5 77.6625 17.9833 4.06916
1137 5 76.4166 20.1413 4.06916
1138 5 77.6625 22.2993 4.06916
1139 5 76.4166 24.4573 4.06916
1140 5 77.6625 26.6153 4.06916
1141 5 78.9084 2.87733 4.06916
1142 5 0.15432 5.03533 4.06916
1143 5 78.9084 7.19333 4.06916
1144 5 0.15432 9.35134 4.06916
1145 5 78.9084 11.5093 4.06916
1146 5 0.15432 13.6673 4.06916
1147 5 78.9084 15.8253 4.06916
1148 5 0.15432 17.9833 4.06916
1149 5 78.9084 20.1413 4.06916
1150 5 0.15432 22.2993 4.06916
1151 5 78.9084 24.4573 4.06916
1152 5 0.15432 26.6153 4.06916
1153 5 0 0 6.10375
1154 5 1.24592 2.158 6.10375
1155 5 0 4.316 6.10375
1156 5 1.24592 6.474 6.10375
1157 5 0 8.632 6.10375
1158 5 1.24592 10.79 6.10375
1159 5 0 12.948 6.10375
1160 5 1.24592 15.106 6.10375
1161 5 0 17.264 6.10375
1162 5 1.24592 19.422 6.10375
1163 5 0 21.58 6.10375
1164 5 1.24592 23.738 6.10375
1165 5 2.49184 0 6.10375
1166 5 3.73777 2.158 6.10375
1167 5 2.49184 4.316 6.10375
1168 5 3.73777 6.474 6.10375
1169 5 2.49184 8.632 6.10375
1170 5 3.73777 10.79 6.10375
1171 5 2.49184 12.948 6.10375
1172 5 3.73777 15.106 6.10375
1173 5 2.49184 17.264 6.10375
1174 5 3.73777 19.422 6.10375
1175 5 2.49184 21.58 6.10375
1176 5 3.73777 23.738 6.10375
1177 5 4.98369 0 6.10375
1178 5 6.22961 2.158 6.10375
1179 5 4.98369 4.316 6.10375
1180 5 6.22961 6.474 6.10375
1181 5 4.98369 8.632 6.10375
1182 5 6.22961 10.79 6.10375
1183 5 4.98369 12.948 6.10375
1184 5 6.22961 15.106 6.10375
1185 5 4.98369 17.264 6.10375
1186 5 6.22961 19.422 6.10375
1187 5 4.98369 21.58 6.10375
1188 5 6.22961 23.738 6.10375
1189 5 7.47553 0 6.10375
1190 5 8.72146 2.158 6.10375
1191 5 7.47553 4.316 6.10375
1192 5 8.72146 6.474 6.10375
1193 5 7.47553 8.632 6.10375
1194 5 8.72146 10.79 6.10375
1195 5 7.47553 12.948 6.10375
1196 5 8.72146 15.106 6.10375
1197 5 7.47553 17.264 6.10375
1198 5 8.72146 19.422 6.10375
1199 5 7.47553 21.58 6.10375
1200 5 8.72146 23.738 6.10375
1201 5 9.96738 0 6.10375
1202 5 11.2133 2.158 6.10375
1203 5 9.96738 4.316 6.10375
1204 5 11.2133 6.474 6.10375
1205 5 9.96738 8.632 6.10375
1206 5 11.2133 10.79 6.10375
1207 5 9.96738 12.948 6.10375
1208 5 11.2133 15.106 6.10375
1209 5 9.96738 17.264 6.10375
1210 5 11.2133 19.422 6.10375
1211 5 9.96738 21.58 6.10375
1212 5 11.2133 23.738 6.10375
1213 5 12.4592 0 6.10375
1214 5 13.7051 2.158 6.10375
1215 5 12.4592 4.316 6.10375
1216 5 13.7051 6.474 6.10375
1217 5 12.4592 8.632 6.10375
1218 5 13.7051 10.79 6.10375
1219 5 12.4592 12.948 6.10375
1220 5 13.7051 15.106 6.10375
1221 5 12.4592 17.264 6.10375
1222 5 13.7051 19.422 6.10375
1223 5 12.4592 21.58 6.10375
1224 5 13.7051 23.738 6.10375
1225 5 14.9511 0 6.10375
1226 5 16.197 2.158 6.10375
1227 5 14.9511 4.316 6.10375
1228 5 16.197 6.474 6.10375
1229 5 14.9511 8.632 6.10375
1230 5 16.197 10.79 6.10375
1231 5 14.9511 12.948 6.10375
1232 5 16.197 15.106 6.10375
1233 5 14.9511 17.264 6.10375
1234 5 16.197 19.422 6.10375
1235 5 14.9511 21.58 6.10375
1236 5 16.197 23.738 6.10375
1237 5 17.4429 0 6.10375
1238 5 18.6888 2.158 6.10375
1239 5 17.4429 4.316 6.10375
1240 5 18.6888 6.474 6.10375
1241 5 17.4429 8.632 6.10375
1242 5 18.6888 10.79 6.10375
1243 5 17.4429 12.948 6.10375
1244 5 18.6888 15.106 6.10375
1245 5 17.4429 17.264 6.10375
1246 5 18.6888 19.422 6.10375
1247 5 17.4429 21.58 6.10375
1248 5 18.6888 23.738 6.10375
1249 5 19.9348 0 6.10375
1250 5 21.1807 2.158 6.10375
1251 5 19.9348 4.316 6.10375
1252 5 21.1807 6.474 6.10375
1253 5 19.9348 8.632 6.10375
1254 5 21.1807 10.79 6.10375
1255 5 19.9348 12.948 6.10375
1256 5 21.1807 15.106 6.10375
1257 5 19.9348 17.264 6.10375
1258 5 21.1807 19.422 6.10375
1259 5 19.9348 21.58 6.10375
1260 5 21.1807 23.738 6.10375
1261 5 22.4266 0 6.10375
1262 5 23.6725 2.158 6.10375
1263 5 22.4266 4.316 6.10375
1264 5 23.6725 6.474 6.10375
1265 5 22.4266 8.632 6.10375
1266 5 23.6725 10.79 6.10375
1267 5 22.4266 12.948 6.10375
1268 5 23.6725 15.106 6.10375
1269 5 22.4266 17.264 6.10375
1270 5 23.6725 19.422 6.10375
1271 5 22.4266 21.58 6.10375
1272 5 23.6725 23.738 6.10375
1273 5 24.9184 0 6.10375
1274 5 26.1644 2.158 6.10375
1275 5 24.9184 4.316 6.10375
1276 5 26.1644 6.474 6.10375
1277 5 24.9184 8.632 6.10375
1278 5 26.1644 10.79 6.10375
1279 5 24.9184 12.948 6.10375
1280 5 26.1644 15.106 6.10375
1281 5 24.9184 17.264 6.10375
1282 5 26.1644 19.422 6.10375
1283 5 24.9184 21.58 6.10375
1284 5 26.1644 23.738 6.10375
1285 5 27.4103 0 6.10375
1286 5 28.6562 2.158 6.10375
1287 5 27.4103 4.316 6.10375
1288 5 28.6562 6.474 6.10375
1289 5 27.4103 8.632 6.10375
1290 5 28.6562 10.79 6.10375
1291 5 27.4103 12.948 6.10375
1292 5 28.6562 15.106 6.10375
1293 5 27.4103 17.264 6.10375
1294 5 28.6562 19.422 6.10375
1295 5 27.4103 21.58 6.10375
1296 5 28.6562 23.738 6.10375
1297 5 29.9021 0 6.10375
1298 5 31.1481 2.158 6.10375
1299 5 29.9021 4.316 6.10375
1300 5 31.1481 6.474 6.10375
1301 5 29.9021 8.632 6.10375
1302 5 31.1481 10.79 6.10375
1303 5 29.9021 12.948 6.10375
1304 5 31.1481 15.106 6.10375
1305 5 29.9021 17.264 6.10375
1306 5 31.1481 19.422 6.10375
1307 5 29.9021 21.58 6.10375
1308 5 31.1481 23.738 6.10375
1309 5 32.394 0 6.10375
1310 5 33.6399 2.158 6.10375
1311 5 32.394 4.316 6.10375
1312 5 33.6399 6.474 6.10375
1313 5 32.394 8.632 6.10375
1314 5 33.6399 10.79 6.10375
1315 5 32.394 12.948 6.10375
1316 5 33.6399 15.106 6.10375
1317 5 32.394 17.264 6.10375
1318 5 33.6399 19.422 6.10375
1319 5 32.394 21.58 6.10375
1320 5 33.6399 23.738 6.10375
1321 5 34.8858 0 6.10375
1322 5 36.1317 2.158 6.10375
1323 5 34.8858 4.316 6.10375
1324 5 36.1317 6.474 6.10375
1325 5 34.8858 8.632 6.10375
1326 5 36.1317 10.79 6.10375
1327 5 34.8858 12.948 6.10375
1328 5 36.1317 15.106 6.10375
1329 5 34.8858 17.264 6.10375
1330 5 36.1317 19.422 6.10375
1331 5 34.8858 21.58 6.10375
1332 5 36.1317 23.738 6.10375
1333 5 37.3777 0 6.10375
1334 5 38.6236 2.158 6.10375
1335 5 37.3777 4.316 6.10375
1336 5 38.6236 6.474 6.10375
1337 5 37.3777 8.632 6.10375
1338 5 38.6236 10.79 6.10375
1339 5 37.3777 12.948 6.10375
1340 5 38.6236 15.106 6.10375
1341 5 37.3777 17.264 6.10375
1342 5 38.6236 19.422 6.10375
1343 5 37.3777 21.58 6.10375
1344 5 38.6236 23.738 6.10375
1345 5 39.8695 0 6.10375
1346 5 41.1154 2.158 6.10375
1347 5 39.8695 4.316 6.10375
1348 5 41.1154 6.474 6.10375
1349 5 39.8695 8.632 6.10375
1350 5 41.1154 10.79 6.10375
1351 5 39.8695 12.948 6.10375
1352 5 41.1154 15.106 6.10375
1353 5 39.8695 17.264 6.10375
1354 5 41.1154 19.422 6.10375
1355 5 39.8695 21.58 6.10375
1356 5 41.1154 23.738 6.10375
1357 5 42.3614 0 6.10375
1358 5 43.6073 2.158 6.10375
1359 5 42.3614 4.316 6.10375
1360 5 43.6073 6.474 6.10375
1361 5 42.3614 8.632 6.10375
1362 5 43.6073 10.79 6.10375
1363 5 42.3614 12.948 6.10375
1364 5 43.6073 15.106 6.10375
1365 5 42.3614 17.264 6.10375
1366 5 43.6073 19.422 6.10375
1367 5 42.3614 21.58 6.10375
1368 5 43.6073 23.738 6.10375
1369 5 44.8532 0 6.10375
1370 5 46.0991 2.158 6.10375
1371 5 44.8532 4.316 6.10375
1372 5 46.0991 6.474 6.10375
1373 5 44.8532 8.632 6.10375
1374 5 46.0991 10.79 6.10375
1375 5 44.8532 12.948 6.10375
1376 5 46.0991 15.106 6.10375
1377 5 44.8532 17.264 6.10375
1378 5 46.0991 19.422 6.10375
1379 5 44.8532 21.58 6.10375
1380 5 46.0991 23.738 6.10375
1381 5 47.345 0 6.10375
1382 5 48.591 2.158 6.10375
1383 5 47.345 4.316 6.10375
1384 5 48.591 6.474 6.10375
1385 5 47.345 8.632 6.10375
1386 5 48.591 10.79 6.10375
1387 5 47.345 12.948 6.10375
1388 5 48.591 15.106 6.10375
1389 5 47.345 17.264 6.10375
1390 5 48.591 19.422 6.10375
1391 5 47.345 21.58 6.10375
1392 5 48.591 23.738 6.10375
1393 5 49.8369 0 6.10375
1394 5 51.0828 2.158 6.10375
1395 5 49.8369 4.316 6.10375
1396 5 51.0828 6.474 6.10375
1397 5 49.8369 8.632 6.10375
1398 5 51.0828 10.79 6.10375
1399 5 49.8369 12.948 6.10375
1400 5 51.0828 15.106 6.10375
1401 5 49.8369 17.264 6.10375
1402 5 51.0828 19.422 6.10375
1403 5 49.8369 21.58 6.10375
1404 5 51.0828 23.738 6.10375
1405 5 52.3287 0 6.10375
1406 5 53.5746 2.158 6.10375
1407 5 52.3287 4.316 6.10375
1408 5 53.5746 6.474 6.10375
1409 5 52.3287 8.632 6.10375
1410 5 53.5746 10.79 6.10375
1411 5 52.3287 12.948 6.10375
1412 5 53.5746 15.106 6.10375
1413 5 52.3287 17.264 6.10375
1414 5 53.5746 19.422 6.10375
1415 5 52.3287 21.58 6.10375
1416 5 53.5746 23.738 6.10375
1417 5 54.8206 0 6.10375
1418 5 56.0665 2.158 6.10375
1419 5 54.8206 4.316 6.10375
1420 5 56.0665 6.474 6.10375
1421 5 54.8206 8.632 6.10375
1422 5 56.0665 10.79 6.10375
1423 5 54.8206 12.948 6.10375
1424 5 56.0665 15.106 6.10375
1425 5 54.8206 17.264 6.10375
1426 5 56.0665 19.422 6.10375
1427 5 54.8206 21.58 6.10375
1428 5 56.0665 23.738 6.10375
1429 5 57.3124 0 6.10375
1430 5 58.5583 2.158 6.10375
1431 5 57.3124 4.316 6.10375
1432 5 58.5583 6.474 6.10375
1433 5 57.3124 8.632 6.10375
1434 5 58.5583 10.79 6.10375
1435 5 57.3124 12.948 6.10375
1436 5 58.5583 15.106 6.10375
1437 5 57.3124 17.264 6.10375
1438 5 58.5583 19.422 6.10375
1439 5 57.3124 21.58 6.10375
1440 5 58.5583 23.738 6.10375
1441 5 59.8043 0 6.10375
1442 5 61.0502 2.158 6.10375
1443 5 59.8043 4.316 6.10375
1444 5 61.0502 6.474 6.10375
1445 5 59.8043 8.632 6.10375
1446 5 61.0502 10.79 6.10375
1447 5 59.8043 12.948 6.10375
1448 5 61.0502 15.106 6.10375
1449 5 59.8043 17.264 6.10375
1450 5 61.0502 19.422 6.10375
1451 5 59.8043 21.58 6.10375
1452 5 61.0502 23.738 6.10375
1453 5 62.2961 0 6.10375
1454 5 63.542 2.158 6.10375
1455 5 62.2961 4.316 6.10375
1456 5 63.542 6.474 6.10375
1457 5 62.2961 8.632 6.10375
1458 5 63.542 10.79 6.10375
1459 5 62.2961 12.948 6.10375
1460 5 63.542 15.106 6.10375
1461 5 62.2961 17.264 6.10375
1462 5 63.542 19.422 6.10375
1463 5 62.2961 21.58 6.10375
1464 5 63.542 23.738 6.10375
1465 5 64.7879 0 6.10375
1466 5 66.0339 2.158 6.10375
1467 5 64.7879 4.316 6.10375
1468 5 66.0339 6.474 6.10375
1469 5 64.7879 8.632 6.10375
1470 5 66.0339 10.79 6.10375
1471 5 64.7879 12.948 6.10375
1472 5 66.0339 15.106 6.10375
1473 5 64.7879 17.264 6.10375
1474 5 66.0339 19.422 6.10375
1475 5 64.7879 21.58 6.10375
1476 5 66.0339 23.738 6.10375
1477 5 67.2798 0 6.10375
1478 5 68.5257 2.158 6.10375
1479 5 67.2798 4.316 6.10375
1480 5 68.5257 6.474 6.10375
1481 5 67.2798 8.632 6.10375
1482 5 68.5257 10.79 6.10375
1483 5 67.2798 12.948 6.10375
1484 5 68.5257 15.106 6.10375
1485 5 67.2798 17.264 6.10375
1486 5 68.5257 19.422 6.10375
1487 5 67.2798 21.58 6.10375
1488 5 68.5257 23.738 6.10375
1489 5 69.7716 0 6.10375
1490 5 71.0176 2.158 6.10375
1491 5 69.7716 4.316 6.10375
1492 5 71.0176 6.474 6.10375
1493 5 69.7716 8.632 6.10375
1494 5 71.0176 10.79 6.10375
1495 5 69.7716 12.948 6.10375
1496 5 71.0176 15.106 6.10375
1497 5 69.7716 17.264 6.10375
1498 5 71.0176 19.422 6.10375
1499 5 69.7716 21.58 6.10375
1500 5 71.0176 23.738 6.10375
1501 5 72.2635 0 6.10375
1502 5 73.5094 2.158 6.10375
1503 5 72.2635 4.316 6.10375
1504 5 73.5094 6.474 6.10375
1505 5 72.2635 8.632 6.10375
1506 5 73.5094 10.79 6.10375
1507 5 72.2635 12.948 6.10375
1508 5 73.5094 15.106 6.10375
1509 5 72.2635 17.264 6.10375
1510 5 73.5094 19.422 6.10375
1511 5 72.2635 21.58 6.10375
1512 5 73.5094 23.738 6.10375
1513 5 74.7553 0 6.10375
1514 5 76.0012 2.158 6.10375
1515 5 74.7553 4.316 6.10375
1516 5 76.0012 6.474 6.10375
1517 5 74.7553 8.632 6.10375
1518 5 76.0012 10.79 6.10375
1519 5 74.7553 12.948 6.10375
1520 5 76.0012 15.106 6.10375
1521 5 74.7553 17.264 6.10375
1522 5 76.0012 19.422 6.10375
1523 5 74.7553 21.58 6.10375
1524 5 76.0012 23.738 6.10375
1525 5 77.2472 0 6.10375
1526 5 78.4931 2.158 6.10375
1527 5 77.2472 4.316 6.10375
1528 5 78.4931 6.474 6.10375
1529 5 77.2472 8.632 6.10375
1530 5 78.4931 10.79 6.10375
1531 5 77.2472 12.948 6.10375
1532 5 78.4931 15.106 6.10375
1533 5 77.2472 17.264 6.10375
1534 5 78.4931 19.422 6.10375
1535 5 77.2472 21.58 6.10375
1536 5 78.4931 23.738 6.10375
1537 5 0.83061 1.43867 8.13833
1538 5 2.07654 3.59667 8.13833
1539 5 0.83061 5.75467 8.13833
1540 5 2.07654 7.91267 8.13833
1541 5 0.83061 10.0707 8.13833
1542 5 2.07654 12.2287 8.13833
1543 5 0.83061 14.3867 8.13833
1544 5 2.07654 16.5447 8.13833
1545 5 0.83061 18.7027 8.13833
1546 5 2.07654 20.8607 8.13833
1547 5 0.83061 23.0187 8.13833
1548 5 2.07654 25.1767 8.13833
1549 5 3.32246 1.43867 8.13833
1550 5 4.56838 3.59667 8.13833
1551 5 3.32246 5.75467 8.13833
1552 5 4.56838 7.91267 8.13833
1553 5 3.32246 10.0707 8.13833
1554 5 4.56838 12.2287 8.13833
1555 5 3.32246 14.3867 8.13833
1556 5 4.56838 16.5447 8.13833
1557 5 3.32246 18.7027 8.13833
1558 5 4.56838 20.8607 8.13833
1559 5 3.32246 23.0187 8.13833
1560 5 4.56838 25.1767 8.13833
1561 5 5.8143 1.43867 8.13833
1562 5 7.06023 3.59667 8.13833
1563 5 5.8143 5.75467 8.13833
1564 5 7.06023 7.91267 8.13833
1565 5 5.8143 10.0707 8.13833
1566 5 7.06023 12.2287 8.13833
1567 5 5.8143 14.3867 8.13833
1568 5 7.06023 16.5447 8.13833
1569 5 5.8143 18.7027 8.13833
1570 5 7.06023 20.8607 8.13833
1571 5 5.8143 23.0187 8.13833
1572 5 7.06023 25.1767 8.13833
1573 5 8.30615 1.43867 8.13833
1574 5 9.55207 3.59667 8.13833
1575 5 8.30615 5.75467 8.13833
1576 5 9.55207 7.91267 8.13833
1577 5 8.30615 10.0707 8.13833
1578 5 9.55207 12.2287 8.13833
1579 5 8.30615 14.3867 8.13833
1580 5 9.55207 16.5447 8.13833
1581 5 8.30615 18.7027 8.13833
1582 5 9.55207 20.8607 8.13833
1583 5 8.30615 23.0187 8.13833
1584 5 9.55207 25.1767 8.13833
1585 5 10.798 1.43867 8.13833
1586 5 12.0439 3.59667 8.13833
1587 5 10.798 5.75467 8.13833
1588 5 12.0439 7.91267 8.13833
1589 5 10.798 10.0707 8.13833
1590 5 12.0439 12.2287 8.13833
1591 5 10.798 14.3867 8.13833
1592 5 12.0439 16.5447 8.13833
1593 5 10.798 18.7027 8.13833
1594 5 12.0439 20.8607 8.13833
1595 5 10.798 23.0187 8.13833
1596 5 12.0439 25.1767 8.13833
1597 5 13.2898 1.43867 8.13833
1598 5 14.5358 3.59667 8.13833
1599 5 13.2898 5.75467 8.13833
1600 5 14.5358 7.91267 8.13833
1601 5 13.2898 10.0707 8.13833
1602 5 14.5358 12.2287 8.13833
1603 5 13.2898 14.3867 8.13833
1604 5 14.5358 16.5447 8.13833
1605 5 13.2898 18.7027 8.13833
1606 5 14.5358 20.8607 8.13833
1607 5 13.2898 23.0187 8.13833
1608 5 14.5358 25.1767 8.13833
1609 5 15.7817 1.43867 8.13833
1610 5 17.0276 3.59667 8.13833
1611 5 15.7817 5.75467 8.13833
1612 5 17.0276 7.91267 8.13833
1613 5 15.7817 10.0707 8.13833
1614 5 17.0276 12.2287 8.13833
1615 5 15.7817 14.3867 8.13833
1616 5 17.0276 16.5447 8.13833
1617 5 15.7817 18.7027 8.13833
1618 5 17.0276 20.8607 8.13833
1619 5 15.7817 23.0187 8.13833
1620 5 17.0276 25.1767 8.13833
1621 5 18.2735 1.43867 8.13833
1622 5 19.5194 3.59667 8.13833
1623 5 18.2735 5.75467 8.13833
1624 5 19.5194 7.91267 8.13833
1625 5 18.2735 10.0707 8.13833
1626 5 19.5194 12.2287 8.13833
1627 5 18.2735 14.3867 8.13833
1628 5 19.5194 16.5447 8.13833
1629 5 18.2735 18.7027 8.13833
1630 5 19.5194 20.8607 8.13833
1631 5 18.2735 23.0187 8.13833
1632 5 19.5194 25.1767 8.13833
1633 5 20.7654 1.43867 8.13833
1634 5 22.0113 3.59667 8.13833
1635 5 20.7654 5.75467 8.13833
1636 5 22.0113 7.91267 8.13833
1637 5 20.7654 10.0707 8.13833
1638 5 22.0113 12.2287 8.13833
1639 5 20.7654 14.3867 8.13833
1640 5 22.0113 16.5447 8.13833
1641 5 20.7654 18.7027 8.13833
1642 5 22.0113 20.8607 8.13833
1643 5 20.7654 23.0187 8.13833
1644 5 22.0113 25.1767 8.13833
1645 5 23.2572 1.43867 8.13833
1646 5 24.5031 3.59667 8.13833
1647 5 23.2572 5.75467 8.13833
1648 5 24.5031 7.91267 8.13833
1649 5 23.2572 10.0707 8.13833
1650 5 24.5031 12.2287 8.13833
1651 5 23.2572 14.3867 8.13833
1652 5 24.5031 16.5447 8.13833
1653 5 23.2572 18.7027 8.13833
1654 5 24.5031 20.8607 8.13833
1655 5 23.2572 23.0187 8.13833
1656 5 24.5031 25.1767 8.13833
1657 5 25.7491 1.43867 8.13833
1658 5 26.995 3.59667 8.13833
1659 5 25.7491 5.75467 8.13833
1660 5 26.995 7.91267 8.13833
1661 5 25.7491 10.0707 8.13833
1662 5 26.995 12.2287 8.13833
1663 5 25.7491 14.3867 8.13833
1664 5 26.995 16.5447 8.13833
1665 5 25.7491 18.7027 8.13833
1666 5 26.995 20.8607 8.13833
1667 5 25.7491 23.0187 8.13833
1668 5 26.995 25.1767 8.13833
1669 5 28.2409 1.43867 8.13833
1670 5 29.4868 3.59667 8.13833
1671 5 28.2409 5.75467 8.13833
1672 5 29.4868 7.91267 8.13833
1673 5 28.2409 10.0707 8.13833
1674 5 29.4868 12.2287 8.13833
1675 5 28.2409 14.3867 8.13833
1676 5 29.4868 16.5447 8.13833
1677 5 28.2409 18.7027 8.13833
1678 5 29.4868 20.8607 8.13833
1679 5 28.2409 23.0187 8.13833
1680 5 29.4868 25.1767 8.13833
1681 5 30.7327 1.43867 8.13833
1682 5 31.9787 3.59667 8.13833
1683 5 30.7327 5.75467 8.13833
1684 5 31.9787 7.91267 8.13833
1685 5 30.7327 10.0707 8.13833
1686 5 31.9787 12.2287 8.13833
1687 5 30.7327 14.3867 8.13833
1688 5 31.9787 16.5447 8.13833
1689 5 30.7327 18.7027 8.13833
1690 5 31.9787 20.8607 8.13833
1691 5 30.7327 23.0187 8.13833
1692 5 31.9787 25.1767 8.13833
1693 5 33.2246 1.43867 8.13833
1694 5 34.4705 3.59667 8.13833
1695 5 33.2246 5.75467 8.13833
1696 5 34.4705 7.91267 8.13833
1697 5 33.2246 10.0707 8.13833
1698 5 34.4705 12.2287 8.13833
1699 5 33.2246 14.3867 8.13833
1700 5 34.4705 16.5447 8.13833
1701 5 33.2246 18.7027 8.13833
1702 5 34.4705 20.8607 8.13833
1703 5 33.2246 23.0187 8.13833
1704 5 34.4705 25.1767 8.13833
1705 5 35.7164 1.43867 8.13833
1706 5 36.9624 3.59667 8.13833
1707 5 35.7164 5.75467 8.13833
1708 5 36.9624 7.91267 8.13833
1709 5 35.7164 10.0707 8.13833
1710 5 36.9624 12.2287 8.13833
1711 5 35.7164 14.3867 8.13833
1712 5 36.9624 16.5447 8.13833
1713 5 35.7164 18.7027 8.13833
1714 5 36.9624 20.8607 8.13833
1715 5 35.7164 23.0187 8.13833
1716 5 36.9624 25.1767 8.13833
1717 5 38.2083 1.43867 8.13833
1718 5 39.4542 3.59667 8.13833
1719 5 38.2083 5.75467 8.13833
1720 5 39.4542 7.91267 8.13833
1721 5 38.2083 10.0707 8.13833
1722 5 39.4542 12.2287 8.13833
1723 5 38.2083 14.3867 8.13833
1724 5 39.4542 16.5447 8.13833
1725 5 38.2083 18.7027 8.13833
1726 5 39.4542 20.8607 8.13833
1727 5 38.2083 23.0187 8.13833
1728 5 39.4542 25.1767 8.13833
1729 5 40.7001 1.43867 8.13833
1730 5 41.946 3.59667 8.13833
1731 5 40.7001 5.75467 8.13833
1732 5 41.946 7.91267 8.13833
1733 5 40.7001 10.0707 8.13833
1734 5 41.946 12.2287 8.13833
1735 5 40.7001 14.3867 8.13833
1736 5 41.946 16.5447 8.13833
1737 5 40.7001 18.7027 8.13833
1738 5 41.946 20.8607 8.13833
1739 5 40.7001 23.0187 8.13833
1740 5 41.946 25.1767 8.13833
1741 5 43.192 1.43867 8.13833
1742 5 44.4379 3.59667 8.13833
1743 5 43.192 5.75467 8.13833
1744 5 44.4379 7.91267 8.13833
1745 5 43.192 10.0707 8.13833
1746 5 44.4379 12.2287 8.13833
1747 5 43.192 14.3867 8.13833
1748 5 44.4379 16.5447 8.13833
1749 5 43.192 18.7027 8.13833
1750 5 44.4379 20.8607 8.13833
1751 5 43.192 23.0187 8.13833
1752 5 44.4379 25.1767 8.13833
1753 5 45.6838 1.43867 8.13833
1754 5 46.9297 3.59667 8.13833
1755 5 45.6838 5.75467 8.13833
1756 5 46.9297 7.91267 8.13833
1757 5 45.6838 10.0707 8.13833
1758 5 46.9297 12.2287 8.13833
1759 5 45.6838 14.3867 8.13833
1760 5 46.9297 16.5447 8.13833
1761 5 45.6838 18.7027 8.13833
1762 5 46.9297 20.8607 8.13833
1763 5 45.6838 23.0187 8.13833
1764 5 46.9297 25.1767 8.13833
1765 5 48.1757 1.43867 8.13833
1766 5 49.4216 3.59667 8.13833
1767 5 48.1757 5.75467 8.13833
1768 5 49.4216 7.91267 8.13833
1769 5 48.1757 10.0707 8.13833
1770 5 49.4216 12.2287 8.13833
1771 5 48.1757 14.3867 8.13833
1772 5 49.4216 16.5447 8.13833
1773 5 48.1757 18.7027 8.13833
1774 5 49.4216 20.8607 8.13833
1775 5 48.1757 23.0187 8.13833
1776 5 49.4216 25.1767 8.13833
1777 5 50.6675 1.43867 8.13833
1778 5 51.9134 3.59667 8.13833
1779 5 50.6675 5.75467 8.13833
1780 5 51.9134 7.91267 8.13833
1781 5 50.6675 10.0707 8.13833
1782 5 51.9134 12.2287 8.13833
1783 5 50.6675 14.3867 8.13833
1784 5 51.9134 16.5447 8.13833
1785 5 50.6675 18.7027 8.13833
1786 5 51.9134 20.8607 8.13833
1787 5 50.6675 23.0187 8.13833
1788 5 51.9134 25.1767 8.13833
1789 5 53.1594 1.43867 8.13833
1790 5 54.4053 3.59667 8.13833
1791 5 53.1594 5.75467 8.13833
1792 5 54.4053 7.91267 8.13833
1793 5 53.1594 10.0707 8.13833
1794 5 54.4053 12.2287 8.13833
1795 5 53.1594 14.3867 8.13833
1796 5 54.4053 16.5447 8.13833
1797 5 53.1594 18.7027 8.13833
1798 5 54.4053 20.8607 8.13833
1799 5 53.1594 23.0187 8.13833
1800 5 54.4053 25.1767 8.13833
1801 5 55.6512 1.43867 8.13833
1802 5 56.8971 3.59667 8.13833
1803 5 55.6512 5.75467 8.13833
1804 5 56.8971 7.91267 8.13833
1805 5 55.6512 10.0707 8.13833
1806 5 56.8971 12.2287 8.13833
1807 5 55.6512 14.3867 8.13833
1808 5 56.8971 16.5447 8.13833
1809 5 55.6512 18.7027 8.13833
1810 5 56.8971 20.8607 8.13833
1811 5 55.6512 23.0187 8.13833
1812 5 56.8971 25.1767 8.13833
1813 5 58.143 1.43867 8.13833
1814 5 59.389 3.59667 8.13833
1815 5 58.143 5.75467 8.13833
1816 5 59.389 7.91267 8.13833
1817 5 58.143 10.0707 8.13833
1818 5 59.389 12.2287 8.13833
1819 5 58.143 14.3867 8.13833
1820 5 59.389 16.5447 8.13833
1821 5 58.143 18.7027 8.13833
1822 5 59.389 20.8607 8.13833
1823 5 58.143 23.0187 8.13833
1824 5 59.389 25.1767 8.13833
1825 5 60.6349 1.43867 8.13833
1826 5 61.8808 3.59667 8.13833
1827 5 60.6349 5.75467 8.13833
1828 5 61.8808 7.91267 8.13833
1829 5 60.6349 10.0707 8.13833
1830 5 61.8808 12.2287 8.13833
1831 5 60.6349 14.3867 8.13833
1832 5 61.8808 16.5447 8.13833
1833 5 60.6349 18.7027 8.13833
1834 5 61.8808 20.8607 8.13833
1835 5 60.6349 23.0187 8.13833
1836 5 61.8808 25.1767 8.13833
1837 5 63.1267 1.43867 8.13833
1838 5 64.3726 3.59667 8.13833
1839 5 63.1267 5.75467 8.13833
1840 5 64.3726 7.91267 8.13833
1841 5 63.1267 10.0707 8.13833
1842 5 64.3726 12.2287 8.13833
1843 5 63.1267 14.3867 8.13833
1844 5 64.3726 16.5447 8.13833
1845 5 63.1267 18.7027 8.13833
1846 5 64.3726 20.8607 8.13833
1847 5 63.1267 23.0187 8.13833
1848 5 64.3726 25.1767 8.13833
1849 5 65.6186 1.43867 8.13833
1850 5 66.8645 3.59667 8.13833
1851 5 65.6186 5.75467 8.13833
1852 5 66.8645 7.91267 8.13833
1853 5 65.6186 10.0707 8.13833
1854 5 66.8645 12.2287 8.13833
1855 5 65.6186 14.3867 8.13833
1856 5 66.8645 16.5447 8.13833
1857 5 65.6186 18.7027 8.13833
1858 5 66.8645 20.8607 8.13833
1859 5 65.6186 23.0187 8.13833
1860 5 66.8645 25.1767 8.13833
1861 5 68.1104 1.43867 8.13833
1862 5 69.3563 3.59667 8.13833
1863 5 68.1104 5.75467 8.13833
1864 5 69.3563 7.91267 8.13833
1865 5 68.1104 10.0707 8.13833
1866 5 69.3563 12.2287 8.13833
1867 5 68.1104 14.3867 8.13833
1868 5 69.3563 16.5447 8.13833
1869 5 68.1104 18.7027 8.13833
1870 5 69.3563 20.8607 8.13833
1871 5 68.1104 23.0187 8.13833
1872 5 69.3563 25.1767 8.13833
1873 5 70.6023 1.43867 8.13833
1874 5 71.8482 3.59667 8.13833
1875 5 70.6023 5.75467 8.13833
1876 5 71.8482 7.91267 8.13833
1877 5 70.6023 10.0707 8.13833
1878 5 71.8482 12.2287 8.13833
1879 5 70.6023 14.3867 8.13833
1880 5 71.8482 16.5447 8.13833
1881 5 70.6023 18.7027 8.13833
1882 5 71.8482 20.8607 8.13833
1883 5 70.6023 23.0187 8.13833
1884 5 71.8482 25.1767 8.13833
1885 5 73.0941 1.43867 8.13833
1886 5 74.34 3.59667 8.13833
1887 5 73.0941 5.75467 8.13833
1888 5 74.34 7.91267 8.13833
1889 5 73.0941 10.0707 8.13833
1890 5 74.34 12.2287 8.13833
1891 5 73.0941 14.3867 8.13833
1892 5 74.34 16.5447 8.13833
1893 5 73.0941 18.7027 8.13833
1894 5 74.34 20.8607 8.13833
1895 5 73.0941 23.0187 8.13833
1896 5 74.34 25.1767 8.13833
1897 5 75.5859 1.43867 8.13833
1898 5 76.8319 3.59667 8.13833
1899 5 75.5859 5.75467 8.13833
1900 5 76.8319 7.91267 8.13833
1901 5 75.5859 10.0707 8.13833
1902 5 76.8319 12.2287 8.13833
1903 5 75.5859 14.3867 8.13833
1904 5 76.8319 16.5447 8.13833
1905 5 75.5859 18.7027 8.13833
1906 5 76.8319 20.8607 8.13833
1907 5 75.5859 23.0187 8.13833
1908 5 76.8319 25.1767 8.13833
1909 5 78.0778 1.43867 8.13833
1910 5 79.3237 3.59667 8.13833
1911 5 78.0778 5.75467 8.13833
1912 5 79.3237 7.91267 8.13833
1913 5 78.0778 10.0707 8.13833
1914 5 79.3237 12.2287 8.13833
1915 5 78.0778 14.3867 8.13833
1916 5 79.3237 16.5447 8.13833
1917 5 78.0778 18.7027 8.13833
1918 5 79.3237 20.8607 8.13833
1919 5 78.0778 23.0187 8.13833
1920 5 79.3237 25.1767 8.13833
1921 6 0 0 93.3383
1922 6 1.24592 2.158 93.3383
1923 6 0 4.316 93.3383
1924 6 1.24592 6.474 93.3383
1925 6 0 8.632 93.3383
1926 6 1.24592 10.79 93.3383
1927 6 0 12.948 93.3383
1928 6 1.24592 15.106 93.3383
1929 6 0 17.264 93.3383
1930 6 1.24592 19.422 93.3383
1931 6 0 21.58 93.3383
1932 6 1.24592 23.738 93.3383
1933 6 2.49184 0 93.3383
1934 6 3.73777 2.158 93.3383
1935 6 2.49184 4.316 93.3383
1936 6 3.73777 6.474 93.3383
1937 6 2.49184 8.632 93.3383
1938 6 3.73777 10.79 93.3383
1939 6 2.49184 12.948 93.3383
1940 6 3.73777 15.106 93.3383
1941 6 2.49184 17.264 93.3383
1942 6 3.73777 19.422 93.3383
1943 6 2.49184 21.58 93.3383
1944 6 3.73777 23.738 93.3383
1945 6 4.98369 0 93.3383
1946 6 6.22961 2.158 93.3383
1947 6 4.98369 4.316 93.3383
1948 6 6.22961 6.474 93.3383
1949 6 4.98369 8.632 93.3383
1950 6 6.22961 10.79 93.3383
1951 6 4.98369 12.948 93.3383
1952 6 6.22961 15.106 93.3383
1953 6 4.98369 17.264 93.3383
1954 6 6.22961 19.422 93.3383
1955 6 4.98369 21.58 93.3383
1956 6 6.22961 23.738 93.3383
1957 6 7.47553 0 93.3383
1958 6 8.72146 2.158 93.3383
1959 6 7.47553 4.316 93.3383
1960 6 8.72146 6.474 93.3383
1961 6 7.47553 8.632 93.3383
1962 6 8.72146 10.79 93.3383
1963 6 7.47553 12.948 93.3383
1964 6 8.72146 15.106 93.3383
1965 6 7.47553 17.264 93.3383
1966 6 8.72146 19.422 93.3383
1967 6 7.47553 21.58 93.3383
1968 6 8.72146 23.738 93.3383
1969 6 9.96738 0 93.3383
1970 6 11.2133 2.158 93.3383
1971 6 9.96738 4.316 93.3383
1972 6 11.2133 6.474 93.3383
1973 6 9.96738 8.632 93.3383
1974 6 11.2133 10.79 93.3383
1975 6 9.96738 12.948 93.3383
1976 6 11.2133 15.106 93.3383
1977 6 9.96738 17.264 93.3383
1978 6 11.2133 19.422 93.3383
1979 6 9.96738 21.58 93.3383
1980 6 11.2133 23.738 93.3383
1981 6 12.4592 0 93.3383
1982 6 13.7051 2.158 93.3383
1983 6 12.4592 4.316 93.3383
1984 6 13.7051 6.474 93.3383
1985 6 12.4592 8.632 93.3383
1986 6 13.7051 10.79 93.3383
1987 6 12.4592 12.948 93.3383
1988 6 13.7051 15.106 93.3383
1989 6 12.4592 17.264 93.3383
1990 6 13.7051 19.422 93.3383
1991 6 12.4592 21.58 93.3383
1992 6 13.7051 23.738 93.3383
1993 6 14.9511 0 93.3383
1994 6 16.197 2.158 93.3383
1995 6 14.9511 4.316 93.3383
1996 6 16.197 6.474 93.3383
1997 6 14.9511 8.632 93.3383
1998 6 16.197 10.79 93.3383
1999 6 14.9511 12.948 93.3383
2000 6 16.197 15.106 93.3383
2001 6 14.9511 17.264 93.3383
2002 6 16.197 19.422 93.3383
2003 6 14.9511 21.58 93.3383
2004 6 16.197 23.738 93.3383
2005 6 17.4429 0 93.3383
2006 6 18.6888 2.158 93.3383
2007 6 17.4429 4.316 93.3383
2008 6 18.6888 6.474 93.3383
2009 6 17.4429 8.632 93.3383
2010 6 18.6888 10.79 93.3383
2011 6 17.4429 12.948 93.3383
2012 6 18.6888 15.106 93.3383
2013 6 17.4429 17.264 93.3383
2014 6 18.6888 19.422 93.3383
2015 6 17.4429 21.58 93.3383
2016 6 18.6888 23.738 93.3383
2017 6 19.9348 0 93.3383
2018 6 21.1807 2.158 93.3383
2019 6 19.9348 4.316 93.3383
2020 6 21.1807 6.474 93.3383
2021 6 19.9348 8.632 93.3383
2022 6 21.1807 10.79 93.3383
2023 6 19.9348 12.948 93.3383
2024 6 21.1807 15.106 93.3383
2025 6 19.9348 17.264 93.3383
2026 6 21.1807 19.422 93.3383
2027 6 19.9348 21.58 93.3383
2028 6 21.1807 23.738 93.3383
2029 6 22.4266 0 93.3383
2030 6 23.6725 2.158 93.3383
2031 6 22.4266 4.316 93.3383
2032 6 23.6725 6.474 93.3383
2033 6 22.4266 8.632 93.3383
2034 6 23.6725 10.79 93.3383
2035 6 22.4266 12.948 93.3383
2036 6 23.6725 15.106 93.3383
2037 6 22.4266 17.264 93.3383
2038 6 23.6725 19.422 93.3383
2039 6 22.4266 21.58 93.3383
2040 6 23.6725 23.738 93.3383
2041 6 24.9184 0 93.3383
2042 6 26.1644 2.158 93.3383
2043 6 24.9184 4.316 93.3383
2044 6 26.1644 6.474 93.3383
2045 6 24.9184 8.632 93.3383
2046 6 26.1644 10.79 93.3383
2047 6 24.9184 12.948 93.3383
2048 6 26.1644 15.106 93.3383
2049 6 24.9184 17.264 93.3383
2050 6 26.1644 19.422 93.3383
2051 6 24.9184 21.58 93.3383
2052 6 26.1644 23.738 93.3383
2053 6 27.4103 0 93.3383
2054 6 28.6562 2.158 93.3383
2055 6 27.4103 4.316 93.3383
2056 6 28.6562 6.474 93.3383
2057 6 27.4103 8.632 93.3383
2058 6 28.6562 10.79 93.3383
2059 6 27.4103 12.948 93.3383
2060 6 28.6562 15.106 93.3383
2061 6 27.4103 17.264 93.3383
2062 6 28.6562 19.422 93.3383
2063 6 27.4103 21.58 93.3383
2064 6 28.6562 23.738 93.3383
2065 6 29.9021 0 93.3383
2066 6 31.1481 2.158 93.3383
2067 6 29.9021 4.316 93.3383
2068 6 31.1481 6.474 93.3383
2069 6 29.9021 8.632 93.3383
2070 6 31.1481 10.79 93.3383
2071 6 29.9021 12.948 93.3383
2072 6 31.1481 15.106 93.3383
2073 6 29.9021 17.264 93.3383
2074 6 31.1481 19.422 93.3383
2075 6 29.9021 21.58 93.3383
2076 6 31.1481 23.738 93.3383
2077 6 32.394 0 93.3383
2078 6 33.6399 2.158 93.3383
2079 6 32.394 4.316 93.3383
2080 6 33.6399 6.474 93.3383
2081 6 32.394 8.632 93.3383
2082 6 33.6399 10.79 93.3383
2083 6 32.394 12.948 93.3383
2084 6 33.6399 15.106 93.3383
2085 6 32.394 17.264 93.3383
2086 6 33.6399 19.422 93.3383
2087 6 32.394 21.58 93.3383
2088 6 33.6399 23.738 93.3383
2089 6 34.8858 0 93.3383
2090 6 36.1317 2.158 93.3383
2091 6 34.8858 4.316 93.3383
2092 6 36.1317 6.474 93.3383
2093 6 34.8858 8.632 93.3383
2094 6 36.1317 10.79 93.3383
2095 6 34.8858 12.948 93.3383
2096 6 36.1317 15.106 93.3383
2097 6 34.8858 17.264 93.3383
2098 6 36.1317 19.422 93.3383
2099 6 34.8858 21.58 93.3383
2100 6 36.1317 23.738 93.3383
2101 6 37.3777 0 93.3383
2102 6 38.6236 2.158 93.3383
2103 6 37.3777 4.316 93.3383
2104 6 38.6236 6.474 93.3383
2105 6 37.3777 8.632 93.3383
2106 6 38.6236 10.79 93.3383
2107 6 37.3777 12.948 93.3383
2108 6 38.6236 15.106 93.3383
2109 6 37.3777 17.264 93.3383
2110 6 38.6236 19.422 93.3383
2111 6 37.3777 21.58 93.3383
2112 6 38.6236 23.738 93.3383
2113 6 39.8695 0 93.3383
2114 6 41.1154 2.158 93.3383
2115 6 39.8695 4.316 93.3383
2116 6 41.1154 6.474 93.3383
2117 6 39.8695 8.632 93.3383
2118 6 41.1154 10.79 93.3383
2119 6 39.8695 12.948 93.3383
2120 6 41.1154 15.106 93.3383
2121 6 39.8695 17.264 93.3383
2122 6 41.1154 19.422 93.3383
2123 6 39.8695 21.58 93.3383
2124 6 41.1154 23.738 93.3383
2125 6 42.3614 0 93.3383
2126 6 43.6073 2.158 93.3383
2127 6 42.3614 4.316 93.3383
2128 6 43.6073 6.474 93.3383
2129 6 42.3614 8.632 93.3383
2130 6 43.6073 10.79 93.3383
2131 6 42.3614 12.948 93.3383
2132 6 43.6073 15.106 93.3383
2133 6 42.3614 17.264 93.3383
2134 6 43.6073 19.422 93.3383
2135 6 42.3614 21.58 93.3383
2136 6 43.6073 23.738 93.3383
2137 6 44.8532 0 93.3383
2138 6 46.0991 2.158 93.3383
2139 6 44.8532 4.316 93.3383
2140 6 46.0991 6.474 93.3383
2141 6 44.8532 8.632 93.3383
2142 6 46.0991 10.79 93.3383
2143 6 44.8532 12.948 93.3383
2144 6 46.0991 15.106 93.3383
2145 6 44.8532 17.264 93.3383
2146 6 46.0991 19.422 93.3383
2147 6 44.8532 21.58 93.3383
2148 6 46.0991 23.738 93.3383
2149 6 47.345 0 93.3383
2150 6 48.591 2.158 93.3383
2151 6 47.345 4.316 93.3383
2152 6 48.591 6.474 93.3383
2153 6 47.345 8.632 93.3383
2154 6 48.591 10.79 93.3383
2155 6 47.345 12.948 93.3383
2156 6 48.591 15.106 93.3383
2157 6 47.345 17.264 93.3383
2158 6 48.591 19.422 93.3383
2159 6 47.345 21.58 93.3383
2160 6 48.591 23.738 93.3383
2161 6 49.8369 0 93.3383
2162 6 51.0828 2.158 93.3383
2163 6 49.8369 4.316 93.3383
2164 6 51.0828 6.474 93.3383
2165 6 49.8369 8.632 93.3383
2166 6 51.0828 10.79 93.3383
2167 6 49.8369 12.948 93.3383
2168 6 51.0828 15.106 93.3383
2169 6 49.8369 17.264 93.3383
2170 6 51.0828 19.422 93.3383
2171 6 49.8369 21.58 93.3383
2172 6 51.0828 23.738 93.3383
2173 6 52.3287 0 93.3383
2174 6 53.5746 2.158 93.3383
2175 6 52.3287 4.316 93.3383
2176 6 53.5746 6.474 93.3383
2177 6 52.3287 8.632 93.3383
2178 6 53.5746 10.79 93.3383
2179 6 52.3287 12.948 93.3383
2180 6 53.5746 15.106 93.3383
2181 6 52.3287 17.264 93.3383
2182 6 53.5746 19.422 93.3383
2183 6 52.3287 21.58 93.3383
2184 6 53.5746 23.738 93.3383
2185 6 54.8206 0 93.3383
2186 6 56.0665 2.158 93.3383
2187 6 54.8206 4.316 93.3383
2188 6 56.0665 6.474 93.3383
2189 6 54.8206 8.632 93.3383
2190 6 56.0665 10.79 93.3383
2191 6 54.8206 12.948 93.3383
2192 6 56.0665 15.106 93.3383
2193 6 54.8206 17.264 93.3383
2194 6 56.0665 19.422 93.3383
2195 6 54.8206 21.58 93.3383
2196 6 56.0665 23.738 93.3383
2197 6 57.3124 0 93.3383
2198 6 58.5583 2.158 93.3383
2199 6 57.3124 4.316 93.3383
2200 6 58.5583 6.474 93.3383
2201 6 57.3124 8.632 93.3383
2202 6 58.5583 10.79 93.3383
2203 6 57.3124 12.948 93.3383
2204 6 58.5583 15.106 93.3383
2205 6 57.3124 17.264 93.3383
2206 6 58.5583 19.422 93.3383
2207 6 57.3124 21.58 93.3383
2208 6 58.5583 23.738 93.3383
2209 6 59.8043 0 93.3383
2210 6 61.0502 2.158 93.3383
2211 6 59.8043 4.316 93.3383
2212 6 61.0502 6.474 93.3383
2213 6 59.8043 8.632 93.3383
2214 6 61.0502 10.79 93.3383
2215 6 59.8043 12.948 93.3383
2216 6 61.0502 15.106 93.3383
2217 6 59.8043 17.264 93.3383
2218 6 61.0502 19.422 93.3383
2219 6 59.8043 21.58 93.3383
2220 6 61.0502 23.738 93.3383
2221 6 62.2961 0 93.3383
2222 6 63.542 2.158 93.3383
2223 6 62.2961 4.316 93.3383
2224 6 63.542 6.474 93.3383
2225 6 62.2961 8.632 93.3383
2226 6 63.542 10.79 93.3383
2227 6 62.2961 12.948 93.3383
2228 6 63.542 15.106 93.3383
2229 6 62.2961 17.264 93.3383
2230 6 63.542 19.422 93.3383
2231 6 62.2961 21.58 93.3383
2232 6 63.542 23.738 93.3383
2233 6 64.7879 0 93.3383
2234 6 66.0339 2.158 93.3383
2235 6 64.7879 4.316 93.3383
2236 6 66.0339 6.474 93.3383
2237 6 64.7879 8.632 93.3383
2238 6 66.0339 10.79 93.3383
2239 6 64.7879 12.948 93.3383
2240 6 66.0339 15.106 93.3383
2241 6 64.7879 17.264 93.3383
2242 6 66.0339 19.422 93.3383
2243 6 64.7879 21.58 93.3383
2244 6 66.0339 23.738 93.3383
2245 6 67.2798 0 93.3383
2246 6 68.5257 2.158 93.3383
2247 6 67.2798 4.316 93.3383
2248 6 68.5257 6.474 93.3383
2249 6 67.2798 8.632 93.3383
2250 6 68.5257 10.79 93.3383
2251 6 67.2798 12.948 93.3383
2252 6 68.5257 15.106 93.3383
2253 6 67.2798 17.264 93.3383
2254 6 68.5257 19.422 93.3383
2255 6 67.2798 21.58 93.3383
2256 6 68.5257 23.738 93.3383
2257 6 69.7716 0 93.3383
2258 6 71.0176 2.158 93.3383
2259 6 69.7716 4.316 93.3383
2260 6 71.0176 6.474 93.3383
2261 6 69.7716 8.632 93.3383
2262 6 71.0176 10.79 93.3383
2263 6 69.7716 12.948 93.3383
2264 6 71.0176 15.106 93.3383
2265 6 69.7716 17.264 93.3383
2266 6 71.0176 19.422 93.3383
2267 6 69.7716 21.58 93.3383
2268 6 71.0176 23.738 93.3383
2269 6 72.2635 0 93.3383
2270 6 73.5094 2.158 93.3383
2271 6 72.2635 4.316 93.3383
2272 6 73.5094 6.474 93.3383
2273 6 72.2635 8.632 93.3383
2274 6 73.5094 10.79 93.3383
2275 6 72.2635 12.948 93.3383
2276 6 73.5094 15.106 93.3383
2277 6 72.2635 17.264 93.3383
2278 6 73.5094 19.422 93.3383
2279 6 72.2635 21.58 93.3383
2280 6 73.5094 23.738 93.3383
2281 6 74.7553 0 93.3383
2282 6 76.0012 2.158 93.3383
2283 6 74.7553 4.316 93.3383
2284 6 76.0012 6.474 93.3383
2285 6 74.7553 8.632 93.3383
2286 6 76.0012 10.79 93.3383
2287 6 74.7553 12.948 93.3383
2288 6 76.0012 15.106 93.3383
2289 6 74.7553 17.264 93.3383
2290 6 76.0012 19.422 93.3383
2291 6 74.7553 21.58 93.3383
2292 6 76.0012 23.738 93.3383
2293 6 77.2472 0 93.3383
2294 6 78.4931 2.158 93.3383
2295 6 77.2472 4.316 93.3383
2296 6 78.4931 6.474 93.3383
2297 6 77.2472 8.632 93.3383
2298 6 78.4931 10.79 93.3383
2299 6 77.2472 12.948 93.3383
2300 6 78.4931 15.106 93.3383
2301 6 77.2472 17.264 93.3383
2302 6 78.4931 19.422 93.3383
2303 6 77.2472 21.58 93.3383
2304 6 78.4931 23.738 93.3383
2305 6 0.83061 1.43867 95.3729
2306 6 2.07654 3.59667 95.3729
2307 6 0.83061 5.75467 95.3729
2308 6 2.07654 7.91267 95.3729
2309 6 0.83061 10.0707 95.3729
2310 6 2.07654 12.2287 95.3729
2311 6 0.83061 14.3867 95.3729
2312 6 2.07654 16.5447 95.3729
2313 6 0.83061 18.7027 95.3729
2314 6 2.07654 20.8607 95.3729
2315 6 0.83061 23.0187 95.3729
2316 6 2.07654 25.1767 95.3729
2317 6 3.32246 1.43867 95.3729
2318 6 4.56838 3.59667 95.3729
2319 6 3.32246 5.75467 95.3729
2320 6 4.56838 7.91267 95.3729
2321 6 3.32246 10.0707 95.3729
2322 6 4.56838 12.2287 95.3729
2323 6 3.32246 14.3867 95.3729
2324 6 4.56838 16.5447 95.3729
2325 6 3.32246 18.7027 95.3729
2326 6 4.56838 20.8607 95.3729
2327 6 3.32246 23.0187 95.3729
2328 6 4.56838 25.1767 95.3729
2329 6 5.8143 1.43867 95.3729
2330 6 7.06023 3.59667 95.3729
2331 6 5.8143 5.75467 95.3729
2332 6 7.06023 7.91267 95.3729
2333 6 5.8143 10.0707 95.3729
2334 6 7.06023 12.2287 95.3729
2335 6 5.8143 14.3867 95.3729
2336 6 7.06023 16.5447 95.3729
2337 6 5.8143 18.7027 95.3729
2338 6 7.06023 20.8607 95.3729
2339 6 5.8143 23.0187 95.3729
2340 6 7.06023 25.1767 95.3729
2341 6 8.30615 1.43867 95.3729
2342 6 9.55207 3.59667 95.3729
2343 6 8.30615 5.75467 95.3729
2344 6 9.55207 7.91267 95.3729
2345 6 8.30615 10.0707 95.3729
2346 6 9.55207 12.2287 95.3729
2347 6 8.30615 14.3867 95.3729
2348 6 9.55207 16.5447 95.3729
2349 6 8.30615 18.7027 95.3729
2350 6 9.55207 20.8607 95.3729
2351 6 8.30615 23.0187 95.3729
2352 6 9.55207 25.1767 95.3729
2353 6 10.798 1.43867 95.3729
2354 6 12.0439 3.59667 95.3729
2355 6 10.798 5.75467 95.3729
2356 6 12.0439 7.91267 95.3729
2357 6 10.798 10.0707 95.3729
2358 6 12.0439 12.2287 95.3729
2359 6 10.798 14.3867 95.3729
2360 6 12.0439 16.5447 95.3729
2361 6 10.798 18.7027 95.3729
2362 6 12.0439 20.8607 95.3729
2363 6 10.798 23.0187 95.3729
2364 6 12.0439 25.1767 95.3729
2365 6 13.2898 1.43867 95.3729
2366 6 14.5358 3.59667 95.3729
2367 6 13.2898 5.75467 95.3729
2368 6 14.5358 7.91267 95.3729
2369 6 13.2898 10.0707 95.3729
2370 6 14.5358 12.2287 95.3729
2371 6 13.2898 14.3867 95.3729
2372 6 14.5358 16.5447 95.3729
2373 6 13.2898 18.7027 95.3729
2374 6 14.5358 20.8607 95.3729
2375 6 13.2898 23.0187 95.3729
2376 6 14.5358 25.1767 95.3729
2377 6 15.7817 1.43867 95.3729
2378 6 17.0276 3.59667 95.3729
2379 6 15.7817 5.75467 95.3729
2380 6 17.0276 7.91267 95.3729
2381 6 15.7817 10.0707 95.3729
2382 6 17.0276 12.2287 95.3729
2383 6 15.7817 14.3867 95.3729
2384 6 17.0276 16.5447 95.3729
2385 6 15.7817 18.7027 95.3729
2386 6 17.0276 20.8607 95.3729
2387 6 15.7817 23.0187 95.3729
2388 6 17.0276 25.1767 95.3729
2389 6 18.2735 1.43867 95.3729
2390 6 19.5194 3.59667 95.3729
2391 6 18.2735 5.75467 95.3729
2392 6 19.5194 7.91267 95.3729
2393 6 18.2735 10.0707 95.3729
2394 6 19.5194 12.2287 95.3729
2395 6 18.2735 14.3867 95.3729
2396 6 19.5194 16.5447 95.3729
2397 6 18.2735 18.7027 95.3729
2398 6 19.5194 20.8607 95.3729
2399 6 18.2735 23.0187 95.3729
2400 6 19.5194 25.1767 95.3729
2401 6 20.7654 1.43867 95.3729
2402 6 22.0113 3.59667 95.3729
2403 6 20.7654 5.75467 95.3729
2404 6 22.0113 7.91267 95.3729
2405 6 20.7654 10.0707 95.3729
2406 6 22.0113 12.2287 95.3729
2407 6 20.7654 14.3867 95.3729
2408 6 22.0113 16.5447 95.3729
2409 6 20.7654 18.7027 95.3729
2410 6 22.0113 20.8607 95.3729
2411 6 20.7654 23.0187 95.3729
2412 6 22.0113 25.1767 95.3729
2413 6 23.2572 1.43867 95.3729
2414 6 24.5031 3.59667 95.3729
2415 6 23.2572 5.75467 95.3729
2416 6 24.5031 7.91267 95.3729
2417 6 23.2572 10.0707 95.3729
2418 6 24.5031 12.2287 95.3729
2419 6 23.2572 14.3867 95.3729
2420 6 24.5031 16.5447 95.3729
2421 6 23.2572 18.7027 95.3729
2422 6 24.5031 20.8607 95.3729
2423 6 23.2572 23.0187 95.3729
2424 6 24.5031 25.1767 95.3729
2425 6 25.7491 1.43867 95.3729
2426 6 26.995 3.59667 95.3729
2427 6 25.7491 5.75467 95.3729
2428 6 26.995 7.91267 95.3729
2429 6 25.7491 10.0707 95.3729
2430 6 26.995 12.2287 95.3729
2431 6 25.7491 14.3867 95.3729
2432 6 26.995 16.5447 95.3729
2433 6 25.7491 18.7027 95.3729
2434 6 26.995 20.8607 95.3729
2435 6 25.7491 23.0187 95.3729
2436 6 26.995 25.1767 95.3729
2437 6 28.2409 1.43867 95.3729
2438 6 29.4868 3.59667 95.3729
2439 6 28.2409 5.75467 95.3729
2440 6 29.4868 7.91267 95.3729
2441 6 28.2409 10.0707 95.3729
2442 6 29.4868 12.2287 95.3729
2443 6 28.2409 14.3867 95.3729
2444 6 29.4868 16.5447 95.3729
2445 6 28.2409 18.7027 95.3729
2446 6 29.4868 20.8607 95.3729
2447 6 28.2409 23.0187 95.3729
2448 6 29.4868 25.1767 95.3729
2449 6 30.7327 1.43867 95.3729
2450 6 31.9787 3.59667 95.3729
2451 6 30.7327 5.75467 95.3729
2452 6 31.9787 7.91267 95.3729
2453 6 30.7327 10.0707 95.3729
2454 6 31.9787 12.2287 95.3729
2455 6 30.7327 14.3867 95.3729
2456 6 31.9787 16.5447 95.3729
2457 6 30.7327 18.7027 95.3729
2458 6 31.9787 20.8607 95.3729
2459 6 30.7327 23.0187 95.3729
2460 6 31.9787 25.1767 95.3729
2461 6 33.2246 1.43867 95.3729
2462 6 34.4705 3.59667 95.3729
2463 6 33.2246 5.75467 95.3729
2464 6 34.4705 7.91267 95.3729
2465 6 33.2246 10.0707 95.3729
2466 6 34.4705 12.2287 95.3729
2467 6 33.2246 14.3867 95.3729
2468 6 34.4705 16.5447 95.3729
2469 6 33.2246 18.7027 95.3729
2470 6 34.4705 20.8607 95.3729
2471 6 33.2246 23.0187 95.3729
2472 6 34.4705 25.1767 95.3729
2473 6 35.7164 1.43867 95.3729
2474 6 36.9624 3.59667 95.3729
2475 6 35.7164 5.75467 95.3729
2476 6 36.9624 7.91267 95.3729
2477 6 35.7164 10.0707 95.3729
2478 6 36.9624 12.2287 95.3729
2479 6 35.7164 14.3867 95.3729
2480 6 36.9624 16.5447 95.3729
2481 6 35.7164 18.7027 95.3729
2482 6 36.9624 20.8607 95.3729
2483 6 35.7164 23.0187 95.3729
2484 6 36.9624 25.1767 95.3729
2485 6 38.2083 1.43867 95.3729
2486 6 39.4542 3.59667 95.3729
2487 6 38.2083 5.75467 95.3729
2488 6 39.4542 7.91267 95.3729
2489 6 38.2083 10.0707 95.3729
2490 6 39.4542 12.2287 95.3729
2491 6 38.2083 14.3867 95.3729
2492 6 39.4542 16.5447 95.3729
2493 6 38.2083 18.7027 95.3729
2494 6 39.4542 20.8607 95.3729
2495 6 38.2083 23.0187 95.3729
2496 6 39.4542 25.1767 95.3729
2497 6 40.7001 1.43867 95.3729
2498 6 41.946 3.59667 95.3729
2499 6 40.7001 5.75467 95.3729
2500 6 41.946 7.91267 95.3729
2501 6 40.7001 10.0707 95.3729
2502 6 41.946 12.2287 95.3729
2503 6 40.7001 14.3867 95.3729
2504 6 41.946 16.5447 95.3729
2505 6 40.7001 18.7027 95.3729
2506 6 41.946 20.8607 95.3729
2507 6 40.7001 23.0187 95.3729
2508 6 41.946 25.1767 95.3729
2509 6 43.192 1.43867 95.3729
2510 6 44.4379 3.59667 95.3729
2511 6 43.192 5.75467 95.3729
2512 6 44.4379 7.91267 95.3729
2513 6 43.192 10.0707 95.3729
2514 6 44.4379 12.2287 95.3729
2515 6 43.192 14.3867 95.3729
2516 6 44.4379 16.5447 95.3729
2517 6 43.192 18.7027 95.3729
2518 6 44.4379 20.8607 95.3729
2519 6 43.192 23.0187 95.3729
2520 6 44.4379 25.1767 95.3729
2521 6 45.6838 1.43867 95.3729
2522 6 46.9297 3.59667 95.3729
2523 6 45.6838 5.75467 95.3729
2524 6 46.9297 7.91267 95.3729
2525 6 45.6838 10.0707 95.3729
2526 6 46.9297 12.2287 95.3729
2527 6 45.6838 14.3867 95.3729
2528 6 46.9297 16.5447 95.3729
2529 6 45.6838 18.7027 95.3729
2530 6 46.9297 20.8607 95.3729
2531 6 45.6838 23.0187 95.3729
2532 6 46.9297 25.1767 95.3729
2533 6 48.1757 1.43867 95.3729
2534 6 49.4216 3.59667 95.3729
2535 6 48.1757 5.75467 95.3729
2536 6 49.4216 7.91267 95.3729
2537 6 48.1757 10.0707 95.3729
2538 6 49.4216 12.2287 95.3729
2539 6 48.1757 14.3867 95.3729
2540 6 49.4216 16.5447 95.3729
2541 6 48.1757 18.7027 95.3729
2542 6 49.4216 20.8607 95.3729
2543 6 48.1757 23.0187 95.3729
2544 6 49.4216 25.1767 95.3729
2545 6 50.6675 1.43867 95.3729
2546 6 51.9134 3.59667 95.3729
2547 6 50.6675 5.75467 95.3729
2548 6 51.9134 7.91267 95.3729
2549 6 50.6675 10.0707 95.3729
2550 6 51.9134 12.2287 95.3729
2551 6 50.6675 14.3867 95.3729
2552 6 51.9134 16.5447 95.3729
2553 6 50.6675 18.7027 95.3729
2554 6 51.9134 20.8607 95.3729
2555 6 50.6675 23.0187 95.3729
2556 6 51.9134 25.1767 95.3729
2557 6 53.1594 1.43867 95.3729
2558 6 54.4053 3.59667 95.3729
2559 6 53.1594 5.75467 95.3729
2560 6 54.4053 7.91267 95.3729
2561 6 53.1594 10.0707 95.3729
2562 6 54.4053 12.2287 95.3729
2563 6 53.1594 14.3867 95.3729
2564 6 54.4053 16.5447 95.3729
2565 6 53.1594 18.7027 95.3729
2566 6 54.4053 20.8607 95.3729
2567 6 53.1594 23.0187 95.3729
2568 6 54.4053 25.1767 95.3729
2569 6 55.6512 1.43867 95.3729
2570 6 56.8971 3.59667 95.3729
2571 6 55.6512 5.75467 95.3729
2572 6 56.8971 7.91267 95.3729
2573 6 55.6512 10.0707 95.3729
2574 6 56.8971 12.2287 95.3729
2575 6 55.6512 14.3867 95.3729
2576 6 56.8971 16.5447 95.3729
2577 6 55.6512 18.7027 95.3729
2578 6 56.8971 20.8607 95.3729
2579 6 55.6512 23.0187 95.3729
2580 6 56.8971 25.1767 95.3729
2581 6 58.143 1.43867 95.3729
2582 6 59.389 3.59667 95.3729
2583 6 58.143 5.75467 95.3729
2584 6 59.389 7.91267 95.3729
2585 6 58.143 10.0707 95.3729
2586 6 59.389 12.2287 95.3729
2587 6 58.143 14.3867 95.3729
2588 6 59.389 16.5447 95.3729
2589 6 58.143 18.7027 95.3729
2590 6 59.389 20.8607 95.3729
2591 6 58.143 23.0187 95.3729
2592 6 59.389 25.1767 95.3729
2593 6 60.6349 1.43867 95.3729
2594 6 61.8808 3.59667 95.3729
2595 6 60.6349 5.75467 95.3729
2596 6 61.8808 7.91267 95.3729
2597 6 60.6349 10.0707 95.3729
2598 6 61.8808 12.2287 95.3729
2599 6 60.6349 14.3867 95.3729
2600 6 61.8808 16.5447 95.3729
2601 6 60.6349 18.7027 95.3729
2602 6 61.8808 20.8607 95.3729
2603 6 60.6349 23.0187 95.3729
2604 6 61.8808 25.1767 95.3729
2605 6 63.1267 1.43867 95.3729
2606 6 64.3726 3.59667 95.3729
2607 6 63.1267 5.75467 95.3729
2608 6 64.3726 7.91267 95.3729
2609 6 63.1267 10.0707 95.3729
2610 6 64.3726 12.2287 95.3729
2611 6 63.1267 14.3867 95.3729
2612 6 64.3726 16.5447 95.3729
2613 6 63.1267 18.7027 95.3729
2614 6 64.3726 20.8607 95.3729
2615 6 63.1267 23.0187 95.3729
2616 6 64.3726 25.1767 95.3729
2617 6 65.6186 1.43867 95.3729
2618 6 66.8645 3.59667 95.3729
2619 6 65.6186 5.75467 95.3729
2620 6 66.8645 7.91267 95.3729
2621 6 65.6186 10.0707 95.3729
2622 6 66.8645 12.2287 95.3729
2623 6 65.6186 14.3867 95.3729
2624 6 66.8645 16.5447 95.3729
2625 6 65.6186 18.7027 95.3729
2626 6 66.8645 20.8607 95.3729
2627 6 65.6186 23.0187 95.3729
2628 6 66.8645 25.1767 95.3729
2629 6 68.1104 1.43867 95.3729
2630 6 69.3563 3.59667 95.3729
2631 6 68.1104 5.75467 95.3729
2632 6 69.3563 7.91267 95.3729
2633 6 68.1104 10.0707 95.3729
2634 6 69.3563 12.2287 95.3729
2635 6 68.1104 14.3867 95.3729
2636 6 69.3563 16.5447 95.3729
2637 6 68.1104 18.7027 95.3729
2638 6 69.3563 20.8607 95.3729
2639 6 68.1104 23.0187 95.3729
2640 6 69.3563 25.1767 95.3729
2641 6 70.6023 1.43867 95.3729
2642 6 71.8482 3.59667 95.3729
2643 6 70.6023 5.75467 95.3729
2644 6 71.8482 7.91267 95.3729
2645 6 70.6023 10.0707 95.3729
2646 6 71.8482 12.2287 95.3729
2647 6 70.6023 14.3867 95.3729
2648 6 71.8482 16.5447 95.3729
2649 6 70.6023 18.7027 95.3729
2650 6 71.8482 20.8607 95.3729
2651 6 70.6023 23.0187 95.3729
2652 6 71.8482 25.1767 95.3729
2653 6 73.0941 1.43867 95.3729
2654 6 74.34 3.59667 95.3729
2655 6 73.0941 5.75467 95.3729
2656 6 74.34 7.91267 95.3729
2657 6 73.0941 10.0707 95.3729
2658 6 74.34 12.2287 95.3729
2659 6 73.0941 14.3867 95.3729
2660 6 74.34 16.5447 95.3729
2661 6 73.0941 18.7027 95.3729
2662 6 74.34 20.8607 95.3729
2663 6 73.0941 23.0187 95.3729
2664 6 74.34 25.1767 95.3729
2665 6 75.5859 1.43867 95.3729
2666 6 76.8319 3.59667 95.3729
2667 6 75.5859 5.75467 95.3729
2668 6 76.8319 7.91267 95.3729
2669 6 75.5859 10.0707 95.3729
2670 6 76.8319 12.2287 95.3729
2671 6 75.5859 14.3867 95.3729
2672 6 76.8319 16.5447 95.3729
2673 6 75.5859 18.7027 95.3729
2674 6 76.8319 20.8607 95.3729
2675 6 75.5859 23.0187 95.3729
2676 6 76.8319 25.1767 95.3729
2677 6 78.0778 1.43867 95.3729
2678 6 79.3237 3.59667 95.3729
2679 6 78.0778 5.75467 95.3729
2680 6 79.3237 7.91267 95.3729
2681 6 78.0778 10.0707 95.3729
2682 6 79.3237 12.2287 95.3729
2683 6 78.0778 14.3867 95.3729
2684 6 79.3237 16.5447 95.3729
2685 6 78.0778 18.7027 95.3729
2686 6 79.3237 20.8607 95.3729
2687 6 78.0778 23.0187 95.3729
2688 6 79.3237 25.1767 95.3729
2689 6 1.66123 2.87733 97.4075
2690 6 2.90715 5.03533 97.4075
2691 6 1.66123 7.19333 97.4075
2692 6 2.90715 9.35134 97.4075
2693 6 1.66123 11.5093 97.4075
2694 6 2.90715 13.6673 97.4075
2695 6 1.66123 15.8253 97.4075
2696 6 2.90715 17.9833 97.4075
2697 6 1.66123 20.1413 97.4075
2698 6 2.90715 22.2993 97.4075
2699 6 1.66123 24.4573 97.4075
2700 6 2.90715 26.6153 97.4075
2701 6 4.15307 2.87733 97.4075
2702 6 5.399 5.03533 97.4075
2703 6 4.15307 7.19333 97.4075
2704 6 5.399 9.35134 97.4075
2705 6 4.15307 11.5093 97.4075
2706 6 5.399 13.6673 97.4075
2707 6 4.15307 15.8253 97.4075
2708 6 5.399 17.9833 97.4075
2709 6 4.15307 20.1413 97.4075
2710 6 5.399 22.2993 97.4075
2711 6 4.15307 24.4573 97.4075
2712 6 5.399 26.6153 97.4075
2713 6 6.64492 2.87733 97.4075
2714 6 7.89084 5.03533 97.4075
2715 6 6.64492 7.19333 97.4075
2716 6 7.89084 9.35134 97.4075
2717 6 6.64492 11.5093 97.4075
2718 6 7.89084 13.6673 97.4075
2719 6 6.64492 15.8253 97.4075
2720 6 7.89084 17.9833 97.4075
2721 6 6.64492 20.1413 97.4075
2722 6 7.89084 22.2993 97.4075
2723 6 6.64492 24.4573 97.4075
2724 6 7.89084 26.6153 97.4075
2725 6 9.13676 2.87733 97.4075
2726 6 10.3827 5.03533 97.4075
2727 6 9.13676 7.19333 97.4075
2728 6 10.3827 9.35134 97.4075
2729 6 9.13676 11.5093 97.4075
2730 6 10.3827 13.6673 97.4075
2731 6 9.13676 15.8253 97.4075
2732 6 10.3827 17.9833 97.4075
2733 6 9.13676 20.1413 97.4075
2734 6 10.3827 22.2993 97.4075
2735 6 9.13676 24.4573 97.4075
2736 6 10.3827 26.6153 97.4075
2737 6 11.6286 2.87733 97.4075
2738 6 12.8745 5.03533 97.4075
2739 6 11.6286 7.19333 97.4075
2740 6 12.8745 9.35134 97.4075
2741 6 11.6286 11.5093 97.4075
2742 6 12.8745 13.6673 97.4075
2743 6 11.6286 15.8253 97.4075
2744 6 12.8745 17.9833 97.4075
2745 6 11.6286 20.1413 97.4075
2746 6 12.8745 22.2993 97.4075
2747 6 11.6286 24.4573 97.4075
2748 6 12.8745 26.6153 97.4075
2749 6 14.1204 2.87733 97.4075
2750 6 15.3664 5.03533 97.4075
2751 6 14.1204 7.19333 97.4075
2752 6 15.3664 9.35134 97.4075
2753 6 14.1204 11.5093 97.4075
2754 6 15.3664 13.6673 97.4075
2755 6 14.1204 15.8253 97.4075
2756 6 15.3664 17.9833 97.4075
2757 6 14.1204 20.1413 97.4075
2758 6 15.3664 22.2993 97.4075
2759 6 14.1204 24.4573 97.4075
2760 6 15.3664 26.6153 97.4075
2761 6 16.6123 2.87733 97.4075
2762 6 17.8582 5.03533 97.4075
2763 6 16.6123 7.19333 97.4075
2764 6 17.8582 9.35134 97.4075
2765 6 16.6123 11.5093 97.4075
2766 6 17.8582 13.6673 97.4075
2767 6 16.6123 15.8253 97.4075
2768 6 17.8582 17.9833 97.4075
2769 6 16.6123 20.1413 97.4075
2770 6 17.8582 22.2993 97.4075
2771 6 16.6123 24.4573 97.4075
2772 6 17.8582 26.6153 97.4075
2773 6 19.1041 2.87733 97.4075
2774 6 20.3501 5.03533 97.4075
2775 6 19.1041 7.19333 97.4075
2776 6 20.3501 9.35134 97.4075
2777 6 19.1041 11.5093 97.4075
2778 6 20.3501 13.6673 97.4075
2779 6 19.1041 15.8253 97.4075
2780 6 20.3501 17.9833 97.4075
2781 6 19.1041 20.1413 97.4075
2782 6 20.3501 22.2993 97.4075
2783 6 19.1041 24.4573 97.4075
2784 6 20.3501 26.6153 97.4075
2785 6 21.596 2.87733 97.4075
2786 6 22.8419 5.03533 97.4075
2787 6 21.596 7.19333 97.4075
2788 6 22.8419 9.35134 97.4075
2789 6 21.596 11.5093 97.4075
2790 6 22.8419 13.6673 97.4075
2791 6 21.596 15.8253 97.4075
2792 6 22.8419 17.9833 97.4075
2793 6 21.596 20.1413 97.4075
2794 6 22.8419 22.2993 97.4075
2795 6 21.596 24.4573 97.4075
2796 6 22.8419 26.6153 97.4075
2797 6 24.0878 2.87733 97.4075
2798 6 25.3337 5.03533 97.4075
2799 6 24.0878 7.19333 97.4075
2800 6 25.3337 9.35134 97.4075
2801 6 24.0878 11.5093 97.4075
2802 6 25.3337 13.6673 97.4075
2803 6 24.0878 15.8253 97.4075
2804 6 25.3337 17.9833 97.4075
2805 6 24.0878 20.1413 97.4075
2806 6 25.3337 22.2993 97.4075
2807 6 24.0878 24.4573 97.4075
2808 6 25.3337 26.6153 97.4075
2809 6 26.5797 2.87733 97.4075
2810 6 27.8256 5.03533 97.4075
2811 6 26.5797 7.19333 97.4075
2812 6 27.8256 9.35134 97.4075
2813 6 26.5797 11.5093 97.4075
2814 6 27.8256 13.6673 97.4075
2815 6 26.5797 15.8253 97.4075
2816 6 27.8256 17.9833 97.4075
2817 6 26.5797 20.1413 97.4075
2818 6 27.8256 22.2993 97.4075
2819 6 26.5797 24.4573 97.4075
2820 6 27.8256 26.6153 97.4075
2821 6 29.0715 2.87733 97.4075
2822 6 30.3174 5.03533 97.4075
2823 6 29.0715 7.19333 97.4075
2824 6 30.3174 9.35134 97.4075
2825 6 29.0715 11.5093 97.4075
2826 6 30.3174 13.6673 97.4075
2827 6 29.0715 15.8253 97.4075
2828 6 30.3174 17.9833 97.4075
2829 6 29.0715 20.1413 97.4075
2830 6 30.3174 22.2993 97.4075
2831 6 29.0715 24.4573 97.4075
2832 6 30.3174 26.6153 97.4075
2833 6 31.5634 2.87733 97.4075
2834 6 32.8093 5.03533 97.4075
2835 6 31.5634 7.19333 97.4075
2836 6 32.8093 9.35134 97.4075
2837 6 31.5634 11.5093 97.4075
2838 6 32.8093 13.6673 97.4075
2839 6 31.5634 15.8253 97.4075
2840 6 32.8093 17.9833 97.4075
2841 6 31.5634 20.1413 97.4075
2842 6 32.8093 22.2993 97.4075
2843 6 31.5634 24.4573 97.4075
2844 6 32.8093 26.6153 97.4075
2845 6 34.0552 2.87733 97.4075
2846 6 35.3011 5.03533 97.4075
2847 6 34.0552 7.19333 97.4075
2848 6 35.3011 9.35134 97.4075
2849 6 34.0552 11.5093 97.4075
2850 6 35.3011 13.6673 97.4075
2851 6 34.0552 15.8253 97.4075
2852 6 35.3011 17.9833 97.4075
2853 6 34.0552 20.1413 97.4075
2854 6 35.3011 22.2993 97.4075
2855 6 34.0552 24.4573 97.4075
2856 6 35.3011 26.6153 97.4075
2857 6 36.547 2.87733 97.4075
2858 6 37.793 5.03533 97.4075
2859 6 36.547 7.19333 97.4075
2860 6 37.793 9.35134 97.4075
2861 6 36.547 11.5093 97.4075
2862 6 37.793 13.6673 97.4075
2863 6 36.547 15.8253 97.4075
2864 6 37.793 17.9833 97.4075
2865 6 36.547 20.1413 97.4075
2866 6 37.793 22.2993 97.4075
2867 6 36.547 24.4573 97.4075
2868 6 37.793 26.6153 97.4075
2869 6 39.0389 2.87733 97.4075
2870 6 40.2848 5.03533 97.4075
2871 6 39.0389 7.19333 97.4075
2872 6 40.2848 9.35134 97.4075
2873 6 39.0389 11.5093 97.4075
2874 6 40.2848 13.6673 97.4075
2875 6 39.0389 15.8253 97.4075
2876 6 40.2848 17.9833 97.4075
2877 6 39.0389 20.1413 97.4075
2878 6 40.2848 22.2993 97.4075
2879 6 39.0389 24.4573 97.4075
2880 6 40.2848 26.6153 97.4075
2881 6 41.5307 2.87733 97.4075
2882 6 42.7767 5.03533 97.4075
2883 6 41.5307 7.19333 97.4075
2884 6 42.7767 9.35134 97.4075
2885 6 41.5307 11.5093 97.4075
2886 6 42.7767 13.6673 97.4075
2887 6 41.5307 15.8253 97.4075
2888 6 42.7767 17.9833 97.4075
2889 6 41.5307 20.1413 97.4075
2890 6 42.7767 22.2993 97.4075
2891 6 41.5307 24.4573 97.4075
2892 6 42.7767 26.6153 97.4075
2893 6 44.0226 2.87733 97.4075
2894 6 45.2685 5.03533 97.4075
2895 6 44.0226 7.19333 97.4075
2896 6 45.2685 9.35134 97.4075
2897 6 44.0226 11.5093 97.4075
2898 6 45.2685 13.6673 97.4075
2899 6 44.0226 15.8253 97.4075
2900 6 45.2685 17.9833 97.4075
2901 6 44.0226 20.1413 97.4075
2902 6 45.2685 22.2993 97.4075
2903 6 44.0226 24.4573 97.4075
2904 6 45.2685 26.6153 97.4075
2905 6 46.5144 2.87733 97.4075
2906 6 47.7604 5.03533 97.4075
2907 6 46.5144 7.19333 97.4075
2908 6 47.7604 9.35134 97.4075
2909 6 46.5144 11.5093 97.4075
2910 6 47.7604 13.6673 97.4075
2911 6 46.5144 15.8253 97.4075
2912 6 47.7604 17.9833 97.4075
2913 6 46.5144 20.1413 97.4075
2914 6 47.7604 22.2993 97.4075
2915 6 46.5144 24.4573 97.4075
2916 6 47.7604 26.6153 97.4075
2917 6 49.0063 2.87733 97.4075
2918 6 50.2522 5.03533 97.4075
2919 6 49.0063 7.19333 97.4075
2920 6 50.2522 9.35134 97.4075
2921 6 49.0063 11.5093 97.4075
2922 6 50.2522 13.6673 97.4075
2923 6 49.0063 15.8253 97.4075
2924 6 50.2522 17.9833 97.4075
2925 6 49.0063 20.1413 97.4075
2926 6 50.2522 22.2993 97.4075
2927 6 49.0063 24.4573 97.4075
2928 6 50.2522 26.6153 97.4075
2929 6 51.4981 2.87733 97.4075
2930 6 52.744 5.03533 97.4075
2931 6 51.4981 7.19333 97.4075
2932 6 52.744 9.35134 97.4075
2933 6 51.4981 11.5093 97.4075
2934 6 52.744 13.6673 97.4075
2935 6 51.4981 15.8253 97.4075
2936 6 52.744 17.9833 97.4075
2937 6 51.4981 20.1413 97.4075
2938 6 52.744 22.2993 97.4075
2939 6 51.4981 24.4573 97.4075
2940 6 52.744 26.6153 97.4075
2941 6 53.99 2.87733 97.4075
2942 6 55.2359 5.03533 97.4075
2943 6 53.99 7.19333 97.4075
2944 6 55.2359 9.35134 97.4075
2945 6 53.99 11.5093 97.4075
2946 6 55.2359 13.6673 97.4075
2947 6 53.99 15.8253 97.4075
2948 6 55.2359 17.9833 97.4075
2949 6 53.99 20.1413 97.4075
2950 6 55.2359 22.2993 97.4075
2951 6 53.99 24.4573 97.4075
2952 6 55.2359 26.6153 97.4075
2953 6 56.4818 2.87733 97.4075
2954 6 57.7277 5.03533 97.4075
2955 6 56.4818 7.19333 97.4075
2956 6 57.7277 9.35134 97.4075
2957 6 56.4818 11.5093 97.4075
2958 6 57.7277 13.6673 97.4075
2959 6 56.4818 15.8253 97.4075
2960 6 57.7277 17.9833 97.4075
2961 6 56.4818 20.1413 97.4075
2962 6 57.7277 22.2993 97.4075
2963 6 56.4818 24.4573 97.4075
2964 6 57.7277 26.6153 97.4075
2965 6 58.9736 2.87733 97.4075
2966 6 60.2196 5.03533 97.4075
2967 6 58.9736 7.19333 97.4075
2968 6 60.2196 9.35134 97.4075
2969 6 58.9736 11.5093 97.4075
2970 6 60.2196 13.6673 97.4075
2971 6 58.9736 15.8253 97.4075
2972 6 60.2196 17.9833 97.4075
2973 6 58.9736 20.1413 97.4075
2974 6 60.2196 22.2993 97.4075
2975 6 58.9736 24.4573 97.4075
2976 6 60.2196 26.6153 97.4075
2977 6 61.4655 2.87733 97.4075
2978 6 62.7114 5.03533 97.4075
2979 6 61.4655 7.19333 97.4075
2980 6 62.7114 9.35134 97.4075
2981 6 61.4655 11.5093 97.4075
2982 6 62.7114 13.6673 97.4075
2983 6 61.4655 15.8253 97.4075
2984 6 62.7114 17.9833 97.4075
2985 6 61.4655 20.1413 97.4075
2986 6 62.7114 22.2993 97.4075
2987 6 61.4655 24.4573 97.4075
2988 6 62.7114 26.6153 97.4075
2989 6 63.9573 2.87733 97.4075
2990 6 65.2033 5.03533 97.4075
2991 6 63.9573 7.19333 97.4075
2992 6 65.2033 9.35134 97.4075
2993 6 63.9573 11.5093 97.4075
2994 6 65.2033 13.6673 97.4075
2995 6 63.9573 15.8253 97.4075
2996 6 65.2033 17.9833 97.4075
2997 6 63.9573 20.1413 97.4075
2998 6 65.2033 22.2993 97.4075
2999 6 63.9573 24.4573 97.4075
3000 6 65.2033 26.6153 97.4075
3001 6 66.4492 2.87733 97.4075
3002 6 67.6951 5.03533 97.4075
3003 6 66.4492 7.19333 97.4075
3004 6 67.6951 9.35134 97.4075
3005 6 66.4492 11.5093 97.4075
3006 6 67.6951 13.6673 97.4075
3007 6 66.4492 15.8253 97.4075
3008 6 67.6951 17.9833 97.4075
3009 6 66.4492 20.1413 97.4075
3010 6 67.6951 22.2993 97.4075
3011 6 66.4492 24.4573 97.4075
3012 6 67.6951 26.6153 97.4075
3013 6 68.941 2.87733 97.4075
3014 6 70.1869 5.03533 97.4075
3015 6 68.941 7.19333 97.4075
3016 6 70.1869 9.35134 97.4075
3017 6 68.941 11.5093 97.4075
3018 6 70.1869 13.6673 97.4075
3019 6 68.941 15.8253 97.4075
3020 6 70.1869 17.9833 97.4075
3021 6 68.941 20.1413 97.4075
3022 6 70.1869 22.2993 97.4075
3023 6 68.941 24.4573 97.4075
3024 6 70.1869 26.6153 97.4075
3025 6 71.4329 2.87733 97.4075
3026 6 72.6788 5.03533 97.4075
3027 6 71.4329 7.19333 97.4075
3028 6 72.6788 9.35134 97.4075
3029 6 71.4329 11.5093 97.4075
3030 6 72.6788 13.6673 97.4075
3031 6 71.4329 15.8253 97.4075
3032 6 72.6788 17.9833 97.4075
3033 6 71.4329 20.1413 97.4075
3034 6 72.6788 22.2993 97.4075
3035 6 71.4329 24.4573 97.4075
3036 6 72.6788 26.6153 97.4075
3037 6 73.9247 2.87733 97.4075
3038 6 75.1706 5.03533 97.4075
3039 6 73.9247 7.19333 97.4075
3040 6 75.1706 9.35134 97.4075
3041 6 73.9247 11.5093 97.4075
3042 6 75.1706 13.6673 97.4075
3043 6 73.9247 15.8253 97.4075
3044 6 75.1706 17.9833 97.4075
3045 6 73.9247 20.1413 97.4075
3046 6 75.1706 22.2993 97.4075
3047 6 73.9247 24.4573 97.4075
3048 6 75.1706 26.6153 97.4075
3049 6 76.4166 2.87733 97.4075
3050 6 77.6625 5.03533 97.4075
3051 6 76.4166 7.19333 97.4075
3052 6 77.6625 9.35134 97.4075
3053 6 76.4166 11.5093 97.4075
3054 6 77.6625 13.6673 97.4075
3055 6 76.4166 15.8253 97.4075
3056 6 77.6625 17.9833 97.4075
3057 6 76.4166 20.1413 97.4075
3058 6 77.6625 22.2993 97.4075
3059 6 76.4166 24.4573 97.4075
3060 6 77.6625 26.6153 97.4075
3061 6 78.9084 2.87733 97.4075
3062 6 0.15432 5.03533 97.4075
3063 6 78.9084 7.19333 97.4075
3064 6 0.15432 9.35134 97.4075
3065 6 78.9084 11.5093 97.4075
3066 6 0.15432 13.6673 97.4075
3067 6 78.9084 15.8253 97.4075
3068 6 0.15432 17.9833 97.4075
3069 6 78.9084 20.1413 97.4075
3070 6 0.15432 22.2993 97.4075
3071 6 78.9084 24.4573 97.4075
3072 6 0.15432 26.6153 97.4075
3073 6 0 0 99.4421
3074 6 1.24592 2.158 99.4421
3075 6 0 4.316 99.4421
3076 6 1.24592 6.474 99.4421
3077 6 0 8.632 99.4421
3078 6 1.24592 10.79 99.4421
3079 6 0 12.948 99.4421
3080 6 1.24592 15.106 99.4421
3081 6 0 17.264 99.4421
3082 6 1.24592 19.422 99.4421
3083 6 0 21.58 99.4421
3084 6 1.24592 23.738 99.4421
3085 6 2.49184 0 99.4421
3086 6 3.73777 2.158 99.4421
3087 6 2.49184 4.316 99.4421
3088 6 3.73777 6.474 99.4421
3089 6 2.49184 8.632 99.4421
3090 6 3.73777 10.79 99.4421
3091 6 2.49184 12.948 99.4421
3092 6 3.73777 15.106 99.4421
3093 6 2.49184 17.264 99.4421
3094 6 3.73777 19.422 99.4421
3095 6 2.49184 21.58 99.4421
3096 6 3.73777 23.738 99.4421
3097 6 4.98369 0 99.4421
3098 6 6.22961 2.158 99.4421
3099 6 4.98369 4.316 99.4421
3100 6 6.22961 6.474 99.4421
3101 6 4.98369 8.632 99.4421
3102 6 6.22961 10.79 99.4421
3103 6 4.98369 12.948 99.4421
3104 6 6.22961 15.106 99.4421
3105 6 4.98369 17.264 99.4421
3106 6 6.22961 19.422 99.4421
3107 6 4.98369 21.58 99.4421
3108 6 6.22961 23.738 99.4421
3109 6 7.47553 0 99.4421
3110 6 8.72146 2.158 99.4421
3111 6 7.47553 4.316 99.4421
3112 6 8.72146 6.474 99.4421
3113 6 7.47553 8.632 99.4421
3114 6 8.72146 10.79 99.4421
3115 6 7.47553 12.948 99.4421
3116 6 8.72146 15.106 99.4421
3117 6 7.47553 17.264 99.4421
3118 6 8.72146 19.422 99.4421
3119 6 7.47553 21.58 99.4421
3120 6 8.72146 23.738 99.4421
3121 6 9.96738 0 99.4421
3122 6 11.2133 2.158 99.4421
3123 6 9.96738 4.316 99.4421
3124 6 11.2133 6.474 99.4421
3125 6 9.96738 8.632 99.4421
3126 6 11.2133 10.79 99.4421
3127 6 9.96738 12.948 99.4421
3128 6 11.2133 15.106 99.4421
3129 6 9.96738 17.264 99.4421
3130 6 11.2133 19.422 99.4421
3131 6 9.96738 21.58 99.4421
3132 6 11.2133 23.738 99.4421
3133 6 12.4592 0 99.4421
3134 6 13.7051 2.158 99.4421
3135 6 12.4592 4.316 99.4421
3136 6 13.7051 6.474 99.4421
3137 6 12.4592 8.632 99.4421
3138 6 13.7051 10.79 99.4421
3139 6 12.4592 12.948 99.4421
3140 6 13.7051 15.106 99.4421
3141 6 12.4592 17.264 99.4421
3142 6 13.7051 19.422 99.4421
3143 6 12.4592 21.58 99.4421
3144 6 13.7051 23.738 99.4421
3145 6 14.9511 0 99.4421
3146 6 16.197 2.158 99.4421
3147 6 14.9511 4.316 99.4421
3148 6 16.197 6.474 99.4421
3149 6 14.9511 8.632 99.4421
3150 6 16.197 10.79 99.4421
3151 6 14.9511 12.948 99.4421
3152 6 16.197 15.106 99.4421
3153 6 14.9511 17.264 99.4421
3154 6 16.197 19.422 99.4421
3155 6 14.9511 21.58 99.4421
3156 6 16.197 23.738 99.4421
3157 6 17.4429 0 99.4421
3158 6 18.6888 2.158 99.4421
3159 6 17.4429 4.316 99.4421
3160 6 18.6888 6.474 99.4421
3161 6 17.4429 8.632 99.4421
3162 6 18.6888 10.79 99.4421
3163 6 17.4429 12.948 99.4421
3164 6 18.6888 15.106 99.4421
3165 6 17.4429 17.264 99.4421
3166 6 18.6888 19.422 99.4421
3167 6 17.4429 21.58 99.4421
3168 6 18.6888 23.738 99.4421
3169 6 19.9348 0 99.4421
3170 6 21.1807 2.158 99.4421
3171 6 19.9348 4.316 99.4421
3172 6 21.1807 6.474 99.4421
3173 6 19.9348 8.632 99.4421
3174 6 21.1807 10.79 99.4421
3175 6 19.9348 12.948 99.4421
3176 6 21.1807 15.106 99.4421
3177 6 19.9348 17.264 99.4421
3178 6 21.1807 19.422 99.4421
3179 6 19.9348 21.58 99.4421
3180 6 21.1807 23.738 99.4421
3181 6 22.4266 0 99.4421
3182 6 23.6725 2.158 99.4421
3183 6 22.4266 4.316 99.4421
3184 6 23.6725 6.474 99.4421
3185 6 22.4266 8.632 99.4421
3186 6 23.6725 10.79 99.4421
3187 6 22.4266 12.948 99.4421
3188 6 23.6725 15.106 99.4421
3189 6 22.4266 17.264 99.4421
3190 6 23.6725 19.422 99.4421
3191 6 22.4266 21.58 99.4421
3192 6 23.6725 23.738 99.4421
3193 6 24.9184 0 99.4421
3194 6 26.1644 2.158 99.4421
3195 6 24.9184 4.316 99.4421
3196 6 26.1644 6.474 99.4421
3197 6 24.9184 8.632 99.4421
3198 6 26.1644 10.79 99.4421
3199 6 24.9184 12.948 99.4421
3200 6 26.1644 15.106 99.4421
3201 6 24.9184 17.264 99.4421
3202 6 26.1644 19.422 99.4421
3203 6 24.9184 21.58 99.4421
3204 6 26.1644 23.738 99.4421
3205 6 27.4103 0 99.4421
3206 6 28.6562 2.158 99.4421
3207 6 27.4103 4.316 99.4421
3208 6 28.6562 6.474 99.4421
3209 6 27.4103 8.632 99.4421
3210 6 28.6562 10.79 99.4421
3211 6 27.4103 12.948 99.4421
3212 6 28.6562 15.106 99.4421
3213 6 27.4103 17.264 99.4421
3214 6 28.6562 19.422 99.4421
3215 6 27.4103 21.58 99.4421
3216 6 28.6562 23.738 99.4421
3217 6 29.9021 0 99.4421
3218 6 31.1481 2.158 99.4421
3219 6 29.9021 4.316 99.4421
3220 6 31.1481 6.474 99.4421
3221 6 29.9021 8.632 99.4421
3222 6 31.1481 10.79 99.4421
3223 6 29.9021 12.948 99.4421
3224 6 31.1481 15.106 99.4421
3225 6 29.9021 17.264 99.4421
3226 6 31.1481 19.422 99.4421
3227 6 29.9021 21.58 99.4421
3228 6 31.1481 23.738 99.4421
3229 6 32.394 0 99.4421
3230 6 33.6399 2.158 99.4421
3231 6 32.394 4.316 99.4421
3232 6 33.6399 6.474 99.4421
3233 6 32.394 8.632 99.4421
3234 6 33.6399 10.79 99.4421
3235 6 32.394 12.948 99.4421
3236 6 33.6399 15.106 99.4421
3237 6 32.394 17.264 99.4421
3238 6 33.6399 19.422 99.4421
3239 6 32.394 21.58 99.4421
3240 6 33.6399 23.738 99.4421
3241 6 34.8858 0 99.4421
3242 6 36.1317 2.158 99.4421
3243 6 34.8858 4.316 99.4421
3244 6 36.1317 6.474 99.4421
3245 6 34.8858 8.632 99.4421
3246 6 36.1317 10.79 99.4421
3247 6 34.8858 12.948 99.4421
3248 6 36.1317 15.106 99.4421
3249 6 34.8858 17.264 99.4421
3250 6 36.1317 19.422 99.4421
3251 6 34.8858 21.58 99.4421
3252 6 36.1317 23.738 99.4421
3253 6 37.3777 0 99.4421
3254 6 38.6236 2.158 99.4421
3255 6 37.3777 4.316 99.4421
3256 6 38.6236 6.474 99.4421
3257 6 37.3777 8.632 99.4421
3258 6 38.6236 10.79 99.4421
3259 6 37.3777 12.948 99.4421
3260 6 38.6236 15.106 99.4421
3261 6 37.3777 17.264 99.4421
3262 6 38.6236 19.422 99.4421
3263 6 37.3777 21.58 99.4421
3264 6 38.6236 23.738 99.4421
3265 6 39.8695 0 99.4421
3266 6 41.1154 2.158 99.4421
3267 6 39.8695 4.316 99.4421
3268 6 41.1154 6.474 99.4421
3269 6 39.8695 8.632 99.4421
3270 6 41.1154 10.79 99.4421
3271 6 39.8695 12.948 99.4421
3272 6 41.1154 15.106 99.4421
3273 6 39.8695 17.264 99.4421
3274 6 41.1154 19.422 99.4421
3275 6 39.8695 21.58 99.4421
3276 6 41.1154 23.738 99.4421
3277 6 42.3614 0 99.4421
3278 6 43.6073 2.158 99.4421
3279 6 42.3614 4.316 99.4421
3280 6 43.6073 6.474 99.4421
3281 6 42.3614 8.632 99.4421
3282 6 43.6073 10.79 99.4421
3283 6 42.3614 12.948 99.4421
3284 6 43.6073 15.106 99.4421
3285 6 42.3614 17.264 99.4421
3286 6 43.6073 19.422 99.4421
3287 6 42.3614 21.58 99.4421
3288 6 43.6073 23.738 99.4421
3289 6 44.8532 0 99.4421
3290 6 46.0991 2.158 99.4421
3291 6 44.8532 4.316 99.4421
3292 6 46.0991 6.474 99.4421
3293 6 44.8532 8.632 99.4421
3294 6 46.0991 10.79 99.4421
3295 6 44.8532 12.948 99.4421
3296 6 46.0991 15.106 99.4421
3297 6 44.8532 17.264 99.4421
3298 6 46.0991 19.422 99.4421
3299 6 44.8532 21.58 99.4421
3300 6 46.0991 23.738 99.4421
3301 6 47.345 0 99.4421
3302 6 48.591 2.158 99.4421
3303 6 47.345 4.316 99.4421
3304 6 48.591 6.474 99.4421
3305 6 47.345 8.632 99.4421
3306 6 48.591 10.79 99.4421
3307 6 47.345 12.948 99.4421
3308 6 48.591 15.106 99.4421
3309 6 47.345 17.264 99.4421
3310 6 48.591 19.422 99.4421
3311 6 47.345 21.58 99.4421
3312 6 48.591 23.738 99.4421
3313 6 49.8369 0 99.4421
3314 6 51.0828 2.158 99.4421
3315 6 49.8369 4.316 99.4421
3316 6 51.0828 6.474 99.4421
3317 6 49.8369 8.632 99.4421
3318 6 51.0828 10.79 99.4421
3319 6 49.8369 12.948 99.4421
3320 6 51.0828 15.106 99.4421
3321 6 49.8369 17.264 99.4421
3322 6 51.0828 19.422 99.4421
3323 6 49.8369 21.58 99.4421
3324 6 51.0828 23.738 99.4421
3325 6 52.3287 0 99.4421
3326 6 53.5746 2.158 99.4421
3327 6 52.3287 4.316 99.4421
3328 6 53.5746 6.474 99.4421
3329 6 52.3287 8.632 99.4421
3330 6 53.5746 10.79 99.4421
3331 6 52.3287 12.948 99.4421
3332 6 53.5746 15.106 99.4421
3333 6 52.3287 17.264 99.4421
3334 6 53.5746 19.422 99.4421
3335 6 52.3287 21.58 99.4421
3336 6 53.5746 23.738 99.4421
3337 6 54.8206 0 99.4421
3338 6 56.0665 2.158 99.4421
3339 6 54.8206 4.316 99.4421
3340 6 56.0665 6.474 99.4421
3341 6 54.8206 8.632 99.4421
3342 6 56.0665 10.79 99.4421
3343 6 54.8206 12.948 99.4421
3344 6 56.0665 15.106 99.4421
3345 6 54.8206 17.264 99.4421
3346 6 56.0665 19.422 99.4421
3347 6 54.8206 21.58 99.4421
3348 6 56.0665 23.738 99.4421
3349 6 57.3124 0 99.4421
3350 6 58.5583 2.158 99.4421
3351 6 57.3124 4.316 99.4421
3352 6 58.5583 6.474 99.4421
3353 6 57.3124 8.632 99.4421
3354 6 58.5583 10.79 99.4421
3355 6 57.3124 12.948 99.4421
3356 6 58.5583 15.106 99.4421
3357 6 57.3124 17.264 99.4421
3358 6 58.5583 19.422 99.4421
3359 6 57.3124 21.58 99.4421
3360 6 58.5583 23.738 99.4421
3361 6 59.8043 0 99.4421
3362 6 61.0502 2.158 99.4421
3363 6 59.8043 4.316 99.4421
3364 6 61.0502 6.474 99.4421
3365 6 59.8043 8.632 99.4421
3366 6 61.0502 10.79 99.4421
3367 6 59.8043 12.948 99.4421
3368 6 61.0502 15.106 99.4421
3369 6 59.8043 17.264 99.4421
3370 6 61.0502 19.422 99.4421
3371 6 59.8043 21.58 99.4421
3372 6 61.0502 23.738 99.4421
3373 6 62.2961 0 99.4421
3374 6 63.542 2.158 99.4421
3375 6 62.2961 4.316 99.4421
3376 6 63.542 6.474 99.4421
3377 6 62.2961 8.632 99.4421
3378 6 63.542 10.79 99.4421
3379 6 62.2961 12.948 99.4421
3380 6 63.542 15.106 99.4421
3381 6 62.2961 17.264 99.4421
3382 6 63.542 19.422 99.4421
3383 6 62.2961 21.58 99.4421
3384 6 63.542 23.738 99.4421
3385 6 64.7879 0 99.4421
3386 6 66.0339 2.158 99.4421
3387 6 64.7879 4.316 99.4421
3388 6 66.0339 6.474 99.4421
3389 6 64.7879 8.632 99.4421
3390 6 66.0339 10.79 99.4421
3391 6 64.7879 12.948 99.4421
3392 6 66.0339 15.106 99.4421
3393 6 64.7879 17.264 99.4421
3394 6 66.0339 19.422 99.4421
3395 6 64.7879 21.58 99.4421
3396 6 66.0339 23.738 99.4421
3397 6 67.2798 0 99.4421
3398 6 68.5257 2.158 99.4421
3399 6 67.2798 4.316 99.4421
3400 6 68.5257 6.474 99.4421
3401 6 67.2798 8.632 99.4421
3402 6 68.5257 10.79 99.4421
3403 6 67.2798 12.948 99.4421
3404 6 68.5257 15.106 99.4421
3405 6 67.2798 17.264 99.4421
3406 6 68.5257 19.422 99.4421
3407 6 67.2798 21.58 99.4421
3408 6 68.5257 23.738 99.4421
3409 6 69.7716 0 99.4421
3410 6 71.0176 2.158 99.4421
3411 6 69.7716 4.316 99.4421
3412 6 71.0176 6.474 99.4421
3413 6 69.7716 8.632 99.4421
3414 6 71.0176 10.79 99.4421
3415 6 69.7716 12.948 99.4421
3416 6 71.0176 15.106 99.4421
3417 6 69.7716 17.264 99.4421
3418 6 71.0176 19.422 99.4421
3419 6 69.7716 21.58 99.4421
3420 6 71.0176 23.738 99.4421
3421 6 72.2635 0 99.4421
3422 6 73.5094 2.158 99.4421
3423 6 72.2635 4.316 99.4421
3424 6 73.5094 6.474 99.4421
3425 6 72.2635 8.632 99.4421
3426 6 73.5094 10.79 99.4421
3427 6 72.2635 12.948 99.4421
3428 6 73.5094 15.106 99.4421
3429 6 72.2635 17.264 99.4421
3430 6 73.5094 19.422 99.4421
3431 6 72.2635 21.58 99.4421
3432 6 73.5094 23.738 99.4421
3433 6 74.7553 0 99.4421
3434 6 76.0012 2.158 99.4421
3435 6 74.7553 4.316 99.4421
3436 6 76.0012 6.474 99.4421
3437 6 74.7553 8.632 99.4421
3438 6 76.0012 10.79 99.4421
3439 6 74.7553 12.948 99.4421
3440 6 76.0012 15.106 99.4421
3441 6 74.7553 17.264 99.4421
3442 6 76.0012 19.422 99.4421
3443 6 74.7553 21.58 99.4421
3444 6 76.0012 23.738 99.4421
3445 6 77.2472 0 99.4421
3446 6 78.4931 2.158 99.4421
3447 6 77.2472 4.316 99.4421
3448 6 78.4931 6.474 99.4421
3449 6 77.2472 8.632 99.4421
3450 6 78.4931 10.79 99.4421
3451 6 77.2472 12.948 99.4421
3452 6 78.4931 15.106 99.4421
3453 6 77.2472 17.264 99.4421
3454 6 78.4931 19.422 99.4421
3455 6 77.2472 21.58 99.4421
3456 6 78.4931 23.738 99.4421
3457 6 0.83061 1.43867 101.477
3458 6 2.07654 3.59667 101.477
3459 6 0.83061 5.75467 101.477
3460 6 2.07654 7.91267 101.477
3461 6 0.83061 10.0707 101.477
3462 6 2.07654 12.2287 101.477
3463 6 0.83061 14.3867 101.477
3464 6 2.07654 16.5447 101.477
3465 6 0.83061 18.7027 101.477
3466 6 2.07654 20.8607 101.477
3467 6 0.83061 23.0187 101.477
3468 6 2.07654 25.1767 101.477
3469 6 3.32246 1.43867 101.477
3470 6 4.56838 3.59667 101.477
3471 6 3.32246 5.75467 101.477
3472 6 4.56838 7.91267 101.477
3473 6 3.32246 10.0707 101.477
3474 6 4.56838 12.2287 101.477
3475 6 3.32246 14.3867 101.477
3476 6 4.56838 16.5447 101.477
3477 6 3.32246 18.7027 101.477
3478 6 4.56838 20.8607 101.477
3479 6 3.32246 23.0187 101.477
3480 6 4.56838 25.1767 101.477
3481 6 5.8143 1.43867 101.477
3482 6 7.06023 3.59667 101.477
3483 6 5.8143 5.75467 101.477
3484 6 7.06023 7.91267 101.477
3485 6 5.8143 10.0707 101.477
3486 6 7.06023 12.2287 101.477
3487 6 5.8143 14.3867 101.477
3488 6 7.06023 16.5447 101.477
3489 6 5.8143 18.7027 101.477
3490 6 7.06023 20.8607 101.477
3491 6 5.8143 23.0187 101.477
3492 6 7.06023 25.1767 101.477
3493 6 8.30615 1.43867 101.477
3494 6 9.55207 3.59667 101.477
3495 6 8.30615 5.75467 101.477
3496 6 9.55207 7.91267 101.477
3497 6 8.30615 10.0707 101.477
3498 6 9.55207 12.2287 101.477
3499 6 8.30615 14.3867 101.477
3500 6 9.55207 16.5447 101.477
3501 6 8.30615 18.7027 101.477
3502 6 9.55207 20.8607 101.477
3503 6 8.30615 23.0187 101.477
3504 6 9.55207 25.1767 101.477
3505 6 10.798 1.43867 101.477
3506 6 12.0439 3.59667 101.477
3507 6 10.798 5.75467 101.477
3508 6 12.0439 7.91267 101.477
3509 6 10.798 10.0707 101.477
3510 6 12.0439 12.2287 101.477
3511 6 10.798 14.3867 101.477
3512 6 12.0439 16.5447 101.477
3513 6 10.798 18.7027 101.477
3514 6 12.0439 20.8607 101.477
3515 6 10.798 23.0187 101.477
3516 6 12.0439 25.1767 101.477
3517 6 13.2898 1.43867 101.477
3518 6 14.5358 3.59667 101.477
3519 6 13.2898 5.75467 101.477
3520 6 14.5358 7.91267 101.477
3521 6 13.2898 10.0707 101.477
3522 6 14.5358 12.2287 101.477
3523 6 13.2898 14.3867 101.477
3524 6 14.5358 16.5447 101.477
3525 6 13.2898 18.7027 101.477
3526 6 14.5358 20.8607 101.477
3527 6 13.2898 23.0187 101.477
3528 6 14.5358 25.1767 101.477
3529 6 15.7817 1.43867 101.477
3530 6 17.0276 3.59667 101.477
3531 6 15.7817 5.75467 101.477
3532 6 17.0276 7.91267 101.477
3533 6 15.7817 10.0707 101.477
3534 6 17.0276 12.2287 101.477
3535 6 15.7817 14.3867 101.477
3536 6 17.0276 16.5447 101.477
3537 6 15.7817 18.7027 101.477
3538 6 17.0276 20.8607 101.477
3539 6 15.7817 23.0187 101.477
3540 6 17.0276 25.1767 101.477
3541 6 18.2735 1.43867 101.477
3542 6 19.5194 3.59667 101.477
3543 6 18.2735 5.75467 101.477
3544 6 19.5194 7.91267 101.477
3545 6 18.2735 10.0707 101.477
3546 6 19.5194 12.2287 101.477
3547 6 18.2735 14.3867 101.477
3548 6 19.5194 16.5447 101.477
3549 6 18.2735 18.7027 101.477
3550 6 19.5194 20.8607 101.477
3551 6 18.2735 23.0187 101.477
3552 6 19.5194 25.1767 101.477
3553 6 20.7654 1.43867 101.477
3554 6 22.0113 3.59667 101.477
3555 6 20.7654 5.75467 101.477
3556 6 22.0113 7.91267 101.477
3557 6 20.7654 10.0707 101.477
3558 6 22.0113 12.2287 101.477
3559 6 20.7654 14.3867 101.477
3560 6 22.0113 16.5447 101.477
3561 6 20.7654 18.7027 101.477
3562 6 22.0113 20.8607 101.477
3563 6 20.7654 23.0187 101.477
3564 6 22.0113 25.1767 101.477
3565 6 23.2572 1.43867 101.477
3566 6 24.5031 3.59667 101.477
3567 6 23.2572 5.75467 101.477
3568 6 24.5031 7.91267 101.477
3569 6 23.2572 10.0707 101.477
3570 6 24.5031 12.2287 101.477
3571 6 23.2572 14.3867 101.477
3572 6 24.5031 16.5447 101.477
3573 6 23.2572 18.7027 101.477
3574 6 24.5031 20.8607 101.477
3575 6 23.2572 23.0187 101.477
3576 6 24.5031 25.1767 101.477
3577 6 25.7491 1.43867 101.477
3578 6 26.995 3.59667 101.477
3579 6 25.7491 5.75467 101.477
3580 6 26.995 7.91267 101.477
3581 6 25.7491 10.0707 101.477
3582 6 26.995 12.2287 101.477
3583 6 25.7491 14.3867 101.477
3584 6 26.995 16.5447 101.477
3585 6 25.7491 18.7027 101.477
3586 6 26.995 20.8607 101.477
3587 6 25.7491 23.0187 101.477
3588 6 26.995 25.1767 101.477
3589 6 28.2409 1.43867 101.477
3590 6 29.4868 3.59667 101.477
3591 6 28.2409 5.75467 101.477
3592 6 29.4868 7.91267 101.477
3593 6 28.2409 10.0707 101.477
3594 6 29.4868 12.2287 101.477
3595 6 28.2409 14.3867 101.477
3596 6 29.4868 16.5447 101.477
3597 6 28.2409 18.7027 101.477
3598 6 29.4868 20.8607 101.477
3599 6 28.2409 23.0187 101.477
3600 6 29.4868 25.1767 101.477
3601 6 30.7327 1.43867 101.477
3602 6 31.9787 3.59667 101.477
3603 6 30.7327 5.75467 101.477
3604 6 31.9787 7.91267 101.477
3605 6 30.7327 10.0707 101.477
3606 6 31.9787 12.2287 101.477
3607 6 30.7327 14.3867 101.477
3608 6 31.9787 16.5447 101.477
3609 6 30.7327 18.7027 101.477
3610 6 31.9787 20.8607 101.477
3611 6 30.7327 23.0187 101.477
3612 6 31.9787 25.1767 101.477
3613 6 33.2246 1.43867 101.477
3614 6 34.4705 3.59667 101.477
3615 6 33.2246 5.75467 101.477
3616 6 34.4705 7.91267 101.477
3617 6 33.2246 10.0707 101.477
3618 6 34.4705 12.2287 101.477
3619 6 33.2246 14.3867 101.477
3620 6 34.4705 16.5447 101.477
3621 6 33.2246 18.7027 101.477
3622 6 34.4705 20.8607 101.477
3623 6 33.2246 23.0187 101.477
3624 6 34.4705 25.1767 101.477
3625 6 35.7164 1.43867 101.477
3626 6 36.9624 3.59667 101.477
3627 6 35.7164 5.75467 101.477
3628 6 36.9624 7.91267 101.477
3629 6 35.7164 10.0707 101.477
3630 6 36.9624 12.2287 101.477
3631 6 35.7164 14.3867 101.477
3632 6 36.9624 16.5447 101.477
3633 6 35.7164 18.7027 101.477
3634 6 36.9624 20.8607 101.477
3635 6 35.7164 23.0187 101.477
3636 6 36.9624 25.1767 101.477
3637 6 38.2083 1.43867 101.477
3638 6 39.4542 3.59667 101.477
3639 6 38.2083 5.75467 101.477
3640 6 39.4542 7.91267 101.477
3641 6 38.2083 10.0707 101.477
3642 6 39.4542 12.2287 101.477
3643 6 38.2083 14.3867 101.477
3644 6 39.4542 16.5447 101.477
3645 6 38.2083 18.7027 101.477
3646 6 39.4542 20.8607 101.477
3647 6 38.2083 23.0187 101.477
3648 6 39.4542 25.1767 101.477
3649 6 40.7001 1.43867 101.477
3650 6 41.946 3.59667 101.477
3651 6 40.7001 5.75467 101.477
3652 6 41.946 7.91267 101.477
3653 6 40.7001 10.0707 101.477
3654 6 41.946 12.2287 101.477
3655 6 40.7001 14.3867 101.477
3656 6 41.946 16.5447 101.477
3657 6 40.7001 18.7027 101.477
3658 6 41.946 20.8607 101.477
3659 6 40.7001 23.0187 101.477
3660 6 41.946 25.1767 101.477
3661 6 43.192 1.43867 101.477
3662 6 44.4379 3.59667 101.477
3663 6 43.192 5.75467 101.477
3664 6 44.4379 7.91267 101.477
3665 6 43.192 10.0707 101.477
3666 6 44.4379 12.2287 101.477
3667 6 43.192 14.3867 101.477
3668 6 44.4379 16.5447 101.477
3669 6 43.192 18.7027 101.477
3670 6 44.4379 20.8607 101.477
3671 6 43.192 23.0187 101.477
3672 6 44.4379 25.1767 101.477
3673 6 45.6838 1.43867 101.477
3674 6 46.9297 3.59667 101.477
3675 6 45.6838 5.75467 101.477
3676 6 46.9297 7.91267 101.477
3677 6 45.6838 10.0707 101.477
3678 6 46.9297 12.2287 101.477
3679 6 45.6838 14.3867 101.477
3680 6 46.9297 16.5447 101.477
3681 6 45.6838 18.7027 101.477
3682 6 46.9297 20.8607 101.477
3683 6 45.6838 23.0187 101.477
3684 6 46.9297 25.1767 101.477
3685 6 48.1757 1.43867 101.477
3686 6 49.4216 3.59667 101.477
3687 6 48.1757 5.75467 101.477
3688 6 49.4216 7.91267 101.477
3689 6 48.1757 10.0707 101.477
3690 6 49.4216 12.2287 101.477
3691 6 48.1757 14.3867 101.477
3692 6 49.4216 16.5447 101.477
3693 6 48.1757 18.7027 101.477
3694 6 49.4216 20.8607 101.477
3695 6 48.1757 23.0187 101.477
3696 6 49.4216 25.1767 101.477
3697 6 50.6675 1.43867 101.477
3698 6 51.9134 3.59667 101.477
3699 6 50.6675 5.75467 101.477
3700 6 51.9134 7.91267 101.477
3701 6 50.6675 10.0707 101.477
3702 6 51.9134 12.2287 101.477
3703 6 50.6675 14.3867 101.477
3704 6 51.9134 16.5447 101.477
3705 6 50.6675 18.7027 101.477
3706 6 51.9134 20.8607 101.477
3707 6 50.6675 23.0187 101.477
3708 6 51.9134 25.1767 101.477
3709 6 53.1594 1.43867 101.477
3710 6 54.4053 3.59667 101.477
3711 6 53.1594 5.75467 101.477
3712 6 54.4053 7.91267 101.477
3713 6 53.1594 10.0707 101.477
3714 6 54.4053 12.2287 101.477
3715 6 53.1594 14.3867 101.477
3716 6 54.4053 16.5447 101.477
3717 6 53.1594 18.7027 101.477
3718 6 54.4053 20.8607 101.477
3719 6 53.1594 23.0187 101.477
3720 6 54.4053 25.1767 101.477
3721 6 55.6512 1.43867 101.477
3722 6 56.8971 3.59667 101.477
3723 6 55.6512 5.75467 101.477
3724 6 56.8971 7.91267 101.477
3725 6 55.6512 10.0707 101.477
3726 6 56.8971 12.2287 101.477
3727 6 55.6512 14.3867 101.477
3728 6 56.8971 16.5447 101.477
3729 6 55.6512 18.7027 101.477
3730 6 56.8971 20.8607 101.477
3731 6 55.6512 23.0187 101.477
3732 6 56.8971 25.1767 101.477
3733 6 58.143 1.43867 101.477
3734 6 59.389 3.59667 101.477
3735 6 58.143 5.75467 101.477
3736 6 59.389 7.91267 101.477
3737 6 58.143 10.0707 101.477
3738 6 59.389 12.2287 101.477
3739 6 58.143 14.3867 101.477
3740 6 59.389 16.5447 101.477
3741 6 58.143 18.7027 101.477
3742 6 59.389 20.8607 101.477
3743 6 58.143 23.0187 101.477
3744 6 59.389 25.1767 101.477
3745 6 60.6349 1.43867 101.477
3746 6 61.8808 3.59667 101.477
3747 6 60.6349 5.75467 101.477
3748 6 61.8808 7.91267 101.477
3749 6 60.6349 10.0707 101.477
3750 6 61.8808 12.2287 101.477
3751 6 60.6349 14.3867 101.477
3752 6 61.8808 16.5447 101.477
3753 6 60.6349 18.7027 101.477
3754 6 61.8808 20.8607 101.477
3755 6 60.6349 23.0187 101.477
3756 6 61.8808 25.1767 101.477
3757 6 63.1267 1.43867 101.477
3758 6 64.3726 3.59667 101.477
3759 6 63.1267 5.75467 101.477
3760 6 64.3726 7.91267 101.477
3761 6 63.1267 10.0707 101.477
3762 6 64.3726 12.2287 101.477
3763 6 63.1267 14.3867 101.477
3764 6 64.3726 16.5447 101.477
3765 6 63.1267 18.7027 101.477
3766 6 64.3726 20.8607 101.477
3767 6 63.1267 23.0187 101.477
3768 6 64.3726 25.1767 101.477
3769 6 65.6186 1.43867 101.477
3770 6 66.8645 3.59667 101.477
3771 6 65.6186 5.75467 101.477
3772 6 66.8645 7.91267 101.477
3773 6 65.6186 10.0707 101.477
3774 6 66.8645 12.2287 101.477
3775 6 65.6186 14.3867 101.477
3776 6 66.8645 16.5447 101.477
3777 6 65.6186 18.7027 101.477
3778 6 66.8645 20.8607 101.477
3779 6 65.6186 23.0187 101.477
3780 6 66.8645 25.1767 101.477
3781 6 68.1104 1.43867 101.477
3782 6 69.3563 3.59667 101.477
3783 6 68.1104 5.75467 101.477
3784 6 69.3563 7.91267 101.477
3785 6 68.1104 10.0707 101.477
3786 6 69.3563 12.2287 101.477
3787 6 68.1104 14.3867 101.477
3788 6 69.3563 16.5447 101.477
3789 6 68.1104 18.7027 101.477
3790 6 69.3563 20.8607 101.477
3791 6 68.1104 23.0187 101.477
3792 6 69.3563 25.1767 101.477
3793 6 70.6023 1.43867 101.477
3794 6 71.8482 3.59667 101.477
3795 6 70.6023 5.75467 101.477
3796 6 71.8482 7.91267 101.477
3797 6 70.6023 10.0707 101.477
3798 6 71.8482 12.2287 101.477
3799 6 70.6023 14.3867 101.477
3800 6 71.8482 16.5447 101.477
3801 6 70.6023 18.7027 101.477
3802 6 71.8482 20.8607 101.477
3803 6 70.6023 23.0187 101.477
3804 6 71.8482 25.1767 101.477
3805 6 73.0941 1.43867 101.477
3806 6 74.34 3.59667 101.477
3807 6 73.0941 5.75467 101.477
3808 6 74.34 7.91267 101.477
3809 6 73.0941 10.0707 101.477
3810 6 74.34 12.2287 101.477
3811 6 73.0941 14.3867 101.477
3812 6 74.34 16.5447 101.477
3813 6 73.0941 18.7027 101.477
3814 6 74.34 20.8607 101.477
3815 6 73.0941 23.0187 101.477
3816 6 74.34 25.1767 101.477
3817 6 75.5859 1.43867 101.477
3818 6 76.8319 3.59667 101.477
3819 6 75.5859 5.75467 101.477
3820 6 76.8319 7.91267 101.477
3821 6 75.5859 10.0707 101.477
3822 6 76.8319 12.2287 101.477
3823 6 75.5859 14.3867 101.477
3824 6 76.8319 16.5447 101.477
3825 6 75.5859 18.7027 101.477
3826 6 76.8319 20.8607 101.477
3827 6 75.5859 23.0187 101.477
3828 6 76.8319 25.1767 101.477
3829 6 78.0778 1.43867 101.477
3830 6 79.3237 3.59667 101.477
3831 6 78.0778 5.75467 101.477
3832 6 79.3237 7.91267 101.477
3833 6 78.0778 10.0707 101.477
3834 6 79.3237 12.2287 101.477
3835 6 78.0778 14.3867 101.477
3836 6 79.3237 16.5447 101.477
3837 6 78.0778 18.7027 101.477
3838 6 79.3237 20.8607 101.477
3839 6 78.0778 23.0187 101.477
3840 6 79.3237 25.1767 101.477
3841 7 28.1613 10.2805 23.6306
3842 7 36.2624 19.1474 16.8875
3843 7 55.3093 20.3412 16.2086
3844 7 49.1449 25.0627 19.2327
3845 7 40.8048 9.32421 19.9336
3846 7 28.6337 12.6386 21.7345
3847 7 44.8087 12.5009 11.0967
3848 7 36.1565 22.1039 10.7465
3849 7 44.6163 1.34059 19.0004
3850 7 42.7777 29.3912 15.3233
3851 7 32.6412 7.87642 25.5085
3852 7 31.1481 5.938 27.3811
3853 7 40.2624 5.84242 23.4572
3854 7 52.5486 19.208 21.3999
3855 7 36.6959 13.1105 22.0057
3856 7 38.8513 14.6266 23.3257
3857 7 38.2207 23.0247 13.1697
3858 7 42.6909 14.7768 16.3563
3859 7 39.6069 26.6849 21.2298
3860 7 42.9163 28.7834 12.1136
3861 7 32.4445 14.9926 21.1968
3862 7 24.001 21.1964 11.2125
3863 7 54.4972 15.9969 24.6664
3864 7 42.603 9.37975 21.9954
3865 7 43.2885 8.2751 27.6369
3866 7 47.1013 10.2602 11.2705
3867 7 31.6961 10.4222 16.5897
3868 7 51.1225 16.6014 22.1283
3869 7 28.6998 25.3762 21.556
3870 7 54.3569 22.4198 18.6437
3871 7 44.039 4.72436 19.8424
3872 7 27.4694 11.7131 10.7722
3873 7 23.7834 29.4689 17.3503
3874 7 33.1229 9.15346 18.9719
3875 7 50.5301 23.9203 10.9705
3876 7 40.0544 19.5666 11.419
3877 7 44.0326 8.68373 18.5642
3878 7 51.6355 2.27334 17.5519
3879 7 23.5418 4.21659 17.2267
3880 7 36.9244 2.71458 17.1291
3881 7 51.3678 23.6117 13.8712
3882 7 31.1129 22.6127 19.1005
3883 7 35.7306 19.2677 23.3627
3884 7 40.0034 5.94569 26.9182
3885 7 33.0362 20.0309 10.6334
3886 7 55.9112 17.2325 14.6094
3887 7 33.9411 29.559 15.3183
3888 7 32.2957 27.1981 13.9707
3889 7 41.3372 11.6258 16.4838
3890 7 43.0636 18.1096 15.5322
3891 7 55.7079 7.58717 10.8516
3892 7 48.8107 7.00229 17.8873
3893 7 22.4885 14.8456 10.6661
3894 7 24.5572 10.7635 13.8292
3895 7 47.1375 8.12596 20.1807
3896 7 39.6602 20.9318 18.367
3897 7 47.3871 15.4435 16.2539
3898 7 42.9839 27.3564 7.37521
3899 7 39.1685 2.16645 19.0093
3900 7 27.7438 8.72194 15.8543
3901 7 51.9233 9.07228 18.8585
3902 7 51.4827 13.4829 17.9019
3903 7 50.8556 2.42087 25.0603
3904 7 23.6758 19.8108 19.0172
3905 7 42.8126 11.8573 13.7849
3906 7 39.987 16.639 17.6788
3907 7 25.1347 26.0604 13.0161
3908 7 39.7145 1.53512 25.6794
3909 7 28.7815 15.953 14.4322
3910 7 27.8786 22.8457 10.9593
3911 7 38.9497 9.29223 26.7156
3912 7 40.0126 23.8411 26.1666
3913 7 32.7504 11.1387 27.9743
3914 7 46.4274 16.2833 21.5968
3915 7 28.8028 27.7789 15.1095
3916 7 32.5784 10.1725 23.0282
3917 7 56.0896 28.7426 12.5469
3918 7 30.1204 27.667 11.2851
3919 7 50.8285 2.08655 21.1518
3920 7 38.4095 12.3357 16.1969
3921 7 44.5209 23.3831 13.3034
3922 7 39.0428 9.75439 23.5773
3923 7 44.3844 5.03495 24.9807
3924 7 28.8394 13.3138 13.3937
3925 7 51.3219 18.2967 17.3302
3926 7 48.0995 15.437 13.1898
3927 7 43.0986 4.27611 10.7324
3928 7 57.1788 4.54129 10.8097
3929 7 53.0175 14.5757 14.9678
3930 7 36.0616 14.8394 24.2968
3931 7 50.262 8.60184 21.2649
3932 7 25.4852 18.7442 22.2757
3933 7 30.1834 10.5719 25.6159
3934 7 37.4622 27.7612 7.49616
3935 7 36.3332 15.5902 15.6724
3936 7 35.189 22.4465 24.0961
3937 7 54.17 25.3391 17.8043
3938 7 34.0559 8.09291 21.7147
3939 7 57.2911 19.4025 13.6901
3940 7 47.721 22.1575 22.028
3941 7 33.6458 6.16947 13.059
3942 7 35.7076 12.6939 13.9014
3943 7 44.6499 18.9194 19.3097
3944 7 49.1006 12.4985 12.9121
3945 7 42.1783 27.2165 17.6238
3946 7 46.7933 18.2218 11.3632
3947 7 29.667 27.88 20.0488
3948 7 44.3555 14.3041 25.2504
3949 7 53.8654 11.6195 17.1655
3950 7 48.1174 12.5818 17.2101
3951 7 31.5459 4.2296 21.6055
3952 7 43.7427 9.07616 10.583
3953 7 43.469 15.7329 22.5844
3954 7 30.3575 13.0291 18.167
3955 7 27.7474 2.61491 13.7958
3956 7 52.2518 28.9007 11.4936
3957 7 53.184 12.282 20.3276
3958 7 29.0117 23.936 16.6186
3959 7 32.2393 1.3974 24.5983
3960 7 45.4365 4.68759 27.8738
3961 7 32.0075 13.4511 23.4132
3962 7 31.7839 5.94131 10.6711
3963 7 34.8777 5.84113 25.1961
3964 7 48.5478 13.3343 20.7421
3965 7 37.0601 6.65123 11.0478
3966 7 31.3676 20.4346 16.7089
3967 7 51.0011 27.0217 16.4713
3968 7 31.8144 25.5118 10.7545
3969 7 37.4805 16.0121 19.0099
3970 7 41.0753 17.0731 21.8158
3971 7 42.0562 3.90294 26.0805
3972 7 30.4437 1.42406 10.8472
3973 7 42.2472 27.0521 22.3318
3974 7 41.5887 24.2904 15.1916
3975 7 43.804 18.0478 27.4431
3976 7 41.7763 0.635722 23.8327
3977 7 45.6735 18.1524 14.3839
3978 7 47.736 8.27965 22.9398
3979 7 29.2747 20.0343 18.7
3980 7 33.5636 0.593955 10.8462
3981 7 51.3582 20.1482 14.4553
3982 7 35.2939 22.0659 20.5357
3983 7 39.0123 5.0848 18.3566
3984 7 43.9863 10.5962 24.5313
3985 7 24.1381 20.8858 16.3583
3986 7 55.495 14.201 18.917
3987 7 25.8007 13.1336 14.8648
3988 7 49.4149 18.0852 14.6962
3989 7 41.7905 23.3651 10.8778
3990 7 51.7887 2.56079 12.9967
3991 7 48.3782 16.6432 23.5605
3992 7 38.9679 22.4554 28.2934
3993 7 45.8019 19.1123 23.0258
3994 7 42.3339 1.51852 13.3956
3995 7 27.3685 26.2774 10.9459
3996 7 33.9683 7.61275 16.3866
3997 7 41.5596 3.72565 21.0405
3998 7 41.2502 13.6947 27.1796
3999 7 46.8596 0.83765 10.636
4000 7 39.5045 9.23329 15.3481
4001 7 38.1059 3.82036 11.1069
4002 7 53.1463 15.224 11.7312
4003 7 31.4049 16.2303 13.23
4004 7 41.1001 6.33111 14.0299
4005 7 54.0223 27.4433 9.74961
4006 7 30.7998 26.8211 17.025
4007 7 32.9415 18.7521 23.8173
4008 7 30.527 16.5288 10.828
4009 7 48.0309 19.561 21.018
4010 7 25.7659 18.4569 14.1258
4011 7 42.2183 23.5759 22.8866
4012 7 51.8694 15.8776 19.623
4013 7 57.9275 10.0396 11.2353
4014 7 46.1706 12.1082 15.0468
4015 7 44.0963 20.6437 24.9903
4016 7 34.3568 4.18034 15.6215
4017 7 50.5002 11.7517 22.6389
4018 7 53.4045 24.1587 21.2342
4019 7 48.9307 3.80574 17.5056
4020 7 48.9086 28.7485 11.4465
4021 7 40.1975 20.4604 25.1099
4022 7 42.2691 28.8966 27.4441
4023 7 41.8568 26.0594 26.2843
4024 7 55.2618 18.4631 10.7477
4025 7 45.8601 28.9376 21.7836
4026 7 39.3251 12.1567 12.172
4027 7 29.5239 1.10866 15.5382
4028 7 57.4923 16.7527 11.088
4029 7 38.1716 21.6512 23.4849
4030 7 35.7582 3.53705 22.0658
4031 7 54.2211 24.2874 14.0494
4032 7 35.3801 18.4938 11.2406
4033 7 54.465 29.7391 16.2486
4034 7 24.3226 17.493 17.1561
4035 7 46.4955 26.2036 12.5389
4036 7 36.6333 11.2253 24.2005
4037 7 51.6737 11.3331 15.1636
4038 7 51.5809 28.7024 23.7742
4039 7 33.5039 19.5635 14.6922
4040 7 30.1205 28.3819 23.0415
4041 7 38.9236 26.5659 16.8108
4042 7 30.0866 4.16188 16.3766
4043 7 38.3431 29.0683 15.6307
4044 7 33.4167 11.6175 20.6596
4045 7 47.365 4.41454 20.9105
4046 7 55.5625 27.3437 18.5787
4047 7 35.6751 21.1378 27.36
4048 7 49.2976 1.59339 13.8128
4049 7 39.35 28.7627 24.1122
4050 7 51.6218 22.0013 16.3228
4051 7 25.1046 9.44492 17.8397
4052 7 54.167 11.4134 10.9016
4053 7 31.4858 2.62554 26.8865
4054 7 45.9489 2.03966 13.1619
4055 7 28.8456 2.10097 22.2875
4056 7 36.1057 3.10495 12.9231
4057 7 49.0664 19.3674 23.4078
4058 7 57.3154 23.0699 18.3831
4059 7 35.5545 11.5622 10.7037
4060 7 36.3285 10.8691 27.1334
4061 7 25.7996 2.54418 11.1611
4062 7 54.1048 4.17548 18.264
4063 7 27.8406 4.24915 20.0865
4064 7 27.3855 22.6568 18.9664
4065 7 57.719 7.38271 13.3756
4066 7 30.3979 7.19146 15.3044
4067 7 29.3906 15.9248 20.2042
4068 7 45.4218 1.15774 23.8802
4069 7 34.1155 1.76069 19.6336
4070 7 48.6445 29.0204 15.4463
4071 7 54.2241 2.9435 22.659
4072 7 22.498 7.43284 13.6867
4073 7 47.7092 22.7853 17.3957
4074 7 40.2159 6.32221 11.0291
4075 7 45.8732 10.8575 21.2747
4076 7 39.3765 2.47038 14.5168
4077 7 27.3115 15.3896 10.427
4078 7 34.1842 9.34713 12.8753
4079 7 27.9749 11.4128 17.7374
4080 7 34.3745 5.41691 18.8507
4081 7 46.8335 12.0111 24.672
4082 7 25.0009 24.5927 16.9435
4083 7 39.1183 12.9947 19.6127
4084 7 51.3104 27.2398 6.35462
4085 7 40.7493 7.13995 17.2459
4086 7 26.6989 1.23748 20.3011
4087 7 47.3879 5.21366 12.9852
4088 7 45.1349 11.4884 27.2549
4089 7 53.9494 1.33641 11.2719
4090 7 42.1859 20.296 20.367
4091 7 45.2216 27.811 16.6538
4092 7 44.5628 13.0725 20.6702
4093 7 26.7741 18.4292 18.2078
4094 7 41.3073 13.0216 23.7038
4095 7 23.2313 9.54514 20.4454
4096 7 38.5463 26.043 12.5651
4097 7 43.0335 9.04403 13.3401
4098 7 31.4197 12.7903 10.7816
4099 7 38.0761 17.5188 26.5913
4100 7 45.2797 1.98282 16.2125
4101 7 47.4029 24.3397 14.7242
4102 7 28.1669 19.5642 12.9045
4103 7 26.0889 29.2143 14.0475
4104 7 44.966 8.28655 15.1576
4105 7 32.7781 24.073 21.9919
4106 7 39.6141 23.7798 18.014
4107 7 31.5373 0.547134 19.7231
4108 7 38.6224 18.6677 22.2488
4109 7 27.5926 28.0152 21.9913
4110 7 24.8548 12.7977 20.9772
4111 7 49.5387 28.934 20.7155
4112 7 38.7147 15.376 28.6741
4113 7 26.5413 5.83947 17.6439
4114 7 48.5855 26.1576 22.7177
4115 7 54.4186 8.75972 16.1739
4116 7 49.194 4.23928 10.6476
4117 7 50.3044 4.77909 20.438
4118 7 54.2755 7.88245 19.672
4119 7 20.8824 6.28891 10.8332
4120 7 34.6145 18.994 19.8548
4121 7 28.8745 6.98868 21.6105
4122 7 41.8793 16.7126 25.3613
4123 7 47.479 3.78273 25.138
4124 7 45.9387 28.6595 25.985
4125 7 33.2025 14.9505 10.5962
4126 7 42.0469 11.5037 10.9381
4127 7 43.943 24.757 20.464
4128 7 53.3123 8.51124 12.7106
4129 7 45.0257 20.4889 16.495
4130 7 36.6457 23.9733 15.566
4131 7 48.1514 1.58089 23.6293
4132 7 52.8576 5.17005 13.6819
4133 7 35.9852 10.5278 18.1902
4134 7 49.0485 15.8478 10.7046
4135 7 36.2599 25.8824 23.0126
4136 7 51.6753 7.82826 15.2148
4137 7 23.9378 16.1408 13.5543
4138 7 36.8395 3.75404 27.2393
4139 7 26.0945 7.63979 13.1428
4140 7 29.9411 5.35043 23.867
4141 7 48.5275 10.0074 18.0917
4142 7 38.2761 25.8722 25.173
4143 7 37.222 6.19921 15.8886
4144 7 55.0669 10.7077 14.3724
4145 7 41.0716 1.73433 16.5473
4146 7 42.5496 4.35351 16.7949
4147 7 43.3979 19.4054 11.114
4148 7 41.4316 8.3577 25.1955
4149 7 33.4678 12.4839 17.4294
4150 7 44.0119 15.9228 11.7827
4151 7 35.1346 26.1213 27.233
4152 7 54.8705 2.28667 14.1913
4153 7 37.6593 23.3671 20.4532
4154 7 56.2457 13.4884 15.0201
4155 7 36.4008 9.62882 20.6513
4156 7 31.2292 8.57122 12.0007
4157 7 40.2026 18.3191 28.3663
4158 7 27.79 9.59456 20.6731
4159 7 34.8695 29.658 26.4082
4160 7 27.3303 5.9364 11.0982
4161 7 41.2286 28.8551 19.893
4162 7 53.3681 21.5865 11.3785
4163 7 38.4667 29.1772 20.6224
4164 7 31.3532 16.9789 16.3717
4165 7 54.6646 17.5995 17.8096
4166 7 49.8511 9.53036 12.1571
4167 7 25.2798 28.0478 7.78567
4168 7 34.2365 15.7686 13.6595
4169 7 42.2896 13.7363 18.9701
4170 7 29.7575 16.1385 23.4495
4171 7 36.6036 0.266666 13.7859
4172 3 45.0784 24.7875 48.9546
4173 3 48.8731 27.6243 85.025
4174 3 60.5791 12.2109 60.9738
4175 3 7.91872 25.6674 13.4524
4176 3 2.03355 18.1595 32.2676
4177 3 30.8895 16.8356 48.2865
4178 3 72.2586 20.9754 33.3022
4179 3 25.9183 6.55977 36.4013
4180 3 0.999184 1.24686 78.2123
4181 3 69.4689 29.7916 31.906
4182 3 46.5303 12.5266 41.6168
4183 3 79.0717 7.88388 16.1286
4184 3 6.7638 3.32703 41.09
4185 3 23.0913 18.1557 75.6653
4186 3 39.3017 13.9133 34.214
4187 3 66.5038 27.6156 62.5298
4188 3 3.64358 1.68858 80.9851
4189 3 77.282 21.4718 71.5899
4190 3 66.0555 7.43454 12.2729
4191 3 42.4701 14.7006 79.152
4192 3 69.0472 2.01457 22.5976
4193 3 23.8388 12.1639 37.1958
4194 3 56.9546 26.9184 78.1492
4195 3 64.9669 14.3425 63.4675
4196 3 21.5718 4.35571 59.7564
4197 3 15.5056 22.6176 89.0228
4198 3 36.6981 23.6424 39.6979
4199 3 4.17091 8.896 12.8526
4200 3 52.9468 3.50781 87.1862
4201 3 79.804 10.0694 45.5672
4202 3 49.4117 11.217 85.5745
4203 3 71.7096 1.96158 15.1001
4204 3 60.5355 7.28771 63.5853
4205 3 54.7709 9.81389 35.6657
4206 3 33.1605 8.45341 46.4251
4207 3 70.066 10.3178 80.8234
4208 3 61.137 24.7975 41.8051
4209 3 60.2058 24.4415 55.0199
4210 3 6.42226 22.3009 33.5731
4211 3 72.5314 10.2023 21.9364
4212 3 32.5754 19.9586 80.3571
4213 3 11.1518 18.4646 64.5009
4214 3 42.3149 9.3367 75.4505
4215 3 48.7113 23.1163 52.2805
4216 3 66.2903 6.4345 18.5832
4217 3 29.7523 12.7802 27.5976
4218 3 3.55717 28.9706 84.3743
4219 3 59.238 23.5696 11.1194
4220 3 22.5065 28.2292 55.8174
4221 3 8.64679 12.8133 71.2269
4222 3 14.4269 20.1434 68.013
4223 3 72.5623 15.8595 72.1689
4224 3 22.7264 21.4322 69.1943
4225 3 8.02933 29.0086 68.1661
4226 3 35.4087 18.9214 55.4638
4227 3 19.5619 16.6268 89.6354
4228 3 59.1899 27.6383 89.3451
4229 3 8.7642 8.53232 10.857
4230 3 24.3956 21.7438 31.1776
4231 3 34.134 12.7749 35.4961
4232 3 24.6789 20.0061 78.5531
4233 3 42.0038 28.159 59.4904
4234 3 60.0597 18.2675 85.3233
4235 3 74.1468 11.5233 35.8636
4236 3 13.9947 19.2228 57.043
4237 3 11.6099 13.885 40.7457
4238 3 51.1985 11.3314 48.5823
4239 3 79.8411 2.01567 13.801
4240 3 51.4175 1.37381 30.4819
4241 3 53.6247 29.1621 91.2016
4242 3 59.9418 13.5279 69.9833
4243 3 41.428 14.8026 87.6533
4244 3 38.1581 19.1643 81.0568
4245 3 78.3104 8.69469 73.1396
4246 3 20.4107 4.26851 21.6479
4247 3 5.1023 3.85065 85.2289
4248 3 54.3025 20.7395 72.9333
4249 3 0.537879 28.3354 32.51
4250 3 41.2515 6.91471 58.6739
4251 3 6.10807 26.9817 58.6496
4252 3 48.7006 0.328601 63.5492
4253 3 40.0033 20.6411 71.6589
4254 3 38.5908 5.91397 70.772
4255 3 40.2544 26.9922 73.9103
4256 3 65.009 28.537 58.7182
4257 3 3.70529 4.31329 75.0506
4258 3 32.3085 7.44296 77.1914
4259 3 20.9549 5.69822 74.0729
4260 3 60.8927 23.7556 90.073
4261 3 8.60186 9.19115 74.1777
4262 3 8.14607 4.12068 36.5913
4263 3 44.7417 20.6149 33.4172
4264 3 65.6586 25.9249 68.9709
4265 3 9.45213 22.2967 75.2609
4266 3 27.5609 4.1154 80.0237
4267 3 57.0905 20.8161 49.3075
4268 3 21.186 9.58573 37.0498
4269 3 79.5319 1.55342 28.7894
4270 3 14.4889 21.8621 16.1387
4271 3 7.03834 24.9789 46.5681
4272 3 10.123 1.79845 34.1147
4273 3 69.4623 29.014 59.1302
4274 3 65.0325 12.0796 19.4225
4275 3 68.2088 7.1718 53.8466
4276 3 77.3598 1.78863 87.788
4277 3 34.8026 25.8946 71.333
4278 3 72.7395 6.93449 80.1808
4279 3 42.0351 4.23686 42.4124
4280 3 15.262 19.0936 84.5322
4281 3 39.0238 9.05484 79.4966
4282 3 15.2404 11.5624 75.0573
4283 3 38.9143 11.6516 70.9703
4284 3 24.2336 5.26794 45.1394
4285 3 16.8522 20.4012 60.9677
4286 3 70.6153 7.24143 43.3182
4287 3 9.84318 9.03312 41.1805
4288 3 3.03672 28.249 35.4012
4289 3 74.4833 8.34451 34.8356
4290 3 60.5071 7.45785 12.1792
4291 3 18.0787 4.31523 40.6288
4292 3 67.4922 13.6308 54.6071
4293 3 50.5813 17.9543 38.5615
4294 3 72.5932 12.2488 28.4173
4295 3 14.9526 13.4617 36.4464
4296 3 48.0742 8.06656 33.1627
4297 3 36.6908 27.7735 50.0169
4298 3 72.7023 6.18236 25.6158
4299 3 74.3638 22.5741 56.3312
4300 3 29.6357 24.1369 62.1554
4301 3 4.98728 27.6933 89.711
4302 3 78.2104 10.6904 35.7264
4303 3 70.354 20.4997 77.7873
4304 3 34.1841 6.15794 66.3143
4305 3 29.7986 19.6988 67.0475
4306 3 59.173 21.0015 18.6626
4307 3 56.8307 1.95128 54.9388
4308 3 2.61744 12.7787 35.2084
4309 3 64.9512 13.5541 43.7405
4310 3 55.9844 12.0298 86.0055
4311 3 16.8408 12.5193 27.304
4312 3 50.1767 24.2176 37.522
4313 3 73.1637 10.07 63.1646
4314 3 77.9899 14.4877 80.3139
4315 3 16.1131 27.6395 49.8043
4316 3 19.6317 24.9202 50.8363
4317 3 5.30819 2.55408 69.9106
4318 3 33.0022 0.94714 76.5103
4319 3 71.0671 28.5149 47.344
4320 3 13.9865 6.53062 50.3172
4321 3 4.75702 13.7518 62.1964
4322 3 13.4588 23.2932 65.5318
4323 3 12.5269 14.8254 52.9452
4324 3 26.5134 20.7014 58.0355
4325 3 69.3895 14.8764 25.7484
4326 3 54.2729 21.6014 46.0894
4327 3 66.3495 10.3971 36.2913
4328 3 50.6748 17.7911 43.1442
4329 3 6.61326 18.9487 25.9785
4330 3 72.8267 11.0065 47.9734
4331 3 32.4858 29.6563 86.169
4332 3 74.549 5.84899 44.8255
4333 3 42.7014 11.0821 57.5778
4334 3 51.9258 23.0813 70.8669
4335 3 10.4486 4.88409 58.0739
4336 3 40.9063 21.2504 36.6591
4337 3 33.0065 12.3144 81.784
4338 3 63.6562 18.7702 82.7241
4339 3 59.4486 3.69564 25.402
4340 3 66.8962 20.0098 38.8572
4341 3 68.7271 20.9605 67.0304
4342 3 79.1968 28.5098 54.7895
4343 3 63.3483 28.1122 22.3208
4344 3 8.97529 18.8349 15.7742
4345 3 50.1763 6.73109 44.6472
4346 3 56.4096 6.8785 23.508
4347 3 29.6004 28.0274 52.3862
4348 3 70.9147 3.67078 11.763
4349 3 72.3265 2.81235 34.2506
4350 3 23.5805 24.6019 57.0722
4351 3 32.9008 4.59985 32.8
4352 3 57.6478 4.5007 66.1788
4353 3 22.2542 27.3613 68.0634
4354 3 55.3389 3.16528 50.0113
4355 3 28.4097 5.77549 72.3672
4356 3 18.0922 5.49343 61.0201
4357 3 31.3861 1.08491 60.2642
4358 3 10.4824 0.631404 22.4075
4359 3 79.9849 19.7143 65.6279
4360 3 47.5464 6.05265 51.3851
4361 3 1.07172 24.664 75.3377
4362 3 36.817 3.62909 61.5623
4363 3 14.7896 22.5512 41.6172
4364 3 24.3854 26.8482 85.8111
4365 3 3.79116 16.5017 65.654
4366 3 30.6682 8.11073 28.8857
4367 3 19.1432 12.5489 45.35
4368 3 16.8359 2.20579 59.2447
4369 3 17.079 0.373025 42.3282
4370 3 1.75104 8.58733 86.0497
4371 3 64.6667 16.8584 32.2507
4372 3 46.9787 3.94687 36.4304
4373 3 54.7899 18.6081 58.8126
4374 3 57.4028 1.16864 90.7262
4375 3 42.0216 14.0919 42.0812
4376 3 6.22181 14.2619 33.3136
4377 3 24.0057 10.1874 28.8035
4378 3 69.4626 29.9987 76.2908
4379 3 16.2807 5.17161 33.5989
4380 3 21.1865 14.4616 39.4156
4381 3 28.5029 13.6033 71.2166
4382 3 58.0266 4.66111 80.1741
4383 3 0.245139 25.9017 50.1956
4384 3 63.0921 1.8954 46.2378
4385 3 69.0487 15.0501 73.7156
4386 3 31.8881 27.9955 79.6033
4387 3 58.8632 22.7239 81.0043
4388 3 6.04946 27.8086 75.6508
4389 3 41.9938 1.31714 35.981
4390 3 73.0632 12.0347 41.9406
4391 3 57.0985 5.42172 74.8702
4392 3 2.34664 26.9492 11.9052
4393 3 57.3345 22.158 52.7133
4394 3 8.71466 4.04844 27.3223
4395 3 63.1657 19.7313 20.1789
4396 3 78.9094 13.1644 61.452
4397 3 14.0714 4.78649 46.1419
4398 3 29.8231 22.4323 26.793
4399 3 20.4421 4.50534 47.7947
4400 3 77.8242 16.588 44.1434
4401 3 27.9622 22.4522 77.0287
4402 3 75.6065 18.801 11.6459
4403 3 12.2342 27.6539 86.3446
4404 3 43.7531 10.5765 34.0424
4405 3 2.51995 10.9438 82.1425
4406 3 44.8858 25.7567 83.7244
4407 3 11.8147 20.2247 42.0298
4408 3 79.796 9.95401 56.9923
4409 3 40.1837 9.92571 49.9096
4410 3 66.101 2.90558 88.5549
4411 3 41.1101 13.7707 48.118
4412 3 36.4146 6.89467 76.0224
4413 3 41.7715 1.85351 76.9388
4414 3 52.9875 24.3957 57.5902
4415 3 79.6117 1.74192 55.8793
4416 3 9.98147 16.8077 21.6842
4417 3 52.5008 29.5279 86.6546
4418 3 44.8729 29.2005 70.6697
4419 3 60.4216 15.1242 36.4367
4420 3 37.5641 16.4163 89.5406
4421 3 72.8473 28.6834 67.2883
4422 3 34.7669 24.254 52.3328
4423 3 63.9877 19.036 44.4208
4424 3 11.741 22.2061 71.5758
4425 3 15.8083 24.0234 57.4436
4426 3 7.25127 19.7727 30.5985
4427 3 7.1432 28.1527 38.449
4428 3 52.0468 8.79304 86.5633
4429 3 32.4589 7.01156 35.6897
4430 3 12.2479 1.71551 89.4255
4431 3 68.6968 7.13565 34.669
4432 3 70.0461 5.11506 85.8193
4433 3 78.4718 23.6738 28.8033
4434 3 8.74249 26.8514 21.9948
4435 3 8.02408 20.9952 39.0066
4436 3 23.906 25.9006 61.8634
4437 3 16.4599 29.3902 87.9873
4438 3 6.69383 29.4274 50.8554
4439 3 51.2084 12.4197 59.8799
4440 3 76.4676 6.4187 26.4275
4441 3 73.9186 6.94261 53.6181
4442 3 31.5598 20.608 73.7205
4443 3 4.87868 16.4105 52.5565
4444 3 60.3236 18.5547 32.3076
4445 3 14.6751 3.2921 86.3902
4446 3 62.3392 27.8389 77.1339
4447 3 74.0562 20.0431 79.6604
4448 3 44.5109 18.2729 49.0233
4449 3 57.5949 21.342 34.282
4450 3 50.5287 17.1187 53.0992
4451 3 65.3304 29.6717 37.8946
4452 3 59.7044 26.11 46.4392
4453 3 18.2315 10.2412 82.0685
4454 3 30.3452 3.37193 30.2256
4455 3 45.2222 16.5742 33.8694
4456 3 22.1994 28.8143 22.203
4457 3 58.7166 29.4052 14.5658
4458 3 57.5318 26.6447 73.5339
4459 3 37.9585 2.21806 81.138
4460 3 10.915 2.77988 53.5199
4461 3 4.18932 8.80906 68.282
4462 3 73.1653 5.07688 59.9671
4463 3 60.9225 7.53701 35.0188
4464 3 4.11473 11.5175 41.8878
4465 3 43.4094 16.8808 64.9882
4466 3 55.1502 27.3018 47.6052
4467 3 11.2394 8.76762 24.1817
4468 3 41.8938 17.7839 54.7435
4469 3 28.4295 12.5111 89.6415
4470 3 75.2776 4.11621 83.8913
4471 3 40.8327 28.3773 70.2203
4472 3 70.2538 26.971 41.1449
4473 3 72.8877 7.19757 38.5825
4474 3 59.5631 0.546922 28.0469
4475 3 5.68158 28.3304 30.454
4476 3 30.9286 29.7119 41.8978
4477 3 45.3213 24.6347 35.4513
4478 3 58.988 5.55095 54.744
4479 3 52.3108 6.16399 49.8592
4480 3 78.8244 0.409006 65.661
4481 3 49.762 20.5275 46.6278
4482 3 11.1086 26.8987 32.9191
4483 3 4.80137 21.0467 66.4075
4484 3 27.5767 23.2398 66.7933
4485 3 1.96654 18.5391 21.1015
4486 3 60.5378 9.76681 17.9333
4487 3 1.85496 14.8138 86.2122
4488 3 64.257 13.0954 71.2719
4489 3 4.0805 21.3754 50.2442
4490 3 25.2939 9.68783 82.2717
4491 3 4.83848 11.0164 85.4515
4492 3 27.4287 10.3505 39.4187
4493 3 62.419 16.8037 65.8992
4494 3 28.2364 18.4513 54.7057
4495 3 63.4019 13.4324 28.3902
4496 3 13.4206 18.1625 23.3315
4497 3 65.0997 22.2431 33.3688
4498 3 41.1438 27.8128 41.0257
4499 3 49.2269 7.24821 75.8624
4500 3 60.1936 2.54207 70.7936
4501 3 26.0385 10.2938 87.5885
4502 3 49.7713 21.256 59.2674
4503 3 2.4724 4.77435 27.0987
4504 3 31.7579 12.8783 49.387
4505 3 38.6256 0.957815 68.1694
4506 3 28.9878 29.6485 89.688
4507 3 17.8339 8.52713 50.5004
4508 3 5.55224 16.8521 70.9142
4509 3 55.7586 1.91849 77.8288
4510 3 44.9238 14.766 89.2491
4511 3 74.1977 29.8097 90.5323
4512 3 31.8549 9.46833 74.288
4513 3 0.609941 28.0957 71.1057
4514 3 56.8977 10.5021 40.7236
4515 3 16.3556 8.70068 87.9204
4516 3 38.9712 8.35297 32.4043
4517 3 76.9521 11.5038 41.782
4518 3 34.065 2.0643 54.4667
4519 3 20.5333 2.6316 66.7372
4520 3 68.4511 13.1394 31.2627
4521 3 13.2344 10.4514 50.6561
4522 3 66.7042 0.149958 43.3216
4523 3 70.9376 8.83681 69.5048
4524 3 59.7302 16.4127 59.965
4525 3 0.925758 11.1391 88.4166
4526 3 9.32413 25.066 66.2916
4527 3 69.3277 5.09996 51.022
4528 3 3.12162 7.75089 59.8896
4529 3 54.4301 29.1328 40.9168
4530 3 34.8873 7.78464 58.6144
4531 3 34.5134 21.3699 30.7353
4532 3 62.8077 2.39993 87.9519
4533 3 42.0332 1.56132 81.4579
4534 3 24.2781 1.37425 40.555
4535 3 69.0939 29.2472 11.5156
4536 3 77.1941 18.5264 34.4038
4537 3 20.5641 16.2799 22.3975
4538 3 6.28114 13.5091 45.4356
4539 3 77.7383 2.71724 25.2276
4540 3 48.6952 14.4391 61.8012
4541 3 38.2429 21.242 56.5438
4542 3 27.8693 0.173154 72.06
4543 3 19.535 6.06718 30.6352
4544 3 21.3528 20.9195 83.5174
4545 3 35.1696 21.7219 63.4872
4546 3 14.1432 11.6908 43.9214
4547 3 28.9079 17.4741 74.2685
4548 3 62.7745 26.7071 84.5463
4549 3 63.042 11.9974 83.6166
4550 3 66.581 2.6504 17.6794
4551 3 38.1301 13.6502 60.8463
4552 3 71.9651 3.95367 69.0183
4553 3 75.5597 24.7026 46.6454
4554 3 5.76066 10.129 89.5385
4555 3 1.99388 19.2455 76.4141
4556 3 47.1192 18.9773 66.8494
4557 3 61.713 25.5517 13.3569
4558 3 26.6097 29.7211 58.4255
4559 3 16.1781 20.6191 71.7247
4560 3 45.5113 1.39975 84.4547
4561 3 41.9824 4.76971 83.3205
4562 3 70.7155 20.4735 71.2431
4563 3 17.6486 21.4545 53.7603
4564 3 6.58482 2.07067 32.4033
4565 3 76.9367 28.5593 21.0714
4566 3 70.0115 27.3138 24.4613
4567 3 15.394 0.425699 80.2452
4568 3 75.778 29.8526 17.1924
4569 3 43.5039 16.5904 83.8749
4570 3 25.0929 5.05329 75.294
4571 3 0.281617 3.52863 37.1978
4572 3 27.469 20.643 38.202
4573 3 3.08866 28.8491 48.8365
4574 3 22.7193 28.454 80.1657
4575 3 42.3448 6.17301 62.7721
4576 3 9.39976 11.7692 51.9356
4577 3 75.5674 13.6912 25.5439
4578 3 45.533 0.499887 59.709
4579 3 63.3961 1.40864 83.5231
4580 3 69.6601 15.1512 66.0289
4581 3 15.3871 15.1843 83.126
4582 3 23.216 19.7022 37.9092
4583 3 60.1246 2.01966 49.2362
4584 3 61.8089 15.6332 84.2394
4585 3 69.9074 21.5604 60.658
4586 3 53.7621 16.4315 68.1296
4587 3 10.819 9.91095 54.3078
4588 3 34.9087 9.5906 54.2582
4589 3 76.5713 9.57474 11.4597
4590 3 24.8779 1.7509 83.3564
4591 3 6.17006 11.998 75.2861
4592 3 29.5076 21.7205 34.0535
4593 3 71.4447 10.0035 77.6175
4594 3 77.6211 26.9442 41.5321
4595 3 71.266 2.53901 73.7362
4596 3 2.77515 13.8812 44.1109
4597 3 30.6436 4.05558 44.3674
4598 3 63.6676 6.45182 80.3632
4599 3 37.9462 16.8267 50.3963
4600 3 6.12688 12.7064 56.3669
4601 3 72.2283 23.1098 13.2864
4602 3 45.0883 4.59242 74.5063
4603 3 2.64731 19.367 39.7823
4604 3 56.6098 14.9361 38.9917
4605 3 47.8983 4.41295 46.4786
4606 3 64.891 19.9828 53.6971
4607 3 79.9126 26.212 37.8634
4608 3 69.6574 19.1135 84.7143
4609 3 5.5688 24.7239 19.0287
4610 3 58.286 7.31558 88.4748
4611 3 65.326 17.7716 50.3292
4612 3 52.2808 22.7562 88.4048
4613 3 47.2584 25.5809 76.0733
4614 3 59.9124 10.6129 67.1717
4615 3 29.9124 26.1486 83.601
4616 3 64.4911 8.62306 44.2214
4617 3 27.4651 4.8949 38.8154
4618 3 79.7805 27.7413 45.2032
4619 3 11.566 25.461 41.478
4620 3 51.118 15.8808 88.1434
4621 3 53.9295 28.2197 55.9588
4622 3 45.4427 20.6423 55.5166
4623 3 61.7087 15.5399 12.2759
4624 3 32.3449 22.6695 53.6875
4625 3 74.9706 16.3148 50.5395
4626 3 12.3693 22.2969 36.145
4627 3 67.6171 16.0828 45.9053
4628 3 79.3288 8.73954 61.549
4629 3 60.6051 0.718487 33.0353
4630 3 71.706 19.8698 14.8528
4631 3 19.1932 26.0321 38.5967
4632 3 19.5103 7.6266 56.5095
4633 3 48.2681 1.92265 74.452
4634 3 51.9877 19.9929 64.6136
4635 3 28.6279 7.77253 54.6432
4636 3 63.6833 0.64778 75.3648
4637 3 24.2015 24.1783 47.7001
4638 3 5.35819 22.3709 61.3199
4639 3 53.4354 28.3937 72.4265
4640 3 66.62 27.8453 34.7443
4641 3 2.9095 29.1557 44.6258
4642 3 20.0026 17.2039 82.3885
4643 3 46.5245 7.78397 71.0391
4644 3 44.3558 27.6277 30.8792
4645 3 65.0512 0.26757 69.925
4646 3 31.8466 29.622 48.8379
4647 3 11.5229 23.5595 27.6255
4648 3 69.9063 1.73588 39.4044
4649 3 51.5734 9.40519 52.771
4650 3 46.4723 9.40633 61.1961
4651 3 56.8135 5.01317 45.125
4652 3 11.8867 1.14121 25.6322
4653 3 75.942 27.6683 27.5018
4654 3 69.2271 16.5802 52.8286
4655 3 48.0809 10.3443 52.816
4656 3 42.4645 1.80403 65.1944
4657 3 17.4439 6.90797 44.613
4658 3 52.3046 11.1666 74.2403
4659 3 48.0668 24.733 42.5441
4660 3 3.33339 10.1074 37.3885
4661 3 11.7867 18.3806 49.0358
4662 3 27.155 20.0474 49.2268
4663 3 39.6618 22.1457 87.5542
4664 3 57.2602 26.4125 53.4458
4665 3 53.8456 22.3656 29.1348
4666 3 16.6568 14.2497 62.6936
4667 3 71.9985 25.1571 88.3224
4668 3 76.6074 21.3819 51.4623
4669 3 6.10405 9.28311 33.258
4670 3 52.8558 3.28484 67.5467
4671 3 62.7795 19.9496 15.5461
4672 3 60.5799 9.09182 29.7143
4673 3 43.2026 10.558 78.7245
4674 3 12.1165 13.8239 73.7433
4675 3 64.235 29.767 15.2103
4676 3 7.37402 25.1141 69.676
4677 3 14.2126 11.8449 54.6553
4678 3 11.0945 15.0015 27.8639
4679 3 61.3485 23.0825 21.8171
4680 3 69.4439 22.262 22.2486
4681 3 33.1096 19.4325 89.6324
4682 3 47.5697 25.2983 59.0195
4683 3 20.9124 12.6674 20.7125
4684 3 33.4824 24.0709 78.7904
4685 3 9.2283 10.7924 85.0026
4686 3 23.2323 9.54944 52.346
4687 3 67.8173 23.4719 62.8558
4688 3 69.8142 16.4244 30.8076
4689 3 8.58945 25.4801 86.1505
4690 3 78.8476 29.1344 25.0174
4691 3 21.8832 22.723 63.9581
4692 3 16.4447 27.428 63.5224
4693 3 54.8209 15.8617 46.437
4694 3 56.5562 7.25618 31.8112
4695 3 69.6008 21.2928 48.9686
4696 3 11.9411 29.3343 44.5384
4697 3 74.8447 1.68586 20.0147
4698 3 22.6436 13.2503 56.6128
4699 3 57.1068 4.3111 39.0022
4700 3 0.304485 16.2015 48.5985
4701 3 15.0178 3.83976 78.1332
4702 3 69.1185 0.0190955 18.9859
4703 3 57.3447 1.4358 42.2369
4704 3 44.7735 25.6566 40.6752
4705 3 73.141 8.5584 13.2138
4706 3 75.4521 15.5222 64.1821
4707 3 56.897 15.187 26.9403
4708 3 37.4877 25.9705 87.5271
4709 3 65.1286 21.8973 48.7202
4710 3 38.6771 5.02549 39.8944
4711 3 15.8575 25.7483 83.9373
4712 3 51.165 7.84305 64.217
4713 3 24.2276 7.93306 24.7256
4714 3 28.9816 21.0499 82.7471
4715 3 66.2346 24.2422 39.5248
4716 3 76.4965 12.6811 77.0772
4717 3 65.1982 16.4179 40.15
4718 3 21.6864 18.7848 55.8651
4719 3 62.7587 27.9922 55.4262
4720 3 78.9507 2.80757 19.6416
4721 3 14.9832 20.4385 12.6417
4722 3 16.5396 25.5052 25.0083
4723 3 20.2306 22.0046 29.692
4724 3 64.7832 8.33493 64.0976
4725 3 10.1157 1.99879 18.6425
4726 3 20.7182 13.2348 63.8489
4727 3 53.6035 8.44174 67.3937
4728 3 24.1093 11.9823 42.3001
4729 3 19.7755 15.59 71.8903
4730 3 8.95114 14.5633 65.2039
4731 3 50.077 14.1464 34.1325
4732 3 55.4885 20.4254 68.3872
4733 3 56.5722 19.5904 25.4595
4734 3 21.0639 12.7692 80.6584
4735 3 73.9737 18.0274 29.8305
4736 3 34.4397 5.25238 73.6521
4737 3 6.01963 18.0343 88.2146
4738 3 2.64948 11.6148 55.1557
4739 3 13.7253 27.484 14.1288
4740 3 64.0161 4.36312 67.5193
4741 3 8.43457 22.7797 89.7833
4742 3 42.2066 29.3764 48.3951
4743 3 74.0281 26.5459 35.2554
4744 3 51.1392 13.6395 54.2798
4745 3 11.5948 0.693587 30.8604
4746 3 47.5555 28.7681 47.0633
4747 3 30.1146 18.9166 41.2452
4748 3 57.6262 20.1205 62.5382
4749 3 78.2998 2.23493 42.2942
4750 3 76.5462 3.51376 74.4352
4751 3 42.6158 20.1967 83.0818
4752 3 76.737 16.5756 71.9207
4753 3 63.7016 2.44588 79.3388
4754 3 6.11152 4.26211 54.6131
4755 3 78.0104 14.5684 56.477
4756 3 11.2445 24.5823 17.4018
4757 3 42.8121 19.1177 67.6784
4758 3 48.2709 11.8651 80.0755
4759 3 38.2767 27.5727 44.8152
4760 3 67.2224 4.60918 56.4917
4761 3 69.4907 3.63474 77.174
4762 3 31.8793 24.8782 37.0423
4763 3 65.0835 4.92403 29.1142
4764 3 77.3436 7.37941 88.732
4765 3 72.7414 23.6751 29.0454
4766 3 65.3067 11.3065 23.9817
4767 3 4.76426 15.454 15.0126
4768 3 43.8223 26.0796 88.6659
4769 3 28.2132 28.3788 78.5785
4770 3 11.059 28.7791 72.8108
4771 3 60.0644 9.23345 22.6974
4772 3 51.0323 25.0306 30.1019
4773 3 58.268 23.8993 86.2437
4774 3 14.5375 2.1329 68.8058
4775 3 44.1401 3.10316 45.5998
4776 3 9.99516 15.197 58.7202
4777 3 27.9904 11.3807 51.8227
4778 3 35.8718 11.5486 68.4766
4779 3 40.9063 16.3222 32.5141
4780 3 5.82457 10.1724 27.6655
4781 3 29.6211 7.8903 86.6083
4782 3 18.5355 10.7053 39.8273
4783 3 61.7889 15.6446 52.7862
4784 3 32.7162 14.6747 70.1106
4785 3 10.1716 22.3177 85.3859
4786 3 20.0257 22.6247 19.4238
4787 3 46.3277 4.33705 60.737
4788 3 58.3259 18.606 82.3387
4789 3 25.6491 19.3259 28.3178
4790 3 77.5303 4.47944 78.3076
4791 3 20.5092 17.6826 52.278
4792 3 23.5884 19.2731 42.9318
4793 3 33.9999 21.2655 35.6324
4794 3 56.5287 18.991 55.3896
4795 3 79.487 14.6181 15.4863
4796 3 9.39842 14.8642 14.0424
4797 3 8.35414 5.37306 48.5352
4798 3 43.8787 6.51958 50.7023
4799 3 63.931 3.42123 51.4022
4800 3 40.8185 10.3712 64.5466
4801 3 15.5445 6.7569 36.3835
4802 3 79.6296 16.2287 67.711
4803 3 72.2006 15.023 16.2229
4804 3 7.33952 28.8321 46.3199
4805 3 9.08674 7.87306 16.6817
4806 3 31.2048 26.2447 90.2626
4807 3 19.2006 27.2675 71.7607
4808 3 7.21345 14.8504 39.1505
4809 3 78.6147 17.8956 61.7248
4810 3 2.96211 5.98869 64.894
4811 3 76.2182 23.7976 32.5861
4812 3 34.7423 24.9394 67.5876
4813 3 6.26299 5.5166 15.1635
4814 3 3.58384 24.1771 83.8864
4815 3 38.7534 2.10891 49.746
4816 3 12.1112 27.8922 53.5854
4817 3 2.42223 15.343 12.1437
4818 3 21.0146 7.44201 65.4654
4819 3 10.5512 9.47018 45.8267
4820 3 78.5863 21.3857 22.1498
4821 3 15.166 7.90202 65.6256
4822 3 61.1407 25.5725 51.4752
4823 3 14.4054 22.3352 49.2331
4824 3 23.4463 26.1476 29.3322
4825 3 42.2298 0.743932 88.0777
4826 3 12.8647 9.56458 30.9637
4827 3 66.1276 25.838 48.7174
4828 3 71.8608 6.76987 21.4947
4829 3 10.0774 10.5881 57.8826
4830 3 10.8221 13.1581 33.2453
4831 3 52.663 12.8527 84.3841
4832 3 3.56574 28.3382 21.5707
4833 3 16.5954 28.8035 23.8049
4834 3 51.6133 16.1098 77.7882
4835 3 48.0417 3.74355 67.2769
4836 3 67.722 22.9009 45.6937
4837 3 72.8213 12.0945 67.8061
4838 3 79.4584 6.19832 34.7106
4839 3 10.4154 28.1411 39.4609
4840 3 6.29408 20.0274 80.2428
4841 3 64.8697 0.67169 30.4438
4842 3 60.696 24.8121 28.9191
4843 3 43.7849 3.34138 32.4657
4844 3 0.798974 1.67771 69.1478
4845 3 37.7494 19.6959 33.6855
4846 3 65.7892 23.2431 80.6177
4847 3 60.0088 25.8319 18.1175
4848 3 4.64864 10.0819 21.334
4849 3 57.2564 6.71177 59.3321
4850 3 68.6821 7.48091 78.0993
4851 3 39.0309 2.63059 43.7071
4852 3 78.1013 25.0783 70.8602
4853 3 28.8347 1.93072 64.4709
4854 3 31.712 25.6918 58.2725
4855 3 51.6957 4.30402 60.9527
4856 3 22.1132 5.74096 38.3206
4857 3 67.5579 19.7048 16.8293
4858 3 31.3642 10.161 40.9043
4859 3 78.5127 16.6015 37.8156
4860 3 57.1126 29.3823 67.8925
4861 3 76.7951 6.63098 64.8356
4862 3 75.1341 25.6272 39.4471
4863 3 61.6413 4.53845 43.7353
4864 3 28.8441 27.4394 43.385
4865 3 18.6736 23.4646 58.8598
4866 3 38.922 16.9358 70.8339
4867 3 58.5401 10.5079 48.7005
4868 3 63.1836 4.42905 75.308
4869 3 18.8349 16.6161 33.0961
4870 3 24.1132 16.2534 64.9392
4871 3 30.3491 2.05141 68.9868
4872 3 38.4579 18.5588 61.4971
4873 3 41.9126 9.92593 86.4878
4874 3 79.1026 22.0109 35.0887
4875 3 2.31159 25.6312 43.1616
4876 3 79.5399 25.4957 22.6546
4877 3 57.7423 10.1162 72.6514
4878 3 8.61043 7.36119 30.8281
4879 3 6.92587 17.9097 50.1815
4880 3 1.30284 14.4961 78.4011
4881 3 17.9167 19.4523 31.127
4882 3 31.8755 8.50925 82.2764
4883 3 13.8902 16.5911 45.6311
4884 3 35.5217 13.4968 45.6611
4885 3 67.6932 15.6538 58.2988
4886 3 11.795 28.8762 76.389
4887 3 59.4664 11.1453 56.8226
4888 3 1.61883 20.9226 62.6527
4889 3 64.5705 19.0153 62.0386
4890 3 27.2113 13.0161 31.164
4891 3 52.3001 10.8205 70.4768
4892 3 10.0762 25.3982 58.7607
4893 3 9.18058 7.12542 63.3209
4894 3 75.289 16.3416 21.6085
4895 3 4.76827 23.8435 56.0542
4896 3 50.5141 27.797 68.7869
4897 3 76.7316 10.3617 51.6071
4898 3 11.7281 3.80223 41.2404
4899 3 0.445889 19.2084 16.3802
4900 3 19.318 13.569 13.7162
4901 3 2.08583 1.1661 60.7908
4902 3 60.7607 18.2488 89.8009
4903 3 22.3821 13.713 86.9582
4904 3 12.9975 7.54539 38.9365
4905 3 77.6302 19.0832 84.5709
4906 3 45.4539 13.5863 50.8547
4907 3 60.8147 10.0211 71.5751
4908 3 24.4053 5.67666 49.0917
4909 3 60.7796 14.7846 24.8836
4910 3 60.0145 17.1427 75.9895
4911 3 64.5286 23.1132 44.7822
4912 3 60.2054 4.32585 20.1054
4913 3 45.4688 14.2943 30.1054
4914 3 70.4994 17.5598 41.5459
4915 3 11.2962 21.0183 52.5523
4916 3 35.5505 0.851848 57.8574
4917 3 27.4366 13.6547 65.2297
4918 3 15.6914 22.6301 78.54
4919 3 19.6708 9.42677 69.7731
4920 3 1.68157 22.0831 26.6436
4921 3 57.6533 14.149 74.9976
4922 3 5.75554 1.99866 90.7594
4923 3 52.4847 3.11462 56.8297
4924 3 57.3637 21.4163 39.3008
4925 3 38.3616 26.9289 62.1449
4926 3 69.4174 3.97313 65.612
4927 3 27.5211 8.38968 47.2206
4928 3 54.2497 17.7176 85.8713
4929 3 16.0717 13.8047 70.7937
4930 3 18.6564 13.7831 54.6563
4931 3 0.44236 9.51815 27.0451
4932 3 74.6475 11.0453 85.0619
4933 3 21.3855 0.955231 50.8505
4934 3 26.5324 27.694 49.345
4935 3 55.1024 27.4633 28.6529
4936 3 25.373 27.3963 72.5033
4937 3 53.8 25.6742 81.3822
4938 3 68.943 16.2728 62.5025
4939 3 47.0674 6.80493 83.2181
4940 3 62.9576 13.6545 55.3086
4941 3 30.1134 1.41107 56.9201
4942 3 18.1445 16.6534 75.5898
4943 3 55.8195 18.8554 21.0103
4944 3 33.6522 12.2845 90.0168
4945 3 48.8721 28.3702 27.4879
4946 3 64.8539 4.74974 62.2076
4947 3 52.7276 9.9258 44.0393
4948 4 9.34167 22.4708 77.7998
4949 4 48.9908 23.0488 54.8353
4950 4 46.6049 22.6649 41.4888
4951 4 31.0894 2.31795 42.4943
4952 4 62.6054 10.4898 81.5782
4953 4 54.0858 28.0921 78.1752
4954 4 72.7773 16.2357 64.2435
4955 4 45.402 3.76672 83.3569
4956 4 6.39189 3.97906 47.165
4957 4 33.3268 20.2683 61.4127
4958 4 52.9818 29.0701 88.9464
4959 4 78.6021 2.91239 70.5542
4960 4 0.653065 29.7939 30.3315
4961 4 14.8531 0.788274 85.3059
4962 4 10.4012 27.146 74.7591
4963 4 48.3467 14.494 29.5652
4964 4 45.3426 0.0805175 42.8928
4965 4 49.7649 19.7599 89.489
4966 4 74.6265 8.58253 37.4068
4967 4 44.5706 29.2985 85.2739
4968 4 35.1887 12.5929 80.1174
4969 4 28.6943 27.3604 55.1136
4970 4 50.4047 0.67142 55.1678
4971 4 14.172 28.1032 88.1151
4972 4 34.6747 9.42358 82.6598
4973 4 47.5769 12.0168 60.1565
4974 4 43.3446 3.65371 67.0912
4975 4 62.2423 0.796587 77.6962
4976 4 14.5636 16.8169 25.7326
4977 4 65.4791 11.3243 78.2144
4978 4 52.9447 20.3162 86.9087
4979 4 27.0748 25.3847 38.693
4980 4 68.7943 4.13964 87.7973
4981 4 59.9869 10.7497 88.8799
4982 4 64.9778 0.887717 86.6641
4983 4 5.49225 19.3775 18.2938
4984 4 7.80431 11.8336 73.4551
4985 4 7.76009 27.1062 88.009
4986 4 0.504381 21.3782 17.7541
4987 4 22.911 18.8446 35.6646
4988 4 50.966 23.5249 86.2577
4989 4 62.2571 23.3518 83.4921
4990 4 71.0511 29.1673 26.167
4991 4 23.8317 25.1012 54.4587
4992 4 47.3368 13.5003 52.5952
4993 4 66.5805 21.5572 57.0985
4994 4 31.3896 20.5485 87.9169
4995 4 41.7647 2.66059 44.4303
4996 4 46.8049 20.7818 29.6194
4997 4 58.9568 6.29758 25.018
4998 4 36.0255 13.117 62.0939
4999 4 79.2826 6.49962 62.633
5000 4 33.927 27.9552 84.8564
5001 4 55.973 28.5304 73.9993
5002 4 38.6087 3.32029 63.3322
5003 4 27.8778 28.1486 60.3404
5004 4 58.0755 6.97065 64.061
5005 4 78.9912 16.0587 70.4705
5006 4 63.7497 6.56394 27.5437
5007 4 74.5149 19.2546 83.4883
5008 4 56.3923 3.63628 43.0953
5009 4 72.8794 23.1792 34.6348
5010 4 1.65881 11.7672 44.9012
5011 4 2.0388 2.76117 73.242
5012 4 12.6422 6.48926 71.8594
5013 4 15.6129 20.2293 55.2475
5014 4 47.5575 25.7858 48.1414
5015 4 70.5484 8.14683 79.5803
5016 4 60.1583 7.29216 59.4677
5017 4 6.55456 15.8203 61.6024
5018 4 73.5832 24.8366 52.982
5019 4 54.1541 24.4383 89.3118
5020 4 35.5247 18.7111 88.3423
5021 4 77.3635 13.9734 38.7827
5022 4 14.3143 22.7248 45.1441
5023 4 30.1208 22.7685 54.5914
5024 4 34.5852 6.64675 71.6315
5025 4 3.21537 1.69544 20.9156
5026 4 3.28553 2.24521 63.0811
5027 4 17.536 24.9943 60.5371
5028 4 60.9759 10.3784 14.109
5029 4 61.9858 1.97482 43.8562
5030 4 51.2451 25.3828 35.6721
5031 4 9.98874 3.44356 47.7341
5032 4 33.7204 29.6144 59.7661
5033 4 73.7167 9.9136 90.5364
5034 4 18.9005 14.3327 34.2742
5035 4 32.5569 21.161 78.0491
5036 4 32.888 23.0313 29.3688
5037 4 34.9092 26.2571 50.5538
5038 4 11.4415 4.42355 55.7592
5039 4 67.3262 11.782 25.3178
5040 4 39.0557 16.9682 34.2795
5041 4 52.2404 10.6858 61.4313
5042 4 25.1495 5.89444 32.1616
5043 4 40.5428 10.7211 77.5062
5044 4 65.5113 4.01065 19.5228
5045 4 61.177 27.3727 40.2921
5046 4 3.18672 28.992 57.5429
5047 4 59.1864 21.9342 21.1866
5048 4 3.22554 17.6338 47.9008
5049 4 5.9162 11.0188 48.3508
5050 4 29.4 12.4308 38.9579
5051 4 41.9462 9.32823 39.5499
5052 4 52.1878 22.059 58.4822
5053 4 45.7379 24.7499 81.2661
5054 4 5.9712 28.1799 66.5558
5055 4 23.22 19.2875 29.9517
5056 4 12.9379 21.2288 14.1983
5057 4 28.983 1.85781 59.2677
5058 4 23.6385 25.8261 82.7863
5059 4 10.9461 5.48438 90.245
5060 4 62.8688 29.8428 31.5478
5061 4 67.0808 17.2356 48.3236
5062 4 56.1556 23.0711 56.2678
5063 4 65.5944 0.80982 53.8657
5064 4 56.2899 29.5497 31.8431
5065 4 33.4396 29.737 40.9942
5066 4 6.46193 19.6968 86.4741
5067 4 32.4045 2.66077 70.4147
5068 4 1.50402 29.3239 46.7773
5069 4 58.3842 26.035 84.6759
5070 4 59.4915 20.8972 32.4286
5071 4 1.80082 3.31216 79.8875
5072 4 52.8798 12.7041 76.1594
5073 4 6.59346 8.01869 28.7528
5074 4 63.7897 4.75188 42.518
5075 4 53.8104 28.9913 53.3327
5076 4 21.2766 11.8499 54.1549
5077 4 25.2427 7.90707 46.0162
5078 4 10.854 0.517272 28.2452
5079 4 67.3349 0.686013 36.2358
5080 4 67.115 28.9908 60.1348
5081 4 2.69994 22.2422 82.5147
5082 4 17.1294 11.2051 54.068
5083 4 17.0088 6.81607 24.2989
5084 4 45.6351 23.2471 33.0791
5085 4 2.56277 3.80855 36.0425
5086 4 15.8856 29.3618 61.9939
5087 4 61.5501 10.5628 48.0286
5088 4 39.7907 21.2353 34.4353
5089 4 75.0784 27.4368 66.9597
5090 4 78.0973 23.5739 47.9418
5091 4 79.4167 16.3262 17.8277
5092 4 74.6786 25.921 29.4035
5093 4 28.2101 18.1162 65.6879
5094 4 61.2462 14.4323 29.6426
5095 4 70.7508 4.16567 25.5837
5096 4 68.7078 15.5392 76.3479
5097 4 15.1651 27.861 82.149
5098 4 17.8333 0.528959 77.2911
5099 4 9.4845 15.2711 55.9439
5100 4 76.8049 10.8568 68.4714
5101 4 43.9945 3.102 60.922
5102 4 23.2171 14.6094 80.8804
5103 4 9.10292 18.6919 19.8586
5104 4 4.49118 14.8366 34.7939
5105 4 62.0692 20.6558 18.0183
5106 4 4.31993 10.5283 34.8658
5107 4 66.312 28.6067 50.4061
5108 4 66.1876 20.8579 46.4984
5109 4 37.1666 26.3843 64.4087
5110 4 58.0283 27.9191 51.6185
5111 4 48.9694 11.5823 41.5813
5112 4 49.9132 13.7335 85.813
5113 4 72.8196 17.0997 48.7474
5114 4 67.9713 29.6359 63.7661
5115 4 70.821 27.7525 68.3418
5116 4 56.4155 1.94135 57.8826
5117 4 42.2561 0.0851903 39.6607
5118 4 35.8865 1.80073 32.1132
5119 4 37.7897 29.39 41.261
5120 4 17.9285 23.3071 56.1412
5121 4 6.58309 21.2734 63.4815
5122 4 29.4836 21.4488 36.8113
5123 4 26.8275 14.9904 69.3058
5124 4 71.2292 26.6021 45.6371
5125 4 68.3551 6.121 48.3022
5126 4 47.6753 4.45192 49.4122
5127 4 2.3614 19.3868 71.9251
5128 4 61.9295 25.8882 59.3446
5129 4 63.4997 7.86046 61.9804
5130 4 11.8912 8.92822 43.2904
5131 4 69.1273 29.7167 81.1664
5132 4 7.21191 26.7227 28.8516
5133 4 66.1566 17.7 37.8944
5134 4 76.2882 17.6991 32.1549
5135 4 36.5386 19.574 31.1688
5136 4 19.7307 14.6716 16.1443
5137 4 9.91604 17.7033 24.1633
5138 4 9.61859 19.8159 56.6634
5139 4 79.4846 22.9029 70.9463
5140 4 51.4062 22.0549 36.8239
5141 4 12.2181 18.5891 46.5302
5142 4 70.8545 7.91904 61.8764
5143 4 23.51 3.78532 57.8971
5144 4 1.06116 10.873 66.445
5145 4 30.4117 7.41991 75.2159
5146 4 8.30615 11.2503 54.1221
5147 4 16.1114 22.3299 67.7617
5148 4 79.6034 5.81088 37.4356
5149 4 28.36 6.34117 63.5593
5150 4 39.0522 27.5646 29.2481
5151 4 5.57699 6.46427 69.9247
5152 4 49.3034 27.982 64.4457
5153 4 14.6205 16.931 79.7009
5154 4 70.0385 1.42098 46.7882
5155 4 39.0409 6.29274 77.5317
5156 4 18.6326 13.8502 68.7529
5157 4 29.8155 3.8406 84.4456
5158 4 69.2824 24.5806 38.6824
5159 4 53.1884 10.9729 86.0065
5160 4 37.7405 16.6584 68.598
5161 4 9.33775 6.97064 50.5292
5162 4 65.3978 20.3138 51.0077
5163 4 37.814 8.45239 74.5767
5164 4 20.4075 22.4566 46.7524
5165 4 9.64341 29.2985 37.4545
5166 4 64.0581 2.38197 28.5328
5167 4 12.4198 10.4859 56.5427
5168 4 35.2804 7.1731 48.7862
5169 4 72.2469 27.9684 22.9878
5170 4 22.5201 9.86505 49.6725
5171 4 15.169 14.5277 43.1888
5172 4 68.4302 21.4189 79.3553
5173 4 60.5843 1.7238 51.7541
5174 4 66.6997 15.8932 43.5536
5175 4 44.3919 10.8517 82.0085
5176 4 9.48447 2.29673 15.7837
5177 4 19.2425 22.9949 52.4809
5178 4 79.7335 24.5088 35.8242
5179 4 10.3589 10.3068 26.3842
5180 4 11.8783 24.0315 57.829
5181 4 71.9281 6.81232 11.8028
5182 4 75.0823 24.6681 81.3294
5183 4 2.3524 24.1346 55.0452
5184 4 7.63416 3.02205 89.3068
5185 4 24.8593 5.62378 38.7196
5186 4 30.8561 24.9834 79.3355
5187 4 13.8041 6.22695 77.7902
5188 4 41.2548 15.1158 65.4075
5189 4 7.53865 14.9171 18.6617
5190 4 7.18736 1.80253 80.7359
5191 4 59.0485 10.9413 69.6083
5192 4 39.5124 26.1007 71.4173
5193 4 54.4904 6.58746 45.4098
5194 4 67.4773 7.17945 38.5064
5195 4 26.0518 20.2932 55.0775
5196 4 44.977 18.6183 51.8424
5197 4 44.5767 5.76525 90.5604
5198 4 21.2778 0.313258 81.4277
5199 4 7.84511 4.46506 39.1993
5200 4 56.5097 9.01627 58.4296
5201 4 55.6795 12.0754 48.9437
5202 4 61.8861 17.9423 45.9566
5203 4 10.1056 19.1093 51.5296
5204 4 35.5159 18.9713 58.2814
5205 4 58.4299 0.066217 82.8616
5206 4 14.5932 4.46518 48.7608
5207 4 36.1437 19.6031 71.8413
5208 4 12.6505 21.5868 63.9486
5209 4 53.082 13.24 81.7636
5210 4 41.1431 19.8439 87.462
5211 4 33.7543 2.29557 48.1265
5212 4 2.07525 27.1807 37.3355
5213 4 21.8776 0.931053 55.7275
5214 4 1.58634 11.4691 28.9266
5215 4 26.9702 28.0414 68.8399
5216 4 74.2443 7.94548 21.7599
5217 4 69.6167 4.35743 68.1258
5218 4 30.8169 8.41695 43.3753
5219 4 56.4499 28.8384 90.5074
5220 4 15.526 0.55823 44.628
5221 4 64.5111 6.32191 76.7025
5222 4 59.9123 25.2718 88.0989
5223 4 21.8094 4.28899 72.0547
5224 4 1.62895 29.6034 80.607
5225 4 50.6595 2.82572 63.846
5226 4 28.4941 29.0179 76.1159
5227 4 77.1599 11.6043 56.3978
5228 4 25.1086 14.7096 37.1754
5229 4 71.7053 18.2105 70.84
5230 4 52.1319 20.1876 45.9012
5231 4 73.5462 0.360287 37.8727
5232 4 3.60332 8.28749 63.5643
5233 4 1.32883 6.9425 57.676
5234 4 15.6294 8.68936 49.3606
5235 4 2.73562 2.51288 89.4273
5236 4 68.334 28.634 13.7572
5237 4 74.642 5.66584 34.5812
5238 4 25.2254 16.6587 57.0089
5239 4 25.2093 0.0720584 49.48
5240 4 54.8378 22.0615 31.8063
5241 4 10.9874 24.5626 86.2767
5242 4 13.5037 15.8535 20.0819
5243 4 15.4447 14.1539 89.6085
5244 4 61.638 1.87784 20.0876
5245 4 52.0273 29.378 70.4292
5246 4 75.2942 14.1937 84.0974
5247 4 73.6588 20.9216 13.2467
5248 4 52.9101 8.29932 71.1272
5249 4 62.703 10.8113 67.3439
5250 4 29.446 5.83796 29.8575
5251 4 46.8238 12.768 89.9729
5252 4 33.1818 7.36904 32.8531
5253 4 43.4887 9.27489 45.1505
5254 4 59.9654 28.3468 25.3433
5255 4 73.1892 0.308705 32.3996
5256 4 57.8378 13.6677 84.1217
5257 4 69.7344 23.3012 87.1788
5258 4 9.06898 17.5831 76.0425
5259 4 8.21547 15.2912 69.9527
5260 4 42.2975 14.5384 50.2707
5261 4 72.102 16.126 29.028
5262 4 8.16872 25.9878 44.3389
5263 4 20.6823 11.0668 18.3324
5264 4 37.7213 18.4086 78.8085
5265 4 56.9861 19.9165 59.9441
5266 4 62.1603 27.0431 63.7488
5267 4 77.1376 3.04303 55.2129
5268 4 77.4973 16.7916 79.4361
5269 4 58.5572 2.26056 23.6955
5270 4 6.44122 15.878 83.7305
5271 4 44.0437 18.5061 62.8201
5272 4 26.7466 17.1405 25.7359
5273 4 50.4595 12.5199 68.5183
5274 4 14.768 27.493 26.0183
5275 4 48.9432 24.5375 77.8794
5276 4 60.9323 22.3139 75.6931
5277 4 63.2081 14.3895 65.232
5278 4 60.2449 4.78494 12.6955
5279 4 55.3608 21.7459 50.7848
5280 4 15.6048 4.48086 70.0876
5281 4 7.42436 6.07155 17.3773
5282 4 70.0717 23.0586 72.8222
5283 4 50.1412 10.9129 54.1739
5284 4 17.352 17.3066 83.1573
5285 4 68.4474 10.1672 84.3274
5286 4 43.0127 15.8512 58.996
5287 4 59.0323 16.5775 48.4185
5288 4 76.673 14.2057 34.9894
5289 4 57.3878 19.8006 36.9266
5290 4 7.04469 18.932 47.2533
5291 4 53.4085 0.0465016 29.0727
5292 4 17.9827 1.96223 39.8595
5293 4 2.38177 13.0542 24.659
5294 4 29.5026 6.5975 39.0425
5295 4 0.928304 17.3478 66.0161
5296 4 52.4361 3.79926 50.7046
5297 4 39.2558 11.2335 90.262
5298 4 7.40314 25.3725 80.2323
5299 4 46.5937 21.1449 58.0277
5300 4 56.5742 12.4696 38.7187
5301 4 28.2114 29.9931 43.3575
5302 4 57.0764 8.37196 48.8944
5303 4 3.43368 16.0298 87.8621
5304 4 66.5561 6.57724 30.7999
5305 4 29.7384 20.8752 31.6904
5306 4 64.8794 10.9121 43.1483
5307 4 56.0058 8.93064 53.5165
5308 4 27.3906 26.1851 82.2426
5309 4 52.9663 27.8188 84.6825
5310 4 47.8491 15.9921 45.7217
5311 4 48.1492 6.92286 46.0552
5312 4 5.05 29.5739 23.5726
5313 4 10.7726 11.0116 66.5325
5314 4 31.2387 10.2641 48.1408
5315 4 65.1742 17.3185 63.8978
5316 4 60.2304 4.64027 49.57
5317 4 33.1733 27.6887 36.0348
5318 4 59.7191 24.0396 13.5591
5319 4 56.6115 12.679 57.0546
5320 4 20.8443 16.4742 54.5834
5321 4 77.339 23.1046 26.3691
5322 4 0.754578 16.0472 13.7851
5323 4 53.5964 20.2948 78.2243
5324 4 75.0196 26.3453 12.4298
5325 4 45.3375 11.0727 50.6865
5326 4 0.640824 25.0188 28.5977
5327 4 60.7382 28.0068 13.4602
5328 4 79.3521 5.40993 14.7178
5329 4 9.30017 26.4626 68.542
5330 4 4.21242 4.61283 29.3015
5331 4 19.6672 10.723 42.738
5332 4 37.6059 1.05778 87.0067
5333 4 54.1464 20.1783 66.0283
5334 4 63.7866 3.19079 60.1506
5335 4 76.4982 0.0227339 25.7939
5336 4 44.7618 12.2637 31.7632
5337 4 11.1402 14.0228 87.9338
5338 4 56.8299 21.1212 81.8433
5339 4 63.4579 23.934 68.1013
5340 4 79.5751 25.7555 72.7407
5341 4 45.0935 24.9016 54.1502
5342 4 3.08225 27.4935 27.5779
5343 4 61.6238 17.0316 57.9365
5344 4 77.5714 23.7398 20.4115
5345 4 12.074 11.9012 52.3345
5346 4 67.0165 15.5589 26.6345
5347 4 12.0294 11.485 77.9427
5348 4 69.9573 4.49432 74.7339
5349 4 16.0584 11.3851 39.4069
5350 4 78.0908 9.65751 22.7409
5351 4 51.0583 9.61993 45.7867
5352 4 22.0842 14.0286 22.7081
5353 4 53.3398 17.3531 56.0336
5354 4 58.2132 4.47338 72.7828
5355 4 41.0214 9.87277 61.7922
5356 4 13.367 20.4661 18.05
5357 4 27.4656 24.0521 64.4255
5358 4 27.1213 9.0448 52.7749
5359 4 2.96915 26.3876 75.6061
5360 4 71.165 13.48 41.3975
5361 4 24.2099 29.6733 34.7173
5362 4 76.0102 5.87723 87.063
5363 4 77.2465 0.722432 19.2015
5364 4 20.626 12.6544 88.7185
5365 4 15.2753 6.4018 63.3453
5366 4 51.7359 7.90409 24.2464
5367 4 65.2506 21.916 39.3083
5368 4 62.6704 10.9276 28.4443
5369 4 4.38594 13.7628 11.9726
5370 4 24.0244 17.9368 45.3201
5371 4 35.9546 25.1416 85.8001
5372 4 23.8337 9.0017 87.8719
5373 4 38.651 19.8985 45.4438
5374 4 72.4126 7.46721 41.5154
5375 4 2.18548 11.1651 85.409
5376 4 2.43144 27.7592 89.157
5377 4 57.4809 23.5731 77.6252
5378 4 13.2535 15.4146 36.2733
5379 4 69.1878 17.9188 56.1269
5380 4 16.8093 21.9531 28.4897
5381 4 78.2933 27.2062 32.468
5382 4 25.8823 4.59037 72.7955
5383 4 71.2084 6.63379 53.8833
5384 4 48.0204 7.05777 35.4755
5385 4 1.84613 15.2507 41.4655
5386 4 75.4371 23.407 61.9493
5387 4 74.8206 28.5446 19.4298
5388 4 71.571 11.5365 52.5901
5389 4 63.7541 17.798 53.3602
5390 4 4.35874 17.0209 75.2333
5391 4 70.8808 9.37246 20.2564
5392 4 23.1739 24.2328 68.7117
5393 4 53.0967 16.358 51.7106
5394 4 23.1151 23.2313 61.3833
5395 4 59.1276 24.3607 52.4895
5396 4 79.1414 27.9861 57.2086
5397 4 42.5584 0.519001 71.1727
5398 4 69.5247 13.9035 23.1798
5399 4 16.1889 8.0182 34.3033
5400 4 50.3739 26.4396 27.8229
5401 4 18.0439 5.27516 35.335
5402 4 18.2173 22.571 86.7992
5403 4 27.9478 4.99073 44.8402
5404 4 44.1839 10.9424 76.3813
5405 4 22.2491 23.1636 88.6548
5406 4 58.6973 24.5434 41.579
5407 4 1.1085 24.4214 11.9737
5408 4 64.6473 8.11929 19.059
5409 4 54.4694 10.7653 32.9455
5410 4 65.2281 13.4416 21.9397
5411 4 8.51681 8.60245 80.8452
5412 4 69.377 2.79213 14.4432
5413 4 65.5529 10.8006 54.8723
5414 4 4.98228 23.1983 58.4695
5415 4 52.6335 4.91843 84.5828
5416 4 41.1391 7.25369 87.0628
5417 4 77.306 18.9431 43.7827
5418 4 5.94461 15.7125 50.4147
5419 4 78.1452 9.84459 43.4924
5420 4 49.3255 16.491 72.3562
5421 4 73.2626 22.8807 75.2341
5422 4 5.39951 10.7344 18.7692
5423 4 45.6764 25.6458 68.5191
5424 4 13.1573 17.7596 74.3205
5425 4 51.3967 20.0989 62.043
5426 4 7.14334 0.404472 85.2828
5427 4 66.7081 12.6227 12.8315
5428 4 11.9216 22.7575 41.6261
5429 4 34.5074 3.73901 65.7591
5430 4 79.4886 20.4232 83.4609
5431 4 74.586 25.3211 89.6313
5432 4 43.5823 16.2872 42.4876
5433 4 16.0419 19.6161 51.1212
5434 4 0.311203 12.5674 57.7945
5435 4 2.63096 26.4827 50.1009
5436 4 5.81177 18.8992 28.8277
5437 4 20.6232 8.29421 77.8843
5438 4 60.1082 21.1081 90.1621
5439 4 13.7906 23.4028 24.0583
5440 4 72.3596 0.798158 86.8483
5441 4 33.0654 25.5453 73.3234
5442 4 39.547 5.12017 42.4358
5443 4 27.8266 20.5847 80.502
5444 4 32.3489 17.3615 64.752
5445 4 18.634 20.8869 58.7104
5446 4 19.1772 4.63376 65.8288
5447 4 23.9001 20.4172 81.9727
5448 4 75.6212 3.50516 79.5963
5449 4 77.2354 7.00476 81.9259
5450 4 62.5283 25.4499 21.497
5451 4 50.4514 23.9324 42.8008
5452 4 40.49 0.157818 59.495
5453 4 22.8693 20.9451 40.7829
5454 4 60.2414 17.9113 12.8973
5455 4 68.2863 6.52572 65.5589
5456 4 34.0499 5.73489 76.1683
5457 4 37.4462 7.48084 39.5389
5458 4 9.7457 26.8472 54.5196
5459 4 77.6922 19.349 14.3825
5460 4 21.3834 14.5193 45.8496
5461 4 16.8617 24.6074 17.1428
5462 4 44.9477 25.3395 59.5551
5463 4 16.6475 4.35865 18.9543
5464 4 3.98834 8.68286 53.2842
5465 4 6.33094 28.6111 72.9559
5466 4 35.0922 17.0716 41.122
5467 4 59.116 3.82825 82.3565
5468 4 41.6577 26.9046 87.3224
5469 4 20.4918 24.3534 30.0628
5470 4 71.665 19.0415 79.4978
5471 4 7.15307 10.4063 86.6113
5472 4 32.1276 14.2827 88.6384
5473 4 58.1181 14.4781 64.455
5474 4 45.506 1.94503 73.6554
5475 4 70.1303 11.0299 69.2486
5476 4 48.3618 7.50607 72.7019
5477 4 50.1314 1.37783 78.6483
5478 4 3.60394 20.3225 34.2667
5479 4 20.845 7.89642 38.7448
5480 4 62.4185 25.5377 54.6977
5481 4 24.0168 3.22474 65.1392
5482 4 42.6154 16.5498 89.5708
5483 4 31.319 21.1933 41.1936
5484 4 14.3151 24.7807 50.1828
5485 4 26.8747 2.0056 26.678
5486 4 65.7 23.895 46.9031
5487 4 50.5748 9.74541 83.0682
5488 4 73.867 5.45886 47.478
5489 4 70.4528 4.95251 35.5373
5490 4 1.5472 11.9389 77.8909
5491 4 63.3082 2.80869 73.5274
5492 4 0.188136 2.48789 66.6961
5493 4 31.1573 11.5738 66.2642
5494 4 78.5391 16.5991 54.9155
5495 4 47.0229 8.23219 53.8639
5496 4 6.55576 10.1821 41.2763
5497 4 71.8432 11.9591 62.2384
5498 4 18.3802 15.1368 11.6479
5499 4 41.0428 16.5349 46.9449
5500 4 57.2521 11.6702 80.3347
5501 4 3.54957 10.3738 88.2788
5502 4 66.5144 21.6422 29.569
5503 4 54.4729 3.03426 38.3257
5504 4 16.1417 26.6222 22.7107
5505 4 17.6061 16.2255 70.8769
5506 4 17.7912 27.8056 41.4827
5507 4 63.9223 13.5483 61.154
5508 4 28.0503 2.85626 77.5536
5509 4 47.6632 17.1904 82.7778
5510 4 78.1742 15.2407 63.0721
5511 4 24.822 27.5718 26.3817
5512 4 19.6963 28.3749 22.4173
5513 4 76.8307 21.0263 33.4736
5514 4 79.5263 4.01314 43.9194
5515 4 31.8539 17.0793 43.7575
5516 4 23.0245 11.062 57.9316
5517 4 5.76458 13.4795 43.0005
5518 4 59.87 11.43 73.394
5519 4 66.3159 24.2321 22.7943
5520 4 32.3989 27.9382 76.7285
5521 4 29.9677 6.41852 34.8007
5522 4 3.68722 12.8884 73.9829
5523 4 33.3627 7.96393 53.5136
5524 4 62.2338 3.24674 69.2094
5525 4 11.1412 25.6436 39.0591
5526 4 65.5732 19.6466 25.8638
5527 4 44.8979 28.674 61.9438
5528 4 17.3959 3.45109 87.8559
5529 4 34.8892 22.5427 54.4814
5530 4 44.8363 8.16225 68.4265
5531 4 3.16586 22.7284 87.6557
5532 4 21.3809 15.8841 65.0747
5533 4 70.3069 22.502 46.645
5534 4 73.7995 20.4068 65.7267
5535 4 20.4856 11.8402 38.6735
5536 4 33.7003 17.606 33.7773
5537 4 5.51293 28.789 48.416
5538 4 18.259 4.875 56.6957
5539 4 60.7493 17.6636 82.8796
5540 4 65.4134 25.5638 41.6548
5541 4 42.6321 27.3484 74.6501
5542 4 29.9166 23.1381 59.7592
5543 4 73.4596 3.59444 74.5469
5544 4 25.6826 10.9807 79.9816
5545 4 40.5115 4.76453 81.1345
5546 4 68.4576 0.0820739 73.409
5547 4 28.1921 9.11585 88.7897
5548 4 19.2768 9.56324 60.3401
5549 4 15.2243 15.4424 66.7544
5550 4 18.03 17.8548 87.8186
5551 4 62.8295 18.6161 32.2103
5552 4 1.4507 8.99713 15.5214
5553 4 74.3369 9.91854 76.7303
5554 4 21.7289 26.5774 57.4874
5555 4 30.4479 16.9837 54.3689
5556 4 75.0415 5.53553 76.9952
5557 4 46.4244 13.4886 38.1636
5558 4 77.7714 10.6847 27.1011
5559 4 66.6904 5.53169 51.7829
5560 4 77.8798 25.4486 43.8021
5561 4 73.5527 8.37281 56.435
5562 4 8.26193 13.1102 24.1969
5563 4 63.0177 17.6802 85.5803
5564 4 70.7778 27.4397 89.1613
5565 4 73.9043 11.6764 65.0349
5566 4 10.4264 7.07994 19.9327
5567 4 10.656 4.51403 34.4803
5568 4 34.7019 0.12903 51.5625
5569 4 36.8298 23.2994 77.467
5570 4 29.1784 18.6121 47.4856
5571 4 39.9253 8.11382 29.9155
5572 4 40.0743 23.35 61.1814
5573 4 14.9158 11.784 64.2369
5574 4 12.6287 14.8185 82.3013
5575 4 64.5071 13.3115 36.9361
5576 4 72.9277 2.34025 12.7013
5577 4 72.3535 20.0642 20.5277
5578 4 2.13991 6.11429 75.9581
5579 4 79.9081 1.92802 24.3154
5580 4 52.8773 13.8817 87.8785
5581 4 40.8524 3.50354 54.4287
5582 4 1.66478 27.1876 19.5322
5583 4 8.1897 29.9403 42.9583
5584 4 0.166864 1.16849 53.3348
5585 4 78.49 13.6018 75.818
5586 4 30.4968 0.244207 46.7816
5587 4 59.6687 10.6478 20.6023
5588 4 32.4878 14.0849 47.117
5589 4 5.93255 8.39132 59.6411
5590 4 73.7558 3.41157 53.2646
5591 4 58.8832 16.2273 73.9547
5592 4 1.71194 18.4351 28.4263
5593 4 54.4916 3.6559 54.5269
5594 4 78.541 14.1784 48.3355
5595 4 79.9865 26.7312 67.6168
5596 4 73.1014 1.97153 18.1091
5597 4 30.3051 15.1835 49.9779
5598 4 18.4185 18.8109 62.6269
5599 4 37.2712 2.60846 78.6829
5600 4 20.252 14.5721 78.683
5601 4 46.5604 2.35319 45.7698
5602 4 53.2127 12.5379 72.2805
5603 4 57.7308 15.2453 36.6343
5604 4 78.0194 1.85819 63.4946
5605 4 13.2503 4.92135 38.9309
5606 4 68.3476 8.86933 75.709
5607 4 13.6929 19.9825 70.8979
5608 4 67.6737 1.76763 77.2413
5609 4 78.3942 18.6796 36.5374
5610 4 65.3641 25.8094 16.5436
5611 4 27.2849 14.124 28.4794
5612 4 11.1143 3.89561 26.7973
5613 4 27.7064 20.2774 70.4891
5614 4 58.4651 4.52607 36.9086
5615 4 41.1228 25.1671 45.7574
5616 4 6.19623 22.4374 31.1701
5617 4 74.3229 6.9972 63.3554
5618 4 26.7156 20.1216 76.8008
5619 4 16.4351 28.6262 73.6995
5620 4 35.9065 11.0377 46.4647
5621 4 70.5275 21.0307 31.219
5622 4 31.7035 3.29477 57.6731
5623 4 63.1106 14.969 17.9793
5624 4 63.4498 6.8087 14.8145
5625 4 41.5754 25.5192 39.8173
5626 4 15.0717 6.19521 86.9153
5627 4 41.651 12.8185 33.2677
5628 4 11.9394 9.08299 34.2416
5629 4 58.7183 3.16073 45.351
5630 4 17.6378 26.3021 66.2295
5631 4 47.6534 6.22773 85.629
5632 4 60.7015 17.7681 40.9221
5633 4 44.3355 0.625753 31.1611
5634 4 34.3325 28.5286 55.1488
5635 4 30.0884 22.2638 67.0829
5636 4 21.3959 22.7451 72.9794
5637 4 23.2264 13.8528 62.8872
5638 4 9.22438 0.913409 31.889
5639 4 75.6744 10.7035 33.9678
5640 4 54.6048 16.5961 60.6163
5641 4 10.1205 15.496 62.8326
5642 4 76.7337 0.223376 41.0585
5643 4 10.6358 0.63986 77.9029
5644 4 34.0607 27.0367 69.2195
5645 4 41.3315 18.4685 81.8309
5646 4 42.7794 1.72301 50.0472
5647 4 40.3228 27.3342 80.5764
5648 4 33.8502 21.9459 51.2946
5649 4 26.8338 21.919 33.8978
5650 4 74.2236 12.4016 23.6247
5651 4 6.19324 24.2023 36.9385
5652 4 3.85613 13.7351 55.5155
5653 4 8.48098 8.55808 71.8416
5654 4 63.3902 5.064 36.2184
5655 4 7.26603 23.6783 54.4652
5656 4 67.2009 21.5504 61.4007
5657 4 8.62583 7.14346 14.1517
5658 4 42.3357 14.9999 38.2483
5659 4 6.27348 0.409429 53.9123
5660 4 75.772 4.43924 24.6758
5661 4 61.3268 12.046 58.413
5662 4 5.08436 29.8382 36.7732
5663 4 19.4865 28.0965 88.2838
5664 4 12.9723 26.419 16.4728
5665 4 21.5001 9.64046 67.7574
5666 4 17.516 5.07994 29.5645
5667 4 22.4491 26.129 47.3247
5668 4 37.8399 4.22014 49.0441
5669 4 59.342 1.79298 40.2652
5670 4 56.9205 8.26646 90.7885
5671 4 65.8312 6.81088 87.0839
5672 4 42.5807 8.03318 52.3769
5673 4 1.06334 11.1265 37.1044
5674 4 14.9707 29.5437 68.6953
5675 4 78.3966 26.0613 79.1003
5676 4 12.2017 10.0886 48.3924
5677 4 71.3196 16.9339 89.4312
5678 4 59.0256 29.8864 62.9517
5679 4 39.2972 3.34257 30.7429
5680 4 61.0347 25.927 48.8433
5681 4 59.6743 16.5474 20.4086
5682 4 56.2853 1.77483 67.1804
5683 4 22.2115 10.0149 34.8409
5684 4 9.83997 24.8243 15.134
5685 4 31.4976 3.32368 88.8096
5686 4 53.9429 17.1793 44.0772
5687 4 17.3313 12.3417 73.1359
5688 4 8.22008 9.78336 32.0408
5689 4 21.5715 1.27946 20.6996
5690 4 1.14199 27.7363 42.844
5691 4 0.155406 18.5601 39.8717
5692 4 11.1793 25.8574 64.3265
5693 4 50.7167 27.7728 39.4393
5694 4 36.2853 19.6044 82.4861
5695 4 64.0184 5.95021 82.939
5696 4 78.7563 18.2289 47.928
5697 4 68.8988 9.69679 34.0209
5698 4 8.71395 22.6693 67.4806
5699 4 41.2512 16.1125 85.0643
5700 4 53.9728 25.8593 71.5905
5701 4 50.5026 25.2036 69.1124
5702 4 46.5376 28.4443 52.3376
5703 4 48.3288 4.56031 76.357
5704 4 29.2524 27.2285 88.4365
5705 4 45.6894 25.1691 43.3074
5706 4 62.5674 17.2194 75.0472
5707 4 59.7722 6.01877 78.4328
5708 4 66.4732 21.2401 65.5359
5709 4 59.9586 28.0348 73.1598
5710 4 47.8447 18.0544 49.1632
5711 4 16.3107 16.1336 48.2375
5712 4 12.9868 4.35189 43.4431
5713 4 64.4614 14.0176 53.044
5714 4 76.669 17.3298 60.1152
5715 4 30.7664 11.3347 83.0727
5716 4 26.8516 10.124 85.155
5717 4 19.5687 5.34269 45.4297
5718 4 47.3689 14.6196 34.4003
5719 4 48.7742 12.4785 63.3824
5720 4 21.3634 18.8146 90.0195
5721 4 65.8492 27.2598 38.1214
5722 4 46.7357 1.91771 34.177
5723 4 77.773 26.2291 39.245
5724 1 59.4588 18.6232 80.0155
5725 2 60.3459 18.3058 80.3505
5726 2 59.4945 18.7236 79.0212
5727 1 3.84395 5.90486 57.7223
5728 2 4.17096 6.38471 56.9082
5729 2 2.89044 6.15218 57.8945
5730 1 60.2283 14.0057 75.9856
5731 2 59.7609 13.2771 76.4863
5732 2 61.2172 13.8698 76.0451
5733 1 73.9145 1.56474 78.9421
5734 2 74.0164 0.693729 79.4227
5735 2 74.6697 2.17198 79.1891
5736 1 40.9311 23.5696 42.8358
5737 2 41.8652 23.3409 43.1102
5738 2 40.4572 24.0077 43.5997
5739 1 61.6156 22.2397 37.6174
5740 2 60.693 22.3453 37.2464
5741 2 62.2819 22.2903 36.8735
5742 1 24.4598 15.7822 68.7955
5743 2 23.8767 14.9906 68.6133
5744 2 25.3627 15.4702 69.0914
5745 1 0.171789 27.4139 81.155
5746 2 79.5772 27.3876 80.3514
5747 2 0.483963 28.3516 81.3081
5748 1 75.8946 21.1088 10.773
5749 2 75.1459 21.1125 10.1101
5750 2 75.8475 21.9355 11.3336
5751 1 78.2511 20.0014 11.8269
5752 2 77.641 20.6685 11.3994
5753 2 77.9586 19.8381 12.7691
5754 1 59.5297 13.5199 44.5528
5755 2 58.9934 12.9764 45.1986
5756 2 59.3867 13.1728 43.6259
5757 1 67.74 7.20991 28.3256
5758 2 67.4724 8.16947 28.413
5759 2 67.4923 6.71747 29.1599
5760 1 65.6619 7.76209 50.6386
5761 2 64.7693 7.35987 50.4349
5762 2 66.2394 7.08111 51.0889
5763 1 14.9837 21.3082 34.1008
5764 2 15.8714 20.8479 34.0872
5765 2 14.9728 21.9894 34.8329
5766 1 40.1688 17.3126 89.052
5767 2 40.3973 18.2291 88.7236
5768 2 40.9358 16.9465 89.579
5769 1 75.7995 2.10822 60.1404
5770 2 76.7552 2.36739 60.0009
5771 2 75.7583 1.24372 60.6413
5772 1 78.6184 1.40605 84.5497
5773 2 78.059 2.23453 84.5761
5774 2 78.1456 0.70139 84.0206
5775 1 76.145 21.6603 38.5186
5776 2 75.8036 21.5239 37.5886
5777 2 77.0568 22.0693 38.4823
5778 1 78.3536 13.681 71.0202
5779 2 78.9899 13.2976 71.6897
5780 2 78.7641 14.487 70.5938
5781 1 46.0609 12.7036 86.0252
5782 2 46.4764 11.8216 86.2472
5783 2 46.5761 13.4362 86.47
5784 1 13.1633 13.1869 76.0843
5785 2 13.0113 12.5241 76.8175
5786 2 13.3906 14.0763 76.4809
5787 1 59.1838 20.9118 64.5643
5788 2 59.2922 21.7608 64.0471
5789 2 60.0172 20.7308 65.0865
5790 1 75.0072 25.2337 68.6488
5791 2 74.7979 25.7155 69.4997
5792 2 75.0277 25.8872 67.8921
5793 1 27.4285 6.4373 56.5841
5794 2 27.9381 5.68359 56.9991
5795 2 26.5252 6.50215 57.0079
5796 1 77.1038 8.77682 29.0608
5797 2 76.58 9.28068 29.7476
5798 2 77.6662 9.41564 28.5358
5799 1 6.23825 1.47614 20.7923
5800 2 5.27981 1.30626 20.5631
5801 2 6.32085 1.64777 21.774
5802 1 55.0376 24.4396 86.7264
5803 2 55.2663 23.8919 87.5312
5804 2 54.5243 25.2497 87.0094
5805 1 70.7171 21.0455 39.7708
5806 2 71.6132 21.1903 39.3511
5807 2 70.7333 21.3773 40.714
5808 1 72.7224 12.8718 44.5773
5809 2 72.0274 13.3659 44.055
5810 2 72.343 12.5976 45.4609
5811 1 44.9112 29.0088 49.4272
5812 2 44.8986 0.00852203 49.4081
5813 2 45.8249 28.6918 49.6817
5814 1 76.8214 4.07927 44.228
5815 2 77.5673 4.70504 43.9999
5816 2 76.419 3.71937 43.3862
5817 1 38.1708 26.2198 35.8308
5818 2 37.6188 25.9442 35.0439
5819 2 38.6135 27.0953 35.6373
5820 1 70.9739 28.0092 19.0448
5821 2 71.1934 27.0336 19.0474
5822 2 71.7992 28.5361 18.8416
5823 1 17.2236 29.301 85.4856
5824 2 16.8579 28.373 85.4145
5825 2 16.5915 29.9426 85.0511
5826 1 37.9001 22.9331 54.311
5827 2 38.0807 23.837 54.6986
5828 2 36.9673 22.6533 54.5379
5829 1 28.486 3.14724 48.3106
5830 2 29.2172 3.71642 47.9346
5831 2 28.5742 2.21554 47.9582
5832 1 22.9227 1.28507 30.0047
5833 2 23.8729 1.01472 29.8495
5834 2 22.3122 0.601202 29.6053
5835 1 61.9052 23.9031 11.0167
5836 2 62.3107 23.0871 11.4288
5837 2 62.6285 24.4768 10.6323
5838 1 30.8839 6.64638 90.9408
5839 2 31.5083 5.94325 90.6006
5840 2 30.9459 6.69301 91.9378
5841 1 74.3605 15.9813 37.9225
5842 2 74.7172 15.2489 38.5024
5843 2 75.0101 16.7415 37.9083
5844 1 78.8302 27.0132 27.5711
5845 2 79.2276 27.8861 27.8542
5846 2 79.4745 26.2742 27.768
5847 1 73.626 12.0777 50.5143
5848 2 72.836 11.8627 51.0885
5849 2 74.4664 11.8379 51.0002
5850 1 21.3026 27.3227 65.3047
5851 2 20.9357 27.0244 64.4236
5852 2 20.6239 27.8873 65.7745
5853 1 74.1156 22.9711 66.5288
5854 2 74.3174 23.7331 65.9135
5855 2 74.1803 22.1097 66.025
5856 1 39.2076 7.40064 45.8505
5857 2 39.6063 7.52531 46.7591
5858 2 39.0954 6.42407 45.6669
5859 1 35.3444 15.2459 79.2361
5860 2 35.364 15.8182 80.0559
5861 2 35.1696 14.2964 79.4966
5862 1 15.3376 19.6631 87.7803
5863 2 15.655 18.9439 88.3984
5864 2 14.3491 19.7765 87.8807
5865 1 58.7584 9.36256 44.3629
5866 2 59.1464 8.88129 43.5769
5867 2 59.49 9.60336 45.0007
5868 1 67.0025 13.1241 76.1818
5869 2 66.2199 13.0993 76.8038
5870 2 67.6195 13.8633 76.4517
5871 1 11.8577 7.05016 31.8652
5872 2 12.6711 7.30721 32.387
5873 2 12.135 6.6251 31.0036
5874 1 8.56775 13.725 41.9083
5875 2 7.8551 14.4217 41.9903
5876 2 8.79931 13.3765 42.8165
5877 1 30.8411 4.79343 47.9646
5878 2 31.1085 3.87225 47.6819
5879 2 31.6604 5.33871 48.1419
5880 1 78.9945 9.09493 20.4075
5881 2 79.5681 9.90191 20.2666
5882 2 78.6133 9.11418 21.3318
5883 1 38.4936 18.3314 64.5542
5884 2 38.482 17.3504 64.7482
5885 2 38.515 18.841 65.4143
5886 1 78.7565 14.3277 31.5322
5887 2 78.776 14.7533 30.6275
5888 2 78.1365 13.5432 31.5182
5889 1 21.1686 8.31975 62.3825
5890 2 20.5953 9.12088 62.5544
5891 2 20.6137 7.5938 61.9762
5892 1 4.94654 2.40691 67.2771
5893 2 4.44222 1.59668 67.5757
5894 2 5.51469 2.17376 66.4879
5895 1 4.00619 6.57398 73.7541
5896 2 3.4519 6.67169 74.5807
5897 2 3.41716 6.63685 72.9484
5898 1 4.82368 14.3943 75.8329
5899 2 4.43928 13.7329 75.1889
5900 2 4.49594 15.3111 75.6045
5901 1 24.8738 19.7142 74.7201
5902 2 25.564 19.7091 75.4437
5903 2 25.3252 19.6761 73.8286
5904 1 25.9937 12.4469 71.719
5905 2 25.8769 11.6897 71.0765
5906 2 25.727 13.3033 71.2769
5907 1 71.7162 16.6216 61.3325
5908 2 72.1276 16.5164 62.2379
5909 2 72.364 17.0788 60.7231
5910 1 30.4382 21.8289 29.2715
5911 2 31.2998 22.2872 29.4897
5912 2 30.1118 21.3324 30.0758
5913 1 20.5439 16.0545 12.509
5914 2 19.7732 15.6103 12.0523
5915 2 20.9362 16.7469 11.9033
5916 1 38.6937 29.4058 73.8029
5917 2 37.8023 29.0019 73.5978
5918 2 38.5735 0.363601 74.064
5919 1 49.1738 13.2745 39.6385
5920 2 48.3415 13.6582 39.2385
5921 2 48.9635 12.8842 40.5349
5922 1 36.5488 14.568 34.9868
5923 2 36.6705 15.033 35.8637
5924 2 36.4814 15.2471 34.2559
5925 1 35.6355 2.09992 85.3771
5926 2 36.4766 1.70892 85.7507
5927 2 35.062 2.43357 86.1252
5928 1 66.127 28.0344 74.3304
5929 2 66.343 28.9099 73.8982
5930 2 66.7899 27.3455 74.0372
5931 1 67.1317 16.0264 65.1233
5932 2 66.5106 16.5249 64.5186
5933 2 66.6031 15.5582 65.8314
5934 1 64.5109 13.6833 30.8245
5935 2 64.6803 14.6397 30.5865
5936 2 63.6187 13.6034 31.269
5937 1 10.2567 14.7842 71.883
5938 2 10.9968 14.4609 71.2932
5939 2 10.6434 15.2685 72.6678
5940 1 66.0527 28.3368 23.0769
5941 2 66.4279 27.5162 23.508
5942 2 66.1707 29.1186 23.6891
5943 1 22.9548 2.41578 75.202
5944 2 22.1938 1.76996 75.1398
5945 2 23.6737 2.14657 74.5611
5946 1 46.3408 0.312828 82.2621
5947 2 46.9753 0.461527 81.5036
5948 2 45.4007 0.36681 81.9258
5949 1 45.0477 11.3262 59.3304
5950 2 44.8602 12.0891 58.7118
5951 2 45.7811 11.5807 59.9608
5952 1 16.1365 22.6011 13.5125
5953 2 17.0032 22.9002 13.1133
5954 2 15.4889 23.3631 13.5124
5955 1 32.1107 22.8553 25.6401
5956 2 32.9543 22.3416 25.7965
5957 2 32.1761 23.7475 26.0869
5958 1 47.2508 1.39935 41.4807
5959 2 46.8372 1.20801 40.5905
5960 2 46.7892 0.860607 42.1854
5961 1 2.35647 8.85426 56.03
5962 2 3.17596 8.42712 55.6479
5963 2 1.78535 8.15471 56.4595
5964 1 58.8255 1.86176 61.1633
5965 2 58.769 1.24703 61.95
5966 2 57.9955 1.7752 60.6124
5967 1 17.9458 12.3657 10.7399
5968 2 18.724 12.0494 10.1973
5969 2 17.8072 13.3439 10.585
5970 1 11.6508 26.7409 47.7397
5971 2 11.3751 26.4725 48.6627
5972 2 12.0565 25.9559 47.2715
5973 1 17.912 8.16743 39.562
5974 2 18.3993 8.20318 40.4344
5975 2 17.5859 7.23602 39.4002
5976 1 75.522 2.82819 76.7411
5977 2 74.9036 3.59858 76.5858
5978 2 75.6536 2.69938 77.724
5979 1 18.2453 22.4852 89.6625
5980 2 18.7871 21.6869 89.9255
5981 2 18.2778 22.5975 88.6693
5982 1 11.4443 22.7381 11.5994
5983 2 12.0039 21.9119 11.6646
5984 2 10.7869 22.7557 12.3528
5985 1 3.51423 29.7435 67.2997
5986 2 3.07818 0.309264 66.5999
5987 2 4.22945 29.1853 66.8791
5988 1 53.0491 25.9294 33.3505
5989 2 52.6127 26.7176 32.9166
5990 2 52.4686 25.5933 34.0921
5991 1 79.523 0.509054 61.398
5992 2 78.9876 1.22792 61.8414
5993 2 79.2234 29.6157 61.7329
5994 1 75.5583 0.970942 33.7789
5995 2 75.3148 1.24589 34.709
5996 2 74.7313 0.708485 33.2816
5997 1 75.5202 3.31292 22.1174
5998 2 75.7315 3.47019 23.0821
5999 2 75.6046 4.17243 21.6132
6000 1 66.3862 2.88083 70.496
6001 2 67.2977 2.51149 70.3153
6002 2 66.369 3.29605 71.4056
6003 1 3.57331 22.6275 22.6664
6004 2 3.91863 22.5017 23.5964
6005 2 4.22213 23.1785 22.1416
6006 1 23.0942 16.5078 52.7457
6007 2 23.6475 15.7044 52.5258
6008 2 22.6781 16.3892 53.6473
6009 1 4.7208 19.1506 54.0052
6010 2 5.59735 19.5601 54.2581
6011 2 3.97486 19.714 54.3604
6012 1 18.0994 13.6718 88.3894
6013 2 18.3414 12.7331 88.6351
6014 2 17.2734 13.9432 88.8833
6015 1 31.5939 8.786 70.9864
6016 2 30.6054 8.79906 70.8362
6017 2 31.8465 7.94805 71.4702
6018 1 65.1818 22.4878 69.3379
6019 2 64.5836 23.031 68.7487
6020 2 66.1146 22.8443 69.2853
6021 1 4.27165 14.9458 85.0316
6022 2 4.3186 14.9822 86.0298
6023 2 5.10648 15.3368 84.6441
6024 1 67.7143 17.375 14.5133
6025 2 67.017 17.9342 14.0651
6026 2 67.97 16.6169 13.9134
6027 1 33.7932 14.481 32.7751
6028 2 33.3893 15.0072 33.5234
6029 2 34.2792 15.0992 32.1573
6030 1 64.2402 3.65174 84.6926
6031 2 64.4472 4.49086 84.1896
6032 2 64.9039 3.53364 85.4313
6033 1 44.486 3.12496 58.4185
6034 2 44.1344 2.95016 59.3382
6035 2 43.9101 2.65824 57.7473
6036 1 11.2241 26.2366 44.1814
6037 2 11.7796 25.7199 44.8329
6038 2 10.2576 26.1444 44.4208
6039 1 61.7514 5.30888 10.6711
6040 2 62.6478 5.49639 11.0727
6041 2 61.129 4.98283 11.3827
6042 1 44.4678 0.81979 78.8686
6043 2 44.9304 1.70473 78.9223
6044 2 44.2479 0.615956 77.9146
6045 1 73.7299 18.0595 36.3037
6046 2 74.1483 17.3119 36.8194
6047 2 73.2813 18.6908 36.9364
6048 1 6.97334 14.9989 53.9408
6049 2 6.76156 15.4006 54.8317
6050 2 7.95028 14.7909 53.8927
6051 1 39.8446 5.49496 52.1098
6052 2 39.6712 4.62958 52.5799
6053 2 40.7629 5.81938 52.3368
6054 1 60.8786 14.8782 41.0226
6055 2 60.7882 15.8731 40.978
6056 2 60.9148 14.5894 41.9793
6057 1 78.8296 23.728 18.158
6058 2 78.4534 23.7189 19.0845
6059 2 79.5735 23.0628 18.0939
6060 1 78.9137 6.78235 28.1783
6061 2 78.0627 7.2658 28.3835
6062 2 79.6563 7.16765 28.726
6063 1 1.59591 5.84094 80.8393
6064 2 1.16079 5.06086 80.3897
6065 2 2.17079 6.32696 80.181
6066 1 36.4263 5.38477 89.7651
6067 2 36.9448 5.05434 88.9764
6068 2 37.03 5.44305 90.5602
6069 1 53.2047 1.50203 79.4651
6070 2 52.3607 1.96315 79.739
6071 2 53.6518 1.11784 80.2729
6072 1 14.803 13.5345 40.3651
6073 2 14.7851 13.8231 41.3224
6074 2 15.3112 12.677 40.2849
6075 1 78.4317 6.42158 79.6228
6076 2 77.7443 6.95239 80.1184
6077 2 79.3415 6.78555 79.8223
6078 1 41.3722 9.52592 90.6381
6079 2 41.8492 9.70599 91.4984
6080 2 40.6204 10.1766 90.5313
6081 1 38.0845 25.1678 28.4798
6082 2 38.2799 26.1022 28.7777
6083 2 38.2719 25.084 27.5011
6084 1 78.6312 12.0941 46.6134
6085 2 78.121 12.0602 45.754
6086 2 78.4372 12.9557 47.0824
6087 1 5.39442 11.2113 71.5815
6088 2 5.77516 10.3298 71.3022
6089 2 5.92198 11.5738 72.3498
6090 1 14.1347 0.208252 26.1022
6091 2 14.8896 0.851053 25.9721
6092 2 14.4711 29.2727 25.9944
6093 1 18.8586 13.9338 74.6547
6094 2 18.4902 13.6752 75.5477
6095 2 18.4683 13.3422 73.9491
6096 1 13.4511 24.9617 87.0619
6097 2 13.7013 25.0892 88.0216
6098 2 12.458 24.8724 86.9854
6099 1 2.02786 8.0245 45.2145
6100 2 2.66078 8.01432 45.9887
6101 2 1.35411 7.29388 45.3252
6102 1 35.4061 16.6806 81.5197
6103 2 35.2049 17.4956 82.063
6104 2 35.711 15.9443 82.1238
6105 1 54.5109 22.8664 48.7993
6106 2 54.8197 22.4014 49.629
6107 2 53.5481 22.6515 48.6354
6108 1 72.7216 9.68981 81.9785
6109 2 73.2914 9.01826 81.5049
6110 2 72.5944 9.40765 82.9294
6111 1 2.47201 27.5754 65.1675
6112 2 1.90345 28.2795 65.5929
6113 2 1.96954 26.7111 65.1429
6114 1 54.2989 12.7552 44.1159
6115 2 54.3897 12.0955 43.3698
6116 2 53.8925 13.5995 43.7666
6117 1 21.3788 28.8278 70.7439
6118 2 21.9237 28.4354 71.4849
6119 2 21.5553 29.8104 70.6847
6120 1 72.4142 18.6804 40.2079
6121 2 73.3604 18.5387 39.9172
6122 2 71.7991 18.1864 39.5934
6123 1 62.6958 4.14513 31.7714
6124 2 63.1081 5.04586 31.6345
6125 2 63.3832 3.51546 32.1333
6126 1 50.1733 24.4202 26.4082
6127 2 50.3842 25.1763 27.0278
6128 2 49.2109 24.4671 26.1407
6129 1 37.003 2.77224 57.008
6130 2 37.333 3.37597 56.2824
6131 2 37.733 2.14377 57.2765
6132 1 77.9011 21.5353 24.5723
6133 2 77.9519 22.1898 25.3267
6134 2 78.421 20.7142 24.8079
6135 1 65.8554 19.2706 30.4731
6136 2 66.0788 20.166 30.088
6137 2 66.091 19.2576 31.4449
6138 1 0.247234 0.656793 44.2032
6139 2 0.662357 1.40826 44.716
6140 2 79.2525 0.758763 44.2091
6141 1 70.2755 7.2034 71.635
6142 2 70.9307 6.47317 71.8285
6143 2 69.7655 7.42267 72.4668
6144 1 10.3868 27.8251 12.178
6145 2 10.5509 27.6851 13.1545
6146 2 10.9673 28.5685 11.8457
6147 1 44.2205 27.7136 54.2739
6148 2 44.5764 28.6402 54.3948
6149 2 44.9292 27.0503 54.5143
6150 1 67.2851 23.8738 71.4009
6151 2 66.924 23.0379 71.8144
6152 2 68.2835 23.8687 71.4562
6153 1 79.8185 6.68049 86.857
6154 2 79.2634 6.61127 86.0281
6155 2 0.652486 6.14009 86.7458
6156 1 36.1185 9.82189 48.8015
6157 2 35.8412 8.86155 48.8301
6158 2 35.885 10.2099 47.91
6159 1 60.9159 7.04155 80.389
6160 2 60.9097 8.02769 80.2232
6161 2 60.4522 6.57411 79.6363
6162 1 42.1677 13.4198 75.1311
6163 2 42.0315 12.7096 75.8219
6164 2 43.1434 13.6237 75.0506
6165 1 38.1528 5.77825 33.5642
6166 2 38.0134 5.91097 32.5829
6167 2 38.3855 4.82198 33.7414
6168 1 51.5969 29.6488 27.1971
6169 2 52.1568 29.5831 28.0231
6170 2 51.372 0.607359 27.0223
6171 1 15.7303 8.57966 38.2598
6172 2 15.1558 9.36763 38.4814
6173 2 16.6614 8.74398 38.5853
6174 1 55.3624 0.598068 61.0788
6175 2 55.0438 29.9922 61.8077
6176 2 55.0362 0.258371 60.1966
6177 1 28.848 16.3921 70.8672
6178 2 28.7341 15.926 69.9898
6179 2 28.0596 16.1998 71.4516
6180 1 76.8248 4.04952 51.2327
6181 2 75.9963 4.039 51.7927
6182 2 77.4269 4.7855 51.5422
6183 1 45.9691 3.10947 78.4187
6184 2 46.5059 3.22674 79.2543
6185 2 46.5056 3.41545 77.6322
6186 1 77.2991 16.9592 40.5994
6187 2 78.0539 16.9389 41.255
6188 2 76.4544 17.2118 41.0713
6189 1 4.22853 20.7755 72.9812
6190 2 3.94965 20.8308 73.9399
6191 2 3.45236 20.4787 72.4249
6192 1 74.3759 0.36395 30.1214
6193 2 73.9345 0.839632 30.8822
6194 2 74.7398 29.4892 30.4413
6195 1 57.4596 0.01788 39.0304
6196 2 58.1712 0.718145 39.0884
6197 2 57.8646 29.1174 39.1888
6198 1 25.8549 8.14312 76.9324
6199 2 25.9814 9.13021 76.8342
6200 2 25.3261 7.95559 77.7602
6201 1 74.6876 9.98495 59.3169
6202 2 75.1419 10.0651 60.2041
6203 2 74.2436 9.09148 59.2493
6204 1 20.9238 23.4808 70.2679
6205 2 21.7503 23.8013 69.805
6206 2 21.1485 23.2155 71.2055
6207 1 75.8779 25.1902 14.8206
6208 2 75.6221 25.6792 13.9866
6209 2 75.587 24.2361 14.7499
6210 1 77.8724 21.5798 75.8435
6211 2 78.0499 22.5257 75.5721
6212 2 77.4253 21.568 76.7379
6213 1 35.7747 2.50718 74.2435
6214 2 35.7725 1.69327 74.8245
6215 2 36.0494 3.3021 74.7844
6216 1 26.0543 18.962 46.8216
6217 2 25.3944 18.6165 46.1544
6218 2 26.9825 18.7803 46.4972
6219 1 76.2526 9.10783 90.2234
6220 2 76.5281 9.9638 90.6609
6221 2 75.2686 9.12579 90.0462
6222 1 5.4628 28.4582 27.4234
6223 2 4.50204 28.1814 27.4056
6224 2 6.03433 27.665 27.6336
6225 1 5.95335 26.7101 36.2287
6226 2 5.32742 27.225 36.8144
6227 2 6.12944 25.8138 36.6359
6228 1 36.1903 23.4232 89.0952
6229 2 36.9583 22.8141 88.8971
6230 2 35.3327 22.915 89.0157
6231 1 41.9717 21.6525 67.1828
6232 2 41.6297 22.3441 66.5466
6233 2 42.9382 21.8241 67.3738
6234 1 65.3274 8.77016 14.6056
6235 2 64.4901 8.22923 14.5258
6236 2 65.8334 8.48307 15.4189
6237 1 54.0325 18.6515 47.3067
6238 2 53.6354 17.9707 47.9221
6239 2 53.3006 19.1272 46.8189
6240 1 25.5397 0.200135 70.6333
6241 2 25.4489 29.4276 70.0049
6242 2 24.6622 0.673712 70.7084
6243 1 33.0314 3.72708 77.2644
6244 2 33.4933 4.40006 76.6867
6245 2 32.7787 4.1516 78.1339
6246 1 35.1399 5.5653 86.2272
6247 2 35.2011 6.43086 86.7242
6248 2 35.9509 5.01261 86.4193
6249 1 20.7056 28.6598 77.7674
6250 2 19.9176 29.2499 77.5915
6251 2 20.4763 28.0031 78.4859
6252 1 32.2467 15.3545 55.6727
6253 2 31.6927 15.885 55.0311
6254 2 32.538 15.9428 56.4271
6255 1 15.5798 25.2861 28.1046
6256 2 15.5194 26.1541 27.6118
6257 2 16.4522 25.2391 28.5913
6258 1 37.4487 18.8329 42.8023
6259 2 37.8208 19.3134 43.5964
6260 2 37.3275 17.8655 43.0247
6261 1 21.7262 5.07693 67.7595
6262 2 22.4299 5.52392 68.3117
6263 2 20.8356 5.18876 68.2003
6264 1 0.146794 24.2792 43.379
6265 2 0.247051 23.2965 43.223
6266 2 79.1905 24.4884 43.5832
6267 1 74.3373 26.6207 41.9451
6268 2 73.4666 26.1932 41.7019
6269 2 74.3423 26.8345 42.922
6270 1 3.41337 4.25677 21.4623
6271 2 3.26539 3.28937 21.2567
6272 2 3.04978 4.464 22.3705
6273 1 72.5381 26.4491 28.0122
6274 2 73.3928 26.2531 28.493
6275 2 72.4752 27.4305 27.831
6276 1 74.7573 20.0298 55.9259
6277 2 75.4473 19.9196 55.2106
6278 2 73.9204 19.5522 55.6581
6279 1 32.0575 23.0483 74.5419
6280 2 32.4314 23.6879 73.8701
6281 2 32.683 22.9777 75.3189
6282 1 13.6258 0.82287 61.3295
6283 2 12.7969 0.664038 61.8658
6284 2 14.3074 0.126901 61.5553
6285 1 28.3037 15.1627 89.2487
6286 2 29.0775 15.35 88.6435
6287 2 27.8623 16.0237 89.5015
6288 1 23.0879 1.04727 63.8986
6289 2 22.16 0.856625 64.219
6290 2 23.4569 1.83325 64.3946
6291 1 28.1394 16.3722 83.0217
6292 2 27.2096 16.3192 82.6574
6293 2 28.3841 15.4971 83.4393
6294 1 71.7054 6.91045 28.5048
6295 2 72.6451 7.20781 28.3356
6296 2 71.1019 7.30099 27.8097
6297 1 6.16611 10.9845 23.2277
6298 2 6.2663 11.4498 24.1071
6299 2 6.58591 11.5377 22.5081
6300 1 47.2806 29.7005 75.991
6301 2 47.0658 29.208 76.8343
6302 2 48.0186 29.2288 75.5083
6303 1 28.783 21.3114 45.8026
6304 2 29.212 20.4095 45.8529
6305 2 29.3256 21.9682 46.3262
6306 1 7.48561 8.09527 65.4001
6307 2 6.59604 7.65688 65.5285
6308 2 7.59913 8.8232 66.0763
6309 1 35.9786 28.7506 62.1391
6310 2 36.7611 28.8949 61.5334
6311 2 35.3812 29.552 62.1087
6312 1 63.3935 7.42512 12.3108
6313 2 63.6599 8.38743 12.2558
6314 2 63.3149 7.15534 13.2705
6315 1 14.3106 12.9558 56.7732
6316 2 15.1441 13.0206 57.322
6317 2 13.7824 12.1574 57.0625
6318 1 72.8522 14.0164 60.885
6319 2 72.4778 13.2209 61.3615
6320 2 72.4777 14.8522 61.2866
6321 1 5.23675 11.608 39.0604
6322 2 6.10994 11.3249 39.4571
6323 2 4.92335 12.4456 39.5077
6324 1 9.7526 7.31045 68.3849
6325 2 10.4558 6.75597 68.8299
6326 2 8.89866 6.79207 68.3393
6327 1 72.3177 22.011 37.3538
6328 2 72.7709 21.7805 36.4928
6329 2 72.3141 23.0038 37.4733
6330 1 7.85396 10.1675 17.5586
6331 2 8.01856 10.6548 16.701
6332 2 6.88629 10.237 17.801
6333 1 32.5671 1.40587 50.5988
6334 2 32.9673 1.71907 49.7376
6335 2 33.2847 1.02161 51.1796
6336 1 19.895 20.5358 61.2088
6337 2 19.4187 19.8653 61.7777
6338 2 19.3624 20.7082 60.3802
6339 1 71.8564 28.3188 50.3817
6340 2 72.6324 28.9459 50.3136
6341 2 71.4084 28.438 51.2678
6342 1 28.7997 1.7862 61.8174
6343 2 29.0304 1.97482 60.8628
6344 2 27.8075 1.82729 61.9349
6345 1 46.7693 8.49284 47.7119
6346 2 46.9935 9.27517 47.1308
6347 2 46.9206 7.64542 47.203
6348 1 24.7915 7.85998 53.2257
6349 2 24.678 6.99501 53.7145
6350 2 25.7611 8.0077 53.0304
6351 1 2.24953 9.42498 70.2307
6352 2 2.11375 10.3012 69.7683
6353 2 2.32166 9.57602 71.2166
6354 1 74.9235 26.9556 87.5804
6355 2 75.4341 26.3182 87.0033
6356 2 75.0154 26.6846 88.5386
6357 1 9.11666 8.44429 48.2225
6358 2 8.14125 8.34959 48.0235
6359 2 9.3347 7.94993 49.0639
6360 1 43.3616 22.7478 47.1436
6361 2 43.1323 23.6149 47.5858
6362 2 42.7476 22.596 46.369
6363 1 77.7179 25.2665 60.0449
6364 2 76.773 25.4625 60.3071
6365 2 78.1794 26.1189 59.7992
6366 1 67.0477 19.6378 84.1869
6367 2 66.1273 19.5872 84.5747
6368 2 67.2985 18.7477 83.8065
6369 1 52.3355 18.7725 40.8247
6370 2 52.6518 19.3129 40.045
6371 2 52.6977 19.1641 41.6706
6372 1 27.2316 25.371 43.877
6373 2 27.5845 24.7737 43.1568
6374 2 26.2978 25.0982 44.1084
6375 1 19.5206 4.56733 18.8821
6376 2 18.5542 4.53856 19.1376
6377 2 19.6039 4.51681 17.8868
6378 1 25.3182 14.6508 52.5119
6379 2 24.8554 13.9044 52.9901
6380 2 26.2716 14.6973 52.8102
6381 1 23.2639 3.74751 47.5293
6382 2 22.7221 3.00077 47.915
6383 2 24.1272 3.38566 47.1772
6384 1 19.9024 1.00677 64.6823
6385 2 19.6517 0.0773213 64.9531
6386 2 19.2209 1.36288 64.043
6387 1 15.3808 11.8339 52.1215
6388 2 16.0448 11.377 52.7134
6389 2 15.8516 12.5035 51.5471
6390 1 67.5094 9.86612 79.5571
6391 2 67.2785 10.074 80.5077
6392 2 66.8442 10.3007 78.9499
6393 1 54.1377 1.03317 54.8919
6394 2 53.7593 0.546108 54.1047
6395 2 54.4614 1.9339 54.6023
6396 1 72.4235 24.0067 78.0213
6397 2 72.9399 23.5126 78.7207
6398 2 72.7942 23.7901 77.1181
6399 1 76.807 28.3573 58.2569
6400 2 76.3039 27.4992 58.1549
6401 2 77.7518 28.2275 57.9559
6402 1 10.1832 20.7141 29.8569
6403 2 10.9973 21.0179 29.3621
6404 2 9.87042 21.4444 30.4642
6405 1 21.859 19.2421 77.6059
6406 2 21.4973 20.1356 77.3397
6407 2 21.3857 18.9219 78.4265
6408 1 63.2653 10.9126 14.9612
6409 2 63.8421 10.1418 14.6907
6410 2 62.3273 10.7508 14.6545
6411 1 76.6616 19.1074 57.9046
6412 2 75.6821 19.0261 57.7204
6413 2 76.9072 18.5126 58.6701
6414 1 24.184 8.15342 34.4845
6415 2 23.6261 7.41009 34.1155
6416 2 23.6603 9.00508 34.464
6417 1 74.5679 22.8046 40.2589
6418 2 75.3537 22.5899 39.6789
6419 2 74.8381 22.7492 41.2201
6420 1 72.2947 25.5408 24.0281
6421 2 72.9544 24.9009 23.634
6422 2 72.5148 26.4705 23.7326
6423 1 17.1639 7.03831 55.3985
6424 2 16.4385 7.34206 56.0162
6425 2 17.6128 6.23155 55.7828
6426 1 2.09761 3.60118 56.3386
6427 2 2.6765 4.41656 56.333
6428 2 2.0189 3.25478 57.2734
6429 1 75.1108 22.3851 14.7617
6430 2 74.598 21.7261 14.2115
6431 2 75.9882 21.986 15.0277
6432 1 53.2099 6.64423 65.288
6433 2 54.0022 6.3726 65.8344
6434 2 53.2604 6.20964 64.3888
6435 1 37.4607 9.35624 69.8217
6436 2 36.5081 9.12692 69.6218
6437 2 37.7741 8.82259 70.6072
6438 1 63.6872 24.7523 50.4158
6439 2 63.5418 25.7242 50.2305
6440 2 63.9607 24.6322 51.3702
6441 1 77.937 8.37145 25.2452
6442 2 77.6083 8.83341 24.4214
6443 2 78.1344 9.05075 25.952
6444 1 27.982 7.59918 37.31
6445 2 28.3901 7.68362 36.401
6446 2 28.6664 7.25331 37.9519
6447 1 49.3062 5.59551 33.9098
6448 2 49.994 5.06856 34.409
6449 2 48.6921 6.0426 34.5602
6450 1 33.6004 23.2576 88.949
6451 2 34.2368 23.9163 89.3504
6452 2 33.1159 23.6849 88.1857
6453 1 11.9415 29.8688 51.3005
6454 2 11.9967 0.783483 50.9
6455 2 11.1809 29.369 50.8863
6456 1 57.1956 4.13018 68.6037
6457 2 57.8172 3.83839 69.3306
6458 2 56.7742 3.32676 68.183
6459 1 8.08579 16.5937 25.7415
6460 2 8.63558 17.2968 25.2905
6461 2 8.02863 15.787 25.1533
6462 1 18.8252 20.5939 45.9409
6463 2 19.5876 21.2399 45.9786
6464 2 17.9853 21.0521 46.2319
6465 1 50.8988 22.7775 50.8516
6466 2 51.3918 22.7361 49.9825
6467 2 50.9622 23.7021 51.2271
6468 1 58.2879 6.88587 66.574
6469 2 58.2046 7.80469 66.9598
6470 2 57.9067 6.87667 65.6496
6471 1 59.4889 23.081 48.9371
6472 2 59.3986 23.9986 49.3242
6473 2 59.6753 22.4268 49.6702
6474 1 8.09518 5.41967 90.3487
6475 2 7.78386 4.63868 89.8072
6476 2 9.09397 5.41441 90.3976
6477 1 32.5712 16.843 90.0491
6478 2 32.4022 15.9719 89.588
6479 2 31.7121 17.3476 90.1338
6480 1 33.334 1.54665 83.7212
6481 2 33.4991 2.40575 84.2057
6482 2 34.1183 0.938572 83.8444
6483 1 12.0815 20.4336 55.3107
6484 2 11.2489 20.5441 55.8534
6485 2 12.0125 19.6015 54.7603
6486 1 63.0262 6.58059 38.3526
6487 2 63.9549 6.52383 38.719
6488 2 62.982 6.09476 37.4797
6489 1 73.6791 3.13992 46.1546
6490 2 74.0392 2.71177 46.9835
6491 2 73.2697 4.02239 46.3862
6492 1 26.6628 5.13495 47.1441
6493 2 27.0838 5.54338 46.3342
6494 2 27.0191 4.20965 47.2742
6495 1 35.5772 18.3524 90.988
6496 2 35.4944 18.7588 90.0781
6497 2 35.2514 17.4073 90.9619
6498 1 50.1431 22.5994 45.0534
6499 2 50.2999 22.9411 44.1268
6500 2 49.3649 23.0793 45.4584
6501 1 1.98217 28.2541 55.3492
6502 2 2.37981 28.4375 56.2483
6503 2 2.71461 28.132 54.6795
6504 1 6.02574 27.7788 33.6499
6505 2 6.28137 26.9803 33.1049
6506 2 6.33859 27.6537 34.5914
6507 1 74.1161 0.99572 66.1769
6508 2 74.1467 1.6513 65.4224
6509 2 74.383 1.45188 67.0258
6510 1 53.2277 10.8641 50.0463
6511 2 53.4669 10.0128 50.5132
6512 2 53.9938 11.157 49.4741
6513 1 69.6332 14.61 36.6605
6514 2 70.4933 14.7191 37.1588
6515 2 69.3959 15.4719 36.2123
6516 1 18.2364 22.758 11.619
6517 2 19.0067 22.3867 12.1374
6518 2 17.7012 22.0066 11.233
6519 1 70.0103 17.3193 25.4704
6520 2 69.232 17.7703 25.9072
6521 2 70.66 18.0096 25.1522
6522 1 57.5356 2.4663 30.2317
6523 2 57.7453 2.80909 31.1474
6524 2 56.8172 3.02837 29.8219
6525 1 31.1936 12.4315 33.0202
6526 2 31.2925 13.3105 33.4867
6527 2 32.082 11.9742 32.9791
6528 1 39.1504 3.74253 82.9822
6529 2 39.7175 4.12696 82.2538
6530 2 38.626 4.47422 83.4177
6531 1 18.4399 24.9896 36.2848
6532 2 18.5535 24.1045 36.7361
6533 2 18.816 24.9426 35.3594
6534 1 51.7955 29.9426 48.4163
6535 2 52.0595 0.896363 48.5601
6536 2 51.5886 29.5175 49.2974
6537 1 78.8016 15.7528 59.0935
6538 2 78.0635 16.2741 59.5218
6539 2 79.549 15.6344 59.7473
6540 1 8.44934 11.1958 12.0266
6541 2 8.54699 11.0204 13.0063
6542 2 9.35493 11.2527 11.6063
6543 1 46.1814 3.3263 51.0668
6544 2 46.6849 3.91183 50.4315
6545 2 45.5338 2.76033 50.5565
6546 1 10.3746 13.8022 79.1015
6547 2 10.9706 13.4795 79.8369
6548 2 10.569 13.2891 78.2655
6549 1 9.55768 28.2991 29.3957
6550 2 9.70855 29.1759 28.9391
6551 2 8.67477 27.9239 29.1134
6552 1 76.7857 25.8146 85.4703
6553 2 77.7081 25.4303 85.4308
6554 2 76.1161 25.0928 85.295
6555 1 53.1921 20.214 83.2183
6556 2 52.3281 20.0022 82.7615
6557 2 53.048 20.9507 83.879
6558 1 76.8461 22.9692 44.7844
6559 2 76.4193 22.3196 44.1551
6560 2 77.2427 23.7256 44.2642
6561 1 69.1403 29.2913 35.315
6562 2 70.0332 29.74 35.3511
6563 2 68.4311 29.9371 35.598
6564 1 66.0314 10.3048 50.1228
6565 2 65.8154 10.8022 50.963
6566 2 65.9525 9.32171 50.2877
6567 1 77.0911 16.5095 49.195
6568 2 77.4205 17.3314 48.7302
6569 2 77.6934 15.7408 48.9797
6570 1 49.9869 29.6266 46.3821
6571 2 50.0351 28.7122 45.9801
6572 2 50.4623 29.6294 47.2618
6573 1 48.8215 7.59904 65.5005
6574 2 48.4953 8.282 64.8469
6575 2 48.0414 7.10155 65.8799
6576 1 63.3292 27.9386 74.5382
6577 2 64.2798 27.6391 74.4561
6578 2 62.9034 27.948 73.6334
6579 1 66.3257 0.85705 21.0199
6580 2 65.5868 1.12229 20.4005
6581 2 65.952 0.312219 21.7706
6582 1 12.7181 12.9021 71.2868
6583 2 12.3199 12.1915 71.8669
6584 2 13.3256 12.4809 70.6134
6585 1 54.8654 28.6278 69.48
6586 2 55.0232 29.0246 70.3842
6587 2 53.8914 28.6785 69.2591
6588 1 2.8963 19.3005 45.7534
6589 2 1.90683 19.3984 45.86
6590 2 3.31896 19.1885 46.6528
6591 1 7.53489 25.7527 61.0356
6592 2 7.99218 26.0807 61.8622
6593 2 8.01145 24.9446 60.6894
6594 1 46.086 23.0941 28.2121
6595 2 45.8079 22.1682 27.9565
6596 2 46.2751 23.1263 29.1936
6597 1 67.3537 7.91791 24.5413
6598 2 68.071 8.50458 24.9171
6599 2 67.5017 6.97587 24.8424
6600 1 75.1053 14.222 49.3155
6601 2 74.3716 13.6075 49.6054
6602 2 75.9303 13.6898 49.1253
6603 1 17.5729 28.2664 52.9017
6604 2 18.3858 28.0345 53.436
6605 2 17.1518 29.0922 53.2768
6606 1 33.4365 1.07983 33.183
6607 2 33.693 0.303009 33.7582
6608 2 34.2276 1.37237 32.6458
6609 1 40.186 29.9148 80.8261
6610 2 40.5528 29.0796 80.4163
6611 2 39.4518 29.679 81.4628
6612 1 25.9342 16.6489 38.8574
6613 2 25.8401 16.2411 37.9492
6614 2 26.9042 16.7584 39.0747
6615 1 54.0872 8.4432 51.2424
6616 2 54.6858 8.44358 52.0434
6617 2 54.5657 8.0276 50.4689
6618 1 16.147 10.4724 79.4889
6619 2 15.3013 10.0666 79.8353
6620 2 15.9269 11.1734 78.8106
6621 1 13.4406 2.14514 49.9057
6622 2 12.7625 2.86313 49.7486
6623 2 14.2978 2.39154 49.4534
6624 1 1.29536 20.2487 69.2277
6625 2 1.07634 21.1026 69.6997
6626 2 1.58742 19.5641 69.8955
6627 1 21.0827 24.5824 67.1227
6628 2 21.8875 24.5548 67.7156
6629 2 20.3431 24.0542 67.5398
6630 1 6.39574 9.48388 54.5086
6631 2 5.56167 9.33988 53.976
6632 2 7.01202 10.0897 54.0054
6633 1 62.8846 17.9082 48.3742
6634 2 63.6487 17.5569 47.8332
6635 2 62.0332 17.7933 47.8624
6636 1 43.9064 19.6148 46.3387
6637 2 42.9787 19.4077 46.0283
6638 2 44.5647 19.1041 45.7856
6639 1 67.3263 4.54154 60.9867
6640 2 67.3314 3.54755 61.096
6641 2 67.6118 4.97248 61.8427
6642 1 67.9334 20.5893 70.0439
6643 2 67.2852 20.789 70.7788
6644 2 67.8982 19.6144 69.8242
6645 1 5.43874 22.0349 68.8788
6646 2 4.58336 22.5525 68.8576
6647 2 5.99083 22.3352 69.6566
6648 1 43.9067 16.5153 67.8301
6649 2 44.3167 16.4241 68.7376
6650 2 43.2514 15.7741 67.6845
6651 1 44.3216 19.7223 65.4577
6652 2 44.3055 19.5939 64.4661
6653 2 44.9658 20.4514 65.689
6654 1 41.7767 21.4754 77.7276
6655 2 41.1056 20.8208 78.0758
6656 2 42.6239 20.9952 77.5005
6657 1 50.4497 16.0301 45.0861
6658 2 49.5198 15.703 45.2546
6659 2 51.0831 15.568 45.7068
6660 1 17.9072 17.7437 45.282
6661 2 18.1565 18.6633 44.9781
6662 2 18.3303 17.5598 46.1693
6663 1 66.6371 5.00312 90.6819
6664 2 67.5659 4.63471 90.6419
6665 2 66.6494 5.96766 90.4183
6666 1 65.9248 16.6629 20.6904
6667 2 66.0983 16.445 21.6508
6668 2 65.6261 15.8382 20.2102
6669 1 20.6545 20.5308 11.0745
6670 2 20.6965 20.1773 12.009
6671 2 21.4832 20.2672 10.5808
6672 1 45.8861 13.0364 70.6036
6673 2 46.515 12.5321 70.0119
6674 2 46.2732 13.1008 71.5234
6675 1 71.6594 29.3068 15.8636
6676 2 72.5959 29.1949 15.5312
6677 2 71.2892 28.4151 16.1237
6678 1 61.5108 5.28778 82.5911
6679 2 61.0472 5.96305 82.0174
6680 2 62.4315 5.61155 82.8092
6681 1 22.9159 19.4733 33.0703
6682 2 23.1712 19.4475 34.0368
6683 2 23.5999 18.9814 32.5316
6684 1 62.8331 13.6174 34.9793
6685 2 63.1916 13.2238 34.1328
6686 2 63.4447 13.391 35.7374
6687 1 77.7904 1.48204 45.0283
6688 2 77.5852 0.828364 45.7567
6689 2 77.1937 2.27943 45.1182
6690 1 39.0957 17.6915 83.2897
6691 2 39.7215 18.4332 83.0486
6692 2 39.5456 17.0714 83.9323
6693 1 0.902865 3.17094 59.0247
6694 2 79.9294 3.16992 58.796
6695 2 1.12997 4.01431 59.5117
6696 1 76.3331 23.6849 23.5011
6697 2 76.8276 22.9557 23.974
6698 2 75.4509 23.8336 23.948
6699 1 16.1068 8.80266 42.7517
6700 2 16.596 9.20852 43.5237
6701 2 16.5257 9.10508 41.8955
6702 1 22.5799 18.1291 23.3227
6703 2 22.7303 17.4608 22.5941
6704 2 22.787 19.0461 22.9817
6705 1 21.5682 12.4605 26.2614
6706 2 21.6356 11.6193 26.7978
6707 2 22.2336 12.4343 25.5154
6708 1 62.8845 21.2826 45.906
6709 2 62.9388 21.5486 46.8685
6710 2 62.0814 20.7036 45.7651
6711 1 42.2472 7.61299 43.3039
6712 2 41.3183 7.95057 43.4558
6713 2 42.9039 8.25421 43.7009
6714 1 31.3806 29.5161 35.2833
6715 2 31.9889 28.8184 35.6617
6716 2 31.8416 0.403395 35.2973
6717 1 30.6292 16.1735 31.3704
6718 2 30.0191 15.7843 30.6802
6719 2 30.1587 16.2035 32.2523
6720 1 51.7103 16.2993 80.6277
6721 2 51.3985 16.2316 81.5754
6722 2 52.4385 16.9817 80.5643
6723 1 58.2062 12.652 61.1675
6724 2 57.4927 13.2761 60.8489
6725 2 57.9202 11.7078 61.0045
6726 1 33.2822 15.0855 82.7549
6727 2 34.2032 14.7092 82.8563
6728 2 33.2096 15.9347 83.278
6729 1 55.5415 13.3094 32.6818
6730 2 56.531 13.1867 32.7584
6731 2 55.0927 12.4159 32.6959
6732 1 62.5418 8.12636 17.8731
6733 2 62.5109 7.26846 17.3602
6734 2 63.3875 8.16627 18.4052
6735 1 35.5343 16.1851 49.3444
6736 2 34.9647 15.5385 49.8518
6737 2 35.584 17.0495 49.8447
6738 1 28.939 4.4666 74.7752
6739 2 28.4233 4.13954 75.5671
6740 2 29.6944 5.04408 75.0849
6741 1 32.2829 9.26164 64.5705
6742 2 32.9816 9.94847 64.3705
6743 2 31.4617 9.71335 64.9193
6744 1 76.0377 27.3511 73.4325
6745 2 76.1006 27.5658 74.4071
6746 2 76.951 27.3757 73.0261
6747 1 17.217 16.9738 80.391
6748 2 16.444 17.1673 79.7869
6749 2 17.0402 17.3649 81.2942
6750 1 67.2836 1.24388 68.1852
6751 2 67.7549 0.45112 68.5717
6752 2 67.9568 1.92884 67.9068
6753 1 26.4677 23.1227 45.1252
6754 2 27.2636 23.5944 44.7456
6755 2 26.7686 22.3103 45.6246
6756 1 12.0344 16.1435 55.1931
6757 2 11.2645 15.7279 55.6774
6758 2 12.6649 16.5488 55.8551
6759 1 55.4927 25.2914 35.6779
6760 2 55.2093 25.9188 34.9527
6761 2 54.8424 24.5339 35.7363
6762 1 29.3696 24.4252 28.5861
6763 2 30.34 24.3371 28.8106
6764 2 29.1055 25.389 28.6213
6765 1 2.74466 8.40726 83.4741
6766 2 3.45055 7.83072 83.0626
6767 2 1.85314 8.16868 83.089
6768 1 13.6297 8.32959 73.9666
6769 2 13.3167 8.76961 73.1249
6770 2 13.4991 7.34079 73.8942
6771 1 14.1033 1.84314 18.2148
6772 2 14.6292 1.48979 18.9885
6773 2 14.545 2.66725 17.8602
6774 1 51.4692 14.3844 46.7477
6775 2 50.7329 13.7338 46.5614
6776 2 52.3479 13.9075 46.7294
6777 1 59.7711 24.8275 68.4083
6778 2 59.3023 23.9448 68.3744
6779 2 60.6249 24.7319 68.92
6780 1 50.5378 25.4079 40.0933
6781 2 50.5104 26.3656 39.8067
6782 2 51.0981 25.3225 40.9171
6783 1 4.17915 18.8064 51.3908
6784 2 3.27431 18.6408 50.9985
6785 2 4.10663 18.8561 52.3869
6786 1 41.2024 4.09446 63.8896
6787 2 40.7764 4.29381 64.7721
6788 2 40.4942 3.86591 63.2216
6789 1 25.3171 21.0047 40.0444
6790 2 24.4534 21.338 40.4226
6791 2 25.4077 20.0267 40.2319
6792 1 24.2315 26.264 77.8233
6793 2 24.0272 25.2885 77.7418
6794 2 24.3052 26.5094 78.7899
6795 1 21.1336 0.466143 18.1162
6796 2 20.7512 29.5423 18.1338
6797 2 21.0294 0.887298 19.0172
6798 1 57.6402 0.935638 46.3378
6799 2 57.6388 0.25914 45.6014
6800 2 58.0573 1.78361 46.0107
6801 1 52.402 2.44223 28.2449
6802 2 53.0871 3.15983 28.1194
6803 2 52.8575 1.58465 28.4838
6804 1 42.4863 21.6003 90.6087
6805 2 42.4304 21.9065 89.6584
6806 2 42.7742 20.643 90.634
6807 1 38.615 17.2767 47.7827
6808 2 38.2635 18.2084 47.6912
6809 2 39.5383 17.2299 47.4014
6810 1 21.6726 26.7177 49.7625
6811 2 22.397 26.4063 50.3776
6812 2 21.9242 26.5072 48.8178
6813 1 35.3792 22.074 83.9338
6814 2 35.4702 22.1276 84.9283
6815 2 35.6488 21.1625 83.6231
6816 1 61.6103 20.1151 41.3504
6817 2 61.2875 19.185 41.1749
6818 2 61.377 20.7009 40.5742
6819 1 56.2956 15.1282 66.4509
6820 2 56.8831 14.8775 65.6814
6821 2 56.4935 16.0682 66.7288
6822 1 78.6172 0.911893 36.038
6823 2 78.3127 0.224276 36.6971
6824 2 77.8225 1.38924 35.6631
6825 1 4.15297 11.2949 50.6705
6826 2 4.61277 11.368 49.7854
6827 2 3.98422 10.3317 50.8799
6828 1 70.7998 8.03972 23.3388
6829 2 70.4453 8.06843 24.2734
6830 2 70.1226 8.42732 22.7134
6831 1 43.2314 16.6858 39.7992
6832 2 42.8909 15.8629 39.3442
6833 2 43.4814 16.466 40.7422
6834 1 14.3859 22.7068 28.2053
6835 2 14.4465 23.7021 28.1298
6836 2 15.3001 22.3101 28.1235
6837 1 45.2648 13.5457 64.3469
6838 2 44.9887 14.0399 63.5226
6839 2 44.5492 12.8949 64.6008
6840 1 48.8118 4.67335 83.3127
6841 2 48.4251 3.76136 83.1758
6842 2 49.0635 4.78785 84.2737
6843 1 29.5456 12.3424 68.5022
6844 2 30.173 12.1882 67.7389
6845 2 28.641 11.9867 68.2672
6846 1 21.7387 22.6113 44.2802
6847 2 21.1995 23.1339 44.9407
6848 2 22.2538 21.9002 44.7587
6849 1 12.6779 20.0063 83.5625
6850 2 11.7127 19.7471 83.5978
6851 2 13.1281 19.5144 82.8174
6852 1 77.5574 28.6525 43.6041
6853 2 76.7529 29.005 43.1259
6854 2 77.3376 28.5158 44.57
6855 1 67.6528 12.772 52.0983
6856 2 67.9241 12.9511 51.1527
6857 2 66.9083 12.1044 52.1108
6858 1 34.7055 20.4068 73.6968
6859 2 35.3018 20.4418 74.4988
6860 2 35.2542 20.2228 72.8813
6861 1 28.3932 25.3224 35.1723
6862 2 28.1096 26.2004 35.5578
6863 2 28.7667 24.7448 35.8982
6864 1 3.18912 4.64373 83.1984
6865 2 2.7223 3.82234 82.8706
6866 2 3.44006 5.21786 82.419
6867 1 19.1093 18.7772 84.251
6868 2 18.4001 18.1267 83.9791
6869 2 18.8701 19.1812 85.1339
6870 1 76.5707 4.98637 47.2119
6871 2 75.8587 4.40286 47.6024
6872 2 77.1654 4.43826 46.6237
6873 1 63.4095 9.40432 79.128
6874 2 64.1167 9.88799 78.6123
6875 2 62.9405 10.0469 79.7339
6876 1 60.7667 3.32693 17.3596
6877 2 61.2477 2.52277 17.7088
6878 2 61.1924 3.62503 16.5053
6879 1 5.95356 5.22392 11.0611
6880 2 6.07905 5.40541 10.0857
6881 2 5.67689 4.27164 11.19
6882 1 69.6305 21.3564 25.7993
6883 2 69.1959 22.0433 25.2168
6884 2 69.0677 20.53 25.8168
6885 1 0.506814 15.3853 61.8254
6886 2 1.26394 16.0319 61.9186
6887 2 79.8548 15.5259 62.5705
6888 1 4.74445 13.1723 14.3789
6889 2 4.77534 13.3713 13.3994
6890 2 5.05197 12.2342 14.5383
6891 1 0.782247 27.5879 16.7352
6892 2 1.02852 27.6627 17.7016
6893 2 79.9788 28.1542 16.5513
6894 1 25.4015 15.4431 78.6985
6895 2 26.2327 15.6982 79.1926
6896 2 24.7384 15.0561 79.3393
6897 1 9.30892 4.74207 30.0671
6898 2 9.9591 5.16557 29.4363
6899 2 9.80116 4.15057 30.7058
6900 1 4.67343 6.30275 34.2892
6901 2 4.70297 6.45679 35.2768
6902 2 3.72606 6.16103 34.0022
6903 1 10.7527 28.9522 20.3514
6904 2 11.6876 28.7886 20.6662
6905 2 10.5817 28.4187 19.5231
6906 1 15.0303 21.8888 82.6573
6907 2 14.4259 21.5992 81.9151
6908 2 14.6428 22.6929 83.1082
6909 1 76.5782 21.5783 87.757
6910 2 77.5553 21.7557 87.8745
6911 2 76.451 20.8345 87.1008
6912 1 20.9874 1.79574 72.4012
6913 2 20.0832 1.82188 72.8275
6914 2 21.3518 2.72464 72.3353
6915 1 18.685 19.1055 16.0341
6916 2 18.009 19.5986 16.5816
6917 2 18.4378 18.1374 15.992
6918 1 79.8273 23.716 80.6694
6919 2 78.9293 23.5129 81.0598
6920 2 79.7386 24.4453 79.9909
6921 1 47.0157 0.632094 90.3033
6922 2 47.6136 1.19183 90.8771
6923 2 46.0609 0.853916 90.5009
6924 1 13.8301 17.9665 66.6723
6925 2 14.4023 17.1486 66.7317
6926 2 12.9385 17.7803 67.085
6927 1 0.974952 13.9384 72.289
6928 2 1.62632 14.6721 72.4826
6929 2 1.4715 13.1182 72.0051
6930 1 74.1334 22.9235 84.873
6931 2 73.8885 22.9156 83.9035
6932 2 73.4616 22.394 85.3909
6933 1 23.6029 18.8261 87.3618
6934 2 23.4735 19.1358 88.3038
6935 2 22.7803 18.3495 87.0517
6936 1 61.4254 7.05366 45.172
6937 2 60.5552 7.27749 45.6109
6938 2 62.0246 6.60027 45.8318
6939 1 59.5437 29.7964 90.6673
6940 2 60.5343 29.7875 90.5307
6941 2 59.287 29.0604 91.2938
6942 1 41.0295 24.8647 30.0124
6943 2 41.375 25.7996 29.9311
6944 2 40.1639 24.7851 29.518
6945 1 9.55343 0.254798 66.2972
6946 2 10.3453 0.84359 66.1352
6947 2 9.70865 29.363 65.8723
6948 1 8.32119 27.1154 72.86
6949 2 8.74745 27.2184 73.7587
6950 2 7.42343 27.5559 72.8645
6951 1 33.6275 27.4101 58.445
6952 2 33.7808 28.1704 59.0762
6953 2 34.4956 27.1451 58.0252
6954 1 32.7107 13.9536 39.9865
6955 2 32.3961 13.8885 40.9335
6956 2 33.6595 14.2692 39.9714
6957 1 19.9108 1.80135 47.1158
6958 2 19.1067 1.55616 46.5743
6959 2 20.4733 0.987981 47.2644
6960 1 11.9876 16.9273 83.5079
6961 2 12.2383 16.0966 83.0107
6962 2 11.1091 16.7896 83.9653
6963 1 66.4722 19.1877 76.0569
6964 2 66.7956 19.9885 75.5529
6965 2 67.1491 18.9328 76.7475
6966 1 35.5876 17.2814 46.9215
6967 2 35.5721 16.8712 47.8334
6968 2 34.8675 16.8734 46.3602
6969 1 66.7944 14.0723 80.5852
6970 2 66.1278 13.3461 80.4168
6971 2 66.6985 14.7814 79.8867
6972 1 8.65527 12.8654 89.1028
6973 2 9.51242 13.3675 88.9881
6974 2 8.33693 12.5416 88.2118
6975 1 19.9871 14.4357 43.4157
6976 2 19.242 15.0873 43.2731
6977 2 20.4041 14.5968 44.3102
6978 1 35.3866 19.7258 79.8212
6979 2 36.1282 19.3546 79.2624
6980 2 35.6921 19.8058 80.77
6981 1 57.6568 2.03589 51.2327
6982 2 58.4557 2.60386 51.0348
6983 2 57.8652 1.42087 51.9932
6984 1 69.6445 26.5125 66.5015
6985 2 68.6788 26.6783 66.3014
6986 2 69.9478 27.137 67.2212
6987 1 67.2765 21.884 23.8353
6988 2 67.0491 22.831 23.6084
6989 2 66.5567 21.4973 24.4118
6990 1 48.4971 1.32708 36.1226
6991 2 48.0494 0.682455 36.7422
6992 2 48.1434 1.19918 35.196
6993 1 36.2504 3.86518 39.4782
6994 2 36.0571 2.88609 39.5416
6995 2 35.9954 4.31151 40.336
6996 1 53.1694 16.6928 64.7068
6997 2 54.0522 16.232 64.6163
6998 2 53.0524 17.34 63.9535
6999 1 32.5554 25.0007 39.8126
7000 2 33.4212 24.8744 40.2969
7001 2 32.2982 25.9668 39.8361
7002 1 49.5568 15.5174 50.6545
7003 2 49.2921 16.4336 50.3534
7004 2 49.0677 14.8341 50.1125
7005 1 63.6512 0.311286 59.9441
7006 2 63.3584 29.82 60.7644
7007 2 63.6327 1.29542 60.1205
7008 1 6.42655 7.87695 47.8826
7009 2 6.26531 8.77027 47.4631
7010 2 5.84962 7.7806 48.6937
7011 1 17.7102 8.57141 58.2678
7012 2 16.838 8.1675 58.5437
7013 2 18.1474 8.99445 59.0615
7014 1 17.5631 22.1398 30.8627
7015 2 17.7886 23.0682 31.158
7016 2 17.1042 22.1748 29.9748
7017 1 8.93803 23.6388 47.6608
7018 2 9.42495 23.0579 47.0085
7019 2 9.58207 24.2744 48.0865
7020 1 59.0078 7.15908 76.181
7021 2 59.3055 6.63338 76.9779
7022 2 59.8087 7.49082 75.6824
7023 1 50.5149 16.6837 25.6032
7024 2 50.0525 17.5618 25.7265
7025 2 49.9558 15.9543 25.9974
7026 1 62.4167 15.3288 26.8944
7027 2 61.7042 15.7025 27.4882
7028 2 63.1275 16.0178 26.7524
7029 1 11.4069 2.33958 86.4237
7030 2 11.9076 3.18432 86.6129
7031 2 12.0533 1.61651 86.1801
7032 1 66.4022 26.2271 54.8926
7033 2 65.7943 25.4378 54.8064
7034 2 65.9725 27.0262 54.4721
7035 1 66.8969 21.7191 41.2342
7036 2 66.8728 20.8491 41.7266
7037 2 66.2336 21.6973 40.4862
7038 1 33.2185 8.75889 43.1339
7039 2 33.1578 7.97892 42.511
7040 2 32.3488 8.87005 43.6146
7041 1 18.3591 18.2855 26.1841
7042 2 19.0434 17.6921 26.6079
7043 2 18.0147 17.8543 25.3501
7044 1 44.9271 13.3258 75.0297
7045 2 45.9022 13.5297 74.9425
7046 2 44.8106 12.4384 75.4757
7047 1 3.76404 9.41091 77.5946
7048 2 3.54146 10.2837 78.029
7049 2 3.39638 8.66131 78.1449
7050 1 56.9756 17.9761 76.4384
7051 2 56.8366 18.9662 76.4196
7052 2 56.7156 17.62 77.3359
7053 1 43.5312 7.75996 40.8736
7054 2 43.0163 8.36266 40.264
7055 2 43.2438 7.91718 41.8184
7056 1 60.6319 15.8884 44.0981
7057 2 60.488 15.0612 44.6413
7058 2 60.7416 16.673 44.7082
7059 1 51.5712 20.0123 48.735
7060 2 50.811 19.4498 48.4099
7061 2 52.1233 19.4854 49.3811
7062 1 58.6923 9.3891 39.1532
7063 2 59.0842 10.2321 38.7847
7064 2 58.8601 8.63708 38.5158
7065 1 65.027 1.78391 12.3951
7066 2 64.3527 2.43646 12.0494
7067 2 64.5721 0.922235 12.62
7068 1 18.2452 14.9017 46.4021
7069 2 17.3863 15.3852 46.2334
7070 2 18.9101 15.5329 46.8015
7071 1 59.7713 29.6084 87.4652
7072 2 59.251 0.452932 87.3387
7073 2 60.4436 29.5179 86.7305
7074 1 66.6837 1.81787 62.9308
7075 2 66.1007 2.16331 63.6661
7076 2 67.1034 0.955886 63.2152
7077 1 24.5 13.4619 65.2329
7078 2 24.7557 12.5128 65.4164
7079 2 24.0399 13.5179 64.3468
7080 1 79.4432 20.8836 28.2764
7081 2 79.7694 19.9833 27.9881
7082 2 0.193877 21.3899 28.7009
7083 1 29.2944 8.10508 81.416
7084 2 28.8127 7.59162 82.1262
7085 2 28.6686 8.2948 80.6595
7086 1 40.9415 7.08062 72.1682
7087 2 40.7136 8.04593 72.0407
7088 2 40.3253 6.67931 72.8458
7089 1 79.4994 17.0258 41.9491
7090 2 0.34859 16.4982 41.9716
7091 2 79.5904 17.7763 41.2945
7092 1 77.8421 13.4193 28.1289
7093 2 78.6555 13.6885 28.6446
7094 2 77.9949 12.525 27.7083
7095 1 7.65586 24.0043 10.4389
7096 2 8.26651 24.2887 11.1779
7097 2 8.14122 23.3795 9.82726
7098 1 78.1733 18.3464 70.9939
7099 2 78.6166 17.5437 70.5951
7100 2 78.7622 18.7348 71.7027
7101 1 70.3374 29.2035 21.4587
7102 2 70.4492 28.6052 20.6652
7103 2 71.0492 29.0014 22.1314
7104 1 12.2191 13.7938 16.1967
7105 2 11.5652 13.8818 16.9482
7106 2 12.7296 14.6479 16.0972
7107 1 16.669 6.10973 73.9518
7108 2 15.96 5.60115 74.4404
7109 2 17.5186 6.08703 74.4787
7110 1 10.2151 25.4226 36.0001
7111 2 11.0945 25.0301 35.7308
7112 2 10.2446 25.6742 36.9675
7113 1 71.3905 27.6433 52.9685
7114 2 71.6982 28.1811 53.7534
7115 2 72.1768 27.4064 52.3979
7116 1 26.4564 25.7183 46.9331
7117 2 27.0456 25.3409 47.6476
7118 2 26.8532 25.5229 46.0362
7119 1 73.9487 15.1549 54.2211
7120 2 73.2856 14.724 54.8332
7121 2 74.7593 15.4216 54.7424
7122 1 16.6274 18.0003 57.0056
7123 2 17.4717 17.4852 56.8584
7124 2 16.7308 18.923 56.6343
7125 1 8.98106 23.105 33.9849
7126 2 9.25137 22.1625 34.1811
7127 2 9.37689 23.715 34.6714
7128 1 3.68304 20.1135 42.123
7129 2 3.53357 19.1946 42.4883
7130 2 4.66256 20.3147 42.1176
7131 1 21.8202 18.2443 59.455
7132 2 21.6042 18.659 60.339
7133 2 21.5954 17.2703 59.4799
7134 1 23.4294 11.8173 81.1897
7135 2 24.268 11.5514 80.7143
7136 2 23.3702 12.8148 81.2287
7137 1 16.4487 18.5277 33.1467
7138 2 15.7528 17.9489 33.5718
7139 2 16.9172 19.0587 33.8528
7140 1 57.0652 17.4839 60.8879
7141 2 57.1517 18.4564 60.6713
7142 2 56.1603 17.1601 60.6117
7143 1 59.4133 3.68968 42.3931
7144 2 58.5666 3.64206 42.9231
7145 2 59.7986 2.77189 42.2973
7146 1 3.5921 15.6605 90.8011
7147 2 4.03104 16.4112 91.2948
7148 2 3.3637 15.9594 89.8746
7149 1 43.3091 12.4319 29.8131
7150 2 42.7119 11.6564 29.6083
7151 2 43.7746 12.2733 30.6838
7152 1 53.0708 1.95899 63.0993
7153 2 52.3658 2.50651 63.5501
7154 2 53.4882 1.33996 63.7646
7155 1 27.076 22.4066 56.0626
7156 2 26.8235 21.576 55.5663
7157 2 28.0567 22.572 55.9584
7158 1 64.937 17.3172 35.2583
7159 2 64.776 18.2336 35.6248
7160 2 64.8521 16.6446 35.9934
7161 1 5.35871 24.6088 78.5447
7162 2 4.77446 25.4198 78.5145
7163 2 6.07516 24.7395 79.23
7164 1 55.1186 25.4165 69.1463
7165 2 54.4138 25.285 69.8435
7166 2 55.2135 26.3921 68.9483
7167 1 20.369 27.7989 46.3528
7168 2 21.3527 27.626 46.303
7169 2 19.8821 26.9301 46.4439
7170 1 44.5524 0.607121 55.24
7171 2 44.8294 0.834759 54.3065
7172 2 45.2873 0.848158 55.8739
7173 1 2.53414 9.42499 72.9967
7174 2 1.94846 9.98764 73.5801
7175 2 3.47939 9.74369 73.0669
7176 1 66.2142 14.5836 18.2756
7177 2 65.2804 14.8425 18.0286
7178 2 66.8488 15.2935 17.9703
7179 1 16.1453 23.1321 70.6465
7180 2 16.128 22.7608 69.7181
7181 2 16.8501 23.8387 70.7099
7182 1 70.0451 22.6365 19.3645
7183 2 71.0324 22.4869 19.3105
7184 2 69.8594 23.6173 19.4247
7185 1 25.5688 8.56489 57.0583
7186 2 25.7377 9.49495 57.3846
7187 2 24.6881 8.53219 56.5858
7188 1 15.9483 3.70818 80.5227
7189 2 15.6793 3.06216 81.2371
7190 2 16.9391 3.66889 80.3937
7191 1 26.7612 14.5975 62.6287
7192 2 26.3261 15.2943 62.0584
7193 2 26.4983 13.689 62.3039
7194 1 20.4792 12.4055 32.3856
7195 2 21.3637 12.0839 32.7236
7196 2 20.1503 13.1491 32.9677
7197 1 30.5746 24.0427 33.6196
7198 2 29.7476 24.4673 33.2511
7199 2 31.3405 24.6808 33.5406
7200 1 14.7553 8.20443 21.7848
7201 2 13.8498 7.83264 21.9893
7202 2 14.6575 9.05332 21.2653
7203 1 72.4215 21.0701 42.0212
7204 2 72.4902 20.6491 42.9257
7205 2 72.2239 20.3655 41.3397
7206 1 13.2897 19.7872 51.266
7207 2 14.2328 20.0124 51.5105
7208 2 12.9659 19.037 51.8425
7209 1 59.358 19.5582 43.3312
7210 2 59.7038 19.589 44.269
7211 2 60.1189 19.407 42.7002
7212 1 76.2054 18.02 74.0361
7213 2 75.3632 18.1961 74.5458
7214 2 76.9016 17.6598 74.6569
7215 1 30.9574 2.43361 33.2298
7216 2 31.0992 3.13369 33.9296
7217 2 31.6939 1.75894 33.2792
7218 1 68.9547 16.567 71.4166
7219 2 69.7411 17.1412 71.1889
7220 2 68.9762 15.7363 70.8603
7221 1 53.7537 1.59925 65.9347
7222 2 54.6966 1.43078 66.2218
7223 2 53.2083 0.773798 66.0804
7224 1 43.6296 24.1302 52.2494
7225 2 43.2705 23.1969 52.2392
7226 2 44.2029 24.2579 53.0586
7227 1 19.595 15.585 19.8603
7228 2 20.1496 14.7707 19.6886
7229 2 19.659 16.203 19.0767
7230 1 79.6834 2.2782 11.1922
7231 2 79.7852 2.67731 10.281
7232 2 79.1327 1.44567 11.1318
7233 1 59.1708 25.1107 79.2127
7234 2 60.1227 25.2052 78.9214
7235 2 58.6967 24.4765 78.602
7236 1 58.982 10.2747 59.3781
7237 2 58.0607 9.97355 59.1321
7238 2 59.2415 9.87081 60.2553
7239 1 55.8386 22.1914 26.7324
7240 2 54.8595 22.2759 26.5478
7241 2 56.0712 22.7222 27.5473
7242 1 11.2515 5.63076 76.8927
7243 2 12.1779 5.52791 77.2551
7244 2 10.9238 6.55799 77.0739
7245 1 76.5755 10.2062 71.8039
7246 2 76.5653 10.5652 70.8706
7247 2 76.4017 10.9502 72.4491
7248 1 72.5609 14.6714 84.074
7249 2 72.1819 15.385 84.6631
7250 2 73.5406 14.5781 84.2514
7251 1 68.6682 22.6978 30.4756
7252 2 69.4392 22.1377 30.7786
7253 2 68.0128 22.1246 29.9837
7254 1 78.7294 12.0376 66.6078
7255 2 79.4878 11.4262 66.3819
7256 2 78.2431 11.6842 67.4069
7257 1 38.1221 19.9111 76.1159
7258 2 37.2625 20.1219 76.5813
7259 2 38.8686 20.4151 76.5503
7260 1 74.7039 25.2322 60.0522
7261 2 74.8178 26.1234 60.4914
7262 2 74.6777 24.5173 60.7509
7263 1 70.8732 22.2453 27.9245
7264 2 70.431 21.9936 27.0636
7265 2 70.1767 22.5047 28.5935
7266 1 3.50107 14.7156 29.6368
7267 2 2.80954 14.2515 29.0832
7268 2 3.84445 15.5134 29.1412
7269 1 27.077 11.1678 74.3089
7270 2 26.7822 11.3929 75.2375
7271 2 26.6628 11.8091 73.663
7272 1 4.04602 0.132214 89.2762
7273 2 3.23822 29.5481 89.1968
7274 2 3.76468 1.09182 89.2772
7275 1 5.6001 16.8599 33.0674
7276 2 4.79782 16.4728 33.5218
7277 2 5.45572 17.8371 32.9116
7278 1 45.3097 19.7337 68.798
7279 2 45.645 20.6097 69.1448
7280 2 45.0568 19.1458 69.5664
7281 1 63.0965 21.779 52.0878
7282 2 62.5733 22.4725 51.5926
7283 2 63.4764 21.1208 51.4378
7284 1 57.3152 16.3882 83.5
7285 2 57.873 15.5718 83.6498
7286 2 56.3704 16.2003 83.7687
7287 1 6.71051 5.86826 44.806
7288 2 6.13892 6.68432 44.8916
7289 2 6.39765 5.1728 45.4529
7290 1 62.2605 29.8893 51.6771
7291 2 61.6638 0.62784 51.9909
7292 2 63.1966 0.0648426 51.9817
7293 1 44.5387 0.780182 28.5221
7294 2 44.5305 1.38918 29.3152
7295 2 43.7294 0.953089 27.9607
7296 1 13.4826 23.5569 76.7812
7297 2 12.9529 24.2388 76.2767
7298 2 13.5325 23.8198 77.7447
7299 1 33.1216 3.07751 72.8805
7300 2 32.2554 2.91078 73.3515
7301 2 33.1003 2.64328 71.9799
7302 1 70.1978 11.383 46.5159
7303 2 69.3466 10.9194 46.7623
7304 2 70.1047 12.3639 46.6869
7305 1 63.1794 25.1435 15.3386
7306 2 64.0444 25.3333 15.8031
7307 2 63.007 24.1585 15.3445
7308 1 48.3611 4.81775 73.7753
7309 2 48.7039 5.74879 73.6503
7310 2 48.2942 4.61553 74.7523
7311 1 64.0371 23.2721 30.4098
7312 2 64.7641 22.5938 30.3034
7313 2 63.19 22.8135 30.6782
7314 1 8.35157 17.6237 71.9662
7315 2 7.83886 17.1705 72.6954
7316 2 9.06527 17.0097 71.6293
7317 1 2.87014 12.452 71.1447
7318 2 3.41235 11.9562 70.4663
7319 2 3.28603 12.3437 72.0477
7320 1 1.06081 13.629 47.8882
7321 2 1.22387 12.9824 48.6333
7322 2 0.112339 13.9441 47.9219
7323 1 37.3565 16.1995 62.0858
7324 2 37.8831 15.8521 62.8617
7325 2 36.4415 15.7962 62.0967
7326 1 21.2079 21.1005 67.2507
7327 2 21.8337 20.4293 66.8533
7328 2 20.2799 20.9271 66.921
7329 1 16.6247 16.726 59.3408
7330 2 17.5565 16.7217 59.7037
7331 2 16.5073 17.5115 58.7331
7332 1 75.5259 11.5721 87.6533
7333 2 74.8612 10.9321 88.0387
7334 2 75.2466 12.5092 87.8629
7335 1 49.8655 9.58493 60.5279
7336 2 50.8198 9.85669 60.4036
7337 2 49.4061 10.244 61.1234
7338 1 38.6718 28.363 77.1082
7339 2 38.1408 27.6679 76.6237
7340 2 38.4923 28.2956 78.0896
7341 1 23.6355 1.56412 52.2714
7342 2 24.11 0.841586 52.7742
7343 2 24.1367 1.76971 51.4309
7344 1 65.0787 25.0106 73.0874
7345 2 65.7094 24.288 72.8042
7346 2 65.2091 25.8136 72.5059
7347 1 78.817 9.88934 12.7279
7348 2 78.502 10.0898 13.6555
7349 2 79.674 9.37576 12.7706
7350 1 72.0879 2.58996 77.0993
7351 2 72.6767 2.98187 76.3924
7352 2 72.5989 1.90258 77.6154
7353 1 24.176 4.77244 70.6923
7354 2 23.2041 4.77787 70.9277
7355 2 24.7214 4.72957 71.5294
7356 1 20.1339 5.76434 81.8344
7357 2 19.2137 5.45675 81.5924
7358 2 20.2766 5.64777 82.8173
7359 1 48.4111 23.4247 72.0397
7360 2 48.8546 24.294 72.258
7361 2 47.5715 23.3351 72.5755
7362 1 68.6638 13.5083 61.6236
7363 2 67.7767 13.1149 61.3821
7364 2 69.3614 13.1703 60.992
7365 1 49.017 25.9176 55.9975
7366 2 49.1936 24.9674 55.7409
7367 2 48.8197 26.4534 55.1765
7368 1 29.4505 14.1031 84.0368
7369 2 30.0006 13.9625 83.2136
7370 2 29.2162 13.217 84.4365
7371 1 5.5687 26.3307 43.9648
7372 2 6.56097 26.2122 44.0016
7373 2 5.12972 25.4374 43.8681
7374 1 54.189 23.2423 67.5504
7375 2 54.4095 24.0832 68.0446
7376 2 54.2123 23.4181 66.5663
7377 1 35.0788 20.2181 52.9007
7378 2 34.6206 20.7441 52.1842
7379 2 35.2285 20.8018 53.6987
7380 1 41.7202 7.8959 79.9413
7381 2 42.1309 7.26836 79.2798
7382 2 41.4687 7.39167 80.7674
7383 1 44.7913 8.12392 82.2119
7384 2 43.9387 7.65801 82.4489
7385 2 44.6169 9.10244 82.102
7386 1 2.02673 6.25371 35.6021
7387 2 2.04431 6.86377 36.3943
7388 2 2.20999 5.31655 35.899
7389 1 67.1347 4.91638 26.8372
7390 2 67.7716 5.66025 27.0399
7391 2 66.3322 5.28351 26.367
7392 1 58.9273 12.8186 36.9308
7393 2 59.3657 12.8806 37.8274
7394 2 57.9375 12.7382 37.0486
7395 1 27.2284 2.97563 70.9795
7396 2 26.5913 2.55517 70.3335
7397 2 26.721 3.5492 71.6226
7398 1 61.66 4.65835 14.9872
7399 2 62.4243 5.27181 15.1861
7400 2 61.1959 4.96291 14.1554
7401 1 11.0003 0.269546 16.5684
7402 2 11.9156 0.353847 16.1744
7403 2 10.45 1.06207 16.3055
7404 1 20.4212 11.9086 15.8528
7405 2 20.0279 12.7974 16.088
7406 2 20.7532 11.4608 16.6829
7407 1 12.423 7.54933 48.1017
7408 2 12.9878 7.09819 47.4108
7409 2 12.3594 8.52561 47.8947
7410 1 22.0438 1.13112 43.1452
7411 2 21.6925 0.474016 42.4783
7412 2 22.1729 0.67545 44.026
7413 1 77.7295 5.57841 90.7439
7414 2 77.1224 4.78514 90.6972
7415 2 78.6668 5.2931 90.5435
7416 1 9.40176 29.6508 84.0935
7417 2 9.61665 0.293121 83.3578
7418 2 8.50582 29.8725 84.4784
7419 1 1.41985 19.7412 48.6464
7420 2 0.550229 19.5966 48.1744
7421 2 1.96832 18.9065 48.5978
7422 1 28.3249 15.7639 67.1369
7423 2 27.598 15.6492 67.814
7424 2 28.2281 16.654 66.6915
7425 1 9.40251 10.5445 23.9488
7426 2 8.7234 11.2242 23.6715
7427 2 9.61944 10.666 24.9174
7428 1 57.5631 21.1352 57.311
7429 2 57.0636 21.9553 57.0318
7430 2 57.4059 20.9641 58.2836
7431 1 8.49115 8.63395 34.8447
7432 2 8.88126 9.03025 34.0136
7433 2 9.03589 7.8434 35.1245
7434 1 55.2035 9.35691 86.7855
7435 2 54.5461 9.97238 86.3507
7436 2 56.1215 9.7477 86.7173
7437 1 52.0505 9.8788 56.0756
7438 2 52.2276 10.3315 56.9495
7439 2 51.8865 10.5684 55.3702
7440 1 34.5106 7.45463 90.4372
7441 2 35.367 6.95362 90.5623
7442 2 33.8285 6.851 90.0244
7443 1 50.9485 11.978 87.7071
7444 2 50.3871 12.6406 87.2112
7445 2 51.9157 12.1672 87.5372
7446 1 48.1021 23.7625 46.4097
7447 2 47.283 23.2315 46.1926
7448 2 47.8394 24.5983 46.8917
7449 1 77.0175 3.8989 65.1334
7450 2 77.0786 3.38675 65.9902
7451 2 77.3261 3.32174 64.3774
7452 1 33.8877 20.8859 58.9684
7453 2 33.51 20.5124 59.8157
7454 2 34.6682 20.332 58.6788
7455 1 28.6194 21.6723 40.4533
7456 2 28.1079 22.1289 41.1813
7457 2 29.5994 21.8059 40.6003
7458 1 72.8232 18.6261 33.8335
7459 2 73.5593 18.3478 33.2165
7460 2 73.14 18.5635 34.7799
7461 1 32.4677 18.1274 56.277
7462 2 31.8409 18.8645 56.5296
7463 2 32.0533 17.569 55.5584
7464 1 6.55138 25.909 31.6257
7465 2 6.21502 24.991 31.8359
7466 2 6.88645 25.9336 30.6838
7467 1 40.3912 29.7607 34.0819
7468 2 40.5437 29.9587 33.1136
7469 2 40.8871 28.9298 34.3343
7470 1 50.2843 3.95221 52.3018
7471 2 50.1769 2.97718 52.1074
7472 2 51.2045 4.24455 52.0417
7473 1 69.551 14.2484 15.6961
7474 2 68.5967 14.2774 15.3986
7475 2 69.704 13.427 16.2456
7476 1 14.4661 11.0308 20.676
7477 2 14.9632 11.8964 20.7368
7478 2 13.6456 11.1561 20.1183
7479 1 13.2841 29.1941 90.5953
7480 2 13.8246 28.708 91.2819
7481 2 13.4735 28.8125 89.6906
7482 1 15.9866 23.4811 73.3584
7483 2 15.8912 23.5843 72.3683
7484 2 16.4826 24.2663 73.7291
7485 1 42.3123 26.1893 77.4192
7486 2 41.3328 26.3908 77.4238
7487 2 42.8145 26.9843 77.0789
7488 1 28.3241 12.1057 54.3644
7489 2 28.2904 13.0286 54.7482
7490 2 28.601 11.4591 55.0752
7491 1 11.7757 18.1602 53.1281
7492 2 11.5431 17.5982 53.9219
7493 2 10.9472 18.3542 52.6028
7494 1 51.063 1.97804 45.6715
7495 2 51.5839 2.23948 46.4841
7496 2 50.9129 0.989389 45.6756
7497 1 75.3601 10.9361 19.1344
7498 2 75.9903 10.2131 18.8514
7499 2 75.5118 11.1517 20.0991
7500 1 54.3973 1.43149 73.8311
7501 2 54.6885 1.36695 72.8767
7502 2 55.1497 1.15434 74.4287
7503 1 68.225 9.15422 18.8997
7504 2 67.6162 9.94221 18.8073
7505 2 69.0959 9.45004 19.2922
7506 1 35.5049 5.554 50.8538
7507 2 35.4745 6.27595 50.1625
7508 2 36.178 4.86454 50.5863
7509 1 53.4025 24.3194 30.9828
7510 2 53.1953 25.045 31.639
7511 2 54.0662 23.6876 31.383
7512 1 13.4686 26.3065 33.8972
7513 2 13.2667 26.204 34.8712
7514 2 14.4441 26.491 33.7767
7515 1 59.3322 12.403 15.5219
7516 2 60.0066 11.9954 14.9062
7517 2 58.6082 11.7393 15.7095
7518 1 37.9402 26.6108 80.1103
7519 2 38.9146 26.76 80.2784
7520 2 37.819 26.1701 79.2209
7521 1 70.9886 13.8762 49.6434
7522 2 70.5014 13.7163 50.5019
7523 2 71.9274 14.1586 49.8405
7524 1 72.9582 23.5642 32.0997
7525 2 72.0345 23.3511 31.7814
7526 2 72.9908 23.4975 33.0969
7527 1 17.5312 11.6179 58.2976
7528 2 18.0201 10.9599 58.8704
7529 2 17.2831 12.4169 58.8453
7530 1 2.65793 26.4136 40.7406
7531 2 2.09198 27.0847 41.2195
7532 2 2.49539 26.4823 39.7563
7533 1 38.2204 20.2718 73.4285
7534 2 37.9869 20.3304 74.3991
7535 2 37.4688 19.8393 72.9305
7536 1 23.0454 4.97796 42.2293
7537 2 22.8353 4.82713 43.1953
7538 2 23.9593 4.62558 42.028
7539 1 47.9816 27.9285 30.0764
7540 2 47.8198 26.952 30.2191
7541 2 47.3714 28.4571 30.6665
7542 1 21.785 28.3568 27.6169
7543 2 22.6076 28.6758 28.0877
7544 2 21.2651 29.1437 27.2843
7545 1 63.9211 26.0561 26.4725
7546 2 63.8303 25.9866 25.479
7547 2 64.3378 26.9339 26.7085
7548 1 38.6819 0.44787 89.4764
7549 2 39.3908 1.10734 89.7264
7550 2 38.2419 0.737684 88.6265
7551 1 63.0938 28.7052 41.4217
7552 2 62.3737 28.1432 41.0146
7553 2 63.9342 28.6076 40.8886
7554 1 9.39458 8.46035 87.4548
7555 2 9.08923 7.54862 87.7296
7556 2 8.77841 9.14802 87.8388
7557 1 60.9286 19.0608 68.743
7558 2 61.2815 19.1315 69.676
7559 2 60.6991 19.973 68.4034
7560 1 21.3352 20.1235 72.0108
7561 2 21.6658 19.5911 72.7901
7562 2 21.3037 21.0919 72.258
7563 1 17.2472 9.71819 24.219
7564 2 17.0921 8.73197 24.1614
7565 2 17.8425 9.91706 24.9975
7566 1 28.8497 20.4713 52.4113
7567 2 28.6251 19.5067 52.2728
7568 2 29.3086 20.5834 53.2927
7569 1 12.8434 9.65681 68.1501
7570 2 13.0103 10.4402 67.5514
7571 2 11.9948 9.20366 67.8773
7572 1 10.4928 22.3744 56.4381
7573 2 10.0112 21.8898 57.1683
7574 2 11.0792 23.0797 56.8365
7575 1 4.51482 12.7882 31.9057
7576 2 3.67132 12.2596 31.8103
7577 2 4.45538 13.6146 31.3459
7578 1 10.4058 10.6524 36.6843
7579 2 9.87911 11.1008 35.9621
7580 2 10.6524 9.72838 36.3922
7581 1 66.3586 15.9866 53.0117
7582 2 65.7057 15.2588 52.802
7583 2 65.868 16.8493 53.1346
7584 1 14.1912 29.007 38.3923
7585 2 14.8228 29.5696 38.9257
7586 2 13.5848 29.5989 37.8613
7587 1 5.95797 29.7494 64.1408
7588 2 6.00749 29.3175 65.0413
7589 2 6.23574 0.707191 64.2148
7590 1 8.68302 25.0611 63.5431
7591 2 9.62193 25.202 63.8571
7592 2 8.38758 24.1357 63.7802
7593 1 68.0761 13.2979 21.1464
7594 2 67.0995 13.1668 21.3169
7595 2 68.5396 13.5075 22.0073
7596 1 25.6544 5.52273 86.7689
7597 2 24.7613 5.39669 86.3372
7598 2 25.7191 6.45052 87.1364
7599 1 8.02598 15.0939 21.9595
7600 2 7.95439 14.1689 22.3326
7601 2 7.47497 15.1613 21.1277
7602 1 31.7362 27.9716 54.2606
7603 2 31.0397 27.8679 54.9705
7604 2 32.6066 28.2259 54.6822
7605 1 29.8548 7.50621 48.7516
7606 2 30.6769 8.01886 48.9994
7607 2 30.1046 6.74473 48.1534
7608 1 59.5565 4.475 63.6372
7609 2 58.6985 4.58107 63.1346
7610 2 59.7884 3.50427 63.6996
7611 1 55.2598 21.4362 54.4492
7612 2 54.3822 21.795 54.1313
7613 2 55.5421 21.9277 55.2731
7614 1 4.93674 8.29695 24.9861
7615 2 4.36712 8.28146 25.8078
7616 2 4.41483 7.93871 24.2119
7617 1 10.0167 29.3944 55.053
7618 2 9.96738 29.3817 56.0517
7619 2 9.63321 28.5454 54.6895
7620 1 18.9713 27.4044 33.5741
7621 2 19.4484 27.8771 32.8332
7622 2 19.6368 27.0852 34.2488
7623 1 22.3927 22.8393 19.9777
7624 2 22.9118 22.3795 20.6982
7625 2 22.661 22.4718 19.0872
7626 1 68.9919 10.6093 49.5373
7627 2 68.0342 10.4713 49.2851
7628 2 69.0752 10.6256 50.5337
7629 1 7.9865 5.11294 24.7788
7630 2 7.02417 5.00518 24.5292
7631 2 8.34395 5.95406 24.3729
7632 1 37.9468 14.456 58.1125
7633 2 37.4125 14.0983 57.3466
7634 2 37.7923 15.4405 58.1956
7635 1 8.92383 16.2365 44.0858
7636 2 8.0739 16.4073 43.5873
7637 2 8.73682 16.2208 45.068
7638 1 23.2318 28.7537 32.3529
7639 2 23.5983 28.7987 33.2822
7640 2 23.7175 29.4062 31.7711
7641 1 79.2258 14.2703 86.7248
7642 2 78.8773 13.3425 86.8583
7643 2 78.4632 14.8888 86.5352
7644 1 32.717 8.26452 30.3055
7645 2 32.849 7.73526 31.1436
7646 2 33.4323 8.95966 30.2341
7647 1 29.8511 24.9636 67.9817
7648 2 29.8623 24.002 67.7074
7649 2 29.7096 25.0268 68.9696
7650 1 69.5091 7.34196 74.1907
7651 2 69.9716 6.48407 74.4146
7652 2 69.3881 7.88246 75.0233
7653 1 60.4715 1.6846 46.383
7654 2 59.7778 2.24472 45.9301
7655 2 60.205 0.721892 46.3365
7656 1 39.1357 25.9628 32.2336
7657 2 38.5241 26.7391 32.0808
7658 2 39.9562 26.0693 31.6721
7659 1 13.4163 11.7992 34.8881
7660 2 13.5497 10.9522 35.4026
7661 2 13.5761 11.6274 33.916
7662 1 37.8047 5.99621 30.6884
7663 2 38.4967 6.56849 30.2482
7664 2 38.0444 5.03265 30.5696
7665 1 65.7131 20.3357 67.8978
7666 2 65.2727 21.0862 68.3907
7667 2 65.9627 20.6415 66.979
7668 1 34.2651 10.9099 44.5346
7669 2 34.2103 10.0678 43.9982
7670 2 34.6243 10.7027 45.4446
7671 1 45.6471 22.9914 45.2791
7672 2 44.8284 22.4281 45.1679
7673 2 45.6593 23.7038 44.5774
7674 1 70.6375 5.91783 76.9257
7675 2 71.6242 5.78542 77.0202
7676 2 70.3493 5.63501 76.0109
7677 1 53.2042 14.8331 55.1662
7678 2 54.1834 14.7831 54.9694
7679 2 52.9947 15.7123 55.5941
7680 1 58.765 9.75839 64.6329
7681 2 58.3845 8.91728 64.2485
7682 2 58.1212 10.5104 64.4917
7683 1 34.499 12.5275 48.3967
7684 2 33.8636 13.1046 47.8837
7685 2 35.0678 12.0089 47.7583
7686 1 48.5639 18.1099 80.013
7687 2 48.3429 18.9354 79.4937
7688 2 48.0831 18.1289 80.8896
7689 1 29.8089 16.9653 64.2471
7690 2 30.7346 17.1832 64.5562
7691 2 29.1496 17.5269 64.747
7692 1 44.2853 8.02279 47.1439
7693 2 45.2285 8.15911 47.4468
7694 2 44.1042 8.6 46.3476
7695 1 75.3406 4.97136 89.3993
7696 2 75.4599 5.2732 88.4535
7697 2 74.3683 4.98263 89.6327
7698 1 72.2093 18.4441 84.273
7699 2 73.0485 18.8764 83.9433
7700 2 72.2454 18.3626 85.269
7701 1 19.3088 26.0006 76.4841
7702 2 19.4904 25.6924 75.5503
7703 2 19.1641 26.9901 76.4864
7704 1 54.9026 19.2837 32.1966
7705 2 54.1525 19.07 32.8226
7706 2 54.9914 20.2759 32.1093
7707 1 13.8624 25.6911 67.8029
7708 2 14.7494 25.3244 68.0838
7709 2 13.9907 26.5911 67.3863
7710 1 71.861 13.544 47.1925
7711 2 72.8464 13.6951 47.1137
7712 2 71.5346 13.9193 48.0601
7713 1 74.5808 27.9103 51.4287
7714 2 74.5931 27.9256 52.4285
7715 2 74.1732 27.0533 51.1135
7716 1 49.6965 4.75858 65.6813
7717 2 49.4703 5.70367 65.4454
7718 2 50.0073 4.27593 64.8625
7719 1 0.796361 21.7338 42.6399
7720 2 0.955708 21.4184 43.5753
7721 2 0.0197374 21.2396 42.2492
7722 1 0.00869891 5.04395 54.68
7723 2 0.537356 4.68677 55.45
7724 2 79.4556 4.30974 54.2863
7725 1 54.0384 4.83827 82.1288
7726 2 54.3998 5.73766 81.8829
7727 2 53.6769 4.86778 83.0607
7728 1 50.7673 10.655 63.7131
7729 2 51.4498 10.7868 62.9941
7730 2 50.2526 11.5024 63.8434
7731 1 32.9091 16.7691 84.8128
7732 2 31.932 16.8914 84.6384
7733 2 33.3616 17.6609 84.8138
7734 1 71.6573 21.0044 81.1857
7735 2 71.2626 21.1721 82.0891
7736 2 71.1401 20.2832 80.7248
7737 1 28.1263 22.7752 69.5896
7738 2 27.5967 23.1842 70.3328
7739 2 28.2608 21.8014 69.7729
7740 1 9.07077 24.0196 23.2946
7741 2 9.63751 23.6098 22.5798
7742 2 9.57799 24.0313 24.1563
7743 1 49.8272 25.2643 63.4469
7744 2 50.7805 25.0323 63.64
7745 2 49.6678 26.2273 63.6645
7746 1 23.9694 9.34355 43.6614
7747 2 23.2466 9.91888 44.0442
7748 2 24.6973 9.22888 44.3374
7749 1 39.1404 20.6217 41.6094
7750 2 39.8961 19.9773 41.4925
7751 2 38.3307 20.131 41.9315
7752 1 37.4052 14.9027 82.846
7753 2 37.7312 15.8033 82.5584
7754 2 37.497 14.8162 83.838
7755 1 35.5935 22.4081 49.3322
7756 2 35.484 21.7964 48.5487
7757 2 34.8677 22.2314 49.9971
7758 1 21.3982 25.6109 53.0264
7759 2 22.2077 25.4775 53.5982
7760 2 20.6288 25.1034 53.4142
7761 1 56.6512 11.2911 43.3232
7762 2 56.2946 12.1848 43.5953
7763 2 56.997 10.8108 44.1293
7764 1 64.2784 9.94066 11.9
7765 2 64.2267 10.8389 12.3364
7766 2 64.9308 9.97501 11.1428
7767 1 51.553 28.5537 50.6179
7768 2 52.4927 28.3096 50.8575
7769 2 51.0466 27.7275 50.371
7770 1 38.3096 11.0634 87.8372
7771 2 37.4758 10.5352 87.6762
7772 2 38.5974 10.9503 88.7882
7773 1 76.3538 18.4576 38.4448
7774 2 76.6984 18.5574 39.3783
7775 2 76.993 18.8859 37.8061
7776 1 71.3446 25.6387 83.0094
7777 2 70.7249 26.3406 83.3607
7778 2 71.8875 26.0181 82.2603
7779 1 56.9668 25.2872 67.0225
7780 2 57.0025 24.6637 66.2415
7781 2 57.8143 25.2121 67.548
7782 1 19.6919 28.7263 80.2732
7783 2 20.3391 29.2562 80.8213
7784 2 18.7625 29.0512 80.4483
7785 1 57.5036 8.67325 21.0128
7786 2 57.9426 9.33271 20.4026
7787 2 56.5249 8.8708 21.0685
7788 1 50.1454 27.2165 45.5981
7789 2 51.0134 26.7202 45.6131
7790 2 49.9223 27.4695 44.6568
7791 1 71.6847 9.14998 10.5595
7792 2 70.8153 9.39838 10.1322
7793 2 71.579 8.28639 11.0525
7794 1 68.4408 8.33131 13.2373
7795 2 67.9689 9.05848 13.7357
7796 2 69.4293 8.4559 13.3228
7797 1 51.427 16.9167 28.6252
7798 2 50.6703 16.9139 27.9714
7799 2 51.4885 17.8151 29.06
7800 1 13.3421 0.734584 15.5415
7801 2 13.3941 0.89912 16.5265
7802 2 13.6529 1.54857 15.0508
7803 1 36.9036 23.5776 67.1552
7804 2 37.8776 23.4321 67.3288
7805 2 36.4442 22.6934 67.0713
7806 1 55.5852 18.2219 38.2735
7807 2 54.7152 18.4456 37.8341
7808 2 56.3108 18.7895 37.8844
7809 1 77.168 16.6164 52.1588
7810 2 78.0181 16.1997 51.8367
7811 2 77.174 16.6563 53.158
7812 1 16.8309 17.093 12.4399
7813 2 17.2818 17.1238 13.332
7814 2 17.1766 16.3128 11.9185
7815 1 74.0417 28.6507 11.7541
7816 2 74.3941 27.7324 11.9344
7817 2 74.5992 29.0892 11.0493
7818 1 28.4863 12.3872 86.7643
7819 2 29.1937 11.7401 86.48
7820 2 28.8304 13.3211 86.667
7821 1 78.5778 12.0754 53.9143
7822 2 79.268 11.3527 53.8792
7823 2 77.8608 11.8203 54.563
7824 1 37.9144 14.2966 49.171
7825 2 37.7612 14.48 48.2
7826 2 37.9164 13.3089 49.3275
7827 1 43.1361 23.2231 44.0444
7828 2 44.0377 23.3402 43.6278
7829 2 42.9912 23.9353 44.7313
7830 1 71.392 15.0012 78.4982
7831 2 71.8225 15.8423 78.8257
7832 2 70.5103 14.8787 78.9538
7833 1 20.6442 18.1568 87.5416
7834 2 19.6617 17.9945 87.4507
7835 2 20.8185 18.693 88.3675
7836 1 69.0125 25.4013 74.2863
7837 2 68.3831 25.2449 75.0474
7838 2 69.2915 24.5227 73.8985
7839 1 10.2215 4.53817 74.1525
7840 2 9.86256 5.46278 74.2799
7841 2 9.46136 3.89255 74.0797
7842 1 33.1285 11.8906 74.4154
7843 2 33.9678 11.5792 74.8611
7844 2 33.147 12.8867 74.3289
7845 1 14.7787 15.8816 16.1218
7846 2 14.3914 16.5354 16.772
7847 2 15.5543 15.4119 16.5435
7848 1 19.371 20.0152 49.2746
7849 2 19.4237 20.5808 50.0976
7850 2 20.2681 19.6153 49.087
7851 1 61.7354 22.1674 55.3971
7852 2 62.6927 21.9041 55.2776
7853 2 61.344 21.6615 56.1658
7854 1 39.731 8.59065 43.3979
7855 2 39.3356 7.91267 42.7782
7856 2 39.5058 8.35049 44.3421
7857 1 75.3774 23.7726 18.4243
7858 2 75.1045 24.6793 18.1026
7859 2 76.2759 23.8298 18.8594
7860 1 53.2247 15.0344 43.0465
7861 2 52.2561 15.0673 42.8003
7862 2 53.4628 15.8508 43.5727
7863 1 27.6528 0.801117 79.0922
7864 2 28.063 1.59344 78.6406
7865 2 26.6569 0.891036 79.0834
7866 1 64.3398 24.7532 52.8481
7867 2 63.6831 25.0745 53.5304
7868 2 64.8818 24.0062 53.233
7869 1 76.946 26.8916 54.7007
7870 2 77.7608 26.3941 54.4032
7871 2 77.1578 27.4153 55.5258
7872 1 14.6001 18.0704 13.561
7873 2 14.4012 17.5893 14.4148
7874 2 15.3722 17.6304 13.1024
7875 1 53.8754 12.4177 62.6442
7876 2 53.9713 13.2045 62.0345
7877 2 53.1725 11.8027 62.2867
7878 1 24.7041 22.8828 64.8687
7879 2 24.7473 22.6996 65.8508
7880 2 25.4701 22.4312 64.4112
7881 1 75.3495 2.75286 42.1141
7882 2 75.4816 2.185 41.3016
7883 2 74.6863 2.31605 42.7218
7884 1 66.9472 17.5872 18.6047
7885 2 67.7248 16.9663 18.5053
7886 2 66.4705 17.3901 19.4613
7887 1 0.879923 24.6858 15.7862
7888 2 0.201488 24.6177 16.5178
7889 2 0.479129 25.1612 15.0031
7890 1 10.5742 7.61076 53.019
7891 2 9.85036 7.41991 52.3559
7892 2 11.4657 7.45764 52.5925
7893 1 23.0951 10.146 55.6154
7894 2 23.0362 10.2473 56.6085
7895 2 22.3807 10.695 55.1814
7896 1 66.1288 27.8701 26.4504
7897 2 65.8352 28.7606 26.1029
7898 2 67.1279 27.8317 26.467
7899 1 62.5527 20.0044 90.856
7900 2 61.8408 20.5513 90.4154
7901 2 63.3667 20.5679 90.9968
7902 1 5.18559 2.32691 49.8782
7903 2 5.9455 2.49783 50.5053
7904 2 5.41252 2.68747 48.9735
7905 1 68.5603 27.6715 83.7375
7906 2 68.1628 27.7871 82.8272
7907 2 69.4074 28.1991 83.8008
7908 1 64.6978 29.8673 56.5058
7909 2 65.4712 0.267822 56.9971
7910 2 64.4749 0.436461 55.7143
7911 1 66.4711 5.24386 75.1828
7912 2 67.3072 5.75385 74.9809
7913 2 65.8517 5.81787 75.7184
7914 1 25.7689 13.2896 39.2609
7915 2 25.5857 14.0153 38.5978
7916 2 26.5451 13.5506 39.8349
7917 1 24.4297 19.8514 71.1085
7918 2 25.1315 19.22 70.7784
7919 2 24.7967 20.3911 71.8661
7920 1 39.7655 10.8967 33.8323
7921 2 40.0732 10.7456 34.7717
7922 2 40.395 11.5227 33.3719
7923 1 44.2352 13.3502 61.664
7924 2 43.8356 14.2504 61.4912
7925 2 44.7794 13.0697 60.8733
7926 1 15.8499 20.2258 17.9921
7927 2 16.2151 19.381 18.3831
7928 2 14.8636 20.1313 17.8568
7929 1 48.3948 10.7537 69.9382
7930 2 48.2152 11.0601 70.873
7931 2 48.8027 11.5019 69.4148
7932 1 37.895 14.8725 40.4355
7933 2 38.5848 14.1776 40.6386
7934 2 38.1569 15.7374 40.8638
7935 1 40.9387 19.7307 43.6521
7936 2 41.2575 20.5505 44.1277
7937 2 40.1356 19.364 44.1216
7938 1 63.7962 18.5932 77.0352
7939 2 63.3796 17.8905 76.4584
7940 2 64.6969 18.8317 76.672
7941 1 19.9347 27.933 53.718
7942 2 20.335 27.043 53.5001
7943 2 20.008 28.0997 54.7013
7944 1 50.5887 12.568 51.5421
7945 2 51.4319 13.0882 51.6782
7946 2 49.8402 13.1961 51.3293
7947 1 24.4475 16.5456 72.0106
7948 2 24.1945 17.5056 71.8909
7949 2 24.4266 16.0824 71.1245
7950 1 18.3416 12.768 49.2734
7951 2 18.1408 12.4119 50.186
7952 2 19.2329 13.2213 49.2811
7953 1 43.4619 4.33535 77.2535
7954 2 42.8061 4.83522 77.8193
7955 2 44.3804 4.44316 77.6338
7956 1 53.9077 22.7684 75.0502
7957 2 54.4706 23.5638 75.275
7958 2 53.2464 22.6101 75.7834
7959 1 38.8194 14.5641 51.9902
7960 2 39.5881 15.1226 52.302
7961 2 38.774 14.5875 50.9915
7962 1 22.8919 20.9495 23.0811
7963 2 23.2355 21.5316 23.8181
7964 2 21.9975 21.2828 22.7827
7965 1 57.4419 19.7423 52.2454
7966 2 56.5587 19.2885 52.364
7967 2 58.1603 19.0534 52.1493
7968 1 11.9072 23.2417 33.6482
7969 2 11.1372 23.283 33.0116
7970 2 12.7294 23.5927 33.2001
7971 1 0.340692 10.8416 83.5066
7972 2 0.848469 11.1065 84.3263
7973 2 79.8092 11.622 83.177
7974 1 11.1589 20.6193 73.8377
7975 2 11.6454 20.1187 74.5538
7976 2 10.2568 20.2104 73.6993
7977 1 14.1293 25.3569 90.2625
7978 2 14.4302 25.1351 91.19
7979 2 14.712 26.0774 89.8864
7980 1 68.5975 1.48191 83.9236
7981 2 69.0732 1.76279 84.7571
7982 2 69.2679 1.21907 83.2297
7983 1 43.1719 8.35737 56.9464
7984 2 44.163 8.44535 56.8461
7985 2 42.744 8.35883 56.0426
7986 1 0.616061 1.38724 21.7807
7987 2 1.57366 1.32754 21.4988
7988 2 0.567854 1.65851 22.742
7989 1 3.77223 13.7528 40.4863
7990 2 3.22838 14.4656 40.9291
7991 2 3.25016 13.3559 39.7314
7992 1 4.20063 26.6426 24.3437
7993 2 3.73732 26.3823 25.1909
7994 2 4.61445 27.5462 24.4542
7995 1 42.6383 10.3347 50.9531
7996 2 42.6583 9.47866 51.4695
7997 2 43.5742 10.6401 50.7775
7998 1 32.3337 3.80112 54.127
7999 2 31.5899 3.22137 53.7943
8000 2 31.9793 4.71369 54.331
8001 1 39.9554 16.2408 38.1973
8002 2 39.7995 16.5236 39.1438
8003 2 40.8214 15.7446 38.1361
8004 1 32.5732 22.3836 63.016
8005 2 32.5016 21.496 62.561
8006 2 31.7789 22.5197 63.6081
8007 1 44.3064 23.8019 85.8095
8008 2 44.3312 22.8887 86.2163
8009 2 43.372 24.1564 85.8431
8010 1 35.2922 8.02323 61.2339
8011 2 35.6321 8.96345 61.2119
8012 2 34.3561 8.01531 61.5855
8013 1 24.257 2.91434 67.7943
8014 2 23.3659 3.06214 68.2234
8015 2 24.2606 3.32639 66.8831
8016 1 75.0907 19.066 86.1095
8017 2 74.3414 18.8802 86.7451
8018 2 74.7619 18.9717 85.1698
8019 1 51.1905 22.5355 64.6111
8020 2 50.8954 22.6007 63.6579
8021 2 50.5113 22.9724 65.2009
8022 1 77.5553 3.80452 85.9895
8023 2 77.1255 4.4587 86.6118
8024 2 77.7016 4.23732 85.1
8025 1 70.0855 12.0025 17.2491
8026 2 70.6723 12.4631 17.915
8027 2 69.2285 11.7344 17.6891
8028 1 54.0159 6.15513 62.7247
8029 2 54.5446 5.35975 63.021
8030 2 54.6398 6.89301 62.4672
8031 1 57.2927 10.9677 89.8638
8032 2 57.1115 10.0794 90.2857
8033 2 58.2485 11.0097 89.5726
8034 1 24.8635 23.143 50.194
8035 2 25.0665 22.1683 50.2867
8036 2 24.0647 23.3715 50.7505
8037 1 46.2986 24.0135 87.4419
8038 2 47.161 23.5475 87.6395
8039 2 45.9472 23.704 86.5584
8040 1 14.0637 17.2374 30.3241
8041 2 14.3297 18.2013 30.3342
8042 2 13.4216 17.0767 29.5745
8043 1 50.0964 26.8894 31.7902
8044 2 49.1821 26.6398 31.4712
8045 2 50.3722 27.7532 31.3686
8046 1 5.87759 2.00047 83.2849
8047 2 6.48738 1.60017 82.6009
8048 2 5.98544 1.51494 84.1525
8049 1 50.086 0.953124 42.6177
8050 2 49.8522 0.100872 42.1498
8051 2 49.4674 1.08898 43.3916
8052 1 56.5484 17.1815 79.1387
8053 2 57.4269 16.749 79.3416
8054 2 56.5441 18.1135 79.501
8055 1 8.23687 10.9157 29.5223
8056 2 8.59915 10.162 28.9739
8057 2 8.3549 10.7081 30.4933
8058 1 11.3189 15.2299 46.3008
8059 2 11.3904 16.1988 46.0639
8060 2 11.5115 15.1098 47.2747
8061 1 11.6775 2.9845 72.1934
8062 2 11.6493 3.64527 72.9435
8063 2 12.5582 3.05004 71.7244
8064 1 62.7264 23.0071 40.2601
8065 2 62.3126 22.2105 39.8194
8066 2 63.7123 23.006 40.0924
8067 1 77.6995 21.5936 15.6228
8068 2 77.838 20.8092 15.0182
8069 2 78.5852 21.9943 15.8571
8070 1 61.3921 23.3593 64.2191
8071 2 62.093 23.3325 64.9319
8072 2 61.6804 23.9818 63.4915
8073 1 72.1555 15.6924 74.8429
8074 2 71.7263 15.0064 75.4305
8075 2 72.4633 16.4633 75.4006
8076 1 69.9054 11.4793 42.7533
8077 2 70.065 12.0223 41.9289
8078 2 69.0175 11.7209 43.1448
8079 1 15.9477 8.48066 62.0481
8080 2 15.559 7.60583 62.3373
8081 2 16.6521 8.76385 62.6989
8082 1 52.3716 21.128 31.9482
8083 2 53.3594 21.2701 31.8834
8084 2 51.9405 21.9492 32.3219
8085 1 29.9842 0.838845 77.02
8086 2 29.5256 1.717 76.8841
8087 2 29.4782 0.120973 76.5419
8088 1 28.7427 12.9832 49.0345
8089 2 28.4374 12.6735 49.935
8090 2 29.0393 13.9364 49.0927
8091 1 2.44594 20.1301 59.9111
8092 2 2.68833 19.8779 58.9743
8093 2 1.84036 20.9257 59.896
8094 1 29.0596 18.4388 81.7038
8095 2 28.3526 18.7245 81.0568
8096 2 28.84 17.5295 82.0573
8097 1 53.5145 3.27948 31.4106
8098 2 52.579 3.59678 31.5657
8099 2 53.6228 2.36166 31.7926
8100 1 19.1229 13.1327 41.3635
8101 2 19.2729 14.0052 41.8286
8102 2 19.4178 12.3837 41.9567
8103 1 64.2405 21.3346 56.1638
8104 2 63.5893 20.5997 56.3533
8105 2 64.9181 21.3772 56.898
8106 1 45.4431 23.2546 38.948
8107 2 46.0756 23.2619 39.7225
8108 2 45.2208 22.3096 38.7081
8109 1 60.4031 22.591 30.8073
8110 2 59.8792 22.0896 31.4959
8111 2 61.3275 22.7597 31.1494
8112 1 75.5382 28.3385 75.9825
8113 2 76.0786 28.1686 76.8066
8114 2 74.6581 27.8699 76.0585
8115 1 47.4292 23.3896 49.8332
8116 2 47.8059 24.0533 49.1869
8117 2 46.7966 22.7806 49.3547
8118 1 52.388 11.0024 67.8058
8119 2 52.7279 11.5291 67.0266
8120 2 51.54 11.4129 68.141
8121 1 25.844 14.3161 75.5625
8122 2 25.9861 15.1051 76.1602
8123 2 24.9396 14.3766 75.14
8124 1 65.9302 25.1668 91.2423
8125 2 65.5269 25.9267 91.7522
8126 2 66.7554 25.481 90.773
8127 1 38.4535 1.74161 40.264
8128 2 39.2848 2.22538 40.5378
8129 2 38.3847 0.883188 40.7723
8130 1 4.7645 19.0437 69.6603
8131 2 3.9327 19.0381 70.2153
8132 2 5.34333 19.8115 69.9349
8133 1 69.1037 27.5638 72.7329
8134 2 68.7452 28.4206 73.1034
8135 2 69.0966 26.8633 73.4465
8136 1 23.6851 5.40149 80.7781
8137 2 24.5548 5.63186 80.3418
8138 2 22.9696 5.33802 80.0823
8139 1 69.3753 10.6512 52.0637
8140 2 68.6845 11.088 52.6399
8141 2 70.287 10.8802 52.4046
8142 1 37.4494 0.033125 45.9284
8143 2 36.7693 0.428494 45.311
8144 2 37.7105 0.711529 46.6151
8145 1 20.302 9.16081 73.9859
8146 2 21.2973 9.07591 73.9399
8147 2 20.0598 9.92131 74.5884
8148 1 49.8622 15.6142 82.7397
8149 2 49.3883 16.293 82.1789
8150 2 50.0395 14.7956 82.1934
8151 1 30.6771 20.0122 54.477
8152 2 30.3718 20.9071 54.8024
8153 2 30.7177 19.374 55.2458
8154 1 51.2215 5.65874 23.0551
8155 2 50.2366 5.52438 23.1648
8156 2 51.4631 6.59014 23.3274
8157 1 77.9141 28.2678 71.4259
8158 2 77.9765 29.1086 71.9637
8159 2 78.0084 28.4858 70.4545
8160 1 50.0446 18.2062 47.8808
8161 2 50.2692 17.2745 47.5954
8162 2 49.1719 18.204 48.3692
8163 1 42.2524 18.7741 51.7757
8164 2 41.9861 19.3234 50.9837
8165 2 43.2445 18.8181 51.8935
8166 1 7.55485 18.8118 23.3662
8167 2 8.4709 18.4677 23.5723
8168 2 7.60419 19.4533 22.6007
8169 1 56.5934 27.6927 22.0602
8170 2 56.7995 28.5503 21.589
8171 2 55.9463 27.1599 21.5149
8172 1 30.7962 1.84995 66.102
8173 2 31.424 2.50313 66.5253
8174 2 31.1089 0.918501 66.2882
8175 1 49.4791 20.3069 36.7243
8176 2 50.3382 20.8187 36.7253
8177 2 48.9085 20.6149 35.9631
8178 1 44.511 2.57179 71.2055
8179 2 44.8968 2.17556 72.0387
8180 2 43.5971 2.19687 71.0503
8181 1 21.8165 2.70785 37.2748
8182 2 21.5106 2.73068 38.2266
8183 2 21.7924 1.76608 36.9395
8184 1 52.4359 18.855 54.268
8185 2 51.8774 19.5246 54.7577
8186 2 52.7283 18.1382 54.901
8187 1 77.483 22.2298 55.8462
8188 2 77.8661 21.3151 55.7178
8189 2 78.1215 22.7871 56.3771
8190 1 8.45431 22.6383 64.6818
8191 2 8.88547 22.4039 65.5531
8192 2 7.73487 21.9747 64.4767
8193 1 55.5303 19.6552 63.8946
8194 2 55.3144 18.6892 63.7524
8195 2 54.9123 20.0372 64.5818
8196 1 71.8489 5.90866 45.82
8197 2 70.9354 5.54452 46.0012
8198 2 72.413 5.81724 46.6406
8199 1 76.0189 12.7012 36.8397
8200 2 76.7412 12.8862 37.5061
8201 2 76.0898 13.3505 36.0825
8202 1 61.3619 29.0958 20.9154
8203 2 61.1693 29.9429 20.4201
8204 2 60.5194 28.7544 21.3321
8205 1 23.6817 21.8081 26.7085
8206 2 22.952 21.5235 27.3302
8207 2 23.7469 22.806 26.7057
8208 1 69.179 11.147 76.9426
8209 2 68.6604 11.8532 76.4605
8210 2 68.975 10.2529 76.5439
8211 1 45.6872 5.81324 45.9069
8212 2 45.0779 6.53272 45.5736
8213 2 46.595 6.19702 46.0757
8214 1 13.8349 10.0414 76.6818
8215 2 13.6002 9.13112 77.0227
8216 2 13.4384 10.7351 77.2832
8217 1 64.3287 25.395 80.9244
8218 2 63.4568 24.9249 80.7876
8219 2 64.4665 25.5646 81.9003
8220 1 20.9273 19.4665 25.4597
8221 2 20.1193 19.2087 24.9299
8222 2 21.7521 19.2167 24.9525
8223 1 50.1683 27.9223 87.8283
8224 2 50.2295 27.919 88.8265
8225 2 50.5794 27.0856 87.4664
8226 1 31.9469 11.8998 42.7326
8227 2 32.0224 12.8969 42.7426
8228 2 32.5723 11.5114 43.4094
8229 1 4.25882 2.13052 23.435
8230 2 4.46781 1.18419 23.6816
8231 2 3.69732 2.14318 22.6077
8232 1 1.23173 22.0732 64.974
8233 2 1.91319 22.6102 65.4712
8234 2 0.330974 22.2157 65.3843
8235 1 30.167 9.35064 67.2386
8236 2 30.3529 10.3194 67.0743
8237 2 29.7752 8.94197 66.4143
8238 1 2.31722 19.3284 18.5576
8239 2 1.95925 20.2618 18.5843
8240 2 3.30305 19.3447 18.7246
8241 1 26.5967 16.3551 64.715
8242 2 27.2701 17.0288 65.0192
8243 2 26.7996 16.0822 63.7746
8244 1 25.5706 7.02824 63.5484
8245 2 26.5663 7.07233 63.4674
8246 2 25.1529 7.59233 62.8361
8247 1 17.9824 17.6437 73.1777
8248 2 17.9531 18.6377 73.0722
8249 2 17.5192 17.2126 72.4034
8250 1 53.0573 25.6226 37.6502
8251 2 53.9534 26.0057 37.426
8252 2 52.5709 25.3966 36.8062
8253 1 47.9705 25.9136 52.2903
8254 2 47.16 25.3473 52.1408
8255 2 47.7101 26.879 52.2746
8256 1 65.0719 5.65336 25.4872
8257 2 64.5095 5.21245 24.7876
8258 2 64.4895 5.95348 26.2427
8259 1 77.6801 18.2026 65.4707
8260 2 77.6446 18.9045 66.1821
8261 2 78.4952 17.6379 65.6
8262 1 29.0686 10.3397 42.5679
8263 2 29.5845 9.51369 42.7948
8264 2 29.4157 11.1078 43.106
8265 1 53.4446 7.35593 26.603
8266 2 52.8753 7.34356 27.4251
8267 2 52.8895 7.62859 25.8172
8268 1 44.0903 2.22743 47.9356
8269 2 44.9316 1.68939 47.8832
8270 2 43.6137 2.01859 48.7896
8271 1 48.6611 8.77091 84.9155
8272 2 48.2277 7.92273 85.2201
8273 2 49.2266 8.58629 84.1117
8274 1 1.85426 1.03613 65.3649
8275 2 1.19759 1.63535 65.8229
8276 2 2.20098 1.48802 64.543
8277 1 60.4775 12.5792 33.8364
8278 2 60.8372 12.8977 34.7135
8279 2 59.589 13.0053 33.666
8280 1 53.1674 7.13533 34.3308
8281 2 52.1825 6.96646 34.3695
8282 2 53.4882 7.02264 33.3904
8283 1 28.5 23.9623 88.607
8284 2 28.5692 22.9737 88.4736
8285 2 27.5383 24.2354 88.583
8286 1 26.1642 18.523 30.7229
8287 2 26.4337 19.2905 31.3045
8288 2 26.9816 18.0439 30.4032
8289 1 1.01643 7.90649 29.1215
8290 2 1.35271 8.74326 29.5536
8291 2 1.55827 7.12747 29.437
8292 1 36.1834 16.5468 32.7662
8293 2 35.4402 17.0583 33.1974
8294 2 36.1822 16.7234 31.7819
8295 1 4.73109 19.8991 58.2009
8296 2 5.00927 20.8544 58.1005
8297 2 5.53329 19.3079 58.1179
8298 1 39.4976 1.71045 57.6288
8299 2 39.8404 1.12593 58.3642
8300 2 39.5863 1.23291 56.7547
8301 1 60.7582 6.56551 73.1751
8302 2 60.0715 5.89448 73.4547
8303 2 61.3789 6.15002 72.5101
8304 1 28.6964 23.0744 43.2023
8305 2 29.132 23.5879 43.9416
8306 2 29.2011 22.2259 43.0434
8307 1 5.54939 17.9037 20.7045
8308 2 5.70827 18.3931 19.8471
8309 2 6.41224 17.5209 21.0346
8310 1 33.466 16.092 45.7836
8311 2 33.0844 15.3236 46.2973
8312 2 32.8391 16.3442 45.0464
8313 1 14.7973 4.8921 30.8631
8314 2 14.2649 4.24108 30.322
8315 2 15.5877 5.19861 30.3326
8316 1 13.5949 21.8207 21.7424
8317 2 14.3114 21.4301 21.1644
8318 2 13.9935 22.125 22.6076
8319 1 41.249 6.94657 50.0258
8320 2 40.3854 6.44498 49.9758
8321 2 41.4432 7.18178 50.9782
8322 1 2.95418 7.96867 48.0541
8323 2 3.50641 8.73597 48.3801
8324 2 2.9362 7.25128 48.7505
8325 1 31.9454 25.9934 64.5746
8326 2 31.862 25.8668 65.5631
8327 2 32.3028 26.9078 64.3847
8328 1 65.464 16.9744 57.4813
8329 2 65.5346 17.6577 56.7545
8330 2 64.5856 17.0744 57.9486
8331 1 55.458 5.51224 67.0801
8332 2 55.9897 6.34497 67.2347
8333 2 55.5342 4.91504 67.8785
8334 1 12.1268 28.9504 34.9403
8335 2 13.0186 28.9208 35.3917
8336 2 11.4045 28.9821 35.6311
8337 1 75.2296 5.16394 38.9133
8338 2 74.6322 4.75508 39.6032
8339 2 75.7775 5.88735 39.3334
8340 1 72.0951 15.9021 36.0882
8341 2 72.1393 16.4055 35.2252
8342 2 73.0006 15.8877 36.5123
8343 1 0.919501 27.7576 60.1204
8344 2 0.762654 28.6729 60.4912
8345 2 1.17551 27.8279 59.1563
8346 1 34.2041 2.98048 56.8403
8347 2 34.4034 3.7368 56.2172
8348 2 33.2389 3.00833 57.1004
8349 1 16.5133 16.4898 27.6498
8350 2 17.2968 17.1112 27.642
8351 2 15.943 16.6624 26.8467
8352 1 18.175 1.47811 73.4288
8353 2 18.2151 2.34447 73.9266
8354 2 18.1262 0.721194 74.0805
8355 1 55.8116 17.1143 57.0045
8356 2 54.9192 17.2353 56.5698
8357 2 56.1402 16.1847 56.8379
8358 1 3.97172 24.2556 62.3764
8359 2 3.56681 23.9013 63.2194
8360 2 3.46389 25.0631 62.0765
8361 1 9.7163 0.929279 73.6218
8362 2 8.87447 0.99405 73.086
8363 2 10.2416 1.77418 73.5208
8364 1 16.4011 0.724556 27.9959
8365 2 15.5041 1.16365 27.9452
8366 2 16.5343 0.144844 27.1921
8367 1 32.1252 5.38345 30.2704
8368 2 32.8144 6.01337 29.9122
8369 2 31.423 5.90071 30.7596
8370 1 10.702 8.22887 76.8917
8371 2 11.2431 8.30374 77.7293
8372 2 10.1839 9.07284 76.753
8373 1 44.3022 0.520827 75.7537
8374 2 44.5888 0.907201 74.877
8375 2 45.028 29.9339 76.1125
8376 1 67.6318 1.495 90.9077
8377 2 67.3131 0.710346 90.3759
8378 2 67.6544 1.25322 91.8777
8379 1 20.1966 1.96341 10.7995
8380 2 19.9078 1.28469 11.4747
8381 2 19.5345 1.9912 10.0506
8382 1 48.1159 23.3202 57.5933
8383 2 47.3526 22.6823 57.6955
8384 2 48.5041 23.2312 56.676
8385 1 3.79996 28.2691 18.7753
8386 2 3.04284 27.731 19.1458
8387 2 4.31726 27.713 18.1249
8388 1 10.622 11.5427 39.5818
8389 2 9.66364 11.5402 39.8674
8390 2 10.6801 11.7781 38.6116
8391 1 6.51383 0.479881 10.9907
8392 2 7.29754 1.08383 11.1358
8393 2 6.83016 29.6065 10.6205
8394 1 32.3374 15.3639 34.9821
8395 2 31.8041 15.4892 35.8186
8396 2 32.7141 16.2437 34.6921
8397 1 42.7738 26.7079 72.0488
8398 2 42.2245 25.8971 72.2509
8399 2 43.1748 27.0582 72.8953
8400 1 65.6768 10.79 72.8424
8401 2 66.4257 10.2954 72.4013
8402 2 65.3266 10.2505 73.6081
8403 1 6.70661 20.985 55.211
8404 2 7.13977 21.8809 55.1129
8405 2 7.35308 20.3461 55.628
8406 1 55.532 25.251 49.2331
8407 2 55.3847 24.2675 49.1284
8408 2 56.4401 25.4128 49.6193
8409 1 75.6194 15.3638 58.5408
8410 2 76.0874 15.7584 59.3315
8411 2 75.4882 14.3832 58.6863
8412 1 68.6627 29.1346 68.8703
8413 2 69.6195 28.8602 68.7739
8414 2 68.1468 28.8318 68.0689
8415 1 19.0059 15.9154 56.4911
8416 2 19.1599 15.5114 57.3928
8417 2 19.8774 16.2261 56.1117
8418 1 10.5456 22.8103 38.8141
8419 2 10.5877 23.807 38.8837
8420 2 11.0761 22.4016 39.5567
8421 1 5.32104 29.9917 69.0592
8422 2 5.45994 29.5941 69.9662
8423 2 4.54851 29.5406 68.6123
8424 1 20.7043 11.4115 61.457
8425 2 20.4231 10.6315 60.8979
8426 2 21.5316 11.1753 61.9666
8427 1 15.0456 29.149 35.2626
8428 2 15.3211 29.9444 35.8025
8429 2 15.6929 29.0152 34.5121
8430 1 31.5522 16.1493 38.8236
8431 2 31.9207 15.4576 39.4447
8432 2 31.9331 17.0439 39.0572
8433 1 12.2606 7.80524 79.3661
8434 2 12.8129 7.09614 78.9279
8435 2 11.9479 7.48015 80.2586
8436 1 66.9201 13.8663 49.6663
8437 2 66.1144 14.1547 50.1838
8438 2 67.5563 14.6335 49.585
8439 1 16.0987 14.9007 34.1716
8440 2 17.0297 14.709 34.4823
8441 2 15.9617 15.8899 34.1193
8442 1 13.989 8.6624 24.888
8443 2 14.3287 9.48301 24.4284
8444 2 14.6559 7.92405 24.7879
8445 1 1.28353 28.7891 68.5609
8446 2 0.813579 28.0986 68.011
8447 2 2.26142 28.7722 68.3524
8448 1 66.3115 1.0275 58.367
8449 2 66.0502 0.678637 59.2671
8450 2 65.7379 1.81295 58.1346
8451 1 72.1178 10.7452 57.3406
8452 2 72.1601 10.3044 56.4439
8453 2 72.6604 10.22 57.9961
8454 1 77.9175 0.878232 68.3456
8455 2 77.2122 1.4587 68.7526
8456 2 78.1564 0.146679 68.9842
8457 1 25.6969 2.37037 76.2479
8458 2 25.0308 2.40457 76.993
8459 2 26.6176 2.27989 76.6278
8460 1 44.748 25.5334 75.0167
8461 2 44.3749 25.3611 75.9284
8462 2 44.0561 25.9849 74.4533
8463 1 56.6314 1.15242 80.9442
8464 2 55.7887 1.05414 81.4735
8465 2 57.4151 0.913985 81.5178
8466 1 76.9564 9.87363 65.1808
8467 2 76.1338 10.2702 64.7733
8468 2 76.9218 9.98224 66.1743
8469 1 69.1869 18.9298 53.7601
8470 2 69.0337 18.4932 54.6467
8471 2 68.6788 19.7902 53.72
8472 1 13.4101 28.3486 23.9047
8473 2 12.5424 27.8691 23.7742
8474 2 14.0134 27.7957 24.4795
8475 1 5.15111 25.2473 11.1828
8476 2 5.97356 24.9948 10.673
8477 2 4.56279 24.4451 11.2847
8478 1 32.4555 22.772 68.1037
8479 2 32.4962 23.2345 68.9894
8480 2 31.5194 22.8047 67.7534
8481 1 30.6345 5.72672 61.3912
8482 2 31.1347 5.13574 62.0241
8483 2 29.8004 6.05748 61.8327
8484 1 56.659 23.771 28.8209
8485 2 57.1944 23.2919 29.5165
8486 2 56.0364 24.4155 29.2647
8487 1 59.9172 18.4393 15.4676
8488 2 59.8382 18.1197 14.5233
8489 2 60.7336 18.0422 15.8867
8490 1 22.7577 2.60262 82.1098
8491 2 21.9678 2.30619 81.5729
8492 2 22.4702 3.2955 82.7711
8493 1 69.3164 26.1495 14.0907
8494 2 68.8532 27.0137 13.8941
8495 2 70.0624 26.3106 14.7368
8496 1 57.6105 19.8355 30.7784
8497 2 58.106 20.3539 31.4754
8498 2 56.6334 19.8409 30.9908
8499 1 78.2948 7.50525 59.5969
8500 2 77.3081 7.65504 59.5343
8501 2 78.6686 7.35978 58.6809
8502 1 69.1365 16.3003 21.6207
8503 2 68.9726 16.0487 20.6669
8504 2 68.8055 15.5709 22.2194
8505 1 34.5359 9.43145 85.9968
8506 2 34.5499 9.46769 84.9975
8507 2 33.6223 9.66974 86.3262
8508 1 63.6254 18.6504 67.6985
8509 2 64.4079 19.234 67.9156
8510 2 62.8721 18.857 68.323
8511 1 38.6742 28.6966 66.9812
8512 2 39.3305 29.1206 66.3572
8513 2 37.7705 28.6794 66.5533
8514 1 54.2347 3.48827 60.2808
8515 2 54.5811 2.58259 60.5252
8516 2 54.9099 4.18211 60.5311
8517 1 56.0163 8.096 62.5966
8518 2 56.35 8.87629 62.0676
8519 2 56.7874 7.64091 63.0418
8520 1 20.4395 28.9348 41.7499
8521 2 19.5051 28.5914 41.6551
8522 2 21.0454 28.184 42.0128
8523 1 56.2957 22.37 60.6431
8524 2 56.4972 21.5226 60.1519
8525 2 55.3133 22.4267 60.8209
8526 1 2.43013 19.3079 67.0396
8527 2 1.89233 18.5307 66.713
8528 2 2.14923 19.5398 67.9709
8529 1 41.6853 18.4723 36.4728
8530 2 41.4819 17.4978 36.3781
8531 2 42.1024 18.6406 37.3659
8532 1 73.6177 25.2524 73.8347
8533 2 74.4593 25.6457 74.2048
8534 2 73.4903 24.3313 74.2024
8535 1 27.6284 3.60913 36.4066
8536 2 28.4792 3.20211 36.7388
8537 2 27.3888 3.20619 35.5233
8538 1 3.79173 0.558605 72.0074
8539 2 3.28642 1.13809 72.6468
8540 2 4.36817 29.9215 72.5191
8541 1 19.2952 2.62759 52.0278
8542 2 18.6275 3.06456 52.6305
8543 2 19.9307 2.08219 52.5743
8544 1 66.3312 23.1468 84.2333
8545 2 66.73 24.0309 84.4767
8546 2 66.8173 22.4178 84.7153
8547 1 5.23049 12.6796 67.8157
8548 2 5.58415 13.0653 68.6679
8549 2 5.86105 11.9801 67.4794
8550 1 21.2794 26.6501 43.2961
8551 2 22.1483 26.3483 43.6882
8552 2 20.5267 26.347 43.8806
8553 1 32.7456 12.1644 55.9998
8554 2 32.2494 11.5327 55.4041
8555 2 32.6745 13.0925 55.6343
8556 1 61.4978 14.5029 60.6644
8557 2 62.4593 14.2859 60.8331
8558 2 61.0644 14.784 61.5206
8559 1 3.98526 14.2959 53.0333
8560 2 4.26462 13.5974 52.3744
8561 2 3.94993 13.8952 53.9488
8562 1 5.74585 29.2442 82.6704
8563 2 6.3497 29.4379 83.4435
8564 2 6.29355 29.1168 81.8434
8565 1 55.7051 11.6002 72.1265
8566 2 55.2275 11.4315 71.2643
8567 2 55.0361 11.7187 72.8604
8568 1 16.3126 0.972728 50.943
8569 2 15.8328 1.14546 51.8032
8570 2 17.2369 0.643929 51.1371
8571 1 29.4163 19.1128 84.6319
8572 2 29.3019 19.7086 85.4269
8573 2 28.5908 18.5625 84.5063
8574 1 10.5291 8.25874 38.5298
8575 2 9.61726 7.87038 38.3966
8576 2 10.522 9.22362 38.2672
8577 1 33.4762 15.2567 67.7675
8578 2 34.1987 15.9244 67.947
8579 2 32.5978 15.7285 67.6911
8580 1 68.2701 3.76253 24.4853
8581 2 69.2077 3.87489 24.8143
8582 2 67.6352 4.16705 25.1436
8583 1 25.9691 4.23243 42.9989
8584 2 25.9182 3.24467 42.8514
8585 2 26.9215 4.49869 43.1474
8586 1 36.3027 4.57603 80.1199
8587 2 36.5599 3.82855 79.5074
8588 2 36.0479 4.2032 81.0121
8589 1 76.8148 0.753921 75.7804
8590 2 76.3155 29.9235 76.0275
8591 2 76.2913 1.55584 76.0682
8592 1 26.3742 9.14621 50.1184
8593 2 27.1103 9.71997 49.7592
8594 2 26.4163 9.13674 51.1174
8595 1 36.461 29.9405 55.1078
8596 2 35.8978 29.1142 55.0936
8597 2 36.5346 0.309599 54.1813
8598 1 46.4329 22.6125 53.8331
8599 2 47.156 22.7706 54.5054
8600 2 45.8625 23.4304 53.7584
8601 1 60.1283 11.3144 41.246
8602 2 60.9089 11.4232 41.8616
8603 2 59.3122 11.7069 41.6701
8604 1 17.0943 28.1562 29.6132
8605 2 16.8531 28.6514 28.7786
8606 2 17.93 28.5445 30.0015
8607 1 64.1207 11.2599 26.2705
8608 2 64.6054 12.1124 26.4661
8609 2 63.7626 10.8772 27.1221
8610 1 23.6691 11.2055 74.4042
8611 2 23.4424 10.9204 75.3355
8612 2 23.9895 10.415 73.8823
8613 1 15.7103 5.24277 59.3859
8614 2 15.8893 6.06552 58.8464
8615 2 14.7415 5.2092 59.6311
8616 1 67.1743 29.9808 88.2294
8617 2 66.2931 0.105922 87.7734
8618 2 67.8525 29.6687 87.5641
8619 1 26.5392 6.46922 66.4969
8620 2 26.311 5.78012 65.8091
8621 2 27.2041 7.11219 66.1168
8622 1 8.29847 25.8966 48.9242
8623 2 8.47243 26.6738 49.5288
8624 2 8.14629 25.0747 49.4732
8625 1 0.602786 21.7513 12.8602
8626 2 79.9584 21.077 12.4994
8627 2 0.413194 22.6447 12.453
8628 1 47.7583 14.1811 58.9206
8629 2 47.7894 14.0299 57.9326
8630 2 47.5189 13.3264 59.3812
8631 1 18.5369 14.0622 23.3302
8632 2 19.3256 13.6472 23.7836
8633 2 17.6945 13.6845 23.7146
8634 1 30.0422 21.7921 78.3027
8635 2 29.8706 22.398 79.0795
8636 2 31.0068 21.5284 78.2924
8637 1 34.3322 12.101 87.459
8638 2 35.0978 11.6602 86.9905
8639 2 33.7283 12.5253 86.7842
8640 1 5.44266 27.7131 55.8739
8641 2 5.8715 28.4344 55.33
8642 2 4.59325 28.0575 56.2738
8643 1 28.3559 29.7247 25.7585
8644 2 27.7672 29.7229 24.9502
8645 2 28.1681 0.540222 26.3059
8646 1 78.2677 7.08366 18.7134
8647 2 78.5724 7.74441 19.3994
8648 2 77.27 7.10577 18.6495
8649 1 0.692516 21.1884 20.345
8650 2 1.12044 21.9947 20.7533
8651 2 0.486524 21.3712 19.3836
8652 1 6.81638 22.7468 71.1768
8653 2 6.98092 21.7606 71.161
8654 2 6.88911 23.0818 72.1162
8655 1 44.6895 19.7331 36.0004
8656 2 44.1834 19.1772 36.6598
8657 2 45.579 19.9794 36.3853
8658 1 50.7494 3.95431 31.446
8659 2 49.8177 3.64084 31.2624
8660 2 50.719 4.85823 31.8726
8661 1 76.8955 21.8623 78.1026
8662 2 76.7283 22.7771 78.4704
8663 2 77.188 21.2546 78.841
8664 1 7.12766 28.0183 80.3384
8665 2 7.58591 27.1394 80.206
8666 2 6.19774 27.9675 79.9742
8667 1 69.8397 12.5023 79.5169
8668 2 68.8736 12.3941 79.2822
8669 2 70.3152 12.9629 78.7674
8670 1 9.95833 25.5762 81.3971
8671 2 9.09214 25.5104 80.9018
8672 2 10.2825 26.522 81.3776
8673 1 31.9062 24.6613 42.6275
8674 2 32.5522 24.7176 41.8663
8675 2 32.0841 23.8305 43.1549
8676 1 66.3398 12.4281 60.8508
8677 2 65.4211 12.618 61.1971
8678 2 66.2811 11.7923 60.0812
8679 1 65.0957 28.3734 53.5543
8680 2 65.1939 28.0838 52.6022
8681 2 65.4924 29.2842 53.6683
8682 1 58.0129 13.7357 50.9927
8683 2 58.3067 12.7884 51.1205
8684 2 58.4228 14.102 50.1574
8685 1 12.3672 15.3048 33.6209
8686 2 12.3733 15.0951 34.5986
8687 2 13.079 15.9778 33.4199
8688 1 72.1376 21.9891 69.0699
8689 2 72.0202 20.9978 69.0103
8690 2 72.7739 22.2926 68.3607
8691 1 61.5733 2.72996 81.6953
8692 2 60.6371 2.51185 81.9709
8693 2 61.8189 3.63679 82.0378
8694 1 21.4599 21.8794 35.0434
8695 2 22.288 22.4358 34.9749
8696 2 21.5564 21.2295 35.7973
8697 1 5.83439 7.17214 31.1775
8698 2 5.1074 6.48563 31.1908
8699 2 6.07095 7.38882 30.2303
8700 1 10.4642 20.7783 34.7378
8701 2 11.1 20.788 33.966
8702 2 10.4651 19.8714 35.1591
8703 1 18.4101 14.9422 83.8169
8704 2 18.5 14.7837 84.8002
8705 2 17.921 15.8004 83.661
8706 1 55.3058 28.782 84.2838
8707 2 54.4833 28.2284 84.4142
8708 2 55.9767 28.2626 83.7547
8709 1 12.3028 4.7308 85.3726
8710 2 12.8234 5.57782 85.4801
8711 2 11.7509 4.78218 84.5402
8712 1 7.51966 21.6597 26.2898
8713 2 6.95068 22.037 27.0204
8714 2 8.01848 22.4003 25.8395
8715 1 13.9083 17.9792 81.9898
8716 2 13.074 17.4559 82.1629
8717 2 14.3944 17.5835 81.2106
8718 1 5.44276 21.9789 86.3063
8719 2 5.75673 21.0354 86.4125
8720 2 4.59669 22.1088 86.8232
8721 1 79.0739 24.0002 57.8222
8722 2 79.8306 24.6526 57.8641
8723 2 78.5054 24.0961 58.6393
8724 1 77.9629 12.8828 59.0116
8725 2 78.7394 12.849 58.3823
8726 2 77.1435 12.5452 58.5484
8727 1 35.1834 18.6627 50.6462
8728 2 35.4234 19.5153 50.1819
8729 2 35.0481 18.8406 51.6209
8730 1 29.6716 16.5195 42.3913
8731 2 29.4306 15.644 41.9726
8732 2 30.5783 16.4516 42.8075
8733 1 69.2205 16.0002 18.7379
8734 2 69.7668 16.8254 18.8811
8735 2 69.8251 15.2334 18.5225
8736 1 1.56826 24.6886 67.1537
8737 2 2.35714 25.2988 67.0803
8738 2 0.766429 25.2134 67.4394
8739 1 1.34758 8.20414 66.4585
8740 2 1.17873 9.18726 66.388
8741 2 0.740266 7.81024 67.1484
8742 1 49.0208 6.86647 30.3097
8743 2 48.7306 6.06372 30.8306
8744 2 48.8925 6.69424 29.333
8745 1 14.4978 24.5271 15.4118
8746 2 13.8052 25.141 15.7906
8747 2 15.4014 24.7997 15.7422
8748 1 43.3595 26.2865 46.6806
8749 2 43.2684 27.2779 46.5866
8750 2 42.5593 25.8389 46.2815
8751 1 15.4641 16.8381 75.5796
8752 2 14.8614 16.579 76.3344
8753 2 15.0013 17.5071 74.9981
8754 1 11.5003 23.6095 82.1487
8755 2 11.4068 23.0378 81.3336
8756 2 10.8084 24.3313 82.1307
8757 1 31.356 23.22 85.573
8758 2 31.0606 22.5853 86.2871
8759 2 31.4674 22.7242 84.7117
8760 1 67.2661 13.5436 68.6809
8761 2 68.0205 13.325 68.062
8762 2 67.4519 13.1548 69.5833
8763 1 54.4572 1.61847 69.2299
8764 2 54.9875 1.74235 68.3912
8765 2 54.2249 0.651822 69.3376
8766 1 61.5486 27.7254 44.9606
8767 2 61.6919 28.5055 45.5696
8768 2 60.8397 27.9503 44.2921
8769 1 16.9631 25.8853 74.8492
8770 2 16.7589 26.8044 74.5121
8771 2 16.5673 25.7688 75.7601
8772 1 63.6881 1.96096 62.8424
8773 2 63.7094 2.56393 62.0449
8774 2 64.0181 2.45796 63.6449
8775 1 33.3002 10.0725 36.4859
8776 2 32.944 10.4802 37.3266
8777 2 33.9144 9.31755 36.7157
8778 1 5.79467 29.5266 58.3996
8779 2 4.992 29.1383 57.9469
8780 2 5.75966 0.524291 58.3422
8781 1 49.0591 17.5165 88.0482
8782 2 49.0707 18.2684 88.7074
8783 2 48.2964 16.9037 88.2551
8784 1 52.9941 26.7754 67.4615
8785 2 53.9037 26.6052 67.0826
8786 2 52.5093 25.9071 67.5674
8787 1 38.9855 11.084 37.3212
8788 2 38.6015 11.9813 37.1034
8789 2 38.2449 10.4187 37.4159
8790 1 12.9072 25.4372 25.8326
8791 2 13.3515 24.7071 25.3135
8792 2 13.5055 26.2379 25.8606
8793 1 7.50838 16.8428 28.4278
8794 2 6.90896 17.6366 28.3248
8795 2 7.94604 16.6397 27.5519
8796 1 66.439 19.8949 44.1577
8797 2 67.4251 19.9798 44.0147
8798 2 66.2078 20.2068 45.0792
8799 1 16.7622 3.17848 44.8455
8800 2 17.0598 3.70036 45.6449
8801 2 16.3671 2.30935 45.143
8802 1 25.6049 11.9521 54.9991
8803 2 25.2616 11.0674 55.3146
8804 2 26.5754 11.8712 54.7719
8805 1 47.7668 16.119 36.718
8806 2 47.534 15.5162 35.9548
8807 2 47.0831 16.0205 37.4411
8808 1 73.5434 13.1511 12.4628
8809 2 72.6591 13.2584 12.9174
8810 2 73.9206 14.0526 12.2507
8811 1 35.0093 25.3522 32.706
8812 2 34.5715 26.2002 32.4071
8813 2 35.3021 24.8284 31.906
8814 1 8.09525 24.4109 17.4403
8815 2 8.69073 24.4308 16.6371
8816 2 7.46813 23.6351 17.3711
8817 1 77.3175 23.0081 82.0307
8818 2 77.0917 22.2045 82.5814
8819 2 76.5061 23.5846 81.9342
8820 1 13.7905 3.98632 61.3141
8821 2 14.5041 4.29219 61.9444
8822 2 13.6772 2.996 61.3942
8823 1 9.03664 10.6733 61.5472
8824 2 8.29431 10.0512 61.7961
8825 2 9.69351 10.7262 62.2993
8826 1 50.903 8.61715 66.9636
8827 2 49.9398 8.45196 66.7518
8828 2 51.0571 9.5994 67.0706
8829 1 10.675 17.5383 29.2939
8830 2 10.6638 17.2849 30.2612
8831 2 10.5212 18.5224 29.2053
8832 1 6.69831 28.597 21.6415
8833 2 6.47581 28.9449 22.5522
8834 2 6.61282 29.3354 20.9726
8835 1 1.24055 22.377 57.1425
8836 2 0.379875 22.8564 57.314
8837 2 1.85015 22.9659 56.6119
8838 1 60.2542 14.112 55.246
8839 2 60.0956 14.5188 56.1457
8840 2 59.8138 14.6723 54.5445
8841 1 78.6154 20.08 63.2653
8842 2 78.5323 20.6458 62.4449
8843 2 77.8293 20.2408 63.8622
8844 1 61.2916 23.1203 17.9299
8845 2 62.1016 23.636 18.209
8846 2 61.5195 22.1485 17.8699
8847 1 7.39082 17.7683 78.2777
8848 2 7.09738 16.8124 78.2875
8849 2 8.12588 17.8845 77.6098
8850 1 53.3256 25.2291 64.0953
8851 2 54.1943 24.7397 64.1726
8852 2 53.0083 25.1972 63.1475
8853 1 13.837 16.5142 57.0602
8854 2 13.1991 16.2574 57.7862
8855 2 14.7752 16.3639 57.3722
8856 1 18.8128 4.80753 86.1716
8857 2 19.1801 5.68685 86.4748
8858 2 18.2738 4.39951 86.9085
8859 1 49.0691 23.3879 88.3231
8860 2 49.6726 24.1364 88.0483
8861 2 49.1743 22.624 87.6864
8862 1 56.511 19.1974 70.8991
8863 2 56.6274 18.8307 71.8221
8864 2 57.3846 19.1618 70.4137
8865 1 75.1928 0.67696 87.5187
8866 2 75.4217 29.803 87.09
8867 2 74.2366 0.900648 87.3298
8868 1 13.554 23.0297 56.2485
8869 2 13.6352 22.0574 56.0291
8870 2 12.692 23.1921 56.7288
8871 1 70.1124 1.05443 78.5425
8872 2 69.2936 1.08451 79.1159
8873 2 70.8041 0.47919 78.9792
8874 1 65.3941 25.7463 13.0781
8875 2 65.7656 26.5086 13.6082
8876 2 65.7027 24.8822 13.4756
8877 1 61.6772 5.20152 55.6901
8878 2 61.3834 5.37521 56.63
8879 2 62.6054 5.5505 55.5611
8880 1 11.4463 26.7852 70.8329
8881 2 10.4483 26.7475 70.7832
8882 2 11.8349 26.025 70.3122
8883 1 12.2451 15.7179 64.2242
8884 2 11.4469 15.7577 63.6231
8885 2 12.2767 14.8273 64.6779
8886 1 9.07718 5.23969 65.1817
8887 2 8.77997 5.91963 65.852
8888 2 9.74603 4.62691 65.6026
8889 1 66.1576 0.863636 46.6649
8890 2 66.2773 1.6314 46.0354
8891 2 66.7605 0.982332 47.4538
8892 1 58.9355 24.5533 65.1496
8893 2 59.7456 24.0256 64.8942
8894 2 59.1928 25.5083 65.2974
8895 1 60.1276 5.76355 22.7068
8896 2 61.0406 6.1668 22.7682
8897 2 59.6064 5.99206 23.529
8898 1 41.2045 14.3282 60.3591
8899 2 41.6597 14.6725 61.1802
8900 2 41.6735 14.6762 59.5473
8901 1 39.7717 20.3596 30.7829
8902 2 39.0479 21.0416 30.6778
8903 2 39.3913 19.4455 30.642
8904 1 27.4454 7.81836 61.2143
8905 2 27.4027 6.8197 61.1849
8906 2 26.5621 8.19804 60.9393
8907 1 38.1642 26.1545 84.0456
8908 2 37.439 26.7844 84.3238
8909 2 37.9032 25.2192 84.2846
8910 1 22.5639 21.1912 75.8101
8911 2 23.1406 21.951 76.1101
8912 2 23.1251 20.5149 75.3329
8913 1 67.2433 11.294 89.0857
8914 2 66.7659 10.8574 89.8483
8915 2 66.6755 11.2431 88.2641
8916 1 48.5309 10.0033 67.3714
8917 2 48.2571 9.99034 68.3331
8918 2 48.6847 10.9479 67.0813
8919 1 60.3344 12.9059 90.6882
8920 2 60.2544 12.0217 90.2281
8921 2 61.2966 13.093 90.886
8922 1 49.9734 19.2892 66.3352
8923 2 50.5308 18.4923 66.5683
8924 2 49.8794 19.8768 67.1389
8925 1 8.57041 12.6556 81.0645
8926 2 8.90815 11.7494 81.3186
8927 2 9.17611 13.0564 80.3771
8928 1 30.1452 24.8559 56.4348
8929 2 29.7868 25.5896 55.8575
8930 2 30.2093 24.0128 55.9008
8931 1 9.35303 2.98121 68.0089
8932 2 9.238 2.22375 68.6516
8933 2 8.45684 3.27614 67.6775
8934 1 7.74468 22.0738 79.6146
8935 2 8.23571 22.0543 78.7437
8936 2 7.81797 22.9858 80.0182
8937 1 5.77288 14.0433 70.0508
8938 2 5.49821 13.74 70.9632
8939 2 6.69295 14.4329 70.0919
8940 1 16.6952 26.261 71.6182
8941 2 16.0964 26.3531 70.8226
8942 2 16.2646 26.6921 72.4111
8943 1 77.6581 7.87623 67.195
8944 2 78.2836 7.92135 67.9739
8945 2 78.1428 8.14401 66.3623
8946 1 31.6314 5.79922 82.8308
8947 2 30.7537 5.34898 82.9949
8948 2 32.3757 5.17511 83.0685
8949 1 5.63665 11.4425 11.7756
8950 2 5.16442 12.3239 11.7821
8951 2 6.62511 11.5938 11.7819
8952 1 13.4987 25.4147 53.4156
8953 2 14.1597 25.213 54.1384
8954 2 12.5978 25.0728 53.683
8955 1 52.3211 4.36375 38.8771
8956 2 53.2599 4.0816 38.6798
8957 2 51.7928 3.57227 39.1844
8958 1 60.5444 19.9985 45.5053
8959 2 61.0958 19.1929 45.7221
8960 2 60.0691 20.3086 46.3286
8961 1 39.6407 7.82507 38.1084
8962 2 40.2112 8.26699 38.8007
8963 2 38.6824 7.86413 38.3917
8964 1 3.263 6.42044 78.5043
8965 2 4.00797 5.85043 78.8508
8966 2 3.12937 6.23826 77.5301
8967 1 71.7153 0.386522 57.4175
8968 2 71.7778 0.183732 58.3947
8969 2 72.4628 29.9309 56.9341
8970 1 38.1431 13.0874 65.7396
8971 2 37.6507 13.4135 66.5465
8972 2 39.1132 13.3138 65.8269
8973 1 53.5691 19.8172 43.6894
8974 2 53.7197 18.8405 43.843
8975 2 52.8777 20.1525 44.3294
8976 1 44.5375 29.509 88.2402
8977 2 44.2271 29.6222 87.2963
8978 2 45.4626 29.1294 88.2436
8979 1 75.4465 15.7189 76.8899
8980 2 75.1447 15.6391 77.84
8981 2 76.2923 16.251 76.8525
8982 1 36.0426 4.11754 76.6527
8983 2 35.174 4.61309 76.6472
8984 2 36.0585 3.48131 77.424
8985 1 51.7358 21.331 73.0299
8986 2 51.0701 22.0333 73.2822
8987 2 51.4214 20.4404 73.3583
8988 1 51.5503 11.4671 31.6878
8989 2 50.8904 10.9934 32.271
8990 2 52.2553 11.8898 32.2572
8991 1 20.1455 8.51025 18.8356
8992 2 20.3275 9.48287 18.691
8993 2 20.5456 7.98143 18.0871
8994 1 13.8378 5.05672 33.426
8995 2 14.0658 5.07362 32.4525
8996 2 13.107 5.71436 33.6087
8997 1 25.588 23.5834 37.2425
8998 2 25.7112 23.7012 36.2571
8999 2 26.136 24.2628 37.7304
9000 1 3.5834 25.2165 17.0356
9001 2 2.60306 25.3945 16.9504
9002 2 4.07855 25.7384 16.3411
9003 1 29.3295 19.32 57.0621
9004 2 29.661 18.9818 57.9429
9005 2 29.5136 20.3003 56.9908
9006 1 58.8151 11.3602 26.65
9007 2 59.3608 10.9669 27.3899
9008 2 57.9011 10.9545 26.658
9009 1 72.0977 23.4127 59.7374
9010 2 72.3478 22.8318 58.9628
9011 2 71.7992 24.306 59.4013
9012 1 52.3091 18.9574 51.3041
9013 2 52.6695 18.0964 51.6631
9014 2 51.8627 19.4649 52.0411
9015 1 62.0304 22.4332 43.5374
9016 2 61.7268 22.9471 44.3397
9017 2 61.8274 21.4626 43.6668
9018 1 57.9986 12.0648 76.6503
9019 2 58.0397 12.0797 77.6493
9020 2 57.9625 11.1173 76.3323
9021 1 69.4197 10.0536 86.8928
9022 2 68.804 10.1683 86.1131
9023 2 69.2498 9.16758 87.3241
9024 1 21.2605 22.4705 58.4543
9025 2 22.0115 22.0706 58.9797
9026 2 20.5364 21.7907 58.3376
9027 1 16.919 17.2688 67.1722
9028 2 16.089 16.7658 66.9312
9029 2 17.3267 16.866 67.9917
9030 1 43.5627 16.2128 35.96
9031 2 42.8719 15.7176 36.4868
9032 2 44.4009 16.2907 36.4997
9033 1 12.2352 8.00559 62.9469
9034 2 13.0737 7.55352 62.6428
9035 2 12.4542 8.66613 63.665
9036 1 34.7616 28.3608 77.9393
9037 2 35.2899 27.5118 77.9434
9038 2 33.9696 28.2578 77.3376
9039 1 32.912 18.2982 40.0743
9040 2 33.0648 19.2074 40.4615
9041 2 33.6836 17.7045 40.3031
9042 1 12.9819 4.65251 70.1345
9043 2 12.9182 5.42372 70.7679
9044 2 13.9122 4.59479 69.7721
9045 1 3.0702 15.1616 59.899
9046 2 2.21682 15.6212 60.145
9047 2 3.2916 15.3586 58.944
9048 1 68.9235 25.9828 21.9349
9049 2 68.1335 26.181 22.5151
9050 2 69.3308 25.1127 22.2123
9051 1 33.0474 14.2721 42.8131
9052 2 32.7768 15.1548 43.1973
9053 2 33.9996 14.318 42.5109
9054 1 12.6156 20.5494 89.9944
9055 2 12.3543 20.7183 89.044
9056 2 12.4851 19.5814 90.2089
9057 1 33.563 14.1971 63.2446
9058 2 33.1218 15.0027 62.8492
9059 2 34.3663 13.956 62.7001
9060 1 15.4771 5.40668 40.1578
9061 2 14.758 4.92448 39.6574
9062 2 15.0618 6.01668 40.8327
9063 1 22.6137 24.9204 37.6943
9064 2 23.3642 24.5829 37.1261
9065 2 22.7047 25.9091 37.8137
9066 1 19.4526 5.87587 33.1183
9067 2 20.0503 6.60383 33.4542
9068 2 18.9404 5.48552 33.8833
9069 1 7.17568 20.3168 44.3703
9070 2 7.3059 20.3719 45.3602
9071 2 6.53842 21.0297 44.0777
9072 1 9.88909 2.45474 39.8793
9073 2 9.2801 3.23522 40.0207
9074 2 9.42243 1.61389 40.1535
9075 1 17.3601 25.4248 42.6372
9076 2 17.3534 26.2836 42.1249
9077 2 17.6699 25.597 43.5723
9078 1 79.8563 18.374 90.4226
9079 2 79.2935 19.0777 90.8562
9080 2 0.795037 18.443 90.7603
9081 1 32.1052 27.6213 39.9557
9082 2 32.4231 28.4836 39.5615
9083 2 31.1166 27.6651 40.0997
9084 1 6.19841 7.55991 89.9604
9085 2 7.10401 7.7493 90.3399
9086 2 6.09767 6.57589 89.8136
9087 1 12.1171 5.15627 20.4817
9088 2 13.0251 5.47654 20.2116
9089 2 11.4206 5.74916 20.0774
9090 1 0.695602 22.0779 73.3012
9091 2 0.212995 22.4806 72.5235
9092 2 1.07555 21.1919 73.0353
9093 1 46.4413 2.51339 31.3466
9094 2 45.9227 1.75572 30.9504
9095 2 46.611 2.3308 32.315
9096 1 15.5106 9.07872 82.2494
9097 2 14.6672 9.15069 81.717
9098 2 15.5393 8.19156 82.7099
9099 1 53.3433 20.4836 70.1153
9100 2 52.3998 20.3662 69.8056
9101 2 53.6494 19.6499 70.575
9102 1 35.441 0.348409 88.6459
9103 2 35.6936 0.523403 89.5975
9104 2 36.0264 0.888239 88.041
9105 1 77.9186 27.0672 51.9937
9106 2 78.2224 27.7129 51.2932
9107 2 77.06 27.3884 52.3932
9108 1 59.704 2.61199 89.987
9109 2 60.0037 1.79605 89.4926
9110 2 59.926 3.42665 89.4512
9111 1 58.5211 3.83575 15.6133
9112 2 59.1448 4.17645 14.9098
9113 2 59.0169 3.72947 16.4752
9114 1 78.3623 6.71194 48.6911
9115 2 77.8978 5.98835 49.2016
9116 2 78.4896 6.42171 47.7427
9117 1 27.5747 24.1663 72.6033
9118 2 28.2031 23.6133 73.1503
9119 2 26.7902 24.4319 73.1638
9120 1 65.7463 5.5608 49.0206
9121 2 65.7452 5.37032 50.0023
9122 2 66.6654 5.83189 48.7347
9123 1 7.39832 3.34111 17.5529
9124 2 7.78566 3.20495 16.6411
9125 2 7.34929 4.31998 17.7514
9126 1 70.2784 8.20301 64.6788
9127 2 69.4833 7.69189 65.0054
9128 2 70.4514 7.97397 63.7209
9129 1 68.6162 17.6195 36.7435
9130 2 68.6809 18.5523 36.389
9131 2 67.6661 17.4188 36.9822
9132 1 47.7546 13.912 65.553
9133 2 46.8158 13.743 65.2529
9134 2 48.3888 13.6569 64.8231
9135 1 10.8671 24.2405 31.0824
9136 2 11.435 24.9135 30.6086
9137 2 10.9792 23.346 30.6497
9138 1 8.40432 23.151 58.8987
9139 2 8.09284 22.3244 59.3675
9140 2 7.62027 23.6175 58.4893
9141 1 73.3103 0.307038 49.2486
9142 2 73.9751 0.57109 49.9473
9143 2 72.9578 1.12679 48.7972
9144 1 41.8069 11.1986 67.1517
9145 2 42.3417 10.6741 67.8143
9146 2 42.4118 11.8163 66.6493
9147 1 41.1051 29.7522 75.3786
9148 2 41.7845 29.1882 74.9093
9149 2 40.2009 29.5786 74.9884
9150 1 79.2138 7.87072 64.8035
9151 2 0.179771 7.91211 65.0587
9152 2 79.103 7.26657 64.0144
9153 1 38.789 23.4464 45.6517
9154 2 39.4002 24.2366 45.6066
9155 2 39.3124 22.6344 45.9098
9156 1 75.0706 12.3162 55.2143
9157 2 74.5166 12.6804 55.963
9158 2 75.9534 12.0105 55.5711
9159 1 46.1976 17.5299 64.9406
9160 2 45.9394 17.9366 64.0643
9161 2 46.6591 16.6574 64.7801
9162 1 21.2492 4.95861 62.2174
9163 2 21.1355 4.61687 63.1503
9164 2 22.1086 5.46553 62.1505
9165 1 5.33919 15.2598 81.2002
9166 2 5.52336 15.8902 80.446
9167 2 5.89087 15.5186 81.9931
9168 1 34.1162 1.00533 65.5417
9169 2 33.9985 1.91074 65.9496
9170 2 33.8656 0.303989 66.209
9171 1 53.2172 27.081 40.0056
9172 2 53.3105 26.0979 40.1627
9173 2 52.6956 27.2365 39.1667
9174 1 34.9028 21.2777 86.7636
9175 2 35.4892 20.7696 87.3945
9176 2 34.1209 21.6512 87.2626
9177 1 77.3099 1.10781 53.3111
9178 2 76.9729 1.93513 53.7605
9179 2 78.2896 1.00918 53.4857
9180 1 55.486 12.2923 51.8624
9181 2 55.9532 13.1513 51.6531
9182 2 55.8151 11.5755 51.2476
9183 1 67.0438 28.05 66.0996
9184 2 67.5682 28.6864 65.5339
9185 2 66.1172 28.4034 66.2275
9186 1 44.7135 3.18575 90.8295
9187 2 44.6794 4.18474 90.8002
9188 2 44.6105 2.82146 89.904
9189 1 24.9507 28.0929 67.2322
9190 2 25.7069 28.0065 67.8809
9191 2 25.2279 27.7219 66.3459
9192 1 58.4465 10.5014 35.6957
9193 2 58.3659 11.4782 35.8942
9194 2 57.6017 10.1769 35.2703
9195 1 67.8456 21.4259 50.7267
9196 2 67.8054 22.0755 51.486
9197 2 67.104 20.7612 50.8172
9198 1 58.2914 7.60558 73.0946
9199 2 57.8087 7.39812 72.2437
9200 2 59.2161 7.22716 73.054
9201 1 78.0203 28.0943 68.7921
9202 2 77.4738 28.5523 68.091
9203 2 78.7922 27.6273 68.3608
9204 1 71.9556 7.35772 15.8462
9205 2 71.9414 8.33353 16.0643
9206 2 71.2558 6.88604 16.3826
9207 1 73.4582 5.41198 86.4864
9208 2 73.1783 6.29514 86.11
9209 2 74.4173 5.45755 86.7657
9210 1 36.9883 28.5576 90.8504
9211 2 37.4835 29.191 90.2558
9212 2 37.6186 27.8618 91.1948
9213 1 18.7111 3.94891 75.6717
9214 2 17.8001 3.53657 75.6694
9215 2 18.691 4.79865 76.1985
9216 1 14.1279 4.43953 72.7792
9217 2 14.7465 4.14203 72.0521
9218 2 13.5494 5.18204 72.4416
9219 1 12.9295 25.9212 12.2599
9220 2 13.2801 26.3125 11.4091
9221 2 12.792 24.9376 12.1427
9222 1 17.1517 8.18723 31.2559
9223 2 17.3062 8.04348 32.2334
9224 2 16.4113 7.59164 30.9444
9225 1 52.2684 14.5709 25.1987
9226 2 52.7737 14.6176 26.0604
9227 2 51.8617 15.4631 25.0021
9228 1 68.7731 19.9761 19.5365
9229 2 68.9858 19.596 20.4367
9230 2 68.7009 20.9713 19.6036
9231 1 47.8967 25.891 82.3447
9232 2 48.665 25.2882 82.5596
9233 2 47.1781 25.3656 81.889
9234 1 66.3042 26.3747 45.1949
9235 2 66.2665 25.548 45.7564
9236 2 67.1652 26.854 45.3648
9237 1 69.4841 4.37728 71.9927
9238 2 68.9687 5.18482 71.7059
9239 2 69.8712 4.53431 72.9013
9240 1 11.3077 22.9119 24.3752
9241 2 12.2376 23.1392 24.0862
9242 2 11.3261 22.0849 24.9372
9243 1 36.1673 23.8843 34.5298
9244 2 37.147 23.9853 34.3571
9245 2 35.6617 24.5501 33.9811
9246 1 8.54896 24.2431 42.4927
9247 2 8.55497 24.7246 43.3692
9248 2 7.60429 24.0719 42.2129
9249 1 52.8705 12.9138 33.8403
9250 2 52.9326 12.9269 34.8383
9251 2 53.7444 12.6163 33.4558
9252 1 72.1429 3.94685 51.1863
9253 2 72.7531 3.47359 51.8216
9254 2 72.5478 4.82321 50.9255
9255 1 61.7508 22.4163 15.1284
9256 2 61.3375 22.3779 16.0382
9257 2 61.0479 22.636 14.452
9258 1 67.1392 27.8327 42.6278
9259 2 67.5881 27.5012 43.4577
9260 2 66.4026 27.2058 42.3742
9261 1 40.7229 2.1956 51.8143
9262 2 40.8329 2.42884 52.7805
9263 2 41.6141 2.22156 51.3616
9264 1 60.2931 12.8209 23.1493
9265 2 60.7772 13.6033 22.7575
9266 2 60.1408 12.1334 22.4393
9267 1 72.5503 15.3592 26.6157
9268 2 73.306 15.8042 26.1352
9269 2 72.3301 15.8768 27.4425
9270 1 31.5349 22.4366 81.5674
9271 2 32.5128 22.5926 81.7064
9272 2 31.1155 23.2633 81.1924
9273 1 30.5794 18.8438 34.2348
9274 2 29.7767 18.9928 33.6573
9275 2 31.3678 18.6257 33.6596
9276 1 54.0271 29.6846 46.1311
9277 2 53.5816 29.8674 45.2548
9278 2 53.3438 29.6959 46.8612
9279 1 13.3286 21.3633 80.7856
9280 2 12.3566 21.1422 80.8649
9281 2 13.7085 20.9111 79.9786
9282 1 60.1624 5.03492 57.9907
9283 2 60.1603 5.9417 58.4123
9284 2 60.2111 4.33578 58.7041
9285 1 4.4977 2.01013 55.0131
9286 2 5.3315 1.59629 54.6477
9287 2 3.71729 1.41647 54.8168
9288 1 18.0418 17.7354 39.6944
9289 2 17.4521 16.9575 39.9115
9290 2 18.8873 17.6708 40.2244
9291 1 23.3926 4.53597 52.6192
9292 2 23.6553 5.09619 53.4048
9293 2 23.4217 3.56952 52.8744
9294 1 73.1247 5.031 40.5012
9295 2 72.7194 5.89524 40.7992
9296 2 72.8756 4.30679 41.1442
9297 1 7.58844 25.7305 77.1677
9298 2 7.41614 25.3578 78.0795
9299 2 8.45225 25.3684 76.8174
9300 1 42.0915 22.5165 58.1615
9301 2 42.9739 22.356 58.6039
9302 2 41.5446 23.1367 58.7238
9303 1 72.7794 16.6394 68.6915
9304 2 72.9669 17.2602 69.4528
9305 2 72.8867 17.1303 67.8269
9306 1 35.6493 7.53968 29.7986
9307 2 36.3877 6.99649 30.1982
9308 2 34.9065 6.93386 29.5137
9309 1 20.8898 19.9497 31.3939
9310 2 21.5648 19.87 30.6604
9311 2 21.2475 19.5216 32.2239
9312 1 30.2774 9.88964 59.517
9313 2 29.9536 9.08407 60.0132
9314 2 30.9324 9.60821 58.8158
9315 1 20.3991 17.1333 40.7904
9316 2 21.3853 17.1139 40.9547
9317 2 19.9316 17.4699 41.6078
9318 1 65.9768 0.813354 83.9313
9319 2 65.6071 0.642243 84.8445
9320 2 66.916 1.14771 84.0091
9321 1 57.3563 9.66939 29.6832
9322 2 56.954 9.185 28.9063
9323 2 56.6559 10.2293 30.1258
9324 1 20.2614 21.702 77.7031
9325 2 20.5077 22.4258 78.3477
9326 2 19.9848 22.1103 76.8332
9327 1 63.4656 16.2668 72.5234
9328 2 63.1172 16.8046 73.2912
9329 2 64.4631 16.3311 72.4969
9330 1 32.9677 3.65301 59.7311
9331 2 32.5343 3.45414 58.8521
9332 2 32.5519 4.47007 60.1305
9333 1 76.758 29.7468 49.8689
9334 2 76.6479 0.718615 49.6603
9335 2 75.9983 29.4409 50.4427
9336 1 68.8606 4.37423 53.4216
9337 2 69.5395 4.62208 54.1128
9338 2 68.2096 3.72337 53.8122
9339 1 61.0088 2.57907 22.4776
9340 2 61.2311 2.35784 21.5281
9341 2 60.0637 2.31433 22.6691
9342 1 7.76187 5.5472 68.7893
9343 2 7.01612 6.08917 69.1767
9344 2 8.3508 5.21564 69.5263
9345 1 65.1825 10.1964 17.169
9346 2 64.7792 9.47598 17.7333
9347 2 64.518 10.4941 16.4835
9348 1 54.0282 22.8846 36.2662
9349 2 54.6316 22.3038 36.8125
9350 2 53.0756 22.684 36.4949
9351 1 6.2992 14.6013 77.991
9352 2 5.6843 14.5549 77.2038
9353 2 6.20405 13.7695 78.5378
9354 1 22.2351 7.2842 22.9889
9355 2 22.329 6.31433 23.2137
9356 2 21.4377 7.41402 22.3995
9357 1 12.6541 16.4577 41.6111
9358 2 12.4949 16.8363 42.5229
9359 2 13.5643 16.0452 41.5758
9360 1 72.213 5.22528 33.5836
9361 2 71.7331 5.44378 34.4332
9362 2 73.184 5.4426 33.6838
9363 1 15.7465 10.3723 35.5628
9364 2 15.651 11.2435 35.0813
9365 2 15.8774 9.63667 34.8982
9366 1 17.6646 19.5342 28.4089
9367 2 17.2564 20.4471 28.4128
9368 2 18.1975 19.411 27.5718
9369 1 5.06708 2.01089 74.8245
9370 2 5.03808 1.22412 74.208
9371 2 5.99138 2.39241 74.8348
9372 1 69.921 2.42671 86.1447
9373 2 70.7028 1.90831 86.4913
9374 2 69.4274 2.83762 86.9112
9375 1 22.5883 14.9162 37.4789
9376 2 23.5637 15.065 37.316
9377 2 22.0833 15.0535 36.6268
9378 1 40.7758 2.70632 48.1168
9379 2 41.572 2.46713 48.6726
9380 2 40.7828 3.68867 47.9298
9381 1 29.0313 17.7621 51.5681
9382 2 29.7665 17.5161 52.1997
9383 2 29.155 17.2718 50.7054
9384 1 0.451152 15.3603 28.2649
9385 2 1.14194 15.7427 28.8786
9386 2 79.962 16.1039 27.809
9387 1 74.6344 25.4421 55.3635
9388 2 74.1315 25.4281 54.4993
9389 2 74.9987 26.3597 55.5223
9390 1 60.5682 8.48814 25.0965
9391 2 60.0116 7.68474 24.885
9392 2 60.4787 8.70942 26.0676
9393 1 53.3827 13.0406 48.3618
9394 2 52.9921 13.4293 49.1962
9395 2 54.3163 12.7317 48.5433
9396 1 2.78997 24.7692 27.1976
9397 2 3.51557 25.0574 27.8225
9398 2 1.89962 24.935 27.6217
9399 1 75.7366 2.13951 11.8097
9400 2 74.7822 2.20394 12.1011
9401 2 76.0319 3.01983 11.4385
9402 1 41.8299 7.50735 34.2455
9403 2 41.0313 7.62574 34.8356
9404 2 42.6317 7.30231 34.8069
9405 1 49.8232 7.24293 87.4345
9406 2 49.3003 7.59511 88.2108
9407 2 49.1961 6.85842 86.7571
9408 1 26.493 7.42116 71.1488
9409 2 26.1605 6.50522 71.3735
9410 2 26.3432 8.03049 71.9274
9411 1 30.7745 13.1469 72.2475
9412 2 30.6837 12.8598 73.2011
9413 2 31.275 12.4487 71.7355
9414 1 72.312 2.42954 39.1181
9415 2 72.6695 1.88875 38.3567
9416 2 73.0713 2.85756 39.6083
9417 1 20.5706 14.1637 48.3984
9418 2 21.2777 13.6724 48.9068
9419 2 20.9212 14.4126 47.4956
9420 1 58.0853 29.1396 17.4624
9421 2 57.3729 29.5344 18.0425
9422 2 58.8589 28.8575 18.0299
9423 1 73.8424 13.2239 19.2471
9424 2 74.1108 13.5737 20.1447
9425 2 74.296 12.3483 19.0813
9426 1 71.9536 25.2085 18.8316
9427 2 72.3573 24.3692 19.1957
9428 2 72.6706 25.8927 18.6985
9429 1 51.0783 18.4297 86.727
9430 2 51.5396 19.2669 87.0208
9431 2 50.0901 18.5379 86.8359
9432 1 7.83255 12.2064 26.6348
9433 2 8.00041 12.4709 25.6851
9434 2 8.60191 11.6629 26.9704
9435 1 14.186 22.0275 86.5274
9436 2 13.4086 21.5448 86.9308
9437 2 13.8554 22.6817 85.8471
9438 1 20.0494 16.1494 30.7322
9439 2 20.7793 16.8217 30.6087
9440 2 20.3766 15.2469 30.4519
9441 1 75.6045 12.7438 52.4487
9442 2 75.1579 13.0204 53.2996
9443 2 76.085 13.5271 52.0544
9444 1 72.9658 29.8593 53.8295
9445 2 73.7841 0.179864 54.3066
9446 2 72.3438 0.628173 53.6813
9447 1 4.1955 10.225 58.0764
9448 2 4.81603 10.0194 58.8332
9449 2 4.34404 9.56936 57.3361
9450 1 34.8756 6.8966 39.9158
9451 2 35.8125 7.24614 39.9075
9452 2 34.7355 6.33781 40.7332
9453 1 60.6389 17.7416 27.0205
9454 2 60.1792 18.4336 27.5771
9455 2 61.2269 18.1913 26.3482
9456 1 61.913 27.7648 16.0015
9457 2 61.3535 27.7424 15.173
9458 2 62.8491 27.4923 15.779
9459 1 20.2775 20.1101 18.1681
9460 2 20.0365 19.2512 17.7162
9461 2 20.6401 20.7519 17.4924
9462 1 1.47298 15.7555 31.1673
9463 2 2.35413 15.3071 31.0173
9464 2 0.789938 15.0711 31.4226
9465 1 64.1044 10.4923 34.7696
9466 2 63.7253 11.2168 35.3453
9467 2 63.5306 9.67629 34.8397
9468 1 42.0103 21.1633 33.0877
9469 2 41.1856 21.239 33.6482
9470 2 41.771 20.79 32.1913
9471 1 75.1907 20.0998 31.7726
9472 2 75.8964 20.7009 32.1477
9473 2 75.4956 19.1493 31.8335
9474 1 60.4196 15.828 80.8881
9475 2 60.2854 16.4639 81.6481
9476 2 60.0443 14.9336 81.1316
9477 1 54.525 7.31501 80.8217
9478 2 55.5011 7.23072 80.6212
9479 2 54.397 7.92208 81.606
9480 1 35.3461 24.0449 42.5415
9481 2 35.7724 23.2455 42.9649
9482 2 34.7774 24.5158 43.216
9483 1 39.6376 12.4841 45.6369
9484 2 39.2656 11.6882 46.1147
9485 2 39.9965 12.2012 44.7474
9486 1 58.5799 8.33458 84.1775
9487 2 59.4978 8.04993 84.4541
9488 2 58.6471 9.0962 83.533
9489 1 65.5246 23.3401 54.8307
9490 2 66.49 23.6007 54.8416
9491 2 65.3556 22.6575 55.5417
9492 1 12.8245 15.4667 67.9286
9493 2 12.6613 14.5352 68.2538
9494 2 13.5898 15.4657 67.2849
9495 1 49.5401 8.58653 27.3441
9496 2 48.9298 8.57628 26.5519
9497 2 49.0018 8.48628 28.1808
9498 1 62.2553 19.3744 56.8211
9499 2 61.4697 19.9809 56.9435
9500 2 62.063 18.4899 57.2464
9501 1 27.8021 27.5127 71.2486
9502 2 28.6055 26.9269 71.3548
9503 2 27.388 27.3515 70.3528
9504 1 8.15597 26.4951 19.2889
9505 2 8.32419 25.6729 18.745
9506 2 8.2385 27.3032 18.7056
9507 1 24.2848 28.937 24.0751
9508 2 24.8769 28.3417 23.5319
9509 2 24.337 28.6707 25.0375
9510 1 2.30692 10.7814 40.0909
9511 2 1.81332 9.91297 40.1371
9512 2 1.66974 11.5358 40.2488
9513 1 71.5766 9.38083 50.0663
9514 2 70.6347 9.71623 50.0482
9515 2 71.7624 8.95648 50.9525
9516 1 79.0598 0.336497 47.7543
9517 2 78.4022 29.5832 47.7597
9518 2 79.9805 29.9763 47.9049
9519 1 37.3075 28.3166 31.3889
9520 2 37.9784 28.9382 31.7932
9521 2 37.7084 27.8667 30.5909
9522 1 59.8118 16.8074 65.0187
9523 2 59.7661 15.8737 65.3738
9524 2 58.8856 17.1503 64.8623
9525 1 71.9551 28.0965 60.3998
9526 2 71.0796 27.7596 60.7462
9527 2 72.6832 27.4633 60.6622
9528 1 77.8904 7.10345 39.1693
9529 2 78.6832 6.89354 38.597
9530 2 77.2911 7.74254 38.6872
9531 1 35.4162 14.9278 39.05
9532 2 35.224 15.8698 39.3254
9533 2 35.9071 14.4594 39.7846
9534 1 1.02244 19.5455 57.147
9535 2 0.885923 20.5198 56.9677
9536 2 0.706081 19.0144 56.361
9537 1 11.7591 11.6218 42.4309
9538 2 11.0688 11.8578 41.7469
9539 2 11.8201 10.627 42.5133
9540 1 21.3208 17.0527 45.4304
9541 2 21.0212 16.1951 45.8483
9542 2 22.279 17.2199 45.6627
9543 1 4.01575 23.8555 44.0661
9544 2 3.52276 23.4552 44.8385
9545 2 3.71925 23.4166 43.2179
9546 1 66.1648 19.2407 33.0799
9547 2 67.0563 19.5083 33.4454
9548 2 65.6843 18.6775 33.7521
9549 1 57.0781 23.2468 68.7734
9550 2 57.2406 23.3556 69.7541
9551 2 56.4573 23.964 68.4568
9552 1 33.9262 21.6171 40.7366
9553 2 34.4392 21.2651 41.5195
9554 2 32.9474 21.485 40.8928
9555 1 56.8738 22.7715 37.0804
9556 2 56.6248 23.6142 36.6029
9557 2 57.8695 22.6822 37.1018
9558 1 49.5658 14.4891 26.7647
9559 2 50.4312 14.0148 26.9264
9560 2 48.9535 14.3394 27.541
9561 1 49.0815 28.5705 78.1316
9562 2 49.7028 29.2715 78.4819
9563 2 48.1365 28.8803 78.2364
9564 1 8.82144 7.04464 27.4626
9565 2 8.07322 7.52708 27.918
9566 2 8.66064 7.03606 26.4756
9567 1 22.7718 21.5993 79.8893
9568 2 21.823 21.8632 80.063
9569 2 23.1815 21.2538 80.7335
9570 1 66.5344 7.9445 89.4418
9571 2 66.2519 7.66688 88.5235
9572 2 67.2831 8.60406 89.375
9573 1 58.3587 16.5005 40.7847
9574 2 59.3086 16.7767 40.9311
9575 2 57.7482 17.2303 41.0923
9576 1 75.6386 28.0912 30.4183
9577 2 76.3128 27.7542 31.0755
9578 2 75.0962 27.3247 30.0745
9579 1 69.3334 24.0122 16.0217
9580 2 69.5152 24.6156 16.7981
9581 2 68.9552 24.5465 15.2657
9582 1 57.4398 10.8513 54.4878
9583 2 56.915 11.1561 55.2826
9584 2 57.0347 10.0134 54.1223
9585 1 72.9778 25.2868 85.711
9586 2 73.7418 24.6431 85.6664
9587 2 72.4554 25.2436 84.8594
9588 1 74.6242 26.2532 32.5906
9589 2 74.6846 27.2497 32.5338
9590 2 74.2139 25.8958 31.7516
9591 1 71.2673 28.9414 79.8843
9592 2 70.6415 29.3054 80.5741
9593 2 71.9779 28.3987 80.3321
9594 1 47.2966 9.35457 44.9006
9595 2 46.9188 9.22883 43.9833
9596 2 47.4799 8.46124 45.3109
9597 1 50.2926 9.80848 33.8981
9598 2 50.6763 9.04832 34.4225
9599 2 49.8553 10.4564 34.5218
9600 1 66.619 4.32434 86.3531
9601 2 67.5432 4.20538 86.7158
9602 2 66.3628 5.28964 86.4036
9603 1 13.8848 19.9578 43.3907
9604 2 13.9483 20.3736 44.2979
9605 2 14.7638 19.5457 43.1507
9606 1 58.6896 5.72885 40.4823
9607 2 59.5734 5.92425 40.0571
9608 2 58.803 5.01563 41.174
9609 1 66.9625 29.0181 40.3652
9610 2 66.8389 28.1922 39.815
9611 2 66.9927 28.7717 41.334
9612 1 38.2894 8.15669 85.8598
9613 2 39.2404 8.12116 86.167
9614 2 37.7637 8.74845 86.4709
9615 1 41.9719 10.468 82.8371
9616 2 42.804 10.7898 82.3855
9617 2 42.01 9.47375 82.9371
9618 1 65.6776 7.50616 33.3781
9619 2 65.7907 6.80131 32.6778
9620 2 65.1458 7.13664 34.1401
9621 1 43.2641 8.09712 64.1528
9622 2 44.0461 8.04318 64.7737
9623 2 43.0377 9.0565 63.9845
9624 1 76.2415 8.1547 50.4097
9625 2 75.6933 7.3641 50.137
9626 2 77.1963 7.87729 50.5168
9627 1 10.344 14.701 23.8574
9628 2 10.4327 15.5394 24.3952
9629 2 9.59249 14.1501 24.2204
9630 1 52.5417 11.8068 41.5871
9631 2 51.7925 11.9338 42.2372
9632 2 52.1765 11.4702 40.7192
9633 1 75.5141 27.0479 83.2841
9634 2 75.2839 26.3705 82.5855
9635 2 76.1157 26.6321 83.9661
9636 1 71.1503 3.22833 48.4645
9637 2 71.6233 2.92579 49.292
9638 2 70.6146 2.47099 48.091
9639 1 68.3462 13.7325 28.4501
9640 2 67.8875 12.8439 28.4473
9641 2 67.7369 14.4234 28.0608
9642 1 67.4285 6.27549 22.3227
9643 2 67.2986 7.04482 22.9482
9644 2 66.8831 5.49719 22.6338
9645 1 57.5895 1.48482 87.5628
9646 2 56.8273 2.08259 87.8114
9647 2 57.4054 1.06138 86.6758
9648 1 68.7835 12.9553 33.8821
9649 2 68.6816 13.2411 34.8349
9650 2 69.2522 12.0726 33.8472
9651 1 13.8642 25.3513 22.1125
9652 2 13.7213 24.5213 22.6517
9653 2 14.7684 25.728 22.3138
9654 1 76.0626 2.54129 48.6503
9655 2 76.9672 2.23559 48.3532
9656 2 76.1629 3.27155 49.3261
9657 1 43.9617 25.2184 38.0758
9658 2 44.2074 24.2828 38.3293
9659 2 43.0533 25.4332 38.4345
9660 1 69.39 23.4775 12.7568
9661 2 69.1968 24.2807 13.3203
9662 2 69.0677 23.6393 11.8241
9663 1 71.6804 2.28571 22.534
9664 2 72.5486 1.82814 22.342
9665 2 71.6968 2.65562 23.4629
9666 1 1.81779 14.8785 57.0573
9667 2 2.6834 14.63 56.6226
9668 2 1.35604 14.0512 57.3774
9669 1 79.1965 26.061 11.3108
9670 2 78.8459 25.5471 10.5279
9671 2 79.8869 25.5152 11.7856
9672 1 61.4005 14.693 21.4441
9673 2 60.8135 15.4045 21.0579
9674 2 62.3232 14.7823 21.0693
9675 1 9.41624 17.6034 54.9576
9676 2 9.33531 18.2926 55.6776
9677 2 9.50366 16.6974 55.3717
9678 1 7.04399 22.4945 76.5174
9679 2 7.88917 22.6179 77.0375
9680 2 6.29447 22.9652 76.9829
9681 1 69.0419 13.5787 89.3526
9682 2 68.3065 13.1416 88.8347
9683 2 69.7341 12.8969 89.5889
9684 1 33.0055 20.3742 66.9941
9685 2 33.0907 20.446 66.0003
9686 2 32.8743 21.2856 67.3841
9687 1 47.9237 11.7326 50.4031
9688 2 47.0236 11.3473 50.6066
9689 2 47.9861 12.6542 50.7861
9690 1 47.8289 25.4466 31.776
9691 2 47.392 24.5482 31.7328
9692 2 47.2978 26.0472 32.3738
9693 1 78.083 16.0284 33.7989
9694 2 77.4083 15.4334 34.2357
9695 2 78.5703 15.5166 33.0914
9696 1 57.6716 10.1068 86.7118
9697 2 58.4196 10.7572 86.8439
9698 2 57.9865 9.3481 86.1414
9699 1 3.87073 18.858 79.6386
9700 2 3.9096 18.5242 80.5805
9701 2 3.11708 19.5088 79.5465
9702 1 39.343 26.775 54.0602
9703 2 38.9667 27.6499 54.3651
9704 2 40.2267 26.9282 53.618
9705 1 0.491828 7.72568 72.1504
9706 2 0.342946 6.87934 72.6618
9707 2 1.27896 8.21103 72.531
9708 1 69.2579 9.99208 25.5078
9709 2 68.422 10.5328 25.6019
9710 2 70.0514 10.6005 25.5191
9711 1 26.924 26.961 86.9302
9712 2 27.1875 27.1425 85.9828
9713 2 27.7355 26.9923 87.5137
9714 1 17.4698 0.960868 10.8813
9715 2 17.6688 0.52406 11.7586
9716 2 16.9874 1.82238 11.0398
9717 1 26.8817 25.822 61.3993
9718 2 26.8393 25.5641 60.434
9719 2 27.534 26.5708 61.5159
9720 1 19.9086 29.1426 56.4335
9721 2 20.4042 29.9975 56.2804
9722 2 20.3299 28.6441 57.1911
9723 1 16.0404 11.7845 14.6863
9724 2 16.1671 11.1847 15.4764
9725 2 16.5051 11.3924 13.8924
9726 1 24.6009 10.015 59.9988
9727 2 24.2799 10.4442 60.843
9728 2 24.021 10.3033 59.2368
9729 1 17.2365 11.6702 46.8288
9730 2 17.7586 11.9126 47.6466
9731 2 16.5237 12.3542 46.6736
9732 1 55.8038 29.2931 51.6294
9733 2 56.6673 28.7889 51.6404
9734 2 55.4961 29.4475 52.5683
9735 1 69.6558 21.2503 16.3358
9736 2 69.5387 22.2376 16.2282
9737 2 70.2827 21.0697 17.0936
9738 1 75.9032 18.4865 23.472
9739 2 76.7186 18.5768 24.0438
9740 2 76.1195 18.7657 22.5364
9741 1 26.4812 3.17064 33.9153
9742 2 26.3083 2.24489 33.579
9743 2 26.2226 3.83404 33.2131
9744 1 66.7932 13.5733 35.753
9745 2 67.5194 13.6503 36.436
9746 2 65.9116 13.7755 36.1796
9747 1 39.1264 13.0845 81.5673
9748 2 38.5848 13.7986 82.0109
9749 2 40.0937 13.3369 81.5906
9750 1 14.3327 28.9892 11.9789
9751 2 15.0667 28.8112 11.3235
9752 2 13.5576 29.4079 11.5058
9753 1 77.1572 23.6011 63.831
9754 2 76.8232 23.9478 64.7075
9755 2 76.3864 23.4777 63.2059
9756 1 35.1235 17.1206 68.4371
9757 2 36.1117 17.2644 68.4903
9758 2 34.7383 17.108 69.3598
9759 1 62.3226 17.218 19.2969
9760 2 62.7658 16.6666 18.5901
9761 2 61.5885 16.6881 19.7214
9762 1 38.1377 21.742 79.4558
9763 2 38.8112 22.2801 79.9626
9764 2 37.7069 22.3169 78.7603
9765 1 40.0752 3.04235 60.1655
9766 2 40.5508 2.23572 60.5163
9767 2 39.4036 2.76137 59.4799
9768 1 8.64093 0.281176 52.8604
9769 2 7.74706 0.301248 53.3083
9770 2 9.28564 29.7669 53.4259
9771 1 48.9979 28.0434 81.2746
9772 2 48.4623 27.3902 81.8099
9773 2 49.8833 28.1893 81.716
9774 1 35.8062 20.4315 68.146
9775 2 35.3634 20.6135 67.2681
9776 2 35.4774 19.5604 68.5109
9777 1 65.5872 16.424 10.968
9778 2 65.2261 16.1722 11.8659
9779 2 65.1064 15.9083 10.2588
9780 1 76.9683 0.972887 28.2128
9781 2 76.7685 0.925879 27.2341
9782 2 76.164 0.682796 28.7315
9783 1 53.1786 9.52287 82.8942
9784 2 53.437 10.3201 82.3486
9785 2 52.1816 9.45812 82.9382
9786 1 62.6216 10.5514 55.08
9787 2 62.6323 10.3429 56.058
9788 2 63.5523 10.7465 54.7706
9789 1 56.1279 27.8187 58.7959
9790 2 55.7428 28.7404 58.842
9791 2 56.5526 27.5907 59.6721
9792 1 22.2374 12.5979 50.511
9793 2 22.2418 11.7427 49.9928
9794 2 22.9609 12.5734 51.2009
9795 1 66.7375 4.8705 14.2516
9796 2 67.2537 4.01401 14.2531
9797 2 66.3276 5.01413 15.1523
9798 1 22.5289 1.02827 79.0573
9799 2 21.9335 0.996507 78.2545
9800 2 21.9884 0.853615 79.8803
9801 1 77.9118 3.84581 61.7446
9802 2 78.0842 3.09894 62.3868
9803 2 78.4442 4.64784 62.0153
9804 1 40.7459 16.5662 52.2628
9805 2 41.2645 15.8366 51.8171
9806 2 41.2603 17.422 52.2084
9807 1 74.4248 14.0006 46.5472
9808 2 74.883 14.8894 46.5497
9809 2 74.0549 13.8188 45.6361
9810 1 67.0397 4.38314 67.0704
9811 2 67.4558 5.23379 66.749
9812 2 67.6387 3.95367 67.7462
9813 1 4.54773 25.242 68.0772
9814 2 3.63585 25.0327 68.4303
9815 2 4.58008 26.1972 67.7829
9816 1 5.27221 4.40441 80.2758
9817 2 5.78951 4.64757 79.4552
9818 2 5.79672 3.74815 80.8182
9819 1 39.212 3.11159 69.4251
9820 2 40.0762 3.30197 69.8907
9821 2 38.5387 2.78959 70.0907
9822 1 16.6942 27.0854 17.4122
9823 2 16.266 27.1709 18.3118
9824 2 16.7005 26.1243 17.1361
9825 1 16.4278 7.2542 68.5066
9826 2 16.4381 6.34271 68.9178
9827 2 15.9489 7.88832 69.1137
9828 1 56.3775 7.82268 35.8239
9829 2 56.943 7.38858 35.1226
9830 2 55.8856 7.11977 36.3376
9831 1 72.8223 10.7987 70.3611
9832 2 71.9801 10.8804 70.8941
9833 2 73.5992 10.686 70.9807
9834 1 47.7719 4.36008 71.243
9835 2 46.8313 4.04136 71.1261
9836 2 47.908 4.65763 72.188
9837 1 67.0185 27.2578 57.3733
9838 2 67.7467 27.7868 56.9374
9839 2 66.5371 26.72 56.6812
9840 1 25.6446 14.1399 57.4649
9841 2 25.7513 14.2701 58.4506
9842 2 25.5935 15.0313 57.0145
9843 1 8.05232 12.4564 58.7498
9844 2 7.18295 12.5909 59.2253
9845 2 8.49843 11.6318 59.0977
9846 1 54.9513 2.45407 46.7259
9847 2 54.2513 1.77501 46.5051
9848 2 55.8451 2.12114 46.4254
9849 1 35.3252 14.3794 56.0278
9850 2 34.3856 14.5224 55.7168
9851 2 35.3313 13.7154 56.7755
9852 1 9.18227 18.3134 61.9104
9853 2 9.6589 19.1639 62.1327
9854 2 9.44918 17.602 62.5605
9855 1 30.0805 19.2819 79.1048
9856 2 29.6846 19.1907 80.0186
9857 2 29.6761 20.0718 78.6438
9858 1 48.6614 19.6572 31.0147
9859 2 48.0062 20.0946 30.3987
9860 2 48.5668 20.0448 31.9317
9861 1 12.6582 7.63817 36.0804
9862 2 12.4158 8.28991 35.3617
9863 2 12.7629 6.7268 35.6823
9864 1 54.3111 11.1813 80.9437
9865 2 55.3043 11.1567 81.0573
9866 2 53.9769 12.1047 81.1323
9867 1 12.9606 11.1321 73.5836
9868 2 12.5656 10.4751 72.9415
9869 2 12.7851 10.8294 74.5204
9870 1 14.5136 27.1852 60.5569
9871 2 14.7416 28.0522 61.0001
9872 2 15.1858 26.4916 60.816
9873 1 15.0511 7.3407 45.5043
9874 2 14.5769 7.30431 44.6246
9875 2 15.0366 8.27808 45.8523
9876 1 75.5509 14.989 81.27
9877 2 75.7684 15.95 81.0989
9878 2 75.4875 14.832 82.2556
9879 1 69.8601 15.502 59.6778
9880 2 70.4852 16.0973 60.1826
9881 2 70.3861 14.814 59.1777
9882 1 19.1084 15.5354 86.588
9883 2 18.5915 16.3839 86.7014
9884 2 18.902 14.9155 87.345
9885 1 24.439 11.8158 90.7464
9886 2 23.9032 12.0059 89.9238
9887 2 24.5249 10.8268 90.8671
9888 1 12.4358 18.4063 69.3903
9889 2 12.0758 17.7737 70.0759
9890 2 13.1438 18.9786 69.8041
9891 1 78.9506 18.468 87.8287
9892 2 78.1029 18.9206 88.1053
9893 2 79.463 18.1938 88.6424
9894 1 75.6813 24.1106 76.3244
9895 2 74.8899 23.5406 76.1034
9896 2 75.8692 24.0541 77.305
9897 1 70.6907 2.10011 19.7428
9898 2 70.9804 1.68404 20.6048
9899 2 71.4557 2.09943 19.0987
9900 1 70.8559 17.3575 50.5005
9901 2 71.5042 17.3307 49.7396
9902 2 71.3424 17.5805 51.3452
9903 1 73.8535 29.6578 21.5543
9904 2 73.1541 29.0915 21.9902
9905 2 74.5055 29.0713 21.0738
9906 1 48.2874 1.41185 58.745
9907 2 47.8928 1.25304 57.84
9908 2 48.9933 0.727043 58.9257
9909 1 69.0017 16.2421 80.2494
9910 2 68.7162 15.6313 80.9879
9911 2 69.295 17.1169 80.6349
9912 1 14.3441 14.2737 80.1441
9913 2 13.5491 14.2243 80.7487
9914 2 14.52 15.2279 79.902
9915 1 78.276 28.128 14.5663
9916 2 79.069 27.7237 14.1107
9917 2 77.4547 27.6096 14.3284
9918 1 32.1021 17.1806 70.5636
9919 2 32.5588 17.4279 69.709
9920 2 31.9531 18.0034 71.112
9921 1 39.1939 8.0526 35.488
9922 2 39.3836 8.06141 36.4698
9923 2 38.2321 7.82458 35.3363
9924 1 1.18016 10.546 20.9052
9925 2 1.61421 10.5109 20.005
9926 2 1.7605 11.062 21.5352
9927 1 9.20806 25.53 27.2533
9928 2 8.59879 26.0172 27.8789
9929 2 10.1584 25.6961 27.5166
9930 1 10.9719 15.95 74.6225
9931 2 10.3822 16.4289 75.2728
9932 2 11.7442 16.5366 74.3783
9933 1 10.4984 18.2894 35.4002
9934 2 10.4157 17.9134 34.4773
9935 2 10.6467 17.5451 36.0513
9936 1 30.6112 23.4872 64.4366
9937 2 31.2468 24.2507 64.5505
9938 2 30.4327 23.0665 65.3261
9939 1 13.657 9.0604 17.8537
9940 2 13.967 9.38533 16.9603
9941 2 14.0576 9.62866 18.5725
9942 1 7.91689 2.58032 54.9596
9943 2 7.49593 2.04754 54.2254
9944 2 7.88229 2.05867 55.812
9945 1 47.4498 13.4225 45.7956
9946 2 47.5141 14.4204 45.8018
9947 2 46.5246 13.1465 46.056
9948 1 28.451 19.7437 27.9256
9949 2 29.0978 19.559 28.6656
9950 2 28.5899 19.0822 27.1886
9951 1 46.5521 25.2928 61.4425
9952 2 45.8447 25.485 60.7623
9953 2 46.1642 25.379 62.3602
9954 1 11.1061 11.2169 21.7848
9955 2 10.5742 11.0924 22.6223
9956 2 10.7026 11.9519 21.2399
9957 1 20.34 1.46774 32.7387
9958 2 20.2239 1.72771 33.6973
9959 2 20.7546 2.22603 32.2356
9960 1 26.1471 25.3739 25.7991
9961 2 25.6275 26.2165 25.9405
9962 2 26.4837 25.0383 26.6789
9963 1 55.1768 14.3751 73.4759
9964 2 54.5771 13.815 72.9043
9965 2 55.0687 14.1086 74.4336
9966 1 78.5135 15.3128 65.7102
9967 2 78.1706 14.3735 65.7005
9968 2 78.3917 15.7216 64.8058
9969 1 23.405 24.1574 74.8907
9970 2 22.6959 23.564 74.5099
9971 2 22.9916 25.0127 75.2032
9972 1 5.1922 22.6855 27.8873
9973 2 5.6253 22.8501 28.7735
9974 2 4.47273 21.9986 27.9905
9975 1 47.5624 28.091 49.4872
9976 2 48.1492 27.2951 49.3389
9977 2 47.3866 28.1978 50.4658
9978 1 77.1312 16.8854 18.8987
9979 2 76.666 17.4673 18.2316
9980 2 78.0382 16.643 18.5544
9981 1 7.13252 3.9038 73.908
9982 2 6.32813 3.69564 73.3516
9983 2 7.27536 4.89329 73.9304
9984 1 26.543 10.5626 41.8884
9985 2 27.1434 10.641 42.6843
9986 2 25.8877 9.82191 42.0368
9987 1 52.761 5.73432 74.8125
9988 2 52.4502 6.59049 74.3997
9989 2 52.143 5.47914 75.5561
9990 1 20.693 28.6463 31.9009
9991 2 20.394 29.6006 31.8983
9992 2 21.6256 28.5902 32.2574
9993 1 60.3835 21.5361 78.9765
9994 2 60.1905 22.0253 78.126
9995 2 60.3982 20.5521 78.799
9996 1 11.4693 26.2033 28.2026
9997 2 11.977 26.3426 27.3525
9998 2 11.5671 27.0101 28.7853
9999 1 11.8367 8.97638 71.7517
10000 2 10.8406 8.93764 71.8319
10001 2 12.2188 8.06438 71.9009
10002 1 18.9707 21.8989 34.2767
10003 2 18.9874 22.207 33.3254
10004 2 19.8867 21.9799 34.6694
10005 1 78.4591 3.42635 39.7685
10006 2 77.6557 2.85744 39.5929
10007 2 78.4638 4.20077 39.1358
10008 1 10.9179 7.75712 66.0817
10009 2 10.6033 8.70634 66.0781
10010 2 10.5795 7.29692 66.9025
10011 1 27.2321 4.94148 61.4535
10012 2 27.1558 3.94508 61.4165
10013 2 27.6332 5.21286 62.3284
10014 1 48.754 7.26396 69.6236
10015 2 49.3066 6.45302 69.4314
10016 2 48.8118 7.48344 70.5976
10017 1 19.194 3.4501 89.9636
10018 2 18.5407 3.53212 89.2109
10019 2 19.0552 2.57743 90.4318
10020 1 3.37474 4.33241 45.1939
10021 2 3.04591 3.39681 45.3225
10022 2 3.92932 4.60193 45.9812
10023 1 14.5285 27.9454 57.3395
10024 2 13.559 27.9246 57.0954
10025 2 14.6314 27.7432 58.3135
10026 1 56.6266 22.9761 46.1279
10027 2 57.606 22.8619 46.2943
10028 2 56.4581 23.0139 45.1429
10029 1 41.9507 5.90714 39.4904
10030 2 42.7532 5.80244 38.903
10031 2 41.9853 6.79632 39.9466
10032 1 52.8285 14.341 37.1819
10033 2 53.4149 13.9406 37.886
10034 2 53.3404 14.4189 36.3264
10035 1 28.9418 11.1194 57.0803
10036 2 28.0123 11.2523 57.4245
10037 2 29.5869 11.1455 57.8439
10038 1 59.286 23.9032 37.1377
10039 2 60.2284 24.2173 37.0229
10040 2 58.8313 24.4602 37.8327
10041 1 18.6297 23.937 39.9698
10042 2 19.5321 23.5216 39.856
10043 2 18.6443 24.5562 40.7549
10044 1 3.55775 0.357583 30.2974
10045 2 2.56578 0.298529 30.1856
10046 2 3.7964 0.183444 31.2528
10047 1 39.5738 2.7334 86.3538
10048 2 39.9289 2.39472 85.4825
10049 2 38.9497 2.05703 86.7449
10050 1 22.344 6.03387 27.4069
10051 2 22.4736 5.68406 26.4791
10052 2 22.0123 5.29804 27.9972
10053 1 5.45514 26.2544 14.507
10054 2 5.69482 27.0492 13.9495
10055 2 4.75007 25.7203 14.0404
10056 1 55.2549 8.98937 65.1986
10057 2 55.2985 8.41484 64.3813
10058 2 55.5169 9.92514 64.9626
10059 1 43.5307 26.7015 81.1966
10060 2 42.7232 26.7165 80.607
10061 2 44.2088 26.0719 80.8173
10062 1 59.7273 27.6205 67.0973
10063 2 60.6302 27.7333 66.6825
10064 2 59.6609 26.7117 67.5091
10065 1 58.6482 29.3946 33.5333
10066 2 58.5606 29.4282 34.5289
10067 2 57.7465 29.5064 33.1155
10068 1 21.3258 22.7995 51.167
10069 2 20.5961 22.8912 51.8446
10070 2 22.2112 22.7788 51.6315
10071 1 77.9462 21.954 61.1187
10072 2 77.4374 21.2377 60.6411
10073 2 77.3452 22.736 61.2839
10074 1 69.773 27.2662 61.7196
10075 2 70.2601 26.7024 62.3866
10076 2 69.4619 28.1087 62.1594
10077 1 25.2229 7.93795 40.432
10078 2 25.5065 7.82172 41.3839
10079 2 25.1375 7.04121 39.9978
10080 1 17.5822 5.59665 52.3582
10081 2 17.3594 5.52338 53.3303
10082 2 16.8923 5.11182 51.8206
10083 1 59.6745 2.54621 54.5656
10084 2 60.5905 2.94119 54.4957
10085 2 59.746 1.55352 54.6629
10086 1 13.0654 1.98765 34.1996
10087 2 13.4334 2.80566 34.6416
10088 2 13.4247 1.17275 34.6544
10089 1 53.2413 4.51111 47.0023
10090 2 53.8708 3.82301 47.3632
10091 2 53.7632 5.244 46.5658
10092 1 2.32277 10.8905 13.7251
10093 2 1.99284 10.4091 14.5372
10094 2 1.55683 11.3509 13.2764
10095 1 8.95313 15.8266 83.7347
10096 2 9.15395 15.2939 82.9126
10097 2 7.96666 15.9759 83.8025
10098 1 7.27946 18.2591 57.9418
10099 2 7.94304 18.9899 57.7817
10100 2 7.54738 17.7372 58.7516
10101 1 47.4085 29.0566 38.0556
10102 2 48.2844 28.6358 37.8196
10103 2 46.7819 28.3546 38.3942
10104 1 43.5422 28.9057 46.1726
10105 2 43.0281 29.4686 45.5254
10106 2 44.5218 29.0594 46.0433
10107 1 10.0672 28.8181 47.1158
10108 2 10.6965 28.2026 47.5903
10109 2 10.0283 29.6926 47.5992
10110 1 71.0889 1.80219 54.8418
10111 2 71.3419 2.75816 54.6931
10112 2 71.0702 1.6111 55.8231
10113 1 68.7261 12.8155 70.8377
10114 2 69.2151 12.0923 70.35
10115 2 68.2404 12.4217 71.6181
10116 1 56.6684 25.7093 82.6306
10117 2 57.221 26.0716 83.3812
10118 2 56.6703 24.71 82.6675
10119 1 42.1129 26.7179 49.5184
10120 2 42.8459 26.6929 48.8386
10121 2 41.9807 25.803 49.8998
10122 1 65.1245 10.8249 30.0106
10123 2 64.2758 10.5404 29.5647
10124 2 65.0321 11.767 30.3329
10125 1 44.9031 6.74033 53.0249
10126 2 44.1407 7.35034 53.2408
10127 2 45.7669 7.20192 53.227
10128 1 19.6973 22.508 22.1782
10129 2 18.8919 23.0225 21.884
10130 2 19.7102 22.4511 23.1765
10131 1 0.924678 16.3696 39.2159
10132 2 0.626078 17.324 39.2114
10133 2 1.3179 16.1475 40.1081
10134 1 32.706 7.92629 50.7528
10135 2 33.2911 7.5745 51.4835
10136 2 32.6728 7.26396 50.0043
10137 1 1.34418 0.422033 36.3732
10138 2 0.382623 0.594953 36.1599
10139 2 1.5858 0.888063 37.2244
10140 1 34.721 29.3217 29.318
10141 2 35.5316 28.9603 29.7789
10142 2 34.9644 0.153177 28.8187
10143 1 7.20084 23.5047 20.6893
10144 2 8.14931 23.2997 20.4477
10145 2 7.0971 23.4787 21.6836
10146 1 13.1612 0.228138 42.4628
10147 2 13.8687 29.5746 42.7316
10148 2 13.5847 1.10805 42.2474
10149 1 63.7175 12.8563 48.41
10150 2 63.2858 12.383 47.6421
10151 2 63.5163 12.3672 49.2587
10152 1 71.7549 29.839 12.0988
10153 2 71.9781 0.769247 12.3901
10154 2 72.578 29.2723 12.1337
10155 1 75.3482 22.8404 69.981
10156 2 75.4334 23.5862 69.3204
10157 2 74.4119 22.4894 69.9685
10158 1 53.1976 19.9487 27.6071
10159 2 52.8792 19.5193 28.4523
10160 2 52.4394 20.0091 26.9578
10161 1 9.57442 20.497 90.2072
10162 2 8.89531 19.763 90.207
10163 2 10.4266 20.1628 89.8046
10164 1 68.3238 7.25406 86.1774
10165 2 67.4703 7.19674 86.6953
10166 2 68.2282 7.93544 85.4517
10167 1 58.8078 12.7206 19.1284
10168 2 59.1791 11.9239 19.6053
10169 2 59.2998 12.8532 18.268
10170 1 61.8144 25.6859 82.3383
10171 2 60.9173 26.1277 82.3427
10172 2 61.6977 24.6941 82.39
10173 1 63.557 6.68495 54.2481
10174 2 63.1784 6.21687 53.4496
10175 2 63.2049 7.62024 54.2841
10176 1 14.0832 8.49292 52.5039
10177 2 15.0667 8.36477 52.3762
10178 2 13.9023 8.76349 53.4494
10179 1 55.6041 4.4451 79.7741
10180 2 55.2969 4.38432 80.7238
10181 2 55.0587 5.12968 79.2905
10182 1 14.0601 12.2738 25.5263
10183 2 13.0958 12.0366 25.6438
10184 2 14.1529 12.9316 24.7787
10185 1 66.169 7.44564 55.5099
10186 2 65.6879 7.6696 56.3575
10187 2 65.5075 7.35216 54.7658
10188 1 39.9789 12.2645 59.005
10189 2 39.7209 12.9257 58.3005
10190 2 40.8788 12.5016 59.3711
10191 1 11.8123 19.4448 76.6579
10192 2 11.9859 18.7341 75.9762
10193 2 11.2549 19.0679 77.3977
10194 1 38.7946 15.2157 64.3248
10195 2 37.9975 14.8355 64.7939
10196 2 39.5634 15.2668 64.9623
10197 1 43.0513 20.2442 75.0812
10198 2 42.9144 19.5529 75.7907
10199 2 43.9254 20.7065 75.2305
10200 1 76.5416 24.7173 66.2961
10201 2 76.952 25.6183 66.4371
10202 2 75.8465 24.5544 66.9963
10203 1 18.9914 23.4291 61.7904
10204 2 18.4817 22.8041 62.3817
10205 2 18.3541 24.0499 61.3337
10206 1 60.7117 2.48648 73.4506
10207 2 61.6513 2.6743 73.1645
10208 2 60.453 3.1188 74.1808
10209 1 26.8423 20.6888 67.8152
10210 2 27.2158 20.5257 68.7284
10211 2 25.863 20.4863 67.8146
10212 1 36.9795 7.73053 71.8332
10213 2 36.9064 8.12819 72.7479
10214 2 36.0669 7.49714 71.4974
10215 1 6.88398 29.6109 90.1001
10216 2 7.16678 29.7655 89.1535
10217 2 7.69107 29.4411 90.6656
10218 1 13.945 25.7998 64.6354
10219 2 12.9553 25.8405 64.4981
10220 2 14.1811 26.2533 65.4949
10221 1 47.8391 25.9122 39.9534
10222 2 47.7702 26.9096 39.9716
10223 2 48.7345 25.6464 39.596
10224 1 7.23789 15.9753 31.0515
10225 2 6.57118 16.3905 31.6704
10226 2 7.14843 16.3833 30.1429
10227 1 62.685 3.91575 49.064
10228 2 63.1659 4.39738 48.3314
10229 2 61.8896 4.45084 49.3487
10230 1 64.3846 12.0714 80.6366
10231 2 64.529 11.9459 79.6551
10232 2 63.5878 11.5415 80.9268
10233 1 5.34977 16.72 17.6037
10234 2 5.21287 17.6122 18.0339
10235 2 6.09504 16.2384 18.0648
10236 1 75.2288 18.9532 41.9675
10237 2 75.0488 19.8028 41.4719
10238 2 75.9226 19.1169 42.6688
10239 1 79.5985 19.9927 60.0226
10240 2 79.9067 19.588 59.1616
10241 2 79.3995 20.9627 59.8826
10242 1 30.5994 5.4411 32.3668
10243 2 30.3622 5.81042 33.2654
10244 2 29.8296 5.56692 31.741
10245 1 5.95155 9.06284 75.7158
10246 2 6.31874 8.29442 75.1917
10247 2 5.0947 8.78915 76.1527
10248 1 77.9673 12.7738 10.8836
10249 2 77.7996 12.3931 9.97418
10250 2 78.9489 12.7624 11.0739
10251 1 25.6533 2.00233 46.6266
10252 2 26.6425 2.05904 46.4913
10253 2 25.4037 1.06574 46.8725
10254 1 47.063 5.74354 63.9967
10255 2 46.1186 5.43336 64.1052
10256 2 47.0925 6.49988 63.3432
10257 1 23.0678 0.938881 88.9102
10258 2 23.962 1.36184 88.7634
10259 2 22.3504 1.55405 88.5833
10260 1 32.4117 7.89422 57.1237
10261 2 32.1372 7.19432 57.7831
10262 2 32.5944 7.46534 56.239
10263 1 53.7166 9.87887 28.9682
10264 2 53.3169 10.1922 28.1068
10265 2 54.419 10.526 29.2647
10266 1 69.667 4.74723 46.6487
10267 2 70.1446 3.97071 47.0596
10268 2 69.2172 5.27941 47.366
10269 1 24.4372 28.584 28.9405
10270 2 25.0209 29.3586 29.1837
10271 2 24.8485 28.0827 28.1792
10272 1 52.5209 6.55365 56.885
10273 2 53.274 6.30009 56.2779
10274 2 51.9055 7.18148 56.4084
10275 1 62.1384 17.4198 16.7136
10276 2 61.9987 16.4298 16.7319
10277 2 61.9388 17.8013 17.6162
10278 1 59.4934 26.6392 30.4542
10279 2 59.1637 27.501 30.0687
10280 2 59.5273 26.7113 31.451
10281 1 44.4605 8.03442 35.1479
10282 2 45.432 8.10148 35.375
10283 2 43.9134 8.24918 35.9569
10284 1 19.8585 19.2481 13.4465
10285 2 19.3852 19.4254 14.3094
10286 2 19.907 18.2617 13.2895
10287 1 41.7398 18.3532 31.1743
10288 2 40.9541 18.9404 31.3687
10289 2 42.2305 18.7059 30.3775
10290 1 67.0405 11.0843 81.9466
10291 2 67.5794 11.0123 82.7859
10292 2 66.0852 11.2677 82.1785
10293 1 72.1262 4.54713 15.5798
10294 2 71.1945 4.29562 15.318
10295 2 72.2313 5.5401 15.5252
10296 1 19.0388 29.1301 83.3385
10297 2 18.8379 28.1621 83.1884
10298 2 18.66 29.4165 84.2186
10299 1 14.1008 1.85374 46.6233
10300 2 14.4092 1.31272 45.8408
10301 2 14.7209 1.70832 47.3942
10302 1 58.3289 2.28645 32.8136
10303 2 58.5037 3.24019 33.0583
10304 2 58.045 1.78011 33.6279
10305 1 26.3913 27.6766 84.3104
10306 2 25.8702 28.4264 83.9028
10307 2 26.9576 27.2441 83.6088
10308 1 63.1329 1.63325 71.0297
10309 2 62.8336 2.27916 70.3274
10310 2 63.4538 2.13757 71.8314
10311 1 60.6402 9.15525 61.1773
10312 2 61.5634 9.46853 61.4001
10313 2 60.6499 8.69322 60.2905
10314 1 77.3733 0.338174 90.2791
10315 2 77.7019 29.4652 89.9187
10316 2 77.8632 0.555839 91.1233
10317 1 72.2231 2.73582 42.3621
10318 2 71.812 2.83559 43.2682
10319 2 71.5495 2.35088 41.7311
10320 1 32.018 24.8725 27.4984
10321 2 32.4651 25.6682 27.9071
10322 2 32.2316 24.0572 28.0366
10323 1 62.8259 23.5998 72.8788
10324 2 62.6159 22.779 73.41
10325 2 63.6476 24.0343 73.2477
10326 1 25.6042 2.80348 38.8233
10327 2 25.283 3.72706 38.614
10328 2 25.4683 2.21473 38.0265
10329 1 28.961 23.5605 52.3691
10330 2 29.2316 23.0542 53.1878
10331 2 28.0299 23.9068 52.4839
10332 1 43.4486 22.5863 82.4929
10333 2 43.822 22.8844 83.3713
10334 2 44.1594 22.6439 81.7918
10335 1 10.0572 14.7877 18.2316
10336 2 9.07902 14.9137 18.3965
10337 2 10.2977 13.827 18.3705
10338 1 62.8177 4.13247 64.6569
10339 2 62.3224 4.4364 63.8431
10340 2 62.286 3.42805 65.1271
10341 1 46.1825 8.48253 50.2436
10342 2 45.7966 9.28793 50.6935
10343 2 46.285 8.6642 49.2656
10344 1 45.8354 12.7913 48.365
10345 2 45.9739 11.8096 48.4958
10346 2 45.2804 12.9436 47.5472
10347 1 4.18163 13.7193 65.148
10348 2 5.08902 13.3843 65.4018
10349 2 3.49142 13.0464 65.4142
10350 1 23.6891 26.1629 41.3324
10351 2 24.6423 26.4087 41.5086
10352 2 23.4853 25.2855 41.7668
10353 1 62.4101 6.34472 89.4573
10354 2 61.6944 7.0264 89.6093
10355 2 62.7052 6.37847 88.5025
10356 1 60.4275 13.6349 10.6075
10357 2 60.4374 13.5202 9.61412
10358 2 59.7626 13.0052 11.0091
10359 1 62.6067 29.6447 38.3069
10360 2 62.5009 0.637796 38.3568
10361 2 61.7968 29.2034 38.6934
10362 1 14.8373 2.31217 82.7842
10363 2 14.6389 1.68181 83.5347
10364 2 14.871 3.24801 83.135
10365 1 44.6757 14.2158 83.6335
10366 2 43.9693 13.5181 83.514
10367 2 45.5691 13.7745 83.7176
10368 1 22.3627 8.76988 26.6165
10369 2 21.9501 7.907 26.9084
10370 2 21.7038 9.28611 26.0694
10371 1 37.0701 28.5402 57.8104
10372 2 37.3944 27.6234 58.0433
10373 2 37.6984 28.9595 57.1551
10374 1 47.3291 6.21869 67.7053
10375 2 46.336 6.25552 67.8165
10376 2 47.7668 6.72081 68.4512
10377 1 55.5561 24.255 58.4205
10378 2 55.7095 24.0349 57.4571
10379 2 55.7081 23.4383 58.9772
10380 1 74.1931 22.8241 89.1803
10381 2 74.1662 23.806 89.3676
10382 2 75.1361 22.4979 89.2462
10383 1 34.8847 12.7053 58.3811
10384 2 34.5674 13.1728 59.2062
10385 2 35.3905 11.8818 58.6382
10386 1 66.117 10.0905 20.9891
10387 2 66.9353 10.0107 21.5584
10388 2 65.8155 9.1791 20.7091
10389 1 11.3503 20.0396 24.1354
10390 2 11.5385 20.3494 23.2034
10391 2 10.6291 19.3471 24.1172
10392 1 71.9384 9.67588 40.0145
10393 2 72.0575 8.87128 40.5962
10394 2 70.9739 9.76867 39.7673
10395 1 10.5921 27.3537 14.9481
10396 2 11.4199 27.4737 15.4962
10397 2 10.2541 26.4186 15.0553
10398 1 17.6592 15.6135 43.0828
10399 2 16.97 14.9061 43.2398
10400 2 17.3981 16.4471 43.5695
10401 1 35.7685 8.22094 45.5816
10402 2 36.2486 8.95884 45.1072
10403 2 36.4341 7.62467 46.0303
10404 1 42.957 27.6064 33.1142
10405 2 42.6068 26.8909 33.7187
10406 2 42.2902 27.7879 32.3914
10407 1 16.3238 24.8485 68.514
10408 2 16.5424 25.5129 67.7993
10409 2 16.3259 23.9274 68.1247
10410 1 32.9795 22.8101 33.2758
10411 2 32.1025 23.265 33.1218
10412 2 33.7202 23.391 32.9384
10413 1 74.6722 28.2953 56.5131
10414 2 75.363 28.4139 57.2264
10415 2 74.0658 27.539 56.7589
10416 1 18.8804 4.5703 23.6843
10417 2 18.5111 3.77206 24.1601
10418 2 18.1295 5.10116 23.2915
10419 1 13.8351 16.049 50.9312
10420 2 14.3653 16.8885 51.0502
10421 2 13.9696 15.6984 50.0044
10422 1 50.7091 17.2003 90.8932
10423 2 51.2883 17.9144 91.2864
10424 2 49.8549 17.6056 90.5675
10425 1 52.7522 27.0231 27.0301
10426 2 51.8729 27.0918 27.5015
10427 2 52.6095 27.1106 26.0442
10428 1 16.514 22.1502 51.085
10429 2 17.3751 22.3416 50.6141
10430 2 16.332 21.1672 51.0604
10431 1 46.7958 28.2498 40.913
10432 2 46.2559 27.9252 41.6897
10433 2 47.2317 29.1181 41.1497
10434 1 78.4733 15.3466 21.7803
10435 2 79.2827 15.8424 21.4657
10436 2 78.5929 14.369 21.607
10437 1 57.0529 19.3655 66.2312
10438 2 56.4789 19.2819 65.4166
10439 2 57.7862 20.0225 66.0563
10440 1 10.7069 13.8838 43.4669
10441 2 10.2686 14.7672 43.6329
10442 2 11.6186 13.8817 43.8777
10443 1 60.0707 19.6857 76.3833
10444 2 60.4637 20.6005 76.2908
10445 2 59.1406 19.6838 76.0161
10446 1 58.9207 17.4457 51.2801
10447 2 59.7361 17.4244 50.7017
10448 2 58.1594 17.0109 50.7992
10449 1 5.24394 7.80956 39.5878
10450 2 6.12535 7.45944 39.2707
10451 2 5.3934 8.4781 40.3163
10452 1 27.0887 10.1274 90.8668
10453 2 26.2985 9.53654 91.0295
10454 2 27.5779 9.81334 90.0532
10455 1 33.3561 6.30469 55.3707
10456 2 33.3212 6.86197 54.5411
10457 2 33.8486 5.45524 55.1811
10458 1 57.9416 27.6716 60.8962
10459 2 58.2146 26.8128 61.3298
10460 2 57.9569 28.4068 61.5739
10461 1 57.0844 5.35847 50.4208
10462 2 56.827 6.26797 50.0944
10463 2 57.4253 5.42503 51.3586
10464 1 13.8385 4.2382 54.647
10465 2 13.135 4.57851 55.2711
10466 2 13.4217 3.62084 53.9798
10467 1 30.1248 4.51332 77.4978
10468 2 29.3957 3.82917 77.4793
10469 2 30.9315 4.12869 77.9464
10470 1 71.2362 17.0888 38.3694
10471 2 70.3135 17.3988 38.1401
10472 2 71.6015 16.543 37.6153
10473 1 41.0495 4.67041 31.7839
10474 2 40.245 4.23171 31.3835
10475 2 41.3569 5.4113 31.1868
10476 1 50.6831 2.56342 48.941
10477 2 51.3151 3.09198 49.5079
10478 2 49.7996 2.49254 49.404
10479 1 34.0194 0.667492 62.9654
10480 2 34.231 0.962044 63.8973
10481 2 33.2925 29.9811 62.9897
10482 1 57.5957 2.59425 71.0686
10483 2 57.9494 3.08191 71.8668
10484 2 56.6067 2.72865 71.0071
10485 1 20.0711 7.88032 52.4806
10486 2 20.3589 7.40309 53.3109
10487 2 19.8212 8.82177 52.7068
10488 1 30.0357 21.6349 57.5894
10489 2 29.8059 22.0771 58.4564
10490 2 30.9741 21.8686 57.3346
10491 1 66.8398 13.712 15.4959
10492 2 65.887 13.9168 15.2718
10493 2 66.983 12.7227 15.4703
10494 1 1.60218 7.99289 24.8578
10495 2 1.3268 8.85963 24.4419
10496 2 0.976762 7.2694 24.5655
10497 1 26.4286 28.8309 74.5143
10498 2 25.6282 28.9365 75.1045
10499 2 27.2545 28.7922 75.0767
10500 1 38.7067 10.3321 47.0694
10501 2 37.7181 10.1947 47.1297
10502 2 39.1765 9.48162 47.306
10503 1 56.3126 23.7988 33.2205
10504 2 55.5621 23.3116 32.7741
10505 2 56.0216 24.099 34.1289
10506 1 71.5106 24.6396 54.5069
10507 2 72.338 24.7431 53.9548
10508 2 70.752 25.1164 54.063
10509 1 69.8359 4.30005 56.8105
10510 2 70.1196 3.3944 57.1256
10511 2 70.6427 4.87796 56.6874
10512 1 43.6053 22.5954 55.8869
10513 2 43.0352 22.6566 56.7063
10514 2 43.7357 23.5093 55.5026
10515 1 4.67906 26.1373 29.0032
10516 2 4.09489 26.6726 28.3932
10517 2 5.63873 26.3405 28.809
10518 1 67.3148 27.5079 81.1005
10519 2 68.0765 28.1073 80.8543
10520 2 67.3114 26.7091 80.4989
10521 1 40.5261 4.69595 37.5025
10522 2 40.3924 5.66563 37.2979
10523 2 41.4485 4.55529 37.8623
10524 1 5.63253 8.32628 44.5503
10525 2 4.93416 8.09931 43.8715
10526 2 5.26468 8.99536 45.1961
10527 1 76.0813 21.2667 20.837
10528 2 75.1651 21.5706 21.0981
10529 2 76.6321 22.0581 20.5722
10530 1 13.2265 14.7567 30.484
10531 2 13.9143 14.2964 29.9228
10532 2 13.6275 15.5729 30.9
10533 1 48.0657 22.7266 37.6275
10534 2 47.5209 22.6103 38.458
10535 2 48.5256 21.8663 37.4074
10536 1 51.5617 23.9434 53.8617
10537 2 50.6825 23.8081 54.3186
10538 2 51.4866 24.6996 53.2116
10539 1 53.8318 12.6376 65.5901
10540 2 53.6432 12.5483 64.6121
10541 2 54.5876 13.2779 65.7266
10542 1 0.505764 4.94235 69.5831
10543 2 0.0162918 5.74069 69.9339
10544 2 79.9902 4.11342 69.8
10545 1 67.7084 26.8847 70.2582
10546 2 68.3038 26.0888 70.3681
10547 2 68.2099 27.6145 69.7936
10548 1 54.8382 23.449 72.4222
10549 2 55.1694 23.4795 73.3653
10550 2 54.5622 24.3666 72.136
10551 1 65.0196 4.01238 23.2439
10552 2 65.9334 3.77851 22.9118
10553 2 64.3322 3.57199 22.6663
10554 1 67.5323 2.83539 44.9016
10555 2 67.0977 3.73396 44.9624
10556 2 68.519 2.9495 44.7857
10557 1 63.34 21.557 75.7408
10558 2 62.4552 21.9835 75.9283
10559 2 63.1957 20.6465 75.3533
10560 1 38.0599 20.3305 84.7854
10561 2 38.464 19.497 85.1622
10562 2 37.4594 20.094 84.0215
10563 1 1.19524 23.1364 22.038
10564 2 1.2496 23.742 21.2441
10565 2 2.11834 22.9192 22.3554
10566 1 69.5826 13.0312 39.2802
10567 2 68.8968 12.408 39.6562
10568 2 70.1855 13.3451 40.0137
10569 1 62.7443 1.08961 49.0763
10570 2 63.3711 0.586274 49.6711
10571 2 62.6627 2.03236 49.3997
10572 1 22.3673 27.131 72.7081
10573 2 22.7645 27.753 73.383
10574 2 22.0681 26.2923 73.1632
10575 1 30.5568 15.3454 74.9492
10576 2 30.8722 14.6623 74.2905
10577 2 31.3363 15.6863 75.4748
10578 1 36.536 2.66752 36.3198
10579 2 37.4298 2.98657 36.0049
10580 2 36.5576 1.67423 36.4334
10581 1 26.6598 9.55651 32.5394
10582 2 26.0558 8.77215 32.6804
10583 2 27.6073 9.2809 32.7015
10584 1 66.6261 21.3922 72.499
10585 2 66.9537 20.4513 72.4135
10586 2 66.7924 21.7198 73.4291
10587 1 52.8455 20.1117 60.0153
10588 2 52.6159 20.9019 59.4471
10589 2 52.2423 20.0879 60.8126
10590 1 10.3792 8.618 13.0668
10591 2 11.3143 8.27906 13.1704
10592 2 9.76908 8.10182 13.6678
10593 1 35.5055 25.3622 80.7613
10594 2 35.5383 25.6966 81.7031
10595 2 36.1281 25.9015 80.1942
10596 1 21.0718 22.314 16.686
10597 2 20.5883 21.8169 15.9656
10598 2 21.419 23.1774 16.3198
10599 1 63.9733 1.89038 18.8872
10600 2 64.4483 2.6482 19.3345
10601 2 63.053 1.80234 19.2684
10602 1 69.1623 14.6555 86.4219
10603 2 69.4468 13.9017 85.8295
10604 2 69.6698 14.6128 87.2825
10605 1 48.5117 17.2368 56.9555
10606 2 48.3209 18.0486 57.5074
10607 2 48.0133 17.297 56.0907
10608 1 37.6103 14.8762 46.3046
10609 2 38.1895 14.5138 45.5744
10610 2 37.8679 15.8234 46.4954
10611 1 74.1874 24.324 43.9335
10612 2 73.5344 23.6822 44.3357
10613 2 73.7339 25.1993 43.7654
10614 1 5.27815 18.9471 11.1023
10615 2 6.21367 19.1567 10.818
10616 2 4.72611 19.7804 11.0726
10617 1 63.688 2.05625 37.6182
10618 2 64.1497 2.8535 37.2294
10619 2 63.0345 2.3557 38.3134
10620 1 79.9646 13.9553 82.0147
10621 2 0.96041 13.9806 81.9267
10622 2 79.6688 14.6608 82.6587
10623 1 27.3679 26.0722 67.1884
10624 2 28.3554 25.9768 67.3139
10625 2 27.0305 26.8219 67.7577
10626 1 17.4276 17.3558 19.2878
10627 2 17.6656 16.5384 19.8125
10628 2 16.8315 17.1012 18.5264
10629 1 14.0501 4.93818 75.6287
10630 2 13.9591 5.53541 76.4256
10631 2 13.1525 4.57298 75.3817
10632 1 1.05341 24.1055 88.0262
10633 2 1.40653 24.9578 88.4119
10634 2 1.8154 23.4903 87.8238
10635 1 63.2096 12.3638 77.5206
10636 2 63.2822 13.2465 77.0563
10637 2 64.1074 12.0964 77.8706
10638 1 6.63955 2.25509 60.1878
10639 2 6.79258 2.49128 61.1473
10640 2 6.03573 1.4599 60.1324
10641 1 52.8036 16.3711 48.5558
10642 2 51.9029 16.0818 48.2317
10643 2 52.9326 16.065 49.499
10644 1 10.5609 27.9032 78.6004
10645 2 10.9052 28.8179 78.8118
10646 2 9.56303 27.9282 78.5404
10647 1 79.6992 10.6624 16.3333
10648 2 0.0436003 11.4875 16.7811
10649 2 0.40397 10.2931 15.7276
10650 1 39.7301 27.4194 89.0247
10651 2 39.8171 28.3833 89.2764
10652 2 40.3841 27.2039 88.2996
10653 1 5.38305 18.4241 66.9458
10654 2 6.35548 18.1957 66.8989
10655 2 5.07365 18.3712 67.8953
10656 1 78.8081 16.7887 12.1007
10657 2 79.5603 16.6817 12.7509
10658 2 78.8643 17.6902 11.6714
10659 1 70.0749 6.33631 88.854
10660 2 69.4845 7.01735 89.2872
10661 2 69.5332 5.53138 88.6118
10662 1 35.9977 10.8419 36.1596
10663 2 36.3955 11.0484 37.0535
10664 2 35.4313 10.0206 36.2286
10665 1 56.1785 8.23628 26.963
10666 2 55.2061 8.14721 26.7475
10667 2 56.6244 7.34648 26.8657
10668 1 21.2748 2.44372 40.3206
10669 2 21.1746 1.46422 40.4953
10670 2 20.4837 2.93095 40.6904
10671 1 25.3155 16.5532 28.0069
10672 2 25.7579 16.8728 27.169
10673 2 25.9866 16.0825 28.5796
10674 1 61.1981 8.21767 52.1985
10675 2 61.0079 9.0634 52.697
10676 2 60.4356 8.01416 51.5843
10677 1 4.56007 20.3907 75.895
10678 2 5.30981 19.8052 75.5867
10679 2 4.82596 20.8559 76.7394
10680 1 40.5021 25.9893 68.0755
10681 2 39.7581 25.3292 68.1788
10682 2 41.3673 25.5012 67.9611
10683 1 18.3076 1.55795 37.2565
10684 2 18.3805 1.7097 38.2423
10685 2 17.5304 0.957473 37.0683
10686 1 42.14 24.9747 90.7442
10687 2 42.4746 24.0636 90.9848
10688 2 41.776 25.4226 91.5608
10689 1 50.8145 13.1995 77.8517
10690 2 51.1497 13.3556 78.7808
10691 2 51.5875 13.013 77.2453
10692 1 18.8822 11.179 67.7864
10693 2 18.9358 12.1772 67.8119
10694 2 19.5573 10.8254 67.1389
10695 1 55.991 3.96097 64.3416
10696 2 54.9979 3.84887 64.3069
10697 2 56.4305 3.06649 64.2593
10698 1 75.2818 14.6908 16.9625
10699 2 74.7052 14.5008 17.7571
10700 2 76.2286 14.8146 17.2596
10701 1 74.6907 22.2718 58.8493
10702 2 75.1598 21.4963 59.2718
10703 2 74.7125 23.0541 59.472
10704 1 11.263 13.0148 63.2323
10705 2 10.5473 13.6573 62.9583
10706 2 11.2006 12.8461 64.216
10707 1 62.2359 29.2819 47.1469
10708 2 61.2898 29.1215 47.4282
10709 2 62.6085 0.0569548 47.6573
10710 1 74.1174 19.1371 26.9529
10711 2 74.2806 18.1736 26.7408
10712 2 73.2645 19.2252 27.4676
10713 1 78.0295 1.07675 58.2822
10714 2 77.1774 0.56015 58.1985
10715 2 78.6726 0.568382 58.8549
10716 1 5.48755 0.51687 79.3355
10717 2 5.8395 29.6167 79.0789
10718 2 6.19622 1.02461 79.8254
10719 1 13.9472 29.5601 74.4818
10720 2 14.6941 28.94 74.242
10721 2 14.1446 0.473263 74.1251
10722 1 31.6258 6.54112 65.5548
10723 2 31.7024 5.55162 65.4322
10724 2 30.9067 6.89631 64.9575
10725 1 24.0478 16.7726 31.4973
10726 2 24.4 17.6793 31.2653
10727 2 24.0154 16.6721 32.4917
10728 1 23.9499 18.4913 26.0158
10729 2 24.7857 18.1843 25.5607
10730 2 23.8295 19.4725 25.8651
10731 1 31.2163 26.7704 44.3248
10732 2 31.6366 26.1756 43.6395
10733 2 31.9204 27.3405 44.7481
10734 1 52.6472 25.6583 48.0036
10735 2 53.1075 26.037 48.8065
10736 2 51.7726 26.1245 47.87
10737 1 18.8572 2.59819 43.0665
10738 2 19.7664 2.22287 43.2465
10739 2 18.4423 2.894 43.9269
10740 1 50.6171 20.3332 25.962
10741 2 50.2333 20.9864 25.3093
10742 2 49.8941 19.7242 26.2883
10743 1 19.7627 6.84798 59.7318
10744 2 20.7187 6.80934 59.4411
10745 2 19.488 7.80244 59.8484
10746 1 4.3517 7.666 50.5781
10747 2 3.94387 8.08485 51.3894
10748 2 5.09359 7.05549 50.8553
10749 1 68.1627 4.7406 79.1951
10750 2 67.3476 4.24271 78.899
10751 2 68.2729 4.64159 80.184
10752 1 24.0299 0.187148 20.2312
10753 2 23.1287 0.589405 20.3923
10754 2 24.444 0.609275 19.4248
10755 1 52.776 25.5012 73.9258
10756 2 53.5132 25.3384 74.5816
10757 2 53.1608 25.8515 73.0719
10758 1 68.7858 24.5048 82.5473
10759 2 69.6205 25.0542 82.5848
10760 2 68.3987 24.4235 83.4657
10761 1 67.7218 12.3776 18.6843
10762 2 67.163 13.1383 18.3541
10763 2 67.9467 12.5229 19.6478
10764 1 10.4489 29.957 41.5179
10765 2 9.85368 0.207229 42.2815
10766 2 11.2979 0.482708 41.5708
10767 1 23.8508 19.0985 64.1312
10768 2 24.3145 19.578 63.3862
10769 2 22.9221 19.4558 64.2305
10770 1 28.8303 13.221 59.6334
10771 2 29.3332 13.6153 60.4025
10772 2 28.1167 13.8575 59.3404
10773 1 60.402 16.7985 23.1569
10774 2 61.3314 17.1259 22.9863
10775 2 60.0008 16.4733 22.3006
10776 1 2.03772 7.96733 37.9877
10777 2 2.3318 7.71422 38.9094
10778 2 1.16955 8.46097 38.0386
10779 1 21.2573 28.8568 84.605
10780 2 20.5039 29.1301 84.007
10781 2 20.9739 28.0768 85.1629
10782 1 47.9212 20.3864 56.0601
10783 2 47.4695 20.7955 56.853
10784 2 48.8674 20.7064 56.0136
10785 1 57.7591 24.7079 61.2928
10786 2 58.6797 24.5541 61.6517
10787 2 57.3862 23.8452 60.951
10788 1 79.7879 21.2952 85.8999
10789 2 79.6175 20.9678 84.9705
10790 2 0.347797 20.6278 86.391
10791 1 0.0650739 13.8896 44.951
10792 2 0.170962 14.1899 45.8989
10793 2 0.439552 12.9679 44.8495
10794 1 71.8356 19.7496 73.851
10795 2 72.403 20.5477 73.6482
10796 2 71.9997 19.4545 74.7922
10797 1 69.2817 3.27649 63.0874
10798 2 68.7309 2.53555 62.7032
10799 2 70.2502 3.0945 62.9173
10800 1 59.096 2.09251 66.4707
10801 2 58.2187 1.66641 66.6918
10802 2 59.8041 1.38857 66.4162
10803 1 21.1898 23.6253 13.1331
10804 2 21.5873 22.8007 12.7305
10805 2 21.8896 24.1114 13.6564
10806 1 75.7474 16.0884 11.9347
10807 2 75.7663 15.9139 12.9192
10808 2 76.6808 16.076 11.576
10809 1 19.2318 10.3088 49.5651
10810 2 19.0874 10.7625 48.6857
10811 2 20.2096 10.1491 49.7012
10812 1 59.29 21.9269 41.053
10813 2 59.0549 22.889 41.1917
10814 2 58.9894 21.393 41.8433
10815 1 37.3303 16.7877 76.6215
10816 2 37.3776 17.5119 77.3094
10817 2 38.248 16.6003 76.2712
10818 1 7.8069 13.7194 67.546
10819 2 6.92897 13.4752 67.9578
10820 2 8.5382 13.5817 68.214
10821 1 70.7518 13.9103 29.5642
10822 2 71.5067 14.511 29.3012
10823 2 70.0452 13.9337 28.8569
10824 1 65.6079 26.8038 88.023
10825 2 66.4271 26.3332 88.3506
10826 2 65.7501 27.1027 87.0794
10827 1 55.9003 16.4843 63.6564
10828 2 55.5547 16.3661 62.7255
10829 2 56.74 15.9534 63.7702
10830 1 20.9465 1.41276 15.8259
10831 2 21.2032 0.603656 15.2973
10832 2 21.0194 1.20985 16.8024
10833 1 47.8989 10.164 31.0318
10834 2 47.6375 9.6283 30.2288
10835 2 48.1143 11.0997 30.7525
10836 1 22.5939 12.5763 78.1855
10837 2 23.3062 13.1266 78.6209
10838 2 21.7117 13.0376 78.2802
10839 1 27.8666 21.5542 85.6469
10840 2 27.0462 21.4708 85.0812
10841 2 28.2815 22.4525 85.5019
10842 1 26.2551 18.1898 69.8396
10843 2 26.8183 18.8503 70.336
10844 2 26.8402 17.6198 69.2627
10845 1 65.0025 23.2465 76.9949
10846 2 64.873 24.1594 76.6078
10847 2 64.3317 22.6188 76.5997
10848 1 40.9663 20.347 56.9231
10849 2 41.2637 21.1261 57.4749
10850 2 41.7651 19.8979 56.5229
10851 1 62.5703 26.65 66.7871
10852 2 62.3177 25.7974 67.2445
10853 2 62.4824 26.5361 65.7975
10854 1 33.1597 1.17331 38.6806
10855 2 33.9442 0.98808 38.0888
10856 2 33.2996 0.732356 39.5672
10857 1 3.41133 15.6589 49.9826
10858 2 3.56751 16.5152 49.4903
10859 2 4.2899 15.2288 50.1903
10860 1 55.1077 23.1888 81.9347
10861 2 55.2736 23.2226 82.9203
10862 2 55.2649 22.259 81.6019
10863 1 56.8002 9.74975 33.4141
10864 2 57.7189 10.0111 33.1179
10865 2 56.1287 10.3616 32.9961
10866 1 74.4503 13.1233 63.0445
10867 2 74.0976 12.5248 63.7638
10868 2 73.7648 13.2166 62.3224
10869 1 14.3761 23.4088 32.0982
10870 2 14.54 24.3902 32.198
10871 2 15.0731 22.9012 32.6047
10872 1 13.8922 13.4165 18.8531
10873 2 14.119 13.1584 17.914
10874 2 13.7832 14.409 18.909
10875 1 78.4529 29.7568 73.7815
10876 2 77.9023 0.52302 74.113
10877 2 78.238 28.9375 74.3131
10878 1 16.1078 24.7457 48.0629
10879 2 16.8744 24.124 48.2235
10880 2 15.5131 24.7561 48.8667
10881 1 69.2075 6.15142 16.1757
10882 2 68.7905 5.74181 15.3643
10883 2 68.663 6.93696 16.4698
10884 1 11.2083 24.484 73.0926
10885 2 12.1265 24.7201 72.7745
10886 2 10.8205 25.2571 73.5946
10887 1 17.4436 20.0935 35.0568
10888 2 17.9991 20.9114 34.9068
10889 2 17.7356 19.6423 35.9002
10890 1 16.0184 19.7945 25.987
10891 2 16.2673 18.9434 25.5248
10892 2 16.2473 19.7257 26.9581
10893 1 15.2418 7.42661 84.2974
10894 2 14.6745 7.06671 83.5566
10895 2 15.1583 6.83457 85.0989
10896 1 42.0502 4.83087 60.432
10897 2 41.2714 4.20876 60.512
10898 2 42.9004 4.31741 60.5488
10899 1 58.4641 18.3156 18.6577
10900 2 58.3787 17.7951 17.8081
10901 2 59.0113 17.7956 19.3136
10902 1 27.7243 4.42913 68.2269
10903 2 27.0438 4.98449 67.7489
10904 2 27.4055 3.48272 68.2786
10905 1 53.4684 26.815 58.1987
10906 2 54.4586 26.95 58.1626
10907 2 53.0742 27.4215 58.8892
10908 1 15.3054 10.2445 86.2617
10909 2 15.7594 11.1353 86.2795
10910 2 14.4735 10.3053 85.7101
10911 1 15.8197 17.9328 37.3765
10912 2 15.8947 17.0696 37.8758
10913 2 16.4885 18.5842 37.7346
10914 1 62.7034 25.3189 70.1496
10915 2 63.017 24.7309 69.4041
10916 2 62.914 24.8866 71.0263
10917 1 29.9056 11.3224 63.9141
10918 2 30.1573 11.5578 64.8528
10919 2 30.6965 11.449 63.3153
10920 1 73.9829 6.18645 50.3427
10921 2 73.2259 6.82053 50.1851
10922 2 74.4636 6.02058 49.4817
10923 1 74.4815 2.62222 90.4177
10924 2 73.6084 3.01965 90.7001
10925 2 75.044 3.32676 89.985
10926 1 33.884 15.6926 73.5884
10927 2 33.3125 15.0558 74.106
10928 2 34.3586 16.3044 74.2212
10929 1 41.3373 7.1247 54.7989
10930 2 41.5791 6.17708 55.0076
10931 2 41.8919 7.44922 54.0327
10932 1 66.3811 6.75176 58.3521
10933 2 66.1725 7.03335 59.2886
10934 2 67.3712 6.66218 58.2436
10935 1 52.0594 1.49656 88.6593
10936 2 52.2438 0.546274 88.9102
10937 2 51.3519 1.8686 89.2602
10938 1 59.4386 7.30672 27.4945
10939 2 59.2218 6.68124 26.745
10940 2 60.3403 7.08344 27.8646
10941 1 75.0504 6.93362 84.0022
10942 2 75.3213 7.85971 84.2649
10943 2 75.0135 6.86732 83.0051
10944 1 16.5498 21.7184 22.7314
10945 2 16.8125 22.152 23.5935
10946 2 16.9106 22.2521 21.9665
10947 1 2.99165 28.7593 61.9323
10948 2 2.84221 28.4252 62.863
10949 2 2.50547 28.172 61.2853
10950 1 72.1601 6.86121 58.2397
10951 2 72.4934 7.44786 57.5017
10952 2 71.5006 7.3672 58.7957
10953 1 9.95112 21.7639 45.9571
10954 2 10.8219 21.4433 46.3299
10955 2 9.19753 21.316 46.4383
10956 1 54.2777 11.8551 37.9143
10957 2 55.2496 11.989 38.1078
10958 2 53.8249 11.4823 38.7242
10959 1 20.2308 22.0038 24.8717
10960 2 20.8468 21.3343 25.2867
10961 2 19.8245 22.5717 25.5876
10962 1 55.8244 25.7664 26.8638
10963 2 56.7423 26.1446 26.9838
10964 2 55.8343 25.0965 26.1214
10965 1 67.1656 28.0215 18.7284
10966 2 67.0387 27.6251 17.8191
10967 2 67.6771 27.382 19.3024
10968 1 3.26739 17.1243 26.2489
10969 2 3.16318 17.7873 26.9903
10970 2 3.48276 16.2263 26.6326
10971 1 56.2384 26.2029 42.5579
10972 2 56.9545 26.8124 42.2178
10973 2 56.196 25.3854 41.9835
10974 1 17.7124 7.83536 47.1554
10975 2 16.8069 7.62376 47.5232
10976 2 17.8538 8.82526 47.1667
10977 1 29.5241 28.9935 31.9472
10978 2 29.4773 29.6715 32.6808
10979 2 30.3183 29.1818 31.3694
10980 1 62.9785 7.58342 59.0043
10981 2 63.4267 7.74632 59.8833
10982 2 62.0835 7.16517 59.159
10983 1 41.3223 14.6179 68.3682
10984 2 41.174 15.5664 68.6483
10985 2 41.1444 14.5281 67.3883
10986 1 28.0949 13.7421 25.7827
10987 2 27.7175 13.9909 26.6747
10988 2 27.6172 14.2494 25.0654
10989 1 19.5132 22.857 83.5524
10990 2 19.1486 23.7707 83.7318
10991 2 19.1147 22.2062 84.1986
10992 1 14.6942 20.9376 62.7127
10993 2 14.027 21.303 63.3618
10994 2 14.7903 19.9521 62.8529
10995 1 76.3854 16.9215 83.9076
10996 2 75.8828 16.1365 84.2695
10997 2 75.7401 17.6413 83.6516
10998 1 14.2592 12.2697 67.5781
10999 2 14.7624 11.4586 67.2798
11000 2 14.8239 13.0828 67.4368
11001 1 73.7774 1.05613 61.6759
11002 2 74.118 1.9843 61.526
11003 2 72.7774 1.06509 61.6826
11004 1 60.9171 8.52999 57.0239
11005 2 60.5317 8.07668 57.8276
11006 2 61.9101 8.4115 57.0185
11007 1 0.390423 10.3322 24.0502
11008 2 79.5688 10.2102 23.4934
11009 2 0.393035 11.2516 24.4435
11010 1 11.0876 7.26963 10.524
11011 2 10.8289 6.36393 10.8598
11012 2 12.0288 7.46972 10.7963
11013 1 71.3329 2.15926 31.4143
11014 2 72.0294 2.5394 30.8057
11015 2 71.7039 1.36015 31.8874
11016 1 71.3549 7.89298 33.6299
11017 2 71.6542 6.94723 33.5034
11018 2 70.4324 8.00297 33.26
11019 1 4.51082 21.8357 52.9237
11020 2 5.20912 21.2269 53.3001
11021 2 3.68526 21.7837 53.4856
11022 1 59.7848 19.4471 60.2498
11023 2 58.9288 19.8423 59.9165
11024 2 60.4979 19.5656 59.5588
11025 1 67.3743 9.72533 65.1403
11026 2 68.1001 9.76275 65.8273
11027 2 67.7344 10.029 64.2582
11028 1 8.45126 1.09294 27.7252
11029 2 9.40259 0.945241 27.9957
11030 2 8.31108 0.747419 26.7973
11031 1 70.387 14.7348 70.0521
11032 2 69.9145 13.9947 70.5306
11033 2 71.3003 14.4285 69.7836
11034 1 19.674 7.76819 71.7235
11035 2 19.89 8.39349 72.4734
11036 2 18.7605 7.38553 71.8612
11037 1 65.1737 9.53622 60.7548
11038 2 64.6887 8.92553 61.3808
11039 2 65.8504 9.01334 60.2365
11040 1 45.5226 27.6068 64.1942
11041 2 45.216 28.0213 63.3373
11042 2 46.2358 26.9327 64.0019
11043 1 13.6376 4.69521 36.4396
11044 2 13.4694 4.61823 37.4223
11045 2 12.916 4.21638 35.9394
11046 1 78.8946 25.0242 83.7364
11047 2 79.7364 24.485 83.7607
11048 2 78.5607 25.0788 82.7954
11049 1 49.5603 20.204 75.6609
11050 2 50.3276 19.596 75.8647
11051 2 49.5802 20.986 76.2839
11052 1 78.9188 9.34535 33.0325
11053 2 79.0711 10.2018 32.5393
11054 2 79.6944 9.16706 33.6382
11055 1 66.9282 4.77627 36.7295
11056 2 66.4907 4.32916 37.5097
11057 2 67.6253 5.41344 37.0583
11058 1 20.6819 15.973 75.4616
11059 2 21.5616 15.9853 75.9369
11060 2 20.3011 15.0487 75.4891
11061 1 79.5653 25.3512 54.4918
11062 2 0.0554618 24.9772 55.2791
11063 2 79.8942 24.9128 53.6554
11064 1 22.7755 16.6 42.8187
11065 2 23.1352 15.7412 43.1835
11066 2 21.9136 16.8209 43.275
11067 1 20.3976 17.0109 17.4647
11068 2 20.3676 16.0763 17.1104
11069 2 21.3372 17.3513 17.428
11070 1 38.048 28.4349 70.9693
11071 2 37.0827 28.5754 71.1893
11072 2 38.2483 27.4552 70.9588
11073 1 62.1552 22.5661 24.1597
11074 2 62.5357 21.8696 24.7679
11075 2 62.6011 23.4434 24.3374
11076 1 17.0682 12.9195 43.7276
11077 2 17.1137 12.4842 42.8285
11078 2 16.5697 13.7833 43.655
11079 1 55.4914 12.5222 83.5889
11080 2 55.2162 12.6156 82.6321
11081 2 56.3613 12.9939 83.7331
11082 1 8.88195 3.18891 21.2258
11083 2 8.00669 3.40889 21.6565
11084 2 9.62952 3.51312 21.8054
11085 1 16.2703 23.7109 81.1949
11086 2 15.4114 23.9665 80.7511
11087 2 16.1167 22.9204 81.7878
11088 1 45.4027 0.992872 68.6401
11089 2 46.3873 1.16411 68.6046
11090 2 44.9247 1.84149 68.8669
11091 1 64.4813 2.04495 42.4117
11092 2 63.8782 1.27756 42.1942
11093 2 64.0259 2.90375 42.177
11094 1 45.366 21.0486 48.7971
11095 2 44.6809 21.2202 48.0891
11096 2 46.2088 20.7181 48.3722
11097 1 32.4602 25.6506 34.4303
11098 2 33.0726 25.6892 33.6407
11099 2 32.7022 26.3751 35.0756
11100 1 65.8349 3.75841 40.4902
11101 2 65.7257 3.1356 41.265
11102 2 64.9416 3.93677 40.0775
11103 1 62.1684 12.5734 19.1105
11104 2 61.3773 12.6947 19.7101
11105 2 62.222 13.3399 18.4704
11106 1 56.4324 12.863 36.036
11107 2 55.8685 12.6029 36.8198
11108 2 56.8658 13.7461 36.2155
11109 1 62.343 0.574666 13.6294
11110 2 62.1735 1.40208 13.094
11111 2 61.8742 29.8005 13.204
11112 1 19.0631 6.99247 75.3092
11113 2 19.1324 7.92018 74.9424
11114 2 19.2655 7.00524 76.2884
11115 1 22.5662 1.04845 48.1679
11116 2 22.7368 0.816803 47.2102
11117 2 23.2727 0.634516 48.742
11118 1 57.5773 29.2467 65.2807
11119 2 57.9121 29.5444 64.3867
11120 2 57.5601 28.2474 65.3142
11121 1 39.262 10.4103 56.5324
11122 2 39.42 11.3618 56.2686
11123 2 39.357 9.82169 55.7295
11124 1 33.9687 10.1938 57.7082
11125 2 33.783 11.1301 57.4101
11126 2 33.1759 9.61744 57.5099
11127 1 12.317 24.3566 46.2468
11128 2 13.2328 24.057 45.9792
11129 2 11.8194 23.5883 46.6495
11130 1 30.0002 14.0899 61.9695
11131 2 29.7482 14.2825 62.9178
11132 2 30.8391 14.5838 61.7406
11133 1 23.0149 11.4487 88.2559
11134 2 23.229 10.4744 88.1858
11135 2 22.0502 11.5617 88.4937
11136 1 58.2722 6.08477 34.5641
11137 2 58.2928 5.65623 33.6608
11138 2 58.2124 5.37667 35.2677
11139 1 77.4259 24.1781 37.5223
11140 2 77.5664 25.0002 38.074
11141 2 77.7243 24.3516 36.5837
11142 1 20.0957 21.814 80.6249
11143 2 19.7563 22.3481 81.3992
11144 2 19.5363 20.9923 80.5159
11145 1 61.9815 19.5466 73.9928
11146 2 62.2045 18.6765 74.4325
11147 2 61.2918 20.0267 74.5348
11148 1 50.9994 7.59199 73.2751
11149 2 50.0397 7.60996 72.9948
11150 2 51.5822 7.75537 72.4791
11151 1 36.1819 1.6057 52.9455
11152 2 35.7185 0.959817 52.3388
11153 2 35.905 2.53821 52.7137
11154 1 59.7801 22.4706 73.4961
11155 2 59.9161 23.3179 72.9828
11156 2 60.2194 22.5489 74.391
11157 1 29.4195 25.6508 41.1286
11158 2 30.0691 25.0821 41.6333
11159 2 29.1556 25.1856 40.2837
11160 1 10.5826 21.1275 80.5556
11161 2 9.96139 21.4781 79.8548
11162 2 10.6286 20.1306 80.4918
11163 1 8.12491 0.55378 35.7043
11164 2 8.77658 29.9932 36.2152
11165 2 7.23601 0.532058 36.1619
11166 1 78.7905 5.87647 76.0185
11167 2 79.3137 5.57339 76.815
11168 2 79.4193 6.12801 75.2827
11169 1 20.2292 1.84173 76.0836
11170 2 19.7816 2.73429 76.0287
11171 2 19.7386 1.26228 76.7344
11172 1 52.0258 28.4459 34.7376
11173 2 51.7927 29.4141 34.8286
11174 2 51.3559 27.8937 35.234
11175 1 36.0429 17.7956 84.4939
11176 2 35.9354 18.2849 85.3593
11177 2 36.0503 18.4514 83.7389
11178 1 78.3113 13.9317 17.9218
11179 2 78.5822 14.8855 18.0522
11180 2 77.6216 13.6851 18.6025
11181 1 78.8441 15.7336 83.6036
11182 2 79.3739 16.3475 84.1889
11183 2 77.9135 16.0865 83.5063
11184 1 54.205 23.6728 52.1472
11185 2 53.532 23.978 51.4734
11186 2 54.7246 22.904 51.7747
11187 1 75.3946 4.36265 61.6971
11188 2 76.3532 4.4969 61.9482
11189 2 75.3289 3.64436 61.0045
11190 1 37.7279 25.0298 52.4586
11191 2 37.9596 25.6827 53.1797
11192 2 37.7613 24.1007 52.8269
11193 1 53.7746 4.09593 72.7367
11194 2 53.7247 4.90808 73.318
11195 2 53.9295 3.28805 73.3054
11196 1 53.0571 4.90445 25.7731
11197 2 53.211 5.7066 26.35
11198 2 52.1942 5.01001 25.2789
11199 1 59.019 26.927 42.8827
11200 2 58.94 27.7261 42.2867
11201 2 58.7829 26.1027 42.3681
11202 1 2.2453 5.05863 67.5297
11203 2 1.83715 4.39947 66.8981
11204 2 1.79829 4.98672 68.4213
11205 1 11.0867 4.29401 62.0236
11206 2 11.6982 4.28865 61.2324
11207 2 11.4475 3.68247 62.7278
11208 1 45.2143 5.98643 79.5541
11209 2 44.5814 6.41189 80.201
11210 2 46.0241 5.66318 80.0437
11211 1 63.8644 14.039 86.0061
11212 2 63.326 13.6095 86.7311
11213 2 64.7479 13.577 85.9287
11214 1 4.57025 7.55437 81.7697
11215 2 5.07064 8.40292 81.5978
11216 2 4.89752 6.84262 81.1482
11217 1 72.9108 11.8389 89.316
11218 2 72.5634 12.5961 89.8692
11219 2 73.1775 11.0836 89.9148
11220 1 69.0676 7.97044 51.6409
11221 2 69.2015 8.94995 51.7913
11222 2 69.0412 7.78454 50.6587
11223 1 64.1761 28.236 17.5797
11224 2 64.5907 27.4912 17.0568
11225 2 64.8924 28.8522 17.9073
11226 1 51.6642 23.8545 80.736
11227 2 51.9248 23.0792 81.3112
11228 2 50.6682 23.8886 80.6538
11229 1 56.5732 6.93232 56.3785
11230 2 56.2835 7.66699 56.9919
11231 2 56.1649 7.07096 55.4762
11232 1 0.483229 12.6796 26.3077
11233 2 0.672491 12.9956 27.2374
11234 2 1.24425 12.9299 25.7092
11235 1 73.343 7.94316 60.8389
11236 2 72.3892 8.01851 61.1299
11237 2 73.9182 7.74051 61.6314
11238 1 13.1456 15.4501 89.7875
11239 2 12.7971 15.1168 88.9114
11240 2 14.0264 15.0182 89.9818
11241 1 26.3943 11.7557 26.8639
11242 2 27.0916 12.2913 26.3874
11243 2 25.8421 12.3618 27.4364
11244 1 66.3557 23.49 42.975
11245 2 66.5295 23.0191 42.1101
11246 2 66.3615 24.4784 42.8234
11247 1 4.90898 23.8601 65.4069
11248 2 5.24725 24.6791 64.9434
11249 2 4.42106 24.1253 66.2385
11250 1 59.5776 26.6787 33.3136
11251 2 58.6037 26.8943 33.242
11252 2 60.0181 27.3282 33.9334
11253 1 13.1871 11.2784 15.3551
11254 2 14.0579 11.4787 14.9061
11255 2 12.8671 12.0924 15.8398
11256 1 76.3685 21.3434 83.8608
11257 2 75.9235 22.0834 84.365
11258 2 75.6784 20.6901 83.5494
11259 1 69.2945 0.77856 65.7733
11260 2 68.8731 0.145758 65.1237
11261 2 70.2352 0.967787 65.4919
11262 1 68.0488 18.624 61.5798
11263 2 67.7916 18.6719 62.545
11264 2 67.5295 19.3042 61.0624
11265 1 28.4926 10.3193 48.8226
11266 2 29.3813 10.0071 48.4867
11267 2 28.3967 11.2996 48.6497
11268 1 8.35938 11.1885 47.6278
11269 2 7.38651 11.183 47.8591
11270 2 8.84977 10.563 48.2347
11271 1 76.3278 29.8157 63.8455
11272 2 76.1737 29.6413 64.818
11273 2 76.7417 0.718727 63.7303
11274 1 75.57 11.697 91.0579
11275 2 75.3854 12.5843 90.6353
11276 2 74.8597 11.046 90.7901
11277 1 0.120358 5.66485 45.7518
11278 2 0.763685 5.24308 46.3908
11279 2 0.0756859 5.11925 44.915
11280 1 54.8551 2.44974 83.1745
11281 2 55.8026 2.48683 83.4921
11282 2 54.6584 3.25671 82.6176
11283 1 78.2324 10.7593 63.0894
11284 2 77.9356 10.0745 63.755
11285 2 78.7884 11.4518 63.5491
11286 1 39.1661 28.8104 56.09
11287 2 40.1657 28.8199 56.1161
11288 2 38.8312 29.7122 55.8169
11289 1 6.73995 24.7529 88.2347
11290 2 7.17214 25.6322 88.4345
11291 2 5.81886 24.9078 87.8774
11292 1 11.4062 7.11926 26.138
11293 2 11.1634 6.16537 26.3144
11294 2 10.7805 7.72001 26.6356
11295 1 48.1368 8.26953 57.4651
11296 2 47.3937 8.41507 56.8119
11297 2 49.0001 8.16814 56.9706
11298 1 68.72 16.5677 83.8319
11299 2 69.577 16.0528 83.8527
11300 2 67.9494 15.9312 83.7994
11301 1 52.7506 22.7165 77.4816
11302 2 52.2294 23.1661 78.207
11303 2 53.0675 21.8241 77.8029
11304 1 11.5999 19.8937 87.2916
11305 2 12.2311 19.2221 86.9036
11306 2 10.7467 19.4397 87.5483
11307 1 11.9216 13.5758 13.3679
11308 2 12.4437 13.4516 14.2117
11309 2 12.43 13.1846 12.6008
11310 1 44.1527 11.1266 55.2172
11311 2 45.0283 10.7833 55.5571
11312 2 44.046 10.8734 54.2557
11313 1 57.0831 12.4202 67.0951
11314 2 57.8511 12.4772 66.4572
11315 2 56.5386 13.2569 67.0369
11316 1 0.520459 19.622 80.9296
11317 2 0.782308 20.5826 80.8364
11318 2 0.218357 19.4483 81.8669
11319 1 2.54574 16.3974 45.1065
11320 2 2.76081 17.1166 45.7672
11321 2 1.56464 16.4049 44.9132
11322 1 31.372 3.31667 80.8473
11323 2 32.1699 3.82946 81.1642
11324 2 31.0079 2.76806 81.5999
11325 1 33.1457 12.5182 78.455
11326 2 33.9998 12.5668 78.9729
11327 2 32.3753 12.4475 79.0887
11328 1 43.9077 27.6453 42.3912
11329 2 44.4656 26.9671 42.8695
11330 2 44.1787 28.5635 42.6804
11331 1 29.8278 7.01715 58.9467
11332 2 28.8998 7.2116 58.6289
11333 2 29.7862 6.52617 59.8168
11334 1 50.6279 12.5548 43.459
11335 2 49.8656 12.2215 42.9041
11336 2 50.2903 12.8262 44.3603
11337 1 78.5913 14.4121 25.4896
11338 2 79.3101 13.7295 25.3574
11339 2 78.4399 14.5515 26.4682
11340 1 69.5946 17.6786 33.0755
11341 2 69.2919 18.6133 33.2618
11342 2 70.5031 17.5378 33.4689
11343 1 27.9735 15.5459 78.9504
11344 2 28.439 16.3878 78.6774
11345 2 28.4422 14.76 78.5472
11346 1 3.69386 17.3589 42.7502
11347 2 3.39608 17.2064 43.6926
11348 2 3.3267 16.637 42.1636
11349 1 16.1209 17.2676 90.0783
11350 2 15.8837 16.3218 89.8568
11351 2 17.0138 17.488 89.6857
11352 1 49.1836 11.0741 57.9268
11353 2 48.6219 11.4391 58.6693
11354 2 49.3952 10.114 58.11
11355 1 75.0609 11.4928 43.7525
11356 2 74.2878 12.0036 44.1286
11357 2 75.0684 10.5693 44.1359
11358 1 47.1877 4.13326 58.0219
11359 2 47.8 3.36525 58.2095
11360 2 46.6138 3.91678 57.232
11361 1 6.39742 8.03081 85.8839
11362 2 6.98981 7.23519 86.0106
11363 2 6.80055 8.82291 86.3422
11364 1 66.3656 16.0083 62.0027
11365 2 65.8044 15.7785 61.2076
11366 2 65.8418 16.5924 62.6228
11367 1 31.1365 10.5947 54.5083
11368 2 30.3392 10.8617 55.0496
11369 2 31.3594 9.63756 54.693
11370 1 7.52362 8.51615 25.229
11371 2 6.53214 8.44815 25.1179
11372 2 7.83927 9.39599 24.8737
11373 1 41.9074 22.5882 72.7027
11374 2 41.6583 22.8682 73.6298
11375 2 42.5031 21.7861 72.7455
11376 1 27.1566 7.02383 34.2802
11377 2 26.6463 6.67487 33.4941
11378 2 28.058 6.59199 34.3108
11379 1 27.192 19.8614 63.6554
11380 2 28.0898 19.7081 64.0681
11381 2 26.6248 19.0473 63.7794
11382 1 49.8293 19.7291 52.6586
11383 2 50.2796 20.4747 52.1674
11384 2 48.8387 19.8639 52.6337
11385 1 24.3357 10.5385 25.6701
11386 2 25.2391 10.8397 25.9753
11387 2 23.9426 11.2276 25.0614
11388 1 24.5201 29.4791 76.1183
11389 2 23.5651 29.5925 75.8445
11390 2 24.9257 0.376384 76.2926
11391 1 64.1704 21.0982 42.0055
11392 2 63.4105 21.7283 42.1651
11393 2 64.6055 21.3151 41.1316
11394 1 5.70914 6.35557 83.8019
11395 2 5.75858 6.99514 84.569
11396 2 5.28136 6.80687 83.0187
11397 1 8.1088 13.0619 31.5454
11398 2 7.57854 12.2415 31.3313
11399 2 7.99309 13.7339 30.8139
11400 1 79.5713 23.1684 40.659
11401 2 0.0665162 22.5713 41.29
11402 2 78.5956 23.1482 40.8774
11403 1 30.8834 11.2252 80.485
11404 2 30.0868 11.6894 80.0979
11405 2 30.8032 11.2007 81.4815
11406 1 52.7684 20.038 89.6452
11407 2 52.0111 19.7431 90.2279
11408 2 52.4851 20.0021 88.6868
11409 1 45.8897 6.37296 58.564
11410 2 45.5279 7.12831 58.0176
11411 2 46.3621 5.7254 57.9661
11412 1 45.7618 15.8145 38.6372
11413 2 46.1074 14.8936 38.4572
11414 2 44.7855 15.7687 38.8491
11415 1 44.0177 2.79635 87.6046
11416 2 44.7035 2.80623 86.8769
11417 2 43.3903 3.56533 87.4817
11418 1 1.13664 23.8844 52.5903
11419 2 1.82112 24.0948 53.2884
11420 2 0.753213 22.977 52.7623
11421 1 10.2006 10.8083 33.5313
11422 2 10.9369 10.1399 33.6364
11423 2 9.49534 10.4354 32.9284
11424 1 10.1381 20.2705 71.0908
11425 2 9.28168 19.7601 71.1681
11426 2 10.8961 19.6993 71.4058
11427 1 1.90506 22.2257 80.0217
11428 2 2.36492 22.1491 80.9064
11429 2 0.98575 22.596 80.1548
11430 1 5.37952 12.7558 80.3827
11431 2 5.54211 13.6563 80.7858
11432 2 6.19827 12.1912 80.4869
11433 1 47.9891 12.368 72.6622
11434 2 48.9001 12.5017 72.2721
11435 2 48.0544 11.7782 73.4671
11436 1 53.531 17.6659 71.0269
11437 2 54.1833 17.2455 71.6576
11438 2 52.8418 16.9915 70.7618
11439 1 52.7592 28.1002 32.0257
11440 2 53.7308 28.0106 31.8066
11441 2 52.6414 28.7857 32.7442
11442 1 29.5377 18.6664 69.5167
11443 2 29.5857 17.895 70.1512
11444 2 28.9176 19.3606 69.8823
11445 1 12.6651 15.7075 22.7502
11446 2 12.016 15.0211 23.0781
11447 2 12.7964 15.5982 21.765
11448 1 62.5855 1.57704 66.7835
11449 2 62.3392 2.14779 67.5668
11450 2 61.7726 1.0989 66.4508
11451 1 13.0594 29.2151 32.4983
11452 2 12.9383 29.012 33.4699
11453 2 13.4375 28.4137 32.0348
11454 1 33.8198 25.846 76.7612
11455 2 33.1443 26.5819 76.7154
11456 2 33.671 25.2094 76.0045
11457 1 48.6686 19.5148 73.2084
11458 2 48.973 19.8121 74.1133
11459 2 49.1122 18.6494 72.9752
11460 1 4.70519 24.134 34.4361
11461 2 3.85011 24.6507 34.4791
11462 2 5.12983 24.1162 35.3413
11463 1 69.9798 23.5866 64.4226
11464 2 70.3868 24.4907 64.5528
11465 2 70.2089 23.0027 65.2014
11466 1 22.0456 25.9002 80.35
11467 2 22.3478 25.8877 81.3032
11468 2 21.0673 25.6973 80.3078
11469 1 64.3944 23.0771 36.8967
11470 2 64.7918 22.5567 37.6525
11471 2 63.5694 23.5459 37.2122
11472 1 41.9408 21.2576 48.9812
11473 2 42.5498 21.7878 48.3913
11474 2 42.0045 20.2889 48.7413
11475 1 37.2721 25.2199 74.4802
11476 2 37.2928 25.1039 73.4871
11477 2 37.5424 24.3643 74.9214
11478 1 60.4571 12.5937 49.2559
11479 2 60.819 11.8934 48.6406
11480 2 59.7178 13.0886 48.7993
11481 1 39.2584 1.26904 54.9339
11482 2 38.387 1.54768 54.5301
11483 2 39.9244 2.00808 54.8322
11484 1 59.6353 27.5958 83.2959
11485 2 59.2802 28.5306 83.292
11486 2 59.1063 27.0409 83.938
11487 1 35.5466 29.2723 33.2684
11488 2 36.2876 28.7107 32.9003
11489 2 35.7566 0.238957 33.1216
11490 1 76.3464 10.4907 75.497
11491 2 77.1843 10.2379 75.9808
11492 2 75.5595 10.0772 75.9549
11493 1 64.4634 26.4955 35.7269
11494 2 63.5881 26.0158 35.6669
11495 2 64.6855 26.665 36.6871
11496 1 22.8376 20.8117 85.682
11497 2 22.0322 21.0408 86.2288
11498 2 23.6251 20.6857 86.2852
11499 1 17.6849 9.86301 44.7828
11500 2 18.4892 10.219 44.307
11501 2 17.3001 10.5773 45.3674
11502 1 62.2975 5.32393 51.9184
11503 2 61.3117 5.27604 52.0795
11504 2 62.4923 6.04779 51.2565
11505 1 46.1885 20.086 71.9304
11506 2 46.66 20.9668 71.8876
11507 2 46.8528 19.3608 72.1113
11508 1 38.9044 22.487 58.9342
11509 2 38.5295 21.7503 59.497
11510 2 39.4283 23.1136 59.5112
11511 1 22.8188 7.57306 68.5555
11512 2 22.8759 7.4853 69.55
11513 2 22.2068 8.3287 68.3221
11514 1 38.1455 29.1821 60.2915
11515 2 37.6466 28.9184 59.4659
11516 2 39.093 29.3966 60.0542
11517 1 48.6643 21.0556 82.8732
11518 2 49.3662 21.7536 83.0153
11519 2 49.0891 20.1504 82.876
11520 1 56.3588 14.3258 60.1192
11521 2 56.2555 15.3077 60.2781
11522 2 55.6493 14.0139 59.4873
11523 1 49.0009 25.447 86.4627
11524 2 49.8344 24.9454 86.2312
11525 2 48.3969 24.8594 87.0011
11526 1 67.7156 22.8958 33.6146
11527 2 67.6095 23.7599 34.1067
11528 2 67.9165 23.0825 32.6529
11529 1 53.0219 17.0348 38.3331
11530 2 53.8088 17.115 38.9449
11531 2 53.1246 16.2197 37.763
11532 1 7.68131 9.79757 51.3995
11533 2 6.91641 9.85805 52.0408
11534 2 7.38614 9.31842 50.5728
11535 1 10.2215 21.9357 18.2981
11536 2 10.8055 21.5684 17.5742
11537 2 9.44236 21.325 18.4397
11538 1 66.9285 19.2935 55.9148
11539 2 67.7236 18.7452 56.1739
11540 2 66.838 20.0669 56.5423
11541 1 40.6521 29.9826 46.312
11542 2 40.0307 29.6127 45.6213
11543 2 40.6345 0.98176 46.2754
11544 1 55.7315 19.1778 83.2083
11545 2 54.7878 19.4621 83.3772
11546 2 56.2488 19.9462 82.8317
11547 1 69.8618 2.22723 36.584
11548 2 69.8889 3.05824 36.0284
11549 2 68.9114 1.94608 36.7169
11550 1 13.1189 14.5008 85.1219
11551 2 12.7492 14.3506 84.2049
11552 2 12.4713 14.1582 85.8025
11553 1 1.85449 7.53231 41.235
11554 2 2.31141 6.78549 41.7182
11555 2 0.889167 7.30497 41.1066
11556 1 2.60064 18.3503 89.0473
11557 2 2.34816 18.9369 88.2777
11558 2 2.66714 17.4023 88.736
11559 1 12.8728 12.5019 37.9042
11560 2 13.5711 13.071 38.3384
11561 2 12.6684 11.7188 38.4916
11562 1 30.5379 10.921 90.679
11563 2 29.7656 10.3586 90.9745
11564 2 30.702 10.7757 89.7033
11565 1 45.2975 13.9913 53.9012
11566 2 44.9045 13.1158 54.1823
11567 2 46.1987 13.8375 53.4959
11568 1 24.8779 29.8353 78.7038
11569 2 24.141 0.334765 79.1592
11570 2 24.5559 29.5002 77.8184
11571 1 8.72982 20.8457 21.6031
11572 2 9.25386 21.6224 21.2536
11573 2 8.56724 20.1932 20.863
11574 1 43.4814 15.5818 73.7172
11575 2 43.8878 16.0778 72.9498
11576 2 44.1259 14.8918 74.0468
11577 1 36.0883 11.1781 90.914
11578 2 35.7538 10.3731 91.404
11579 2 37.0856 11.1394 90.8509
11580 1 61.1927 1.50477 30.0819
11581 2 61.9171 1.06408 30.6121
11582 2 61.5901 2.21459 29.5003
11583 1 23.402 8.8769 31.603
11584 2 23.3126 9.7043 32.1575
11585 2 23.522 8.08543 32.2023
11586 1 18.7668 11.954 80.0165
11587 2 18.3189 11.0727 79.8657
11588 2 18.4892 12.5956 79.3015
11589 1 63.5274 20.0219 29.3675
11590 2 63.7359 20.6979 30.0742
11591 2 64.0321 19.1788 29.5534
11592 1 14.8801 17.2136 34.937
11593 2 15.4862 17.417 35.7059
11594 2 14.2032 16.5329 35.2171
11595 1 34.9356 25.1765 48.3061
11596 2 35.0437 25.6487 49.1809
11597 2 35.4758 24.335 48.3126
11598 1 43.3102 14.675 32.7275
11599 2 42.5152 14.1991 33.1036
11600 2 44.1182 14.0916 32.8112
11601 1 10.1186 23.1752 20.8356
11602 2 11.0861 23.2477 21.078
11603 2 10.0299 22.7145 19.9526
11604 1 13.8541 6.66055 42.0532
11605 2 13.3642 7.41457 42.4908
11606 2 13.5853 5.79667 42.4792
11607 1 76.5496 20.6322 64.5857
11608 2 76.0579 21.4357 64.2501
11609 2 75.9934 20.1639 65.2722
11610 1 68.5577 23.3383 57.4669
11611 2 67.8972 23.9463 57.9074
11612 2 68.1745 22.4165 57.4081
11613 1 20.7836 3.24406 30.5568
11614 2 21.32 2.43007 30.334
11615 2 21.4004 4.00004 30.776
11616 1 48.363 5.50042 54.5506
11617 2 49.018 4.76644 54.3708
11618 2 48.8406 6.2828 54.9503
11619 1 35.7189 26.052 55.5278
11620 2 35.3203 25.6059 56.3291
11621 2 35.1576 26.8386 55.2706
11622 1 48.2151 4.67024 31.689
11623 2 47.9301 3.71258 31.7298
11624 2 48.6374 4.92957 32.5576
11625 1 68.424 25.0906 85.5034
11626 2 68.4745 26.0551 85.7626
11627 2 68.8434 24.5311 86.2183
11628 1 13.6395 3.60393 15.0045
11629 2 12.9187 3.68668 14.3163
11630 2 13.5869 4.37691 15.6368
11631 1 26.9939 15.6689 72.8341
11632 2 26.097 15.6308 72.3935
11633 2 26.9197 15.3278 73.7712
11634 1 24.5252 0.14094 37.5488
11635 2 25.5083 0.113151 37.73
11636 2 24.362 29.9966 36.5729
11637 1 10.8536 23.3666 88.8064
11638 2 10.9049 23.9253 87.9785
11639 2 11.6814 23.5011 89.3511
11640 1 27.2596 0.881987 68.0231
11641 2 26.9939 29.9234 67.9209
11642 2 26.5358 1.46894 67.6604
11643 1 52.7844 5.80688 54.0025
11644 2 53.417 6.5545 54.2047
11645 2 53.2864 4.94233 53.98
11646 1 27.0557 24.5656 75.8877
11647 2 26.2671 23.9551 75.9607
11648 2 26.9436 25.3319 76.5202
11649 1 14.6904 4.23016 10.7402
11650 2 15.4484 3.86324 11.2795
11651 2 14.4156 3.55893 10.0518
11652 1 59.5878 0.974169 43.4131
11653 2 60.5711 0.923692 43.2382
11654 2 59.4118 1.64171 44.1366
11655 1 28.49 14.1343 51.765
11656 2 29.0049 14.1082 52.6219
11657 2 28.828 14.8837 51.1957
11658 1 0.608284 4.73559 20.6483
11659 2 1.58519 4.5484 20.7513
11660 2 0.481947 5.66282 20.2957
11661 1 7.17118 2.47692 65.2198
11662 2 7.85334 1.90471 65.6751
11663 2 7.60993 3.30518 64.8713
11664 1 24.2962 11.0168 67.9459
11665 2 24.9742 10.3904 68.3304
11666 2 23.4563 10.5142 67.7414
11667 1 29.0871 12.3928 76.6449
11668 2 28.3205 12.162 77.2441
11669 2 29.8156 12.8159 77.1836
11670 1 68.5571 0.293332 15.8834
11671 2 68.9915 1.13833 15.5715
11672 2 68.6591 29.5877 15.1822
11673 1 40.5821 18.5108 75.8086
11674 2 39.7116 18.7173 75.3619
11675 2 40.4384 18.4231 76.7944
11676 1 25.7513 27.9453 55.2729
11677 2 25.3544 27.0503 55.0693
11678 2 26.7488 27.8741 55.2784
11679 1 26.5457 22.3449 62.3555
11680 2 26.9075 21.6329 62.9573
11681 2 26.7519 23.244 62.7416
11682 1 72.5789 12.5623 14.9473
11683 2 73.2598 11.8463 14.793
11684 2 71.9322 12.5772 14.1847
11685 1 7.10555 11.9244 90.9915
11686 2 7.24501 12.4485 91.8317
11687 2 7.90097 12.0327 90.3952
11688 1 30.9091 9.09545 33.3739
11689 2 31.0398 10.0856 33.3229
11690 2 31.7932 8.63733 33.2811
11691 1 78.394 10.5848 87.9245
11692 2 77.408 10.7424 87.9787
11693 2 78.5997 10.0355 87.1146
11694 1 59.6005 24.1559 83.256
11695 2 60.5596 23.9412 83.4401
11696 2 59.4102 25.0973 83.5346
11697 1 51.3493 28.0832 55.5508
11698 2 51.1657 28.999 55.1935
11699 2 50.7432 27.4241 55.1056
11700 1 1.91263 11.7538 31.486
11701 2 1.00139 11.7326 31.8973
11702 2 1.8398 11.5736 30.505
11703 1 3.57021 27.6332 80.7273
11704 2 3.38148 26.725 81.1006
11705 2 2.71514 28.1458 80.6493
11706 1 57.6302 16.2775 45.4839
11707 2 58.1577 16.3891 46.3261
11708 2 58.2078 15.8617 44.7814
11709 1 3.79582 6.13868 54.7442
11710 2 3.71823 6.90438 54.1057
11711 2 2.92072 5.65747 54.7955
11712 1 35.6703 0.789736 76.7624
11713 2 35.5319 29.8803 77.1546
11714 2 36.3462 1.28772 77.3056
11715 1 49.9146 22.5294 76.7778
11716 2 49.5307 23.4101 77.0552
11717 2 50.8742 22.4819 77.055
11718 1 43.7368 23.8848 78.115
11719 2 43.1157 24.6549 77.9696
11720 2 43.207 23.0671 78.3399
11721 1 1.0045 2.47688 30.8131
11722 2 0.965351 2.68283 31.7909
11723 2 0.946022 1.48774 30.6782
11724 1 36.5866 7.15371 35.4026
11725 2 36.0611 6.78468 36.1692
11726 2 36.5999 6.48802 34.6565
11727 1 75.0642 1.39734 51.8917
11728 2 74.5897 2.21959 52.2059
11729 2 75.964 1.34558 52.3249
11730 1 23.7869 28.8698 40.3055
11731 2 24.1895 29.017 39.402
11732 2 23.613 27.894 40.4378
11733 1 2.91064 15.8125 68.5054
11734 2 2.55409 16.1774 69.3654
11735 2 2.32314 15.067 68.1906
11736 1 10.0009 29.9184 90.4175
11737 2 9.6808 0.784468 90.0335
11738 2 9.94657 29.2041 89.7198
11739 1 51.1263 5.18515 81.8051
11740 2 51.7305 5.05996 82.592
11741 2 51.0119 4.3124 81.3305
11742 1 30.7579 26.8918 72.9494
11743 2 30.4221 27.0796 73.8725
11744 2 31.6673 26.4794 73.003
11745 1 38.6612 14.6687 71.9308
11746 2 39.5525 14.909 72.3152
11747 2 38.083 14.2793 72.6478
11748 1 46.3829 7.77312 29.0646
11749 2 45.8674 8.08513 29.8626
11750 2 45.7469 7.48875 28.3472
11751 1 75.3285 12.6659 67.1828
11752 2 74.9782 12.4938 66.262
11753 2 75.7883 11.8457 67.5231
11754 1 67.7275 1.7283 12.3173
11755 2 68.1617 1.88259 13.2048
11756 2 66.7336 1.76049 12.4224
11757 1 56.7497 21.7991 84.6518
11758 2 56.0971 21.0414 84.6462
11759 2 57.0203 22.0128 83.7131
11760 1 28.2347 17.2031 39.7193
11761 2 28.3483 17.1163 40.709
11762 2 29.1308 17.1701 39.2767
11763 1 39.2619 10.7217 29.4319
11764 2 39.3317 9.72919 29.5321
11765 2 38.3302 11.0138 29.6482
11766 1 62.0748 24.6605 76.8855
11767 2 62.7495 24.8329 76.1679
11768 2 61.4205 23.9732 76.5698
11769 1 18.1962 22.5976 48.7152
11770 2 18.2042 21.6399 48.4275
11771 2 18.9826 23.0713 48.3187
11772 1 78.9019 12.4772 21.4165
11773 2 78.3635 11.6519 21.5867
11774 2 79.8398 12.221 21.1828
11775 1 72.7933 12.7094 25.9457
11776 2 72.8416 13.6984 26.0852
11777 2 73.3031 12.4638 25.1212
11778 1 25.2457 10.0549 70.7866
11779 2 24.6575 9.5394 71.4098
11780 2 25.3259 9.56233 69.92
11781 1 16.9247 10.4966 12.2306
11782 2 17.362 11.1768 11.6424
11783 2 16.8105 9.64196 11.7241
11784 1 20.9171 22.6289 32.468
11785 2 21.0473 23.2023 33.2768
11786 2 20.9119 21.6664 32.7391
11787 1 2.09175 19.8842 83.4467
11788 2 2.33672 20.7945 83.113
11789 2 1.09651 19.7867 83.4489
11790 1 27.0595 11.2668 36.7027
11791 2 27.139 12.2628 36.6607
11792 2 27.5899 10.8585 35.9598
11793 1 13.3883 28.7034 84.1622
11794 2 13.8982 28.4773 83.3323
11795 2 13.6938 29.5897 84.5102
11796 1 2.79141 17.1647 34.3496
11797 2 2.7729 17.6991 35.1946
11798 2 2.59944 16.2056 34.5574
11799 1 23.5831 26.523 90.2647
11800 2 23.5652 27.3351 89.6815
11801 2 22.7828 25.9556 90.0708
11802 1 57.8903 19.1401 47.2746
11803 2 57.625 19.2569 46.3175
11804 2 57.8167 18.1749 47.5255
11805 1 15.6959 16.4898 85.7952
11806 2 16.1054 16.9215 86.5988
11807 2 15.7011 15.4965 85.9114
11808 1 50.3666 15.44 56.4952
11809 2 49.7625 14.6553 56.3564
11810 2 49.8232 16.2359 56.7622
11811 1 72.5506 3.0519 28.4824
11812 2 73.1779 2.92735 27.7136
11813 2 71.6693 2.63251 28.2647
11814 1 44.9487 27.6341 36.844
11815 2 44.308 28.4016 36.8643
11816 2 44.5281 26.8372 37.2774
11817 1 20.1561 21.2285 55.6873
11818 2 19.2767 21.6196 55.9587
11819 2 20.8704 21.9232 55.7725
11820 1 56.9778 11.7919 63.8031
11821 2 56.9976 12.7902 63.7489
11822 2 56.551 11.4217 62.978
11823 1 51.2476 22.1027 90.6658
11824 2 50.7744 21.2365 90.5054
11825 2 52.1152 21.9273 91.1312
11826 1 2.13147 0.78488 83.3091
11827 2 1.90559 1.74794 83.4557
11828 2 1.47713 0.38284 82.6686
11829 1 3.10184 11.0398 26.8594
11830 2 2.91629 11.7295 26.1595
11831 2 2.72471 11.3432 27.7345
11832 1 3.81933 18.0562 30.219
11833 2 2.98748 18.2604 29.7029
11834 2 4.61952 18.3079 29.6747
11835 1 19.1077 14.3997 65.5405
11836 2 19.8729 15.0435 65.5411
11837 2 18.876 14.1564 66.4824
11838 1 33.8782 22.6555 76.445
11839 2 33.5601 22.1732 77.2612
11840 2 34.8688 22.7817 76.4972
11841 1 60.1707 29.2399 48.7557
11842 2 60.627 28.6587 49.4296
11843 2 59.4724 28.7088 48.2758
11844 1 59.4076 8.29452 54.9572
11845 2 59.3142 9.11771 54.3972
11846 2 59.9462 8.50561 55.7729
11847 1 62.2151 1.6732 57.9128
11848 2 62.3332 0.945116 58.588
11849 2 62.9354 2.35685 58.0303
11850 1 9.41527 22.1623 54.0501
11851 2 8.5267 22.6146 53.9735
11852 2 9.69868 22.1446 55.0089
11853 1 55.3389 5.31283 33.0004
11854 2 55.555 4.84799 33.859
11855 2 55.1132 4.63411 32.3015
11856 1 72.4298 24.692 41.1875
11857 2 71.4744 24.4473 41.0225
11858 2 73.0264 24.0478 40.7088
11859 1 75.9164 4.08523 32.499
11860 2 75.713 4.15566 33.4756
11861 2 75.0663 3.94851 31.9905
11862 1 39.925 10.7337 84.6177
11863 2 39.1973 10.0479 84.6102
11864 2 40.5221 10.5949 83.8277
11865 1 30.4814 1.56309 86.3577
11866 2 29.9564 2.11164 85.7069
11867 2 30.7236 2.12533 87.1484
11868 1 7.85861 7.48635 42.4048
11869 2 7.83353 7.03004 43.2942
11870 2 7.34386 8.34224 42.4546
11871 1 60.582 15.1337 50.1623
11872 2 59.866 15.4713 49.5513
11873 2 60.7122 14.1534 50.0137
11874 1 30.5377 18.5998 89.3615
11875 2 29.6276 18.7501 89.7476
11876 2 30.711 19.2743 88.6439
11877 1 77.4846 1.73992 32.1306
11878 2 77.3253 1.13129 31.3532
11879 2 76.6127 1.95194 32.572
11880 1 2.81005 22.3012 67.3219
11881 2 2.23572 21.492 67.1979
11882 2 2.2381 23.0792 67.5817
11883 1 15.3511 7.79386 76.5093
11884 2 14.8862 8.02011 75.6533
11885 2 14.7047 7.35582 77.134
11886 1 42.4756 6.30289 29.9256
11887 2 43.0961 7.04299 30.1849
11888 2 41.7825 6.65417 29.2962
11889 1 20.8327 15.3153 51.0447
11890 2 20.3947 15.6194 50.1987
11891 2 21.6588 14.7966 50.8245
11892 1 7.57559 14.8277 11.8297
11893 2 6.68755 14.5149 11.4928
11894 2 7.89345 15.5933 11.2703
11895 1 70.1549 13.652 52.2508
11896 2 69.1724 13.488 52.3399
11897 2 70.639 12.777 52.2378
11898 1 77.2597 9.71019 58.2694
11899 2 76.2814 9.80637 58.4533
11900 2 77.5461 10.4095 57.6145
11901 1 79.2579 20.9224 37.6247
11902 2 79.0214 19.9859 37.3659
11903 2 79.4055 20.9681 38.6127
11904 1 17.1961 5.73544 77.0802
11905 2 17.0444 6.26392 77.9155
11906 2 16.6221 6.09941 76.3467
11907 1 61.2598 19.1261 52.8492
11908 2 61.6196 19.8809 53.3977
11909 2 61.9645 18.4242 52.7451
11910 1 28.8841 15.9323 57.0723
11911 2 29.3614 16.4199 57.8033
11912 2 27.9175 15.8378 57.3105
11913 1 48.7379 15.5263 74.7641
11914 2 49.0205 15.8125 73.8486
11915 2 49.2204 16.0734 75.4481
11916 1 75.9034 9.41179 39.6307
11917 2 75.5287 9.33899 38.7064
11918 2 75.8869 8.51303 40.0688
11919 1 36.9695 11.4673 54.596
11920 2 37.8213 11.8576 54.9453
11921 2 37.1526 10.9757 53.7446
11922 1 28.9611 26.1607 32.4931
11923 2 29.1611 27.1235 32.3113
11924 2 28.4591 26.0814 33.3543
11925 1 47.57 15.6641 80.617
11926 2 47.9604 16.444 80.1278
11927 2 47.5437 15.8643 81.5964
11928 1 21.2482 4.22316 84.2531
11929 2 20.9963 3.30052 83.961
11930 2 20.6046 4.53948 84.95
11931 1 17.3544 21.9015 42.4012
11932 2 18.0774 22.1485 41.7559
11933 2 17.3363 22.5633 43.1507
11934 1 64.5005 15.254 50.7749
11935 2 64.4713 14.8464 51.6876
11936 2 63.815 14.8168 50.1927
11937 1 28.9881 18.8417 24.6584
11938 2 28.4132 18.0766 24.9483
11939 2 29.3378 18.6659 23.7381
11940 1 51.5728 21.3045 85.1823
11941 2 51.453 22.2198 85.5669
11942 2 52.0106 20.7132 85.8596
11943 1 29.3523 25.138 70.5803
11944 2 29.9594 25.7494 71.0879
11945 2 28.901 24.5125 71.2168
11946 1 75.1242 29.6862 82.3247
11947 2 74.8013 28.789 82.6259
11948 2 76.124 29.6902 82.3021
11949 1 24.8225 1.58905 73.4156
11950 2 24.9425 2.44141 72.9066
11951 2 25.3424 1.63419 74.2687
11952 1 3.42296 16.9028 37.1791
11953 2 3.94813 16.072 37.3633
11954 2 2.51266 16.8184 37.5844
11955 1 10.3241 15.816 66.9298
11956 2 11.1544 15.7315 67.4806
11957 2 9.54123 15.9799 67.53
11958 1 54.7163 26.6762 53.2829
11959 2 54.3718 27.615 53.2854
11960 2 54.1071 26.099 52.7391
11961 1 72.8697 17.2217 52.6583
11962 2 73.1163 16.424 53.2086
11963 2 72.8809 18.0397 53.2334
11964 1 1.92893 13.4021 50.6753
11965 2 2.09196 12.534 51.1441
11966 2 2.66502 14.0426 50.8944
11967 1 8.87494 22.0368 61.3153
11968 2 9.62054 22.2877 60.698
11969 2 8.9102 22.613 62.1319
11970 1 57.083 17.4305 23.5982
11971 2 58.0616 17.2947 23.4438
11972 2 56.6007 16.5653 23.4608
11973 1 62.4356 23.7829 79.7386
11974 2 62.1872 22.8191 79.6411
11975 2 62.2718 24.2584 78.8742
11976 1 74.1484 17.6104 81.3944
11977 2 74.3589 18.156 82.2056
11978 2 73.396 16.9845 81.5998
11979 1 60.4259 0.363873 68.9412
11980 2 61.0925 29.7975 69.4259
11981 2 60.2838 29.998 68.0214
11982 1 41.4641 16.2964 71.9819
11983 2 41.85 17.1592 72.3085
11984 2 41.9788 15.5325 72.3713
11985 1 75.4985 23.1043 29.5074
11986 2 75.4892 24.1017 29.5793
11987 2 75.1204 22.8304 28.6231
11988 1 41.0935 15.3746 81.7597
11989 2 41.0848 16.3724 81.8248
11990 2 41.3491 14.9851 82.6446
11991 1 56.572 29.0921 35.1428
11992 2 56.2406 29.2634 34.2149
11993 2 55.8008 29.1019 35.7793
11994 1 18.6305 21.0468 68.0636
11995 2 18.1934 20.4393 67.4004
11996 2 18.3532 21.9907 67.8844
11997 1 56.8302 26.5235 63.8815
11998 2 56.4051 25.8475 63.2795
11999 2 57.7933 26.6308 63.6346
12000 1 47.6744 22.6544 62.0204
12001 2 46.9854 21.9394 62.1391
12002 2 47.2499 23.5508 62.1484
12003 1 10.0657 6.35407 36.309
12004 2 10.4613 5.7082 35.6561
12005 2 10.7902 6.9281 36.6906
12006 1 46.7959 21.3484 24.8568
12007 2 45.8012 21.2616 24.8016
12008 2 47.0403 22.3107 24.9756
12009 1 19.545 8.15345 41.626
12010 2 19.8262 7.55659 42.3774
12011 2 19.573 9.10613 41.9287
12012 1 25.6997 16.901 59.7226
12013 2 26.3567 17.5978 60.0102
12014 2 25.625 16.9047 58.7254
12015 1 41.6905 13.7844 56.8242
12016 2 41.5672 14.7683 56.6948
12017 2 41.2819 13.2932 56.0549
12018 1 72.6981 9.28201 72.697
12019 2 72.8045 8.80947 73.5719
12020 2 71.7398 9.53822 72.5709
12021 1 30.6268 15.8611 68.4951
12022 2 30.6603 16.8304 68.739
12023 2 29.7832 15.673 67.9923
12024 1 22.6957 15.6228 57.9762
12025 2 22.3981 15.1043 58.7778
12026 2 23.5532 16.0937 58.1833
12027 1 51.8315 26.3378 86.5084
12028 2 52.1655 26.8306 85.7049
12029 2 52.0649 25.3689 86.4259
12030 1 0.632057 10.1753 34.721
12031 2 0.958227 10.4965 35.61
12032 2 1.24839 9.46757 34.3757
12033 1 67.1388 15.4265 32.7225
12034 2 66.6001 15.0372 33.4696
12035 2 67.6867 16.1883 33.0683
12036 1 78.2582 18.9333 21.1306
12037 2 77.7812 19.4618 20.4284
12038 2 78.2037 17.9596 20.9094
12039 1 1.68335 4.94476 42.0216
12040 2 2.31326 4.65241 42.7412
12041 2 0.763375 5.03908 42.4021
12042 1 38.9832 26.0797 49.8713
12043 2 39.8488 25.6629 49.5938
12044 2 38.6515 25.6362 50.7039
12045 1 70.3309 20.9724 12.7932
12046 2 70.312 20.3061 12.0478
12047 2 69.9674 21.8457 12.4689
12048 1 56.769 3.63813 85.0656
12049 2 57.4002 2.86667 85.1463
12050 2 56.9063 4.09025 84.1842
12051 1 63.6452 14.0243 15.6362
12052 2 63.3828 14.4938 16.4793
12053 2 63.0144 13.2673 15.4661
12054 1 44.5564 13.5154 45.745
12055 2 44.5798 13.7825 44.7816
12056 2 43.7083 13.0201 45.933
12057 1 77.0399 6.73222 31.2611
12058 2 77.8198 6.57484 30.6553
12059 2 77.0651 6.07504 32.0144
12060 1 79.1766 11.3555 30.8854
12061 2 78.4151 11.5962 30.2836
12062 2 0.0167429 11.2845 30.3478
12063 1 41.2807 5.28661 67.205
12064 2 40.4981 5.0545 67.7826
12065 2 41.9231 4.5204 67.1905
12066 1 57.2742 10.3484 51.0349
12067 2 56.5874 10.0606 50.3675
12068 2 57.543 9.5651 51.5955
12069 1 78.7575 17.4747 24.33
12070 2 79.6421 17.7781 23.9759
12071 2 78.7509 16.4772 24.4004
12072 1 47.3953 15.2504 84.6889
12073 2 48.2453 14.7579 84.8755
12074 2 47.5723 15.9842 84.033
12075 1 29.5841 27.9684 49.4448
12076 2 29.1179 28.8388 49.6027
12077 2 29.6886 27.8197 48.4615
12078 1 55.1666 18.0349 53.0563
12079 2 54.3174 18.2092 53.5546
12080 2 54.9964 17.3683 52.3305
12081 1 44.4979 4.73269 69.4425
12082 2 44.1199 4.41223 68.5739
12083 2 44.5994 3.95877 70.0676
12084 1 51.5499 15.8544 70.7061
12085 2 51.0847 16.0778 69.8496
12086 2 50.8855 15.8447 71.4535
12087 1 69.0931 18.3237 77.2701
12088 2 68.826 18.0293 78.1877
12089 2 69.2179 17.5218 76.6859
12090 1 37.4222 4.2915 72.3311
12091 2 37.6853 3.32838 72.2747
12092 2 37.7268 4.66963 73.2053
12093 1 33.8061 8.85027 66.7065
12094 2 33.1861 9.08517 65.9579
12095 2 33.3594 9.03932 67.581
12096 1 16.1072 4.47233 84.573
12097 2 16.9907 4.27111 84.996
12098 2 16.05 5.4497 84.3694
12099 1 35.465 17.3311 30.4477
12100 2 35.7245 18.227 30.8084
12101 2 34.8897 17.4513 29.6387
12102 1 8.54298 18.9882 65.1739
12103 2 8.1083 19.5356 65.889
12104 2 8.52171 19.4912 64.3098
12105 1 13.7258 7.1276 10.8214
12106 2 14.0924 7.97973 11.1949
12107 2 14.4791 6.50394 10.6125
12108 1 39.5159 7.0342 83.3722
12109 2 39.3215 7.22961 84.3335
12110 2 38.6571 6.98059 82.8627
12111 1 60.8696 22.9649 70.6596
12112 2 60.8504 23.8818 71.0582
12113 2 61.7579 22.5421 70.8387
12114 1 65.4507 7.41892 84.4044
12115 2 64.9477 6.8239 83.7775
12116 2 65.4765 7.00067 85.3124
12117 1 60.0824 20.5269 86.7115
12118 2 60.7515 20.8787 86.057
12119 2 60.2989 20.8689 87.626
12120 1 51.4849 1.88409 40.5487
12121 2 50.798 1.46844 41.1449
12122 2 52.1948 2.31351 41.1069
12123 1 62.28 21.2285 48.4656
12124 2 62.0579 20.6805 49.2721
12125 2 61.6676 22.0177 48.4199
12126 1 4.42834 23.1845 25.0883
12127 2 4.82993 22.7174 25.876
12128 2 4.89747 24.0555 24.9426
12129 1 59.7525 15.5011 89.5979
12130 2 59.5456 15.3063 88.6391
12131 2 59.9467 14.6454 90.0775
12132 1 5.29967 21.8206 40.4138
12133 2 5.83185 22.6587 40.2938
12134 2 4.45378 22.0303 40.9042
12135 1 72.2035 14.5002 91.0636
12136 2 73.0094 14.6948 90.5044
12137 2 71.4707 15.1375 90.8253
12138 1 69.1194 27.3987 86.9074
12139 2 69.3875 27.8962 86.0824
12140 2 69.7448 27.6283 87.6532
12141 1 25.8203 24.425 83.2241
12142 2 24.9128 24.8171 83.0735
12143 2 26.5151 25.0397 82.8508
12144 1 57.1557 25.9839 90.5855
12145 2 56.9816 26.9568 90.433
12146 2 56.3372 25.4585 90.353
12147 1 35.7257 14.0565 70.2438
12148 2 35.8965 14.601 71.065
12149 2 36.5216 14.1051 69.6403
12150 1 49.5424 11.1115 77.0462
12151 2 50.0372 11.9782 77.1099
12152 2 49.8226 10.5118 77.7957
12153 1 11.931 18.7798 21.3751
12154 2 12.8181 18.8124 20.9147
12155 2 11.2191 19.1001 20.7501
12156 1 68.197 19.0201 26.6617
12157 2 67.2408 18.7388 26.7424
12158 2 68.5199 19.3605 27.5448
12159 1 60.5969 2.32965 79.1301
12160 2 61.314 1.73259 78.7706
12161 2 60.6973 2.4116 80.1216
12162 1 21.0007 7.32121 88.0694
12163 2 20.9405 8.04559 88.7562
12164 2 21.9089 7.33316 87.6511
12165 1 50.9319 1.08988 73.9299
12166 2 51.7208 1.02476 73.3188
12167 2 51.146 0.644037 74.7991
12168 1 40.586 7.28822 68.835
12169 2 39.7292 7.38173 68.328
12170 2 41.2677 6.83886 68.2576
12171 1 73.6174 22.6926 80.2367
12172 2 72.8742 22.2636 80.7501
12173 2 74.1895 23.225 80.8606
12174 1 43.4922 29.9359 82.7976
12175 2 42.6117 29.4617 82.7965
12176 2 44.1015 29.506 83.4638
12177 1 46.029 9.69344 66.2562
12178 2 45.5821 8.98881 66.8074
12179 2 46.9978 9.74192 66.4991
12180 1 62.3945 26.1773 32.9036
12181 2 62.994 26.7044 33.5059
12182 2 61.44 26.3733 33.1287
12183 1 41.6596 0.521041 68.2006
12184 2 42.2635 29.8355 67.794
12185 2 42.0948 0.908717 69.0132
12186 1 16.35 13.1172 65.9393
12187 2 16.0924 14.0377 66.2331
12188 2 15.6344 12.7431 65.3494
12189 1 35.4553 28.2016 39.7775
12190 2 34.6944 28.3038 40.4183
12191 2 36.2841 28.5909 40.1793
12192 1 69.1151 9.15307 39.8871
12193 2 68.9483 9.39772 40.8423
12194 2 68.8175 8.21185 39.7273
12195 1 23.8036 8.35377 61.9475
12196 2 23.7715 8.91173 61.1183
12197 2 22.8802 8.25461 62.3184
12198 1 69.4561 5.79928 11.1458
12199 2 68.9831 6.45832 10.5611
12200 2 70.3553 6.15943 11.3943
12201 1 58.3623 14.0757 33.513
12202 2 57.5764 14.2784 32.9288
12203 2 58.2578 14.5483 34.3881
12204 1 77.9776 20.1153 73.7276
12205 2 78.0429 20.6149 74.5914
12206 2 77.0569 19.7373 73.63
12207 1 74.1839 20.1708 52.4337
12208 2 73.857 20.5548 53.2972
12209 2 73.4582 20.227 51.748
12210 1 32.5603 25.8461 84.3222
12211 2 33.0365 25.022 84.6288
12212 2 33.0071 26.6527 84.7092
12213 1 63.1372 9.82302 32.0172
12214 2 63.7821 9.60927 31.2833
12215 2 63.6203 10.2842 32.7615
12216 1 48.0136 7.39723 40.3846
12217 2 47.2206 7.80508 39.932
12218 2 48.4488 8.07887 40.9728
12219 1 68.4896 11.4162 58.5454
12220 2 68.9946 11.0134 59.3087
12221 2 68.0379 10.6914 58.0251
12222 1 56.5528 4.28741 28.063
12223 2 56.1565 4.88187 28.7627
12224 2 56.0895 3.40133 28.077
12225 1 2.69042 24.4622 69.8832
12226 2 1.73703 24.5799 70.161
12227 2 3.20513 24.0392 70.629
12228 1 69.3001 1.87799 33.6386
12229 2 68.5061 2.46076 33.4658
12230 2 69.4084 1.74576 34.6239
12231 1 40.5077 29.5124 64.5318
12232 2 40.2582 28.5921 64.2303
12233 2 39.778 0.15175 64.2895
12234 1 65.8817 2.40288 65.5861
12235 2 66.1349 3.20589 66.1256
12236 2 66.437 1.62145 65.8708
12237 1 66.1713 16.6485 73.7716
12238 2 65.6337 16.1046 74.4159
12239 2 66.4353 17.5112 74.2029
12240 1 66.8926 3.10599 48.771
12241 2 67.3835 2.38363 49.2581
12242 2 67.3024 3.99204 48.9878
12243 1 15.7949 10.2027 56.3198
12244 2 16.2719 10.5155 55.4984
12245 2 16.3878 10.3237 57.116
12246 1 71.5883 9.78733 16.824
12247 2 71.4027 10.6972 16.453
12248 2 71.5443 9.81917 17.8225
12249 1 49.907 26.5259 48.9798
12250 2 50.0682 25.7907 49.6382
12251 2 49.1717 26.2597 48.3564
12252 1 2.48501 2.57601 28.2838
12253 2 2.71955 1.66842 28.6321
12254 2 3.30826 3.14262 28.2489
12255 1 69.4158 1.08632 25.474
12256 2 68.7685 1.18682 26.2296
12257 2 70.079 0.371594 25.6961
12258 1 31.7074 8.23276 88.4427
12259 2 32.4314 8.59359 89.0307
12260 2 31.4926 7.29507 88.7158
12261 1 57.0247 17.398 31.7696
12262 2 57.3284 18.1584 31.1955
12263 2 56.755 17.7455 32.6677
12264 1 11.9092 17.6823 44.1687
12265 2 10.9151 17.5864 44.117
12266 2 12.1615 18.0634 45.0581
12267 1 44.7115 6.08306 65.6349
12268 2 44.3258 5.22229 65.3026
12269 2 44.3409 6.28649 66.5411
12270 1 33.5725 5.11698 48.2502
12271 2 33.8222 4.15485 48.1408
12272 2 34.3992 5.67955 48.2358
12273 1 52.858 13.7392 50.9072
12274 2 52.9693 14.6719 51.2503
12275 2 53.6016 13.1663 51.252
12276 1 53.353 18.3386 62.3635
12277 2 52.5086 18.6914 61.9603
12278 2 53.7956 17.7158 61.7183
12279 1 74.9552 28.2837 69.5187
12280 2 75.1899 27.6104 70.2198
12281 2 75.084 27.8802 68.6128
12282 1 4.69683 3.24699 39.5119
12283 2 4.50573 4.22766 39.5538
12284 2 5.02153 3.00955 38.5964
12285 1 63.9195 27.3988 60.7133
12286 2 63.2349 26.7709 60.343
12287 2 63.5418 27.8719 61.5093
12288 1 33.0658 19.4827 28.8054
12289 2 32.2575 19.9835 28.4957
12290 2 33.1028 19.4947 29.8046
12291 1 1.14382 20.181 33.8997
12292 2 2.05469 20.4326 34.2269
12293 2 1.12042 20.2386 32.9017
12294 1 48.6375 11.6918 36.217
12295 2 48.6123 12.6687 36.0048
12296 2 48.6102 11.5653 37.2086
12297 1 72.779 22.2543 19.0997
12298 2 73.7246 22.5738 19.1608
12299 2 72.6508 21.4736 19.7113
12300 1 75.8353 16.2742 46.8058
12301 2 75.4281 17.1307 46.4889
12302 2 75.9529 16.3081 47.7982
12303 1 67.6678 25.9351 63.7003
12304 2 68.6109 25.814 64.0098
12305 2 67.0451 25.5002 64.3508
12306 1 1.06964 6.72533 32.7309
12307 2 0.688211 7.21616 31.9476
12308 2 1.82003 7.25673 33.124
12309 1 78.6188 26.9837 19.5295
12310 2 79.6126 26.9754 19.6406
12311 2 78.2478 26.0899 19.7817
12312 1 52.1977 18.7703 76.5521
12313 2 52.8056 18.2945 75.9165
12314 2 52.6994 19.5077 77.0043
12315 1 40.365 7.42077 61.2887
12316 2 40.4197 8.41094 61.4175
12317 2 39.4081 7.13255 61.3235
12318 1 4.55459 4.01499 87.9595
12319 2 3.73749 3.57493 88.3319
12320 2 5.35769 3.45614 88.1662
12321 1 39.397 20.672 38.7415
12322 2 38.5181 20.231 38.9234
12323 2 39.7155 21.1343 39.569
12324 1 74.9585 26.072 71.2176
12325 2 75.282 26.3204 72.1306
12326 2 73.9899 25.8276 71.2622
12327 1 37.6652 22.7708 64.5211
12328 2 36.9826 23.4445 64.804
12329 2 38.546 22.9929 64.9394
12330 1 61.5531 14.0716 87.7874
12331 2 61.4734 13.0798 87.8871
12332 2 61.9915 14.4542 88.6006
12333 1 75.2206 8.89637 31.776
12334 2 75.4565 9.55862 32.4872
12335 2 76.0045 8.30018 31.6025
12336 1 58.5676 6.45254 30.3147
12337 2 58.6813 6.5824 29.3297
12338 2 58.9077 5.54835 30.5732
12339 1 53.8812 1.12593 50.4274
12340 2 54.1661 0.404383 51.0584
12341 2 53.0321 1.53965 50.7557
12342 1 72.18 15.2172 87.7536
12343 2 71.8093 15.4518 86.8549
12344 2 71.8213 15.8518 88.4381
12345 1 41.8514 21.7989 51.7213
12346 2 41.1789 22.3781 52.1822
12347 2 41.4532 21.4288 50.8821
12348 1 6.01034 17.6755 39.505
12349 2 6.02983 17.7723 38.5098
12350 2 6.48389 18.45 39.9245
12351 1 27.1268 20.8722 31.7714
12352 2 26.9667 21.2367 32.6887
12353 2 28.1101 20.8426 31.5915
12354 1 56.8704 2.11601 21.7974
12355 2 56.0097 1.66046 22.0248
12356 2 57.4808 2.08949 22.5891
12357 1 48.6865 18.9078 44.6981
12358 2 48.0637 19.1537 43.9554
12359 2 48.3632 18.0717 45.1412
12360 1 27.755 25.9372 78.3586
12361 2 28.6602 25.5984 78.102
12362 2 27.4881 25.5422 79.2376
12363 1 48.8935 19.235 69.2085
12364 2 48.9207 18.4626 69.843
12365 2 48.8572 20.0901 69.7256
12366 1 70.0186 12.834 67.4112
12367 2 69.9246 12.3482 68.2802
12368 2 69.8659 12.1974 66.6552
12369 1 1.0247 19.515 26.2008
12370 2 0.991162 18.8179 25.4847
12371 2 1.3896 19.113 27.0406
12372 1 30.8751 2.16947 37.4969
12373 2 31.5962 1.80485 38.0861
12374 2 31.1582 3.05741 37.1343
12375 1 76.2984 24.3338 78.8778
12376 2 75.6924 24.3284 79.6733
12377 2 76.9686 25.0697 78.9744
12378 1 69.8741 6.7653 26.2709
12379 2 69.3679 6.92878 27.1177
12380 2 69.8749 5.78635 26.0667
12381 1 48.7646 1.36467 81.0455
12382 2 49.0057 0.463524 81.4058
12383 2 49.0173 1.41586 80.0793
12384 1 57.7903 0.141147 20.0801
12385 2 57.5513 0.898372 20.6879
12386 2 58.7205 0.270478 19.7363
12387 1 17.5809 20.1903 10.4722
12388 2 18.3366 20.0125 11.1024
12389 2 17.9391 20.58 9.62375
12390 1 5.84264 9.78145 80.7722
12391 2 6.76182 9.39909 80.6778
12392 2 5.5232 10.1052 79.8816
12393 1 61.8773 11.6186 87.0756
12394 2 61.3849 11.6116 86.2052
12395 2 61.2761 11.2839 87.8013
12396 1 34.9416 8.77329 69.6792
12397 2 34.5084 8.03969 70.2028
12398 2 34.3694 9.00374 68.8921
12399 1 63.8006 21.8644 21.8237
12400 2 64.6205 22.2393 21.391
12401 2 63.6801 22.2796 22.7254
12402 1 9.60708 19.4801 43.873
12403 2 10.1831 19.6397 44.6748
12404 2 8.75243 19.9902 43.9697
12405 1 77.9344 27.5694 62.4975
12406 2 77.3693 26.8541 62.9087
12407 2 78.0349 28.3268 63.1426
12408 1 14.4757 9.71412 46.8184
12409 2 15.3453 9.45655 47.2398
12410 2 13.811 9.93294 47.5328
12411 1 52.8257 0.751725 33.1157
12412 2 52.4378 1.08799 33.9739
12413 2 53.8216 0.836977 33.1441
12414 1 0.938106 25.1852 63.8982
12415 2 0.261438 25.4811 63.224
12416 2 0.885611 24.1928 64.0097
12417 1 52.7157 17.5301 34.313
12418 2 52.8835 18.3632 34.84
12419 2 52.102 16.9294 34.8255
12420 1 7.63888 27.9344 10.2089
12421 2 8.53025 28.2348 10.5483
12422 2 7.76544 27.1894 9.5539
12423 1 49.5526 27.9878 42.3921
12424 2 48.5902 28.0182 42.662
12425 2 49.6259 27.6391 41.4578
12426 1 30.0262 28.3797 86.1084
12427 2 29.8142 29.3497 86.2271
12428 2 29.8179 27.8872 86.9534
12429 1 31.0651 0.914809 54.2036
12430 2 30.2071 1.05206 53.7087
12431 2 31.3887 29.9801 54.0569
12432 1 12.0617 6.45882 45.4047
12433 2 11.2228 5.92132 45.4903
12434 2 11.9717 7.09772 44.6407
12435 1 54.5723 29.9368 22.9437
12436 2 54.2382 0.778959 23.367
12437 2 54.8736 29.3026 23.6557
12438 1 55.2419 25.9446 61.182
12439 2 55.8248 26.6256 61.6253
12440 2 55.6757 25.6346 60.336
12441 1 60.3421 25.4375 72.2626
12442 2 60.0107 26.2968 72.6522
12443 2 61.2851 25.2802 72.556
12444 1 21.8759 15.8267 85.5367
12445 2 21.366 16.6527 85.7771
12446 2 22.0532 15.8191 84.5526
12447 1 26.8478 5.65687 50.3936
12448 2 27.2719 5.38853 49.5286
12449 2 26.4788 4.84685 50.8494
12450 1 38.2237 10.2426 61.3931
12451 2 39.2087 10.275 61.5629
12452 2 37.7327 10.4521 62.2387
12453 1 59.7487 8.48835 90.5173
12454 2 59.7738 9.26989 89.8939
12455 2 58.8595 8.45446 90.9736
12456 1 43.7942 8.98506 60.5314
12457 2 42.8041 9.08434 60.6308
12458 2 44.1835 9.84365 60.1978
12459 1 55.0621 4.71063 40.8441
12460 2 55.0284 5.70592 40.7532
12461 2 55.5778 4.46824 41.6659
12462 1 35.5489 13.4489 30.3621
12463 2 35.3315 12.492 30.5548
12464 2 36.0882 13.8263 31.1149
12465 1 67.1379 22.0573 20.7293
12466 2 66.8508 21.1598 21.064
12467 2 66.7219 22.7717 21.2919
12468 1 40.9464 19.3195 46.7827
12469 2 41.1105 18.3537 46.9835
12470 2 40.0589 19.4203 46.3331
12471 1 28.2646 2.45194 41.3975
12472 2 28.7224 1.88012 42.0782
12473 2 28.8775 3.19022 41.1159
12474 1 71.8408 21.3795 86.7592
12475 2 71.2061 22.1485 86.6824
12476 2 72.5246 21.5805 87.4606
12477 1 20.4258 5.54321 40.6196
12478 2 21.3393 5.4861 41.0225
12479 2 20.3275 6.41441 40.1387
12480 1 67.9041 15.1628 12.3717
12481 2 67.4617 15.5582 11.5668
12482 2 67.4558 14.3009 12.6088
12483 1 37.6949 0.386017 37.9714
12484 2 36.7345 0.14285 37.8351
12485 2 37.7766 0.989269 38.7648
12486 1 18.8808 18.9349 76.2898
12487 2 19.2896 18.6612 77.1604
12488 2 18.1981 19.6475 76.4516
12489 1 11.3109 2.45551 59.3039
12490 2 10.6313 2.1971 59.9905
12491 2 12.0475 1.77923 59.293
12492 1 64.871 26.8446 77.9812
12493 2 65.3434 26.2276 77.3518
12494 2 65.1972 26.6842 78.9128
12495 1 30.8142 1.77127 82.9142
12496 2 30.2637 2.42964 83.4275
12497 2 31.7842 1.93891 83.0902
12498 1 21.3253 17.0188 62.1207
12499 2 22.2597 16.7968 61.8421
12500 2 21.1686 16.6913 63.0524
12501 1 37.4216 9.9416 58.6819
12502 2 37.6988 10.2661 59.5862
12503 2 38.1046 10.2168 58.0052
12504 1 11.8049 19.6254 59.8671
12505 2 10.8737 19.5569 60.2249
12506 2 12.0208 20.5839 59.681
12507 1 17.1575 6.12263 88.6555
12508 2 17.3019 5.18841 88.9817
12509 2 16.3925 6.13632 88.0116
12510 1 44.573 13.4844 57.7365
12511 2 44.9917 13.9765 56.9733
12512 2 44.0338 14.121 58.2878
12513 1 13.9979 19.4286 78.66
12514 2 13.2436 19.2729 78.0222
12515 2 14.4206 18.5537 78.8964
12516 1 21.2259 28.6308 14.462
12517 2 21.0741 28.2283 15.3647
12518 2 20.9531 27.9775 13.7557
12519 1 64.3967 7.27547 40.9974
12520 2 63.4042 7.32408 40.8849
12521 2 64.6301 6.48129 41.5584
12522 1 51.0714 6.97252 39.5811
12523 2 50.1096 6.95325 39.8544
12524 2 51.3441 6.06649 39.2576
12525 1 19.2575 17.0914 78.638
12526 2 19.6665 16.2033 78.4282
12527 2 18.5585 16.9779 79.3441
12528 1 22.8277 9.50347 79.888
12529 2 22.3151 10.0112 80.5804
12530 2 22.2257 8.83535 79.4508
12531 1 47.5738 3.68128 43.4974
12532 2 47.5092 2.96314 42.8045
12533 2 47.106 3.38427 44.3299
12534 1 43.9523 11.4373 84.9709
12535 2 44.8273 11.8786 85.1701
12536 2 43.9852 11.0287 84.0588
12537 1 31.8864 22.3989 49.2313
12538 2 31.2785 23.0325 49.7098
12539 2 32.5367 22.0057 49.8814
12540 1 43.7825 12.1446 40.948
12541 2 43.2299 11.3521 41.2058
12542 2 44.1992 11.9836 40.0533
12543 1 25.7994 14.9979 49.2473
12544 2 25.3288 14.384 49.8811
12545 2 26.2802 15.7061 49.7643
12546 1 78.3984 27.8453 86.3255
12547 2 77.6275 27.8183 85.6892
12548 2 78.7782 26.926 86.4282
12549 1 12.1677 15.9008 60.9825
12550 2 13.021 15.9885 61.4965
12551 2 11.4214 15.6808 61.6107
12552 1 78.0648 24.3744 74.618
12553 2 77.1898 24.7699 74.8972
12554 2 78.4802 24.9485 73.9125
12555 1 65.7125 28.058 29.8341
12556 2 65.0165 27.3408 29.8685
12557 2 66.2281 27.9815 28.9807
12558 1 44.4444 23.6703 64.4871
12559 2 45.2812 24.1633 64.7251
12560 2 44.2994 23.7176 63.4988
12561 1 79.0129 12.8018 78.252
12562 2 78.8199 12.9626 77.2841
12563 2 79.9381 12.4354 78.351
12564 1 17.329 0.700297 54.3735
12565 2 17.1682 0.0122005 55.081
12566 2 17.933 1.41209 54.7319
12567 1 19.3847 0.776711 90.7079
12568 2 20.1534 0.169447 90.9087
12569 2 18.6732 0.265551 90.2257
12570 1 26.3645 28.975 46.6386
12571 2 26.7184 29.399 45.8049
12572 2 26.2047 28.0014 46.4755
12573 1 64.8318 11.503 52.6008
12574 2 65.2402 11.0612 53.3996
12575 2 64.567 12.4381 52.8362
12576 1 17.7847 29.7233 21.5471
12577 2 18.4835 29.0765 21.8525
12578 2 18.2196 0.584674 21.2846
12579 1 4.78564 6.83969 22.1319
12580 2 5.22105 7.26546 21.3387
12581 2 4.40462 5.95376 21.8674
12582 1 35.7849 4.357 58.9031
12583 2 34.8977 4.32388 59.3632
12584 2 35.6919 4.00077 57.9734
12585 1 15.7901 22.9238 61.2422
12586 2 15.5772 23.8976 61.1623
12587 2 15.3657 22.5566 62.0699
12588 1 35.5168 15.7107 64.7449
12589 2 35.0325 14.9213 64.3677
12590 2 34.9419 16.1583 65.43
12591 1 4.42704 5.22046 13.2516
12592 2 3.53508 4.92562 13.5944
12593 2 4.83062 4.48981 12.7009
12594 1 29.2231 29.672 37.6989
12595 2 29.7291 29.2109 36.97
12596 2 29.6516 0.553794 37.8959
12597 1 63.9275 1.14883 22.2786
12598 2 63.3177 0.738466 22.9567
12599 2 63.3834 1.58393 21.5612
12600 1 68.5748 16.0309 49.9618
12601 2 69.441 16.5211 50.0593
12602 2 68.0703 16.398 49.1803
12603 1 23.754 19.7637 66.8048
12604 2 23.8476 19.7293 65.8097
12605 2 23.1681 19.0133 67.1106
12606 1 19.4491 10.495 52.9583
12607 2 18.7116 11.0304 53.3699
12608 2 20.3307 10.8361 53.2844
12609 1 29.4707 8.3057 31.1004
12610 2 29.0607 7.42835 30.851
12611 2 29.8848 8.23422 32.0078
12612 1 25.6456 0.602773 43.2029
12613 2 25.8903 1.21081 43.9581
12614 2 26.3517 29.9028 43.0963
12615 1 41.133 1.85967 41.4726
12616 2 41.8385 1.55351 40.8334
12617 2 41.3341 1.50534 42.3858
12618 1 32.9182 19.3727 45.1364
12619 2 32.649 18.4521 44.8534
12620 2 33.8201 19.5864 44.761
12621 1 68.4132 13.5879 57.0365
12622 2 69.3466 13.6723 56.6876
12623 2 68.3234 12.7313 57.5446
12624 1 8.67197 27.5813 41.8192
12625 2 8.13608 27.1422 42.5403
12626 2 8.72628 28.5641 41.9957
12627 1 8.16348 6.84091 76.6627
12628 2 8.63281 6.03941 77.0333
12629 2 8.79097 7.61947 76.6525
12630 1 13.1273 27.0818 30.6984
12631 2 14.0455 26.6868 30.7263
12632 2 13.0078 27.5874 29.8439
12633 1 73.3147 16.5568 57.8576
12634 2 74.0669 15.9176 58.0177
12635 2 73.1299 17.0708 58.6953
12636 1 21.2073 18.5004 69.8787
12637 2 21.5399 18.9561 70.7043
12638 2 21.1159 17.5199 70.0529
12639 1 13.4851 0.393162 70.8748
12640 2 13.4553 29.8921 70.0099
12641 2 14.4368 0.516773 71.1559
12642 1 74.4309 17.0037 43.5649
12643 2 74.9157 17.808 43.2212
12644 2 73.8866 17.2589 44.364
12645 1 17.4199 10.5331 21.596
12646 2 16.8728 11.364 21.6979
12647 2 17.3308 9.97238 22.4192
12648 1 11.4169 28.2794 68.2848
12649 2 10.5878 27.7816 68.5393
12650 2 12.1484 28.0609 68.9308
12651 1 76.0965 6.32267 21.4954
12652 2 75.2857 6.87859 21.6784
12653 2 76.8542 6.64059 22.0653
12654 1 61.7255 5.34218 26.122
12655 2 61.023 5.91774 25.7034
12656 2 62.3731 5.91717 26.6219
12657 1 48.0539 13.6022 68.3098
12658 2 47.6978 13.6909 67.3795
12659 2 48.9411 13.1416 68.2845
12660 1 70.5438 22.3115 75.2489
12661 2 71.4834 22.4258 75.5715
12662 2 70.4538 22.7107 74.3365
12663 1 53.2226 5.57143 78.572
12664 2 52.9876 5.3238 79.5119
12665 2 52.4626 5.33745 77.9656
12666 1 32.1822 25.8197 87.706
12667 2 33.0942 26.1422 87.4525
12668 2 31.583 25.8517 86.906
12669 1 22.1627 1.66666 61.2388
12670 2 22.3421 1.43347 62.1945
12671 2 21.4046 1.11132 60.8968
12672 1 20.8105 12.3852 69.8133
12673 2 21.2941 12.6676 68.9848
12674 2 19.8835 12.76 69.8023
12675 1 16.3418 19.3757 42.6113
12676 2 17.1989 18.8994 42.8074
12677 2 16.5318 20.3385 42.4195
12678 1 47.6774 10.6376 87.7822
12679 2 48.5812 10.3759 88.1208
12680 2 47.207 11.1837 88.4754
12681 1 35.4628 4.47736 33.8343
12682 2 35.2948 3.88991 34.6259
12683 2 35.8977 3.94335 33.1093
12684 1 32.3102 16.4196 76.8623
12685 2 32.186 17.1189 77.5663
12686 2 33.2862 16.2981 76.6817
12687 1 14.7688 1.58885 40.0206
12688 2 15.4905 0.985871 39.6805
12689 2 15.1791 2.3458 40.5292
12690 1 71.5843 20.0475 54.0913
12691 2 70.6532 19.6938 54.0016
12692 2 72.0063 19.6698 54.9154
12693 1 73.5356 17.55 66.2858
12694 2 73.8874 18.412 65.9207
12695 2 73.129 17.0154 65.5449
12696 1 46.5539 21.7887 66.5578
12697 2 46.5722 21.9098 67.5503
12698 2 47.1818 22.4396 66.131
12699 1 49.2676 19.5383 41.7224
12700 2 48.2714 19.4884 41.7941
12701 2 49.5295 20.4176 41.3246
12702 1 65.8256 19.655 20.8397
12703 2 66.0065 19.4132 21.793
12704 2 66.3615 19.0626 20.2381
12705 1 47.557 1.55473 55.9608
12706 2 47.2088 2.07504 55.181
12707 2 48.5476 1.44817 55.8748
12708 1 50.7821 7.735 35.6333
12709 2 50.0751 7.13857 35.2533
12710 2 51.3256 7.22487 36.2999
12711 1 38.369 23.1082 85.2064
12712 2 38.4685 22.2456 84.7104
12713 2 37.3988 23.2922 85.3639
12714 1 30.2852 15.346 87.2821
12715 2 31.0837 14.9325 87.7195
12716 2 30.453 15.4378 86.3006
12717 1 41.7674 18.8156 73.196
12718 2 42.1183 19.4978 73.8375
12719 2 41.0044 18.3244 73.6161
12720 1 72.1094 28.3409 76.9745
12721 2 71.8997 27.5301 76.428
12722 2 72.1266 28.0943 77.9435
12723 1 22.1168 29.6673 74.4895
12724 2 22.07 0.502829 73.9421
12725 2 21.2765 29.1396 74.3648
12726 1 70.7502 29.9009 71.7453
12727 2 69.926 0.218742 72.2142
12728 2 70.5029 29.2038 71.0723
12729 1 30.0766 9.17804 38.5119
12730 2 29.7848 8.24828 38.7362
12731 2 29.4453 9.5738 37.845
12732 1 43.9941 19.0383 42.2606
12733 2 43.0318 19.2732 42.1238
12734 2 44.1055 18.0458 42.2099
12735 1 15.7572 18.9844 22.4923
12736 2 15.9986 19.9543 22.5219
12737 2 16.561 18.4338 22.7176
12738 1 57.111 11.644 46.4245
12739 2 56.5792 10.9418 45.9511
12740 2 56.5742 12.0141 47.1827
12741 1 41.882 28.9807 55.5599
12742 2 42.8219 29.2996 55.6817
12743 2 41.7012 28.84 54.5865
12744 1 23.3446 14.3719 43.896
12745 2 24.1706 13.9258 44.2407
12746 2 22.6403 14.3634 44.6058
12747 1 14.5606 19.1489 60.274
12748 2 14.3382 20.0557 60.6321
12749 2 13.7177 18.6281 60.1387
12750 1 61.8894 29.9184 89.6239
12751 2 62.0549 29.6407 88.6776
12752 2 62.4738 29.3846 90.235
12753 1 32.8296 10.4929 50.3768
12754 2 32.7826 9.60187 50.8283
12755 2 32.5527 10.3972 49.4207
12756 1 10.503 9.50392 50.4501
12757 2 9.96629 8.6606 50.4232
12758 2 10.6593 9.82946 49.5176
12759 1 0.582803 22.5327 60.6699
12760 2 79.9283 23.2006 61.0243
12761 2 1.40618 23.0064 60.3573
12762 1 43.9819 16.4405 53.7824
12763 2 44.1243 16.8514 52.8819
12764 2 44.3607 15.5151 53.7902
12765 1 16.3626 28.1265 33.1903
12766 2 16.0674 27.8634 32.2718
12767 2 17.3458 28.3089 33.185
12768 1 55.3704 27.5003 66.3961
12769 2 55.1741 27.98 65.5409
12770 2 55.6801 26.5713 66.1937
12771 1 60.9587 6.21406 85.0851
12772 2 61.618 6.87415 84.7252
12773 2 60.9211 5.41756 84.4816
12774 1 30.178 19.488 38.2907
12775 2 30.1045 20.1081 37.5097
12776 2 31.1376 19.2463 38.4353
12777 1 7.62409 15.5985 46.7675
12778 2 7.41098 15.1228 47.6209
12779 2 6.87283 16.2155 46.5333
12780 1 46.4283 10.104 33.9071
12781 2 46.6869 10.4425 34.8118
12782 2 46.766 10.733 33.2068
12783 1 51.1099 21.1383 79.5759
12784 2 51.7896 20.4759 79.261
12785 2 51.531 22.0429 79.6407
12786 1 76.1634 7.5786 61.6664
12787 2 76.7443 6.78868 61.47
12788 2 75.4332 7.30757 62.2935
12789 1 66.2263 19.343 81.4547
12790 2 66.5787 19.6725 82.3307
12791 2 66.8586 19.599 80.7235
12792 1 56.2599 17.5495 67.9844
12793 2 56.5777 18.153 67.2531
12794 2 57.0338 17.2888 68.5614
12795 1 68.1465 4.4049 34.0547
12796 2 68.8143 4.73225 34.7233
12797 2 67.2228 4.53701 34.4141
12798 1 23.3014 24.9479 26.3266
12799 2 24.2502 24.8697 26.0207
12800 2 22.9784 25.8822 26.1758
12801 1 77.9942 19.8467 79.6218
12802 2 78.6598 19.9613 80.3592
12803 2 77.7559 18.8794 79.5352
12804 1 48.2214 20.4881 79.4846
12805 2 47.9565 21.449 79.405
12806 2 49.2183 20.4192 79.5229
12807 1 34.7312 24.4462 57.966
12808 2 33.9814 23.788 58.0333
12809 2 35.5904 23.9581 57.8126
12810 1 26.1842 17.2417 43.9466
12811 2 26.8879 16.8158 44.5152
12812 2 25.3852 17.455 44.509
12813 1 6.25891 15.7391 41.9536
12814 2 5.58432 16.4645 42.0904
12815 2 5.95179 14.907 42.4154
12816 1 35.5171 1.3442 60.7485
12817 2 35.0988 1.58525 61.6243
12818 2 34.9146 0.719078 60.2522
12819 1 1.56829 15.1331 23.1628
12820 2 1.33477 15.2583 22.1985
12821 2 1.6582 14.1568 23.3599
12822 1 56.1942 1.36753 37.2084
12823 2 56.4587 0.470875 37.5634
12824 2 55.6946 1.87102 37.9133
12825 1 23.3402 28.9428 50.9242
12826 2 24.0663 29.3962 50.4073
12827 2 23.4509 27.9514 50.8549
12828 1 58.9323 17.2218 68.9007
12829 2 59.7024 17.8597 68.906
12830 2 58.9289 16.6964 69.7515
12831 1 33.0353 5.13906 90.0395
12832 2 32.5848 4.35631 89.6102
12833 2 34.011 4.94614 90.1437
12834 1 43.9938 14.5448 86.7366
12835 2 44.0896 15.5398 86.7647
12836 2 44.1749 14.2186 85.8088
12837 1 47.1687 16.5466 61.3853
12838 2 46.1736 16.5478 61.2868
12839 2 47.4575 17.3767 61.8622
12840 1 9.99245 25.2485 11.4729
12841 2 10.792 24.648 11.468
12842 2 10.2898 26.1987 11.5669
12843 1 58.5025 24.8126 15.8932
12844 2 57.7473 24.169 16.0178
12845 2 59.0888 24.498 15.1467
12846 1 32.2015 12.6451 37.705
12847 2 31.2031 12.6161 37.7542
12848 2 32.5673 13.0042 38.5636
12849 1 5.60982 26.1602 64.378
12850 2 5.51132 26.7121 65.2061
12851 2 5.70403 26.7625 63.5853
12852 1 44.2888 22.8964 67.6358
12853 2 44.0368 23.7489 68.0939
12854 2 44.7084 23.1043 66.7523
12855 1 7.01493 0.274818 40.521
12856 2 6.07286 0.505385 40.7646
12857 2 7.51496 0.00335612 41.3434
12858 1 74.1807 3.3215 26.3546
12859 2 73.7384 2.49288 26.0114
12860 2 74.7876 3.69128 25.6511
12861 1 66.8977 24.7697 36.6401
12862 2 66.2059 24.082 36.8603
12863 2 67.5676 24.8177 37.381
12864 1 36.7323 1.16298 43.3889
12865 2 36.0927 1.82268 42.9943
12866 2 37.0561 0.543789 42.6736
12867 1 26.1414 25.2972 28.8241
12868 2 26.8712 25.9703 28.9442
12869 2 26.4086 24.4354 29.2551
12870 1 47.7682 12.6428 75.7033
12871 2 48.4246 13.3798 75.8648
12872 2 48.1755 11.7693 75.9697
12873 1 20.8523 15.3866 35.3167
12874 2 21.1313 16.1707 34.7623
12875 2 20.0805 14.9262 34.8782
12876 1 25.2781 20.0019 60.238
12877 2 25.4803 20.9251 60.5649
12878 2 24.4659 19.6531 60.7056
12879 1 28.6789 28.5306 82.6921
12880 2 28.2813 27.9851 81.9543
12881 2 27.9824 29.1427 83.0666
12882 1 73.9556 4.26777 67.1348
12883 2 74.9226 4.014 67.1116
12884 2 73.8114 5.08302 66.5739
12885 1 37.0704 14.0696 74.1399
12886 2 37.8421 14.0588 74.7758
12887 2 36.2909 14.5255 74.5694
12888 1 27.9694 24.7 58.5612
12889 2 28.2596 24.8494 57.616
12890 2 28.5218 23.9726 58.9684
12891 1 74.3305 5.51925 57.2953
12892 2 73.5668 6.16465 57.314
12893 2 74.7173 5.48713 56.3737
12894 1 79.1681 6.59707 41.6187
12895 2 78.8198 7.11745 40.839
12896 2 78.4125 6.37363 42.2345
12897 1 3.55102 21.718 77.967
12898 2 2.97164 21.8981 78.762
12899 2 3.55553 22.5197 77.3694
12900 1 16.6985 23.4657 84.7402
12901 2 16.2126 22.5999 84.62
12902 2 17.5299 23.31 85.2737
12903 1 7.5185 0.0422714 75.3947
12904 2 8.42409 29.8554 75.0139
12905 2 7.61595 0.52714 76.2638
12906 1 51.112 17.9709 57.5954
12907 2 51.8413 17.5822 57.0322
12908 2 50.2239 17.6985 57.2252
12909 1 59.2649 20.4781 71.3342
12910 2 60.0007 21.153 71.3898
12911 2 58.4053 20.8973 71.6265
12912 1 22.4791 1.36939 23.5682
12913 2 22.4407 1.42056 22.5703
12914 2 23.2577 0.805441 23.8433
12915 1 13.7212 18.9802 27.3118
12916 2 14.1571 19.7177 26.796
12917 2 14.1095 18.1024 27.0311
12918 1 69.3806 7.17317 67.6855
12919 2 68.9854 6.46031 68.2648
12920 2 69.3836 6.86573 66.7339
12921 1 45.7513 4.75688 54.9631
12922 2 46.632 5.13214 54.6742
12923 2 45.0236 5.13641 54.3917
12924 1 30.2548 5.17965 87.057
12925 2 30.2942 4.69607 86.1826
12926 2 30.6048 4.58645 87.782
12927 1 16.7837 29.5657 39.7141
12928 2 17.3544 0.385424 39.763
12929 2 17.2117 28.8298 40.2387
12930 1 18.9996 1.41948 23.7936
12931 2 19.4623 1.90983 24.5322
12932 2 19.6412 0.786347 23.3607
12933 1 68.5058 21.0311 89.4092
12934 2 68.8165 21.6996 88.7335
12935 2 68.6835 20.1072 89.0702
12936 1 20.0736 24.9303 73.3198
12937 2 20.7614 24.2117 73.2168
12938 2 19.3166 24.76 72.689
12939 1 37.8795 19.8364 69.9341
12940 2 37.115 19.7025 70.5647
12941 2 37.5857 20.4131 69.1717
12942 1 64.391 24.8654 83.6627
12943 2 63.497 24.4301 83.5568
12944 2 65.0745 24.1719 83.8906
12945 1 1.916 17.8361 61.5378
12946 2 2.77354 17.3312 61.4393
12947 2 1.9389 18.6488 60.9556
12948 1 39.7565 4.73583 44.9539
12949 2 39.6975 5.06149 44.0102
12950 2 40.6806 4.39814 45.1327
12951 1 26.7078 3.16978 52.118
12952 2 27.6486 3.03574 52.4293
12953 2 26.1679 3.57736 52.8545
12954 1 53.8977 24.8784 55.0592
12955 2 54.7522 25.0599 54.5724
12956 2 53.3941 24.1532 54.5897
12957 1 73.578 28.9425 63.3064
12958 2 74.4971 29.298 63.4762
12959 2 73.1368 29.4865 62.5927
12960 1 21.5437 10.4215 71.5181
12961 2 20.5861 10.617 71.7295
12962 2 21.9666 11.2301 71.109
12963 1 15.8288 2.58629 42.4259
12964 2 14.8995 2.71641 42.7715
12965 2 16.4693 3.11167 42.986
12966 1 79.2442 0.255256 86.846
12967 2 79.3329 0.775211 85.9965
12968 2 78.8733 29.3486 86.6448
12969 1 72.8737 22.9755 62.6914
12970 2 72.6246 22.9812 61.7229
12971 2 73.8157 23.2948 62.7951
12972 1 7.33075 16.7334 74.2617
12973 2 6.46903 17.2329 74.1726
12974 2 7.85734 17.1105 75.0236
12975 1 76.5971 26.1226 91.292
12976 2 76.7857 25.4299 90.5959
12977 2 75.6086 26.2116 91.4144
12978 1 29.1634 4.32769 65.2711
12979 2 28.9028 5.1795 64.8167
12980 2 28.9406 4.38733 66.2442
12981 1 54.8061 14.9613 86.1022
12982 2 54.2204 14.5277 86.7871
12983 2 54.2924 15.0824 85.2529
12984 1 32.7732 3.93738 63.1654
12985 2 33.5447 3.85008 63.7957
12986 2 32.6291 3.0681 62.6926
12987 1 74.9379 0.397093 72.4502
12988 2 73.9561 0.211836 72.4919
12989 2 75.4411 29.6091 72.8049
12990 1 0.8463 7.69917 13.3817
12991 2 0.0596421 7.10631 13.554
12992 2 1.30278 7.90713 14.2467
12993 1 44.2882 10.6068 68.973
12994 2 44.5948 9.67885 68.761
12995 2 44.9239 11.2673 68.5735
12996 1 73.0169 7.12065 70.3725
12997 2 73.7806 7.29083 69.7497
12998 2 73.3589 7.0595 71.3102
12999 1 35.6417 22.2752 46.2916
13000 2 35.5673 21.2963 46.1015
13001 2 36.598 22.5089 46.4674
13002 1 25.4716 7.79955 74.4238
13003 2 25.4362 8.01306 75.4001
13004 2 24.7946 8.35159 73.9371
13005 1 74.1482 10.4998 11.5907
13006 2 73.4203 10.1117 11.0254
13007 2 74.1008 11.498 11.5561
13008 1 14.4242 27.6457 52.3947
13009 2 14.2908 26.7185 52.7448
13010 2 15.403 27.8379 52.3246
13011 1 48.4554 16.9814 40.0028
13012 2 48.2689 16.9752 40.9852
13013 2 47.7878 17.5648 39.5404
13014 1 43.4589 11.1783 62.8493
13015 2 42.6624 10.9808 62.2778
13016 2 43.794 12.0986 62.6474
13017 1 61.5859 5.6998 70.8153
13018 2 61.5705 4.90926 70.2031
13019 2 62.4995 6.10632 70.8119
13020 1 66.3919 21.843 26.8084
13021 2 66.1904 22.0328 27.7693
13022 2 66.0883 20.9178 26.5806
13023 1 26.0067 15.4504 41.8114
13024 2 25.9883 15.9566 42.6736
13025 2 25.8513 16.0813 41.0512
13026 1 72.9276 0.346835 45.5634
13027 2 73.3743 1.10812 45.0935
13028 2 72.1009 0.675911 46.0199
13029 1 8.6335 28.4454 32.9767
13030 2 8.47867 29.4331 33.0004
13031 2 8.10217 28.0072 33.7018
13032 1 22.7912 6.75937 46.6303
13033 2 22.1588 7.38116 47.0923
13034 2 23.7116 7.15027 46.6425
13035 1 64.5091 19.6984 85.0482
13036 2 63.9865 18.8725 85.2601
13037 2 64.6367 20.2352 85.8822
13038 1 77.7483 4.86732 83.018
13039 2 77.6366 5.79657 82.6658
13040 2 77.6691 4.21382 82.2652
13041 1 29.9434 4.54574 40.5064
13042 2 30.918 4.41743 40.6899
13043 2 29.8297 5.11803 39.6942
13044 1 5.67521 27.0302 51.6889
13045 2 4.85875 26.9627 52.2624
13046 2 5.40311 27.1213 50.731
13047 1 55.3471 17.3946 73.1661
13048 2 55.6452 16.4646 73.3813
13049 2 55.8379 18.0445 73.7465
13050 1 38.4372 4.62109 75.1828
13051 2 38.5677 5.32234 75.8837
13052 2 37.9382 3.84778 75.5739
13053 1 19.1232 7.68064 25.3835
13054 2 19.6275 6.84452 25.1678
13055 2 18.2072 7.62939 24.9858
13056 1 35.6923 4.72087 55.2284
13057 2 36.5752 4.27087 55.0946
13058 2 35.6946 5.60506 54.7613
13059 1 43.7916 7.39355 70.6999
13060 2 42.9201 6.92363 70.5598
13061 2 44.207 7.59672 69.8133
13062 1 22.9785 4.10127 22.4414
13063 2 22.9167 3.21912 22.9083
13064 2 23.7931 4.1152 21.8615
13065 1 32.671 20.1345 85.4151
13066 2 32.0755 20.1855 86.2168
13067 2 33.4439 20.7579 85.5337
13068 1 10.6303 11.1016 18.9163
13069 2 11.3049 10.4203 19.2006
13070 2 9.7432 10.6585 18.787
13071 1 45.6657 17.6419 45.4683
13072 2 46.1504 17.3504 46.293
13073 2 45.9981 17.1185 44.6838
13074 1 25.8149 18.7976 81.0045
13075 2 25.2215 19.3565 81.5838
13076 2 26.6292 19.3226 80.7568
13077 1 23.8205 18.6086 57.4715
13078 2 23.3572 18.4567 58.3446
13079 2 24.5069 17.8952 57.3299
13080 1 74.0189 26.33 17.6524
13081 2 74.4917 26.2163 16.7786
13082 2 74.5205 26.9827 18.2204
13083 1 40.1962 11.0542 74.4165
13084 2 39.8593 11.2171 75.3439
13085 2 40.343 11.93 73.9566
13086 1 17.4276 12.6968 85.3355
13087 2 16.7279 13.18 85.8617
13088 2 17.064 12.462 84.4341
13089 1 10.1063 8.41537 56.3329
13090 2 9.70424 7.72392 55.7327
13091 2 11.0409 8.14922 56.5688
13092 1 75.0113 15.5112 89.8268
13093 2 74.7236 15.1138 88.9554
13094 2 74.9467 16.5079 89.776
13095 1 8.60752 29.3863 62.7418
13096 2 8.78559 29.1425 63.6951
13097 2 7.62158 29.4718 62.5982
13098 1 42.7157 0.172335 43.9702
13099 2 42.0557 0.839281 44.316
13100 2 43.2469 0.582625 43.229
13101 1 40.4164 13.8803 36.6097
13102 2 40.0994 14.7079 37.0729
13103 2 41.3781 13.721 36.833
13104 1 4.228 27.2184 77.7873
13105 2 3.9374 27.0358 78.7265
13106 2 3.5002 26.9518 77.1554
13107 1 40.8282 5.35457 85.5042
13108 2 40.7523 6.13953 86.119
13109 2 40.4403 4.54595 85.9465
13110 1 72.0208 0.413865 75.0953
13111 2 72.0596 29.5275 75.5566
13112 2 72.9103 0.865366 75.1653
13113 1 70.3069 8.74697 54.9683
13114 2 70.7493 8.96853 55.8374
13115 2 70.8256 8.02918 54.5038
13116 1 44.4491 18.8333 77.6389
13117 2 45.1026 19.1397 76.9467
13118 2 44.6017 19.3386 78.4882
13119 1 5.43645 17.1431 46.1427
13120 2 4.52804 17.0189 46.5419
13121 2 5.96814 17.7696 46.7126
13122 1 9.15126 4.65493 14.2545
13123 2 9.08935 5.57147 14.6496
13124 2 9.18198 3.97679 14.9888
13125 1 65.519 10.0759 90.8016
13126 2 64.72 10.2393 90.2229
13127 2 65.5288 9.11975 91.0942
13128 1 71.786 12.847 81.6175
13129 2 71.811 13.7456 82.0556
13130 2 71.1365 12.8648 80.8573
13131 1 51.0834 4.94482 77.1261
13132 2 50.2644 4.71921 76.5986
13133 2 51.2391 4.23965 77.8179
13134 1 65.8308 18.341 23.3646
13135 2 65.7386 18.9355 24.1634
13136 2 65.7944 17.3847 23.6549
13137 1 62.7983 29.3175 62.3895
13138 2 62.5579 28.6498 63.094
13139 2 63.0729 0.175623 62.8235
13140 1 0.621315 0.17879 57.813
13141 2 1.38308 29.8042 57.2844
13142 2 79.9028 29.4884 57.8973
13143 1 56.4806 1.62959 63.1585
13144 2 57.0429 0.95607 63.6383
13145 2 56.4832 1.42877 62.1789
13146 1 12.7838 10.424 85.0926
13147 2 12.4486 10.9919 85.8443
13148 2 12.6148 9.46079 85.3014
13149 1 3.7272 1.45546 77.4069
13150 2 4.25976 1.58339 78.2435
13151 2 4.24246 0.884363 76.7678
13152 1 32.4532 28.7677 51.6221
13153 2 33.4195 29.0229 51.6554
13154 2 32.3065 27.9454 52.1717
13155 1 59.3168 7.41939 37.2991
13156 2 59.6226 6.4673 37.2986
13157 2 58.6502 7.55576 36.5663
13158 1 69.9109 20.0745 37.122
13159 2 70.1122 20.2158 38.0912
13160 2 70.6669 20.4259 36.5698
13161 1 66.6037 6.26368 63.4022
13162 2 67.1449 6.28849 64.2426
13163 2 66.9754 6.92116 62.7468
13164 1 20.8258 22.2372 86.8233
13165 2 19.85 22.2781 87.038
13166 2 21.3554 22.5138 87.6251
13167 1 46.2314 28.8231 78.6523
13168 2 45.2971 29.1064 78.8687
13169 2 46.3666 27.8743 78.9378
13170 1 3.72956 26.0381 59.0932
13171 2 3.16279 25.406 59.6215
13172 2 3.2192 26.8812 58.9236
13173 1 3.69925 1.06979 35.0283
13174 2 4.25085 0.499976 35.6374
13175 2 2.74352 1.04277 35.3213
13176 1 25.7682 21.1402 43.1446
13177 2 26.0932 21.333 42.2187
13178 2 25.9373 21.9338 43.7292
13179 1 19.9691 18.4825 34.7054
13180 2 19.3589 19.1563 35.1221
13181 2 20.9192 18.7327 34.892
13182 1 53.9318 24.8207 84.3555
13183 2 53.8549 25.8141 84.4408
13184 2 54.527 24.4692 85.0782
13185 1 2.6146 5.14106 39.3775
13186 2 2.6533 4.98165 40.3639
13187 2 1.91295 5.82499 39.1776
13188 1 72.0246 16.3926 12.8626
13189 2 72.0334 15.3936 12.9066
13190 2 72.7241 16.7594 13.4759
13191 1 12.8763 24.247 70.5216
13192 2 12.4258 24.3849 69.6396
13193 2 13.8678 24.2388 70.3918
13194 1 56.808 4.82581 21.4018
13195 2 56.9028 3.87732 21.7041
13196 2 55.9539 4.92946 20.8922
13197 1 25.207 13.0407 35.14
13198 2 25.3237 13.7191 35.8654
13199 2 26.0672 12.935 34.6411
13200 1 20.2768 7.32722 36.0114
13201 2 19.8729 7.26631 36.9241
13202 2 19.9292 6.58178 35.4426
13203 1 59.7311 16.5418 31.0283
13204 2 58.838 16.5534 30.5784
13205 2 60.2852 15.8003 30.6502
13206 1 76.2403 7.00456 11.6048
13207 2 76.8244 6.3773 12.12
13208 2 75.3633 6.56321 11.4147
13209 1 60.4116 21.3126 57.6021
13210 2 60.6353 21.696 58.4982
13211 2 59.442 21.0693 57.5764
13212 1 63.1193 10.0881 64.6305
13213 2 62.6027 10.5929 63.939
13214 2 63.0381 10.5527 65.5123
13215 1 63.2073 11.5474 50.5571
13216 2 63.9325 11.6559 51.2369
13217 2 62.5195 10.9088 50.9025
13218 1 1.04584 25.4876 31.0917
13219 2 0.738945 25.1773 30.192
13220 2 2.0053 25.7646 31.0394
13221 1 22.7949 27.6535 37.8459
13222 2 23.4672 28.2945 37.4756
13223 2 22.0311 28.1633 38.2418
13224 1 13.9819 6.29277 82.3291
13225 2 13.2174 6.85206 82.0085
13226 2 13.697 5.33548 82.3781
13227 1 59.2376 24.3891 24.0308
13228 2 60.0281 24.9962 24.1102
13229 2 59.5406 23.4848 23.7299
13230 1 34.9338 27.1758 74.0876
13231 2 34.1136 26.6537 73.8537
13232 2 35.5115 26.6333 74.6976
13233 1 27.0446 25.0606 49.4836
13234 2 27.955 24.7206 49.7196
13235 2 26.3571 24.5742 50.0228
13236 1 38.1942 2.8511 33.8569
13237 2 38.3551 2.80374 32.8711
13238 2 37.5427 2.14051 34.1228
13239 1 76.3454 9.64271 78.4459
13240 2 75.5179 9.76155 77.8972
13241 2 77.1503 9.79928 77.8735
13242 1 47.4818 9.94118 63.5146
13243 2 46.6463 9.95993 64.0639
13244 2 47.9689 10.8082 63.6191
13245 1 73.0641 24.7168 11.2087
13246 2 73.2267 24.5734 10.2325
13247 2 73.7489 25.3488 11.5714
13248 1 67.3862 12.7102 73.6221
13249 2 67.5546 12.7136 74.6078
13250 2 66.623 12.0976 73.4164
13251 1 67.3351 10.8155 14.4742
13252 2 67.1513 11.5536 13.8251
13253 2 66.5295 10.2276 14.5473
13254 1 38.5544 12.869 31.9859
13255 2 39.1576 13.0136 31.2015
13256 2 38.5264 11.8947 32.2097
13257 1 19.7115 10.4161 76.7058
13258 2 18.7875 10.2335 76.3699
13259 2 20.0771 9.59276 77.1399
13260 1 1.29486 25.822 57.4209
13261 2 2.21219 25.8158 57.0228
13262 2 0.864903 26.7092 57.2536
13263 1 69.4545 24.4187 41.2131
13264 2 69.3573 23.5428 41.6856
13265 2 69.257 24.2966 40.2405
13266 1 17.903 16.6237 14.9165
13267 2 17.2465 16.3473 15.6184
13268 2 18.6986 16.0187 14.9475
13269 1 0.563419 28.3751 21.7851
13270 2 0.206455 29.3081 21.7382
13271 2 1.0385 28.1569 20.9326
13272 1 19.9939 5.63483 16.1292
13273 2 19.2128 5.33964 15.5789
13274 2 20.8109 5.13369 15.8441
13275 1 34.6674 11.2203 41.1323
13276 2 35.3659 11.8463 41.479
13277 2 34.4657 10.5288 41.826
13278 1 4.42833 10.1765 65.6373
13279 2 4.23032 11.0451 65.183
13280 2 4.22416 9.42073 65.0152
13281 1 67.7759 19.1149 64.7355
13282 2 66.9909 19.7341 64.7532
13283 2 67.7574 18.5298 65.5463
13284 1 13.2266 5.39887 57.1481
13285 2 13.3912 6.35501 56.9058
13286 2 12.5298 5.01644 56.5413
13287 1 64.5772 23.541 17.6357
13288 2 65.0334 23.334 18.5012
13289 2 64.8751 24.4375 17.308
13290 1 60.1384 24.6808 57.4473
13291 2 60.8886 24.7495 58.105
13292 2 59.5197 25.4576 57.5651
13293 1 5.32731 27.4705 70.708
13294 2 5.52435 27.6975 71.6618
13295 2 4.47137 26.9559 70.6578
13296 1 2.80046 25.1106 13.6999
13297 2 2.34922 25.0548 14.5905
13298 2 2.25282 24.6258 13.0179
13299 1 45.594 2.74616 65.9675
13300 2 45.5035 1.75066 65.9957
13301 2 44.7053 3.16688 66.15
13302 1 34.0109 2.78805 87.5589
13303 2 34.3444 2.79203 88.5017
13304 2 33.1143 3.22936 87.5207
13305 1 23.7494 20.9733 55.8025
13306 2 24.6373 20.8171 55.3698
13307 2 23.6377 20.3432 56.571
13308 1 73.4288 8.23753 47.9433
13309 2 73.7036 7.29164 47.7707
13310 2 72.6321 8.24821 48.5476
13311 1 67.9198 25.2764 30.8714
13312 2 67.9768 24.2816 30.786
13313 2 67.4917 25.6572 30.0518
13314 1 46.4146 3.51349 85.7597
13315 2 46.2144 4.11963 84.99
13316 2 47.2489 3.82072 86.2176
13317 1 6.41363 7.82654 12.6785
13318 2 7.33041 7.54432 12.9611
13319 2 5.93961 7.05072 12.262
13320 1 73.9409 6.84383 66.0631
13321 2 73.9515 7.52792 66.7924
13322 2 74.1469 7.28478 65.1895
13323 1 70.124 5.358 61.1403
13324 2 70.4996 6.19907 61.5295
13325 2 70.0812 4.65312 61.8483
13326 1 25.7485 0.588304 30.5499
13327 2 26.3724 1.28088 30.1878
13328 2 25.9068 0.477505 31.531
13329 1 35.946 10.1842 51.9452
13330 2 36.4905 9.3464 51.9046
13331 2 35.228 10.1491 51.25
13332 1 13.1204 3.32862 29.0829
13333 2 13.4081 3.74173 28.2188
13334 2 12.5048 2.56272 28.8975
13335 1 63.2311 11.2088 69.9249
13336 2 63.5336 10.3279 70.2889
13337 2 63.157 11.1504 68.9294
13338 1 66.1158 3.68524 77.8372
13339 2 66.7982 3.01384 77.5481
13340 2 65.8812 4.27573 77.065
13341 1 32.2556 6.16988 38.2323
13342 2 32.7985 6.45992 39.0204
13343 2 31.283 6.23637 38.455
13344 1 21.1997 18.3673 73.931
13345 2 20.6849 17.5105 73.9603
13346 2 20.7495 19.0466 74.5105
13347 1 13.8637 2.16561 74.8182
13348 2 13.0064 2.36071 75.2945
13349 2 14.1217 2.95412 74.2599
13350 1 19.2964 18.532 57.9481
13351 2 20.2168 18.3712 58.3044
13352 2 18.9403 19.3895 58.3195
13353 1 29.5084 29.3687 64.8885
13354 2 29.8898 29.0249 64.0304
13355 2 28.6081 28.9606 65.0403
13356 1 12.9529 29.2523 80.7855
13357 2 13.6578 28.6879 81.2152
13358 2 12.0563 28.8343 80.9314
13359 1 45.1607 17.0588 58.2146
13360 2 44.3511 16.473 58.2514
13361 2 45.864 16.6941 58.8248
13362 1 15.4639 26.4516 38.2809
13363 2 15.0784 27.3428 38.0418
13364 2 15.7812 26.4693 39.229
13365 1 36.2007 28.8203 64.8877
13366 2 35.8773 29.105 63.9853
13367 2 36.2068 27.8216 64.9398
13368 1 73.7482 20.7658 90.8699
13369 2 73.7291 21.6711 90.4456
13370 2 72.8606 20.3217 90.7478
13371 1 79.5807 23.2437 32.2332
13372 2 0.27974 23.679 31.6659
13373 2 78.9924 22.6744 31.659
13374 1 20.4768 22.0091 42.0287
13375 2 20.9347 22.5099 42.7632
13376 2 21.1624 21.598 41.4278
13377 1 5.91369 3.52448 27.5488
13378 2 5.53155 4.13326 28.2441
13379 2 5.88706 2.58146 27.8805
13380 1 19.5135 22.6278 75.21
13381 2 19.226 23.5783 75.092
13382 2 20.3637 22.4718 74.7072
13383 1 9.76913 19.6731 83.7679
13384 2 9.21318 20.3745 83.3218
13385 2 9.17158 18.9743 84.161
13386 1 38.3279 23.0228 75.3326
13387 2 37.8568 22.9047 76.2067
13388 2 39.2674 22.6895 75.4126
13389 1 69.7194 27.6502 30.2078
13390 2 70.4777 27.8676 30.8224
13391 2 69.5588 26.6632 30.2129
13392 1 42.0514 12.056 88.7948
13393 2 42.7675 11.8899 89.4728
13394 2 41.1563 11.8868 89.2073
13395 1 62.0382 19.689 62.7265
13396 2 61.3848 19.8368 61.984
13397 2 61.5702 19.2679 63.5035
13398 1 6.3704 4.14056 30.7976
13399 2 5.67487 4.51082 30.1818
13400 2 7.26952 4.48912 30.5329
13401 1 20.3809 19.0408 43.3751
13402 2 20.4472 18.9352 44.3673
13403 2 19.9084 19.8959 43.1617
13404 1 59.4939 15.725 78.2886
13405 2 59.6456 15.8915 79.2629
13406 2 58.676 15.162 78.1701
13407 1 70.7228 26.7917 11.0571
13408 2 71.3355 26.4 10.3707
13409 2 71.1924 26.8317 11.939
13410 1 64.2037 21.8792 86.9064
13411 2 64.1154 22.5909 87.6033
13412 2 65.0275 22.0441 86.3641
13413 1 34.9777 28.1401 47.6637
13414 2 33.9838 28.0366 47.6267
13415 2 35.3547 28.0714 46.7401
13416 1 7.37872 20.0889 70.2343
13417 2 7.67814 19.1654 70.4739
13418 2 7.62198 20.2821 69.2838
13419 1 6.65893 6.94299 79.3489
13420 2 7.07267 6.67961 78.4774
13421 2 7.32876 7.44224 79.8985
13422 1 64.1837 3.87161 89.9723
13423 2 63.3917 4.47798 90.0434
13424 2 64.9516 4.26566 90.4772
13425 1 50.8082 22.7399 61.8322
13426 2 51.7166 23.0973 61.6155
13427 2 50.8787 21.7705 62.0674
13428 1 55.9006 29.8232 71.6344
13429 2 55.8165 29.2318 72.4364
13430 2 56.7838 0.291611 71.6568
13431 1 62.944 4.38314 20.2363
13432 2 62.738 3.89695 21.0855
13433 2 63.9118 4.6343 20.2224
13434 1 65.1468 17.9821 46.8408
13435 2 65.8526 17.6283 47.4545
13436 2 65.372 18.9208 46.5799
13437 1 25.2845 21.2511 47.6554
13438 2 25.4487 20.4729 47.0492
13439 2 24.3322 21.2411 47.9602
13440 1 63.2421 6.1339 47.0793
13441 2 62.8031 6.41908 47.9313
13442 2 64.2354 6.18606 47.1825
13443 1 15.7011 26.0725 35.3903
13444 2 15.8792 26.8591 34.7991
13445 2 16.3619 26.0633 36.1408
13446 1 70.8745 17.9373 19.9981
13447 2 71.3636 18.8081 20.0492
13448 2 70.5504 17.6831 20.9093
13449 1 53.0463 7.55049 43.3102
13450 2 53.3675 7.30643 44.2253
13451 2 52.4898 6.80546 42.9426
13452 1 66.054 17.7925 69.3159
13453 2 65.7458 18.1026 68.4165
13454 2 65.7363 18.4321 70.0159
13455 1 74.0796 18.0042 90.2742
13456 2 74.2701 18.9844 90.2191
13457 2 73.0917 17.8593 90.3292
13458 1 58.3168 10.5838 82.5417
13459 2 57.8919 10.7896 81.6601
13460 2 58.4247 11.429 83.0651
13461 1 14.029 18.0247 63.9084
13462 2 13.5919 17.2049 63.5385
13463 2 14.1886 17.904 64.8882
13464 1 57.6216 7.44155 46.2875
13465 2 57.3869 7.69753 47.2252
13466 2 58.1939 8.15372 45.8809
13467 1 10.9645 17.748 58.231
13468 2 10.2403 18.1922 57.7035
13469 2 11.3681 18.408 58.8646
13470 1 15.2699 18.2279 53.6159
13471 2 15.2753 18.7244 52.7479
13472 2 15.059 18.8609 54.3608
13473 1 67.5399 11.3261 29.3587
13474 2 66.5797 11.2586 29.6299
13475 2 68.103 10.7941 29.9912
13476 1 54.0287 9.841 75.4351
13477 2 55.0271 9.89493 75.4493
13478 2 53.6893 9.69924 76.365
13479 1 17.4405 5.7975 71.1964
13480 2 16.7726 5.29734 70.6454
13481 2 17.1781 5.7525 72.1603
13482 1 16.93 16.6817 63.5921
13483 2 16.7145 16.4054 64.5287
13484 2 17.6076 17.4169 63.609
13485 1 69.1064 3.426 17.9611
13486 2 69.345 4.32631 17.5971
13487 2 69.4981 3.32153 18.8752
13488 1 6.65159 17.0047 35.5972
13489 2 5.73519 16.6044 35.6001
13490 2 6.95285 17.1409 34.6534
13491 1 79.3873 23.6203 68.532
13492 2 79.3815 22.8818 69.2062
13493 2 0.0695412 24.3037 68.7921
13494 1 7.7874 6.55791 20.1493
13495 2 7.4913 6.1597 19.2812
13496 2 8.78453 6.63293 20.1588
13497 1 33.5835 19.8442 70.4831
13498 2 34.4145 19.691 71.0178
13499 2 33.289 20.7939 70.5895
13500 1 21.7333 10.026 47.3474
13501 2 22.1799 9.96228 48.2399
13502 2 22.4245 10.1618 46.6377
13503 1 29.1227 24.3132 37.5887
13504 2 28.4537 24.6993 38.2238
13505 2 28.8961 23.3563 37.407
13506 1 7.99968 20.3458 18.1929
13507 2 7.0193 20.1553 18.2436
13508 2 8.50316 19.6352 18.6844
13509 1 72.329 19.693 45.0192
13510 2 72.5695 20.519 45.529
13511 2 72.598 18.8863 45.5455
13512 1 66.4222 12.7241 85.6976
13513 2 67.414 12.8044 85.7965
13514 2 66.1056 11.9015 86.1698
13515 1 35.6145 21.0968 33.4032
13516 2 36.0364 20.7243 32.5765
13517 2 35.9309 22.0347 33.5452
13518 1 7.20135 4.43047 51.6775
13519 2 6.25749 4.76081 51.678
13520 2 7.82726 5.2098 51.707
13521 1 74.5959 1.62293 55.9908
13522 2 74.7816 1.64896 56.9731
13523 2 75.3991 1.94734 55.4912
13524 1 21.1559 13.646 18.2112
13525 2 21.3758 12.6721 18.1546
13526 2 20.6788 13.9288 17.3791
13527 1 5.98566 8.13849 56.7353
13528 2 6.33183 8.94305 56.2528
13529 2 6.04896 8.28869 57.7219
13530 1 34.5278 4.03531 37.2722
13531 2 34.5983 4.47543 38.1673
13532 2 35.2785 3.38416 37.1608
13533 1 55.5236 12.993 26.6518
13534 2 55.5052 12.1254 27.1488
13535 2 55.0174 12.8971 25.7948
13536 1 78.9317 13.7692 36.3655
13537 2 78.6649 13.7331 37.3286
13538 2 78.1485 14.0545 35.8131
13539 1 20.0054 28.7948 38.9223
13540 2 19.479 29.6231 38.7302
13541 2 20.2517 28.7736 39.8912
13542 1 10.8893 1.75255 37.3135
13543 2 10.4543 0.884816 37.554
13544 2 10.6113 2.45699 37.9665
13545 1 18.9383 29.1244 48.0723
13546 2 19.4211 28.6365 47.3451
13547 2 18.7515 28.4966 48.8279
13548 1 23.6565 5.31798 25.0845
13549 2 24.5453 5.16843 25.5175
13550 2 23.6202 4.82088 24.2176
13551 1 25.7703 25.8739 58.2528
13552 2 25.6864 26.7954 58.6319
13553 2 26.7351 25.6128 58.2217
13554 1 60.0324 4.17095 31.0332
13555 2 60.9658 4.33064 31.3547
13556 2 59.9599 3.24278 30.6682
13557 1 14.1514 27.2729 69.9807
13558 2 14.4717 27.9388 69.3068
13559 2 13.4371 27.6869 70.5449
13560 1 71.9567 11.5954 86.9626
13561 2 72.4419 11.7317 87.8263
13562 2 71.0276 11.2761 87.149
13563 1 43.5796 7.71483 85.384
13564 2 42.9591 7.58253 86.157
13565 2 44.415 8.16437 85.7003
13566 1 7.92616 29.3357 70.6331
13567 2 8.1515 0.30813 70.6928
13568 2 7.30104 29.0922 71.3747
13569 1 59.0531 20.7697 25.0499
13570 2 58.8365 21.6407 25.4908
13571 2 60.0083 20.7744 24.7539
13572 1 14.7722 4.20083 64.5593
13573 2 13.7734 4.23762 64.594
13574 2 15.1327 5.11278 64.3633
13575 1 23.324 8.90349 72.8074
13576 2 23.0065 8.05788 72.3783
13577 2 22.7063 9.65197 72.5663
13578 1 74.3508 28.7799 79.8633
13579 2 74.4288 29.3951 80.6478
13580 2 74.0854 27.8689 80.1791
13581 1 74.4378 20.3998 24.2803
13582 2 75.2343 21.0041 24.2987
13583 2 74.7185 19.4873 23.9825
13584 1 3.28566 16.0793 20.222
13585 2 3.53022 15.4696 19.468
13586 2 4.0759 16.6415 20.4657
13587 1 63.1086 27.6177 50.5821
13588 2 63.562 28.0831 49.822
13589 2 62.6809 28.2953 51.1804
13590 1 58.8649 21.1472 15.9436
13591 2 59.4929 20.5307 15.4686
13592 2 58.677 21.9415 15.3659
13593 1 22.0457 4.92961 65.0896
13594 2 22.7509 4.22544 65.0062
13595 2 21.6916 4.93754 66.0248
13596 1 74.3915 20.7609 77.0095
13597 2 75.0471 21.4446 77.3302
13598 2 74.0311 21.037 76.1185
13599 1 56.5853 14.5753 55.1333
13600 2 57.2522 14.5236 54.39
13601 2 56.6748 13.769 55.718
13602 1 69.5039 1.75867 42.0384
13603 2 69.6092 2.4229 42.7785
13604 2 69.3587 0.848264 42.4258
13605 1 10.2406 10.7699 76.0962
13606 2 10.0419 11.4663 75.4065
13607 2 11.0718 11.0201 76.5926
13608 1 71.9266 12.9454 21.8231
13609 2 72.5911 13.1239 22.5488
13610 2 71.0647 13.4038 22.0402
13611 1 75.854 13.9762 74.7747
13612 2 76.7304 14.2728 74.3952
13613 2 75.5299 14.6542 75.4344
13614 1 53.1192 13.6041 79.2019
13615 2 53.1978 12.6333 78.9753
13616 2 53.2366 13.7268 80.1874
13617 1 13.934 14.6214 27.5884
13618 2 14.4707 15.3341 27.1366
13619 2 14.0677 13.7518 27.1131
13620 1 24.6869 1.95478 60.0874
13621 2 24.6843 2.4319 59.2086
13622 2 23.7574 1.92895 60.4554
13623 1 76.9338 11.5994 24.6066
13624 2 77.2709 11.2511 25.4813
13625 2 77.276 11.0234 23.8643
13626 1 46.2002 6.7809 74.1337
13627 2 46.9578 7.10964 73.5698
13628 2 45.3825 7.32396 73.9427
13629 1 67.1487 25.469 34.0365
13630 2 66.9324 25.3805 35.0088
13631 2 66.305 25.4221 33.5017
13632 1 35.2193 14.3315 76.5177
13633 2 35.518 14.7879 77.3559
13634 2 34.653 13.5414 76.7521
13635 1 30.6023 2.78231 73.6805
13636 2 30.2598 1.84415 73.6303
13637 2 29.8311 3.416 73.7405
13638 1 10.0565 15.7781 80.8049
13639 2 10.0545 15.251 79.9551
13640 2 10.9844 15.8073 81.1768
13641 1 21.5062 17.7435 66.98
13642 2 21.473 17.3294 67.8896
13643 2 21.4358 17.0278 66.2851
13644 1 18.4958 24.4218 32.2119
13645 2 19.2149 24.3108 31.5259
13646 2 18.7436 25.1611 32.838
13647 1 6.67798 14.9741 57.7091
13648 2 6.66709 15.9207 57.3866
13649 2 7.57435 14.5701 57.5266
13650 1 54.3013 6.79759 59.3222
13651 2 54.2656 7.74096 58.9924
13652 2 54.0297 6.17687 58.5867
13653 1 19.5972 25.0672 17.6397
13654 2 18.6575 24.8472 17.3781
13655 2 19.6195 25.3448 18.6001
13656 1 34.445 10.7252 63.0054
13657 2 33.6546 10.983 62.4498
13658 2 35.075 11.4992 63.0684
13659 1 9.46771 16.1183 51.7015
13660 2 9.34779 16.7729 52.4479
13661 2 8.88821 15.3194 51.8624
13662 1 74.9545 27.6145 61.1503
13663 2 75.718 27.6221 61.796
13664 2 74.8535 28.5222 60.7428
13665 1 14.8022 13.989 23.6522
13666 2 14.162 14.7539 23.5809
13667 2 15.3253 13.9119 22.8035
13668 1 40.8204 23.8192 79.4916
13669 2 41.0204 24.7508 79.7951
13670 2 41.3117 23.1676 80.0696
13671 1 10.5869 10.6468 10.7261
13672 2 11.0597 10.2904 11.532
13673 2 10.8621 10.1236 9.91958
13674 1 4.88741 5.94634 67.2003
13675 2 5.37071 6.1494 68.0519
13676 2 4.72175 4.96216 67.1376
13677 1 58.6636 0.172057 52.9667
13678 2 59.5406 0.391351 52.5391
13679 2 58.3518 29.2771 52.6477
13680 1 50.7238 5.79433 58.7454
13681 2 49.9606 6.43937 58.7833
13682 2 51.5009 6.2241 58.2857
13683 1 37.8147 7.59348 51.5035
13684 2 37.1585 7.37172 50.7823
13685 2 38.0738 6.75734 51.987
13686 1 45.6422 8.09422 55.9471
13687 2 46.2277 8.33784 55.1739
13688 2 45.4058 7.12404 55.8934
13689 1 35.7417 4.48338 63.6354
13690 2 35.478 4.20569 64.5591
13691 2 35.6653 5.47692 63.5514
13692 1 71.1644 14.1271 64.0036
13693 2 71.9967 14.6358 64.2236
13694 2 71.4095 13.2353 63.6233
13695 1 66.3525 6.48938 80.3989
13696 2 66.7959 5.75758 79.8813
13697 2 67.0478 7.0355 80.8662
13698 1 51.8819 26.9603 60.8915
13699 2 51.3967 27.5082 61.5729
13700 2 51.9229 26.0088 61.1967
13701 1 25.0613 12.2339 85.1488
13702 2 24.9232 12.8124 84.3448
13703 2 25.7467 11.5355 84.943
13704 1 60.6031 2.76899 86.6153
13705 2 60.0848 2.60109 85.7767
13706 2 60.2788 3.61206 87.0444
13707 1 12.6196 4.52237 12.613
13708 2 13.0844 4.46049 11.7297
13709 2 12.6841 5.45851 12.9587
13710 1 65.6386 6.00258 44.4679
13711 2 65.3522 5.64566 43.5787
13712 2 65.1193 5.54893 45.1921
13713 1 56.7653 24.2914 22.2278
13714 2 57.3713 23.9559 22.9491
13715 2 56.1651 24.9997 22.5994
13716 1 61.0404 29.8327 83.8181
13717 2 60.5942 28.9379 83.8333
13718 2 60.3639 0.538968 83.6093
13719 1 60.7261 26.7637 91.4798
13720 2 60.4292 26.6798 92.431
13721 2 61.6907 27.0262 91.4537
13722 1 60.0215 10.8528 53.5363
13723 2 59.2334 11.39 53.8366
13724 2 60.8482 11.196 53.9821
13725 1 56.0438 29.0273 76.8629
13726 2 55.9139 28.9116 75.8781
13727 2 55.2423 28.6781 77.3482
13728 1 12.7507 25.5223 36.8842
13729 2 12.2474 25.8366 37.6891
13730 2 13.7326 25.6215 37.0454
13731 1 18.7132 23.1753 27.1194
13732 2 19.0577 24.1042 27.2554
13733 2 18.1573 22.9074 27.9062
13734 1 19.0384 2.2588 55.5683
13735 2 18.7693 3.06142 56.1006
13736 2 19.9853 2.01889 55.7824
13737 1 63.0676 25.8426 88.5615
13738 2 63.9215 26.3599 88.5044
13739 2 63.194 24.9433 88.1428
13740 1 4.52346 4.13931 52.1054
13741 2 4.38322 3.22252 51.7315
13742 2 3.64927 4.6239 52.1366
13743 1 4.50803 2.5279 14.6927
13744 2 3.58064 2.90197 14.6884
13745 2 4.67382 2.05792 15.5597
13746 1 46.2692 22.0595 81.7457
13747 2 46.1954 23.0544 81.815
13748 2 46.8146 21.7118 82.5084
13749 1 6.15101 19.3856 15.6828
13750 2 6.06784 19.4394 16.6779
13751 2 5.26975 19.6018 15.2625
13752 1 64.1523 8.46438 23.8075
13753 2 63.4879 8.8532 24.4457
13754 2 64.9241 8.08647 24.3189
13755 1 17.6882 29.1614 70.3082
13756 2 16.8758 29.0128 70.872
13757 2 17.4453 29.0684 69.3426
13758 1 2.06966 0.574533 14.2963
13759 2 2.85913 0.940201 13.8033
13760 2 2.14265 29.5787 14.3506
13761 1 79.8442 25.5238 86.2331
13762 2 79.7068 25.1704 85.3078
13763 2 0.192197 24.7933 86.8207
13764 1 18.3314 0.853438 62.3231
13765 2 17.4656 0.443918 62.6107
13766 2 18.9395 0.13889 61.9772
13767 1 58.3922 29.1226 30.3238
13768 2 58.9371 29.5876 31.0215
13769 2 57.4644 29.4956 30.322
13770 1 35.2086 7.62393 64.2901
13771 2 36.167 7.42025 64.4901
13772 2 35.1369 8.54345 63.9037
13773 1 11.256 20.9233 26.6078
13774 2 12.0647 20.4033 26.8828
13775 2 10.8922 20.5477 25.7554
13776 1 21.3464 5.84221 79.0038
13777 2 20.8874 5.68042 79.8774
13778 2 21.2885 6.81316 78.7716
13779 1 72.945 29.1877 28.1434
13780 2 72.2502 29.6925 27.6311
13781 2 73.3723 29.7951 28.8131
13782 1 16.9596 2.39412 33.328
13783 2 16.7996 1.43251 33.1051
13784 2 17.4603 2.83066 32.5804
13785 1 59.5228 17.3306 38.0723
13786 2 58.6392 16.9739 37.7689
13787 2 59.5279 17.4042 39.0696
13788 1 54.4638 16.7901 88.4487
13789 2 54.6031 16.9229 89.43
13790 2 55.0472 16.0443 88.1272
13791 1 60.0473 8.95731 46.7046
13792 2 59.9124 8.24616 47.3946
13793 2 60.6899 9.64057 47.0513
13794 1 17.8159 19.8593 90.475
13795 2 16.9441 19.533 90.8403
13796 2 17.9302 19.5272 89.5387
13797 1 62.6066 7.14802 49.8908
13798 2 63.2151 7.86531 49.5514
13799 2 61.6601 7.46868 49.8537
13800 1 13.0348 28.3016 21.3038
13801 2 13.7374 27.7833 20.8162
13802 2 13.3059 28.4126 22.2599
13803 1 79.527 21.2708 50.1887
13804 2 0.377026 21.5395 50.6418
13805 2 79.6969 21.1403 49.2119
13806 1 65.0638 14.4858 46.3821
13807 2 65.0206 15.4776 46.2621
13808 2 64.5667 14.2283 47.2107
13809 1 10.849 27.3254 89.3493
13810 2 9.94821 26.8962 89.4147
13811 2 11.4088 27.0461 90.1294
13812 1 57.4547 28.2869 80.4207
13813 2 57.8736 27.9834 81.2764
13814 2 57.0471 29.1907 80.5513
13815 1 38.3103 20.7289 48.2614
13816 2 38.228 21.0098 47.3052
13817 2 39.2021 20.3007 48.4074
13818 1 5.91576 14.5517 73.3123
13819 2 5.21506 13.8434 73.3981
13820 2 5.82148 15.2064 74.0624
13821 1 6.77225 8.6885 21.2125
13822 2 7.0951 7.82919 20.8158
13823 2 7.55347 9.21521 21.5476
13824 1 79.5847 9.70015 52.9484
13825 2 0.32195 9.03579 52.8255
13826 2 79.8644 10.5823 52.5694
13827 1 18.7276 0.379592 29.9595
13828 2 19.1962 0.35271 29.0765
13829 2 18.5244 1.32867 30.2003
13830 1 29.1689 28.8643 57.4052
13831 2 29.4301 28.2924 58.1828
13832 2 28.9786 28.2838 56.6135
13833 1 37.7337 24.445 60.9729
13834 2 37.042 23.7368 60.8313
13835 2 38.6449 24.0367 60.9179
13836 1 74.8367 20.5314 17.1835
13837 2 75.6052 19.9904 17.5252
13838 2 75.0234 21.5033 17.3268
13839 1 7.71184 6.17754 55.9358
13840 2 7.18444 6.98737 56.1927
13841 2 7.8131 5.5796 56.7309
13842 1 74.2926 9.4113 68.3116
13843 2 75.2217 9.70757 68.5329
13844 2 73.7079 9.51933 69.1156
13845 1 48.4493 1.79824 50.348
13846 2 48.8525 1.72906 51.2604
13847 2 47.885 2.6221 50.2945
13848 1 65.823 28.8087 12.6742
13849 2 66.6533 29.0199 13.1899
13850 2 66.0707 28.4932 11.7582
13851 1 10.9801 0.47297 62.9154
13852 2 10.0562 0.12474 62.757
13853 2 11.4017 29.9685 63.6689
13854 1 77.7412 1.37311 78.341
13855 2 77.9524 0.950829 77.4595
13856 2 77.2708 0.710487 78.9239
13857 1 72.2119 15.9852 42.5872
13858 2 73.1716 16.2354 42.4597
13859 2 72.0467 15.0831 42.1884
13860 1 39.7694 12.6058 40.5502
13861 2 40.5149 11.9621 40.7231
13862 2 39.7266 12.8115 39.5725
13863 1 36.7657 16.6762 58.8067
13864 2 36.1513 17.4394 58.6066
13865 2 36.3422 16.0766 59.4858
13866 1 71.8659 18.3609 56.0826
13867 2 72.4228 17.5985 56.4122
13868 2 70.9108 18.2109 56.3381
13869 1 44.5707 1.17968 36.2009
13870 2 45.2143 1.71362 35.6526
13871 2 44.98 0.296257 36.429
13872 1 27.6432 18.9608 42.7138
13873 2 27.0754 18.3471 43.2624
13874 2 27.9349 19.7356 43.2747
13875 1 15.3911 27.4238 19.8147
13876 2 15.6331 27.2027 20.7595
13877 2 15.7997 28.3011 19.5626
13878 1 34.4663 25.4808 36.7924
13879 2 35.398 25.7081 37.0759
13880 2 34.0073 26.3061 36.4636
13881 1 58.0165 13.5272 24.387
13882 2 57.9467 13.4864 23.3903
13883 2 58.4307 12.6829 24.727
13884 1 56.5955 5.30475 53.8391
13885 2 56.417 6.06769 53.2178
13886 2 55.7341 4.84928 54.0639
13887 1 4.9993 11.3638 82.9198
13888 2 5.3664 11.0412 82.0473
13889 2 5.48945 12.188 83.2033
13890 1 2.6789 6.16565 70.4873
13891 2 1.88995 6.72759 70.2388
13892 2 3.50675 6.55704 70.0855
13893 1 66.578 14.7773 83.5986
13894 2 66.7292 14.3846 82.6914
13895 2 66.4542 14.0413 84.2641
13896 1 46.8021 26.0215 79.2191
13897 2 47.6075 25.4782 78.9821
13898 2 46.4521 25.7281 80.1087
13899 1 73.8004 27.679 14.4571
13900 2 74.089 26.796 14.0869
13901 2 73.8509 28.3738 13.7396
13902 1 34.9161 1.73221 71.2734
13903 2 34.9804 1.99855 72.2352
13904 2 34.0064 1.95848 70.925
13905 1 77.6142 0.707072 14.8538
13906 2 77.8022 29.7253 14.8814
13907 2 76.8602 0.884438 14.2213
13908 1 61.8895 23.867 47.6537
13909 2 62.8696 23.8444 47.8505
13910 2 61.4854 24.6833 48.0664
13911 1 37.3226 28.4706 87.2507
13912 2 36.5882 28.4242 87.9278
13913 2 37.5418 29.4278 87.0617
13914 1 1.35022 17.5708 24.2906
13915 2 1.26408 16.6759 23.8527
13916 2 2.26598 17.6639 24.6814
13917 1 47.4863 21.3124 33.6427
13918 2 48.432 21.6247 33.7323
13919 2 46.8694 22.0976 33.6982
13920 1 2.29644 27.9496 14.5187
13921 2 3.14553 28.1567 15.0047
13922 2 1.56773 27.7743 15.1807
13923 1 18.0171 0.0942908 34.495
13924 2 17.9692 1.07454 34.3031
13925 2 18.9564 29.8467 34.7327
13926 1 70.5654 24.977 51.8357
13927 2 71.1923 25.6898 52.1504
13928 2 70.8554 24.0927 52.2018
13929 1 5.6026 1.39119 17.1902
13930 2 4.77791 1.601 17.7154
13931 2 6.32792 2.0335 17.4379
13932 1 62.3011 16.0983 55.259
13933 2 62.7928 16.8975 54.9131
13934 2 62.0507 16.2492 56.2153
13935 1 2.60244 1.03985 18.473
13936 2 2.93514 0.0994067 18.5429
13937 2 2.82024 1.53385 19.3147
13938 1 72.8821 26.0031 80.6474
13939 2 73.6651 25.4298 80.8887
13940 2 72.2849 25.5045 80.0191
13941 1 76.371 12.4431 31.7054
13942 2 76.7362 11.5597 31.9992
13943 2 76.4155 13.0915 32.4654
13944 1 72.7675 18.4442 76.4404
13945 2 72.7534 17.5504 76.8885
13946 2 73.4666 19.0192 76.8655
13947 1 8.47345 22.9959 30.5346
13948 2 7.58751 22.6824 30.8765
13949 2 8.7011 23.8742 30.955
13950 1 77.3998 19.0811 50.4456
13951 2 77.9829 19.0084 49.6365
13952 2 77.3147 18.183 50.877
13953 1 5.70298 23.0795 16.9832
13954 2 6.25819 22.65 16.271
13955 2 4.79207 22.6669 16.9899
13956 1 5.95184 25.4254 82.5054
13957 2 6.07987 26.3989 82.6949
13958 2 6.437 25.1827 81.6654
13959 1 11.4491 2.23522 75.883
13960 2 10.8359 3.02054 75.9675
13961 2 11.2654 1.58771 76.6226
13962 1 19.7213 12.9498 57.3043
13963 2 19.0947 12.171 57.3333
13964 2 19.3782 13.6759 57.9001
13965 1 23.2511 12.0398 33.4977
13966 2 24.1186 12.1871 33.9728
13967 2 22.7467 11.3018 33.9459
13968 1 54.5918 0.249905 58.188
13969 2 55.3268 0.92623 58.1391
13970 2 53.7089 0.709746 58.0932
13971 1 65.9626 12.1426 64.3503
13972 2 66.0044 11.1449 64.2969
13973 2 66.8871 12.51 64.4518
13974 1 68.9579 10.7853 37.3594
13975 2 69.3311 9.97539 37.812
13976 2 68.981 11.5603 37.9909
13977 1 36.1141 11.2226 84.0084
13978 2 35.8586 12.1491 83.732
13979 2 35.9605 10.5933 83.2465
13980 1 38.6558 22.196 50.6864
13981 2 38.6977 21.4886 49.9809
13982 2 37.9928 22.895 50.4185
13983 1 39.3601 23.9911 40.4997
13984 2 39.5882 23.4115 41.282
13985 2 40.0957 24.6512 40.3481
13986 1 1.43864 5.0225 52.623
13987 2 0.976054 4.14714 52.4825
13988 2 0.914694 5.57623 53.2702
13989 1 8.77056 5.7444 11.2386
13990 2 8.94542 5.68347 12.2213
13991 2 7.79578 5.60512 11.0642
13992 1 50.0197 2.99996 90.3211
13993 2 49.0579 3.19224 90.5156
13994 2 50.4722 3.83808 90.0164
13995 1 51.228 19.4146 29.9825
13996 2 51.5149 19.8671 30.8268
13997 2 50.2438 19.2407 30.0153
13998 1 21.9982 4.2847 35.2647
13999 2 22.2278 3.45572 35.7747
14000 2 21.2784 4.07947 34.6015
14001 1 9.41291 10.4304 64.3263
14002 2 8.45893 10.4704 64.6235
14003 2 10.0112 10.659 65.0943
14004 1 42.264 23.1264 88.3868
14005 2 42.248 23.8795 87.7291
14006 2 42.6488 22.3123 87.952
14007 1 79.7438 15.5706 52.2842
14008 2 79.6389 16.0261 53.1682
14009 2 0.55854 14.991 52.3025
14010 1 23.8718 16.5273 61.6743
14011 2 23.8777 15.5589 61.9234
14012 2 24.5965 16.7047 61.0085
14013 1 18.7805 8.97309 79.5765
14014 2 17.9339 8.66361 79.1436
14015 2 19.55 8.80776 78.9597
14016 1 26.2776 23.7403 79.648
14017 2 27.0139 23.1113 79.8974
14018 2 25.4651 23.5355 80.1938
14019 1 0.933292 3.23398 82.464
14020 2 1.29876 3.12691 81.5393
14021 2 79.9763 3.5196 82.4131
14022 1 32.5365 29.3773 73.9062
14023 2 32.6094 28.9512 73.0045
14024 2 32.4833 28.6664 74.6075
14025 1 20.9107 4.13988 13.0264
14026 2 20.7772 3.54041 12.2372
14027 2 21.1554 5.05671 12.711
14028 1 2.77634 4.31299 17.1662
14029 2 1.90539 4.4732 17.6308
14030 2 3.52101 4.34829 17.8327
14031 1 5.39655 4.35917 71.9738
14032 2 5.34603 5.21689 71.4622
14033 2 4.49832 3.91964 71.9771
14034 1 57.979 7.33386 16.5594
14035 2 57.5145 6.55016 16.1471
14036 2 58.9431 7.32734 16.2939
14037 1 64.8573 4.0606 81.3382
14038 2 65.7378 3.80987 81.7405
14039 2 64.5441 4.92419 81.7333
14040 1 62.5976 28.7584 24.9291
14041 2 61.6248 28.5852 25.0828
14042 2 63.0601 28.8665 25.8091
14043 1 37.7506 14.1396 54.7415
14044 2 37.8203 14.2152 53.7468
14045 2 36.788 14.0729 55.0041
14046 1 2.07608 22.2312 46.5717
14047 2 2.19794 21.7474 45.705
14048 2 2.79919 21.9624 47.208
14049 1 21.7124 22.3573 38.8916
14050 2 22.2628 22.995 38.3527
14051 2 22.2263 22.0758 39.7019
14052 1 13.0266 5.92234 65.7569
14053 2 12.5164 6.57689 65.199
14054 2 12.3893 5.39635 66.3201
14055 1 44.6286 4.1058 63.4475
14056 2 44.7951 4.97083 62.9742
14057 2 44.2599 3.43777 62.8011
14058 1 50.4177 4.43897 85.88
14059 2 51.1903 4.71047 85.3061
14060 2 50.2246 5.16228 86.543
14061 1 40.2258 23.889 37.5745
14062 2 40.3438 24.683 38.1709
14063 2 39.3222 23.9242 37.1476
14064 1 70.1529 10.558 14.2243
14065 2 70.0002 11.2184 14.9596
14066 2 69.9167 10.9756 13.3469
14067 1 14.336 11.1518 11.5782
14068 2 13.7985 10.349 11.8363
14069 2 15.2459 11.0895 11.9883
14070 1 64.0522 29.2608 67.6423
14071 2 63.778 29.7154 66.7949
14072 2 63.3916 28.5438 67.8647
14073 1 50.1105 9.30257 42.169
14074 2 49.415 10.015 42.0759
14075 2 50.6811 9.28444 41.348
14076 1 7.11638 6.76785 36.3306
14077 2 6.17454 6.43309 36.3009
14078 2 7.12662 7.75091 36.1476
14079 1 34.9623 6.2945 42.9158
14080 2 34.5167 5.42476 43.1279
14081 2 35.2839 6.71933 43.762
14082 1 14.3128 20.3979 39.7136
14083 2 14.1347 21.1232 39.0486
14084 2 15.2961 20.3374 39.8855
14085 1 13.0651 1.2321 23.2006
14086 2 13.5356 0.522614 23.7253
14087 2 13.074 0.990158 22.2303
14088 1 73.196 14.4003 69.9541
14089 2 74.041 13.8722 69.8699
14090 2 73.3014 15.2755 69.4819
14091 1 42.5593 11.6727 44.1863
14092 2 42.9026 11.0279 44.8692
14093 2 41.9346 11.1994 43.5653
14094 1 74.0501 8.03222 27.4357
14095 2 74.0787 9.02046 27.5859
14096 2 74.1764 7.55879 28.3074
14097 1 26.4577 28.9377 63.4921
14098 2 27.1231 28.2996 63.1049
14099 2 25.8728 28.4547 64.1437
14100 1 62.3845 8.20668 67.7154
14101 2 63.2211 8.22682 68.2628
14102 2 62.1453 9.13713 67.4378
14103 1 31.562 12.6398 86.4791
14104 2 31.6126 13.1945 85.6486
14105 2 31.4411 13.2371 87.272
14106 1 72.5199 3.05079 57.7566
14107 2 73.1919 3.17115 57.026
14108 2 72.1379 2.12779 57.7095
14109 1 64.4431 3.72059 57.6562
14110 2 64.1398 3.66708 58.6076
14111 2 64.1252 4.5786 57.2528
14112 1 28.9393 14.7169 54.871
14113 2 28.8923 14.8255 55.864
14114 2 29.6224 15.3453 54.499
14115 1 65.6365 20.5641 78.5437
14116 2 65.1038 21.2938 78.1149
14117 2 66.6118 20.7641 78.4498
14118 1 16.315 7.96849 10.547
14119 2 17.0045 7.48148 11.0831
14120 2 16.3819 7.69228 9.58824
14121 1 68.6403 24.8604 55.2093
14122 2 68.2458 25.7652 55.3695
14123 2 68.7 24.3646 56.0757
14124 1 73.3574 27.6578 44.3595
14125 2 73.2256 28.5415 44.8088
14126 2 72.66 27.0153 44.6768
14127 1 75.3674 24.0582 35.5428
14128 2 74.3807 23.9037 35.4922
14129 2 75.6957 23.819 36.4566
14130 1 51.5101 0.70582 57.4288
14131 2 51.328 0.579396 56.4537
14132 2 51.1404 29.9301 57.9403
14133 1 42.1288 4.7813 89.4891
14134 2 43.0427 5.01186 89.8231
14135 2 41.8499 5.44571 88.7957
14136 1 79.929 8.88309 68.9645
14137 2 0.211113 9.71297 68.4831
14138 2 0.226073 8.93356 69.918
14139 1 5.20409 25.106 75.4217
14140 2 5.67806 24.9776 76.2928
14141 2 4.3371 25.5784 75.5804
14142 1 78.3444 19.0952 55.8868
14143 2 77.624 19.0681 56.5798
14144 2 78.385 18.2152 55.4136
14145 1 63.2478 18.9667 80.0174
14146 2 64.1949 19.2646 80.137
14147 2 63.0547 18.8531 79.0428
14148 1 60.6111 8.04737 15.8012
14149 2 61.3587 7.43595 15.5419
14150 2 60.7939 8.96531 15.4491
14151 1 12.6727 23.9291 62.4188
14152 2 11.8266 24.3186 62.0549
14153 2 12.4559 23.1422 62.9965
14154 1 39.3712 22.8353 68.3221
14155 2 40.308 23.1161 68.5306
14156 2 39.2344 21.8884 68.613
14157 1 59.8853 19.7632 49.0172
14158 2 60.6974 19.2517 48.7363
14159 2 59.0683 19.321 48.6471
14160 1 32.7285 28.311 45.9949
14161 2 31.9192 28.895 46.0572
14162 2 33.5036 28.8496 45.6644
14163 1 51.5559 10.1137 25.7877
14164 2 51.8275 9.25333 25.3564
14165 2 50.594 10.0626 26.0565
14166 1 59.4118 2.59125 11.4237
14167 2 59.6333 3.41024 11.9531
14168 2 59.2906 2.83838 10.4624
14169 1 2.97033 23.8211 50.668
14170 2 2.79258 24.5705 50.0302
14171 2 2.42943 23.9548 51.4984
14172 1 25.9277 25.2945 90.1551
14173 2 25.0464 25.7256 90.3488
14174 2 26.3577 25.7504 89.3759
14175 1 57.1853 0.943361 74.5899
14176 2 57.7663 1.19756 73.8167
14177 2 56.8999 29.9899 74.493
14178 1 16.1241 1.94641 24.7455
14179 2 15.6272 2.77821 24.4981
14180 2 17.0115 1.93868 24.2846
14181 1 54.6649 4.58545 57.1766
14182 2 54.7319 4.11986 56.2941
14183 2 55.5792 4.84705 57.4857
14184 1 26.087 13.8437 91.0411
14185 2 25.5803 14.5536 90.5519
14186 2 25.7253 12.945 90.7928
14187 1 62.1145 20.5542 65.9151
14188 2 62.5341 20.8939 66.7569
14189 2 62.7119 20.7575 65.1394
14190 1 49.6514 4.51938 69.4722
14191 2 50.4583 4.89974 69.9241
14192 2 49.0176 4.16842 70.1615
14193 1 19.1623 19.4144 80.4883
14194 2 19.0906 18.7224 79.7699
14195 2 18.261 19.5697 80.8926
14196 1 53.8999 0.318573 81.9185
14197 2 54.0411 0.225171 82.9041
14198 2 53.6929 29.4228 81.5251
14199 1 37.0019 26.4803 46.9401
14200 2 37.4557 25.6033 47.0977
14201 2 36.0739 26.4468 47.3112
14202 1 50.8032 23.9116 74.4793
14203 2 51.6048 24.4901 74.328
14204 2 50.9483 23.3469 75.2917
14205 1 17.2708 9.89736 75.7236
14206 2 16.8137 9.19355 76.2673
14207 2 16.957 9.8424 74.7757
14208 1 55.9445 15.168 48.7277
14209 2 56.4644 14.3751 48.41
14210 2 55.6453 15.0149 49.6695
14211 1 35.5397 1.13406 68.6088
14212 2 34.998 0.413407 68.1761
14213 2 34.9287 1.78793 69.0551
14214 1 49.8828 7.99872 55.412
14215 2 50.6057 8.65792 55.619
14216 2 49.0763 8.48371 55.0738
14217 1 72.1379 4.21959 55.0671
14218 2 72.7698 3.68279 54.508
14219 2 71.9468 5.08937 54.6122
14220 1 2.79721 20.6411 54.9648
14221 2 2.85131 20.0587 55.776
14222 2 2.17721 21.405 55.1437
14223 1 36.5075 19.9694 38.855
14224 2 35.9269 19.1587 38.7789
14225 2 36.142 20.5761 39.5609
14226 1 70.1527 16.9232 44.0682
14227 2 70.191 17.025 45.0623
14228 2 70.967 16.4369 43.7514
14229 1 75.8777 8.57697 42.4524
14230 2 76.1845 8.45035 41.5092
14231 2 76.5577 9.11034 42.9554
14232 1 2.835 1.81892 46.2285
14233 2 2.27361 1.0148 46.424
14234 2 3.33782 2.08253 47.0518
14235 1 55.3557 20.9484 90.6719
14236 2 55.6408 21.7095 90.0893
14237 2 54.4445 20.6415 90.3974
14238 1 56.794 4.93027 61.4361
14239 2 56.6132 4.40904 62.2701
14240 2 57.3727 4.39056 60.8246
14241 1 38.5533 22.8936 32.8995
14242 2 38.7428 23.8715 32.8118
14243 2 39.1904 22.4881 33.555
14244 1 26.9936 1.17407 56.0961
14245 2 26.1154 0.786611 55.8157
14246 2 27.134 2.05006 55.6347
14247 1 19.9718 12.4 86.2026
14248 2 19.0634 12.6464 85.8648
14249 2 20.041 12.6324 87.1728
14250 1 33.9965 4.79491 69.8665
14251 2 33.2118 4.22904 70.1196
14252 2 34.0091 5.61939 70.4323
14253 1 45.3175 17.4157 70.5114
14254 2 45.9723 17.9435 69.9703
14255 2 45.7892 16.9917 71.2846
14256 1 55.0582 21.4985 40.8751
14257 2 54.6142 22.3933 40.9209
14258 2 54.7744 20.9451 41.6582
14259 1 51.769 15.0872 60.4159
14260 2 52.7043 15.4374 60.4657
14261 2 51.2583 15.5977 59.7242
14262 1 79.0842 18.145 28.2257
14263 2 78.7456 19.0661 28.4181
14264 2 0.0617813 18.0996 28.4312
14265 1 78.6145 27.6379 75.7943
14266 2 77.9348 27.787 76.5124
14267 2 79.2525 26.9237 76.0822
14268 1 29.566 12.1377 36.3469
14269 2 29.6285 13.0665 35.9815
14270 2 29.6397 12.166 37.3437
14271 1 54.8727 19.6774 75.5729
14272 2 54.4941 20.378 76.1778
14273 2 55.0654 18.8501 76.1006
14274 1 17.8101 12.4639 18.884
14275 2 18.5977 12.5941 18.2817
14276 2 17.6898 11.4886 19.0693
14277 1 44.8601 6.75177 61.7782
14278 2 44.4545 7.28284 61.0342
14279 2 44.7199 7.23089 62.6447
14280 1 75.0228 8.68541 86.5249
14281 2 74.217 8.61258 87.1126
14282 2 75.6837 7.97826 86.7763
14283 1 45.9714 19.0027 61.2469
14284 2 45.9263 19.8984 60.8045
14285 2 45.293 18.9586 61.9802
14286 1 69.1043 9.82852 22.3152
14287 2 69.6172 10.1437 21.5168
14288 2 68.7892 10.618 22.8419
14289 1 71.2301 6.73519 83.0154
14290 2 71.5067 7.52023 83.5697
14291 2 71.9123 6.00913 83.102
14292 1 59.7845 26.2243 27.0055
14293 2 59.0887 26.1151 26.2956
14294 2 60.4016 26.9704 26.7554
14295 1 8.17491 27.5517 65.2221
14296 2 7.92823 27.0984 64.3656
14297 2 7.34892 27.7199 65.7602
14298 1 76.7112 16.6062 28.3568
14299 2 77.5521 17.1472 28.3422
14300 2 76.6219 16.1528 29.2436
14301 1 15.5634 14.3624 59.6556
14302 2 15.8469 15.3013 59.8504
14303 2 14.7466 14.1433 60.1894
14304 1 78.7475 3.3242 48.1064
14305 2 79.6898 3.59916 48.2972
14306 2 78.7484 2.53611 47.4908
14307 1 78.5494 4.50402 31.9653
14308 2 79.382 4.28249 31.4576
14309 2 77.8886 3.76053 31.8626
14310 1 9.28875 5.46022 44.9774
14311 2 9.19778 4.47568 44.8278
14312 2 8.43737 5.91671 44.719
14313 1 9.43543 21.6098 41.9538
14314 2 10.2899 22.0693 41.7116
14315 2 9.14231 21.9082 42.8621
14316 1 41.3687 23.8046 70.6162
14317 2 41.1493 24.7675 70.7733
14318 2 41.2536 23.2932 71.4678
14319 1 46.7108 28.0614 83.7256
14320 2 47.1243 28.2886 82.844
14321 2 45.8052 28.4811 83.7871
14322 1 36.3352 28.981 84.7374
14323 2 36.3752 29.1121 85.728
14324 2 35.4247 28.657 84.4806
14325 1 66.1593 2.45105 27.0659
14326 2 65.2706 2.50461 27.5213
14327 2 66.4984 3.37465 26.8871
14328 1 57.5325 14.8348 20.6153
14329 2 58.3494 15.3734 20.4089
14330 2 57.7844 13.8723 20.7154
14331 1 25.589 26.3485 64.9288
14332 2 26.0995 26.298 65.7872
14333 2 26.1202 25.9177 64.1992
14334 1 64.4768 28.1742 32.9789
14335 2 64.589 29.061 33.4272
14336 2 63.9052 28.2818 32.1655
14337 1 20.9418 25.8998 35.2851
14338 2 21.6103 25.5689 35.9512
14339 2 21.4201 26.2806 34.4938
14340 1 40.9776 2.58285 90.1975
14341 2 41.4218 3.42249 89.8849
14342 2 41.0439 2.52161 91.1934
14343 1 30.3288 12.3898 46.604
14344 2 31.0638 13.0576 46.7215
14345 2 30.6083 11.5139 46.9973
14346 1 79.3222 9.37743 48.227
14347 2 79.1239 8.39838 48.2731
14348 2 78.4989 9.87151 47.9477
14349 1 46.1206 21.2888 90.2817
14350 2 46.8613 21.9 90.5604
14351 2 45.2421 21.6893 90.5422
14352 1 6.00898 19.4315 61.6252
14353 2 6.37417 19.8801 62.4409
14354 2 6.70917 18.8368 61.2302
14355 1 13.8291 24.9478 42.8155
14356 2 14.113 25.3998 43.6612
14357 2 13.3084 24.1232 43.0369
14358 1 24.6769 3.62855 30.4494
14359 2 24.8783 4.1724 31.2641
14360 2 24.2713 2.75635 30.7228
14361 1 17.2349 14.8976 17.4839
14362 2 16.9531 14.0454 17.9248
14363 2 18.0494 14.7317 16.9279
14364 1 22.5788 23.4348 82.8527
14365 2 23.2476 22.8832 82.3543
14366 2 23.0062 24.2884 83.1504
14367 1 72.1645 24.924 68.5479
14368 2 72.3834 24.8746 69.5224
14369 2 71.5283 25.6785 68.3869
14370 1 18.4906 19.3858 70.6851
14371 2 19.4403 19.204 70.9402
14372 2 18.4272 19.4962 69.6933
14373 1 72.2355 8.62558 87.0886
14374 2 71.7455 8.96083 86.2839
14375 2 71.6551 8.72334 87.897
14376 1 58.7189 1.72888 36.0085
14377 2 57.7855 1.37112 36.0367
14378 2 58.7427 2.6321 36.437
14379 1 16.035 26.0241 31.1477
14380 2 16.3393 26.6692 30.4468
14381 2 16.8184 25.4988 31.4798
14382 1 78.8115 29.0643 17.5798
14383 2 78.5982 28.1571 17.9425
14384 2 78.2875 29.7545 18.0789
14385 1 17.8135 13.4772 37.5751
14386 2 18.2645 13.4274 36.684
14387 2 18.1289 12.7231 38.151
14388 1 32.2392 23.0286 58.3491
14389 2 31.4353 23.2317 58.9081
14390 2 32.8005 22.341 58.8097
14391 1 4.82606 4.76385 19.1848
14392 2 4.35131 4.60591 20.0506
14393 2 5.67653 4.23803 19.1702
14394 1 45.8697 8.85203 40.03
14395 2 45.6009 9.73815 39.6524
14396 2 45.0932 8.4454 40.5113
14397 1 58.0155 9.76711 75.5115
14398 2 57.5568 8.87981 75.5599
14399 2 58.9677 9.66632 75.7999
14400 1 30.2122 27.0544 75.773
14401 2 29.6359 27.8406 75.9961
14402 2 31.1206 27.1835 76.1706
14403 1 26.1406 9.14726 29.7784
14404 2 26.532 9.36424 30.6726
14405 2 25.9525 8.1665 29.7259
14406 1 2.94675 3.4752 70.8267
14407 2 2.51292 3.10215 71.6468
14408 2 2.6663 4.42732 70.705
14409 1 6.88073 19.4986 41.604
14410 2 7.31618 19.0103 42.3602
14411 2 6.86409 20.478 41.8053
14412 1 7.94957 13.7229 51.5292
14413 2 7.64678 14.1727 50.689
14414 2 7.29066 13.9027 52.2596
14415 1 64.1942 25.4507 10.6376
14416 2 64.713 25.4723 11.4922
14417 2 64.8253 25.3651 9.86662
14418 1 29.5351 23.9408 49.4087
14419 2 29.6372 23.6134 48.4694
14420 2 29.0566 23.251 49.952
14421 1 38.4078 3.04473 46.5846
14422 2 38.1451 3.38112 47.489
14423 2 39.0202 3.70415 46.1487
14424 1 12.7091 27.6875 40.7929
14425 2 13.6513 27.5281 40.4983
14426 2 12.6995 28.3682 41.5254
14427 1 50.786 21.4339 56.203
14428 2 51.5454 21.7734 56.7581
14429 2 50.6032 22.0771 55.4594
14430 1 26.7597 8.70263 25.7624
14431 2 27.4571 9.40811 25.8889
14432 2 26.7189 8.12442 26.5773
14433 1 8.78585 19.0673 87.231
14434 2 9.17377 18.2648 86.7776
14435 2 8.01229 19.4099 86.6979
14436 1 48.3205 11.1728 82.8656
14437 2 49.1257 10.5801 82.8843
14438 2 47.5132 10.6468 83.1331
14439 1 36.9046 5.93411 47.3805
14440 2 37.1942 5.26265 48.0626
14441 2 36.3442 6.63578 47.8205
14442 1 22.1105 15.7568 70.4014
14443 2 21.2424 15.5856 69.9354
14444 2 22.6949 16.323 69.8201
14445 1 37.0646 22.0968 43.4551
14446 2 37.7021 21.8321 42.7315
14447 2 37.5779 22.429 44.2464
14448 1 53.8322 24.1474 45.3761
14449 2 53.49 24.14 46.3157
14450 2 53.2562 24.7432 44.8163
14451 1 27.0745 0.488968 87.1931
14452 2 27.402 1.0084 86.4039
14453 2 26.57 29.6855 86.8773
14454 1 12.0649 4.64549 48.9891
14455 2 12.9782 4.32815 48.7338
14456 2 11.4267 4.46017 48.2419
14457 1 51.9697 14.3731 66.9894
14458 2 52.5334 13.7846 66.4098
14459 2 51.1857 13.8537 67.3294
14460 1 33.1009 18.6951 31.4328
14461 2 33.1511 18.6647 32.4311
14462 2 33.4134 17.8228 31.0566
14463 1 32.274 21.8046 37.7803
14464 2 32.8312 21.6137 38.5885
14465 2 31.3259 21.542 37.9595
14466 1 20.4686 20.2983 51.9807
14467 2 19.9438 21.0918 52.2889
14468 2 21.2861 20.1986 52.5479
14469 1 63.124 10.1083 89.3244
14470 2 63.014 9.67878 88.4281
14471 2 62.5967 9.59938 90.0048
14472 1 42.2795 13.7188 52.8827
14473 2 42.2829 13.563 51.8949
14474 2 42.904 14.4678 53.1041
14475 1 11.6931 11.8528 45.354
14476 2 11.0749 11.5444 46.077
14477 2 11.1582 12.2038 44.5854
14478 1 30.2532 24.3639 45.5642
14479 2 30.7187 24.9627 44.9125
14480 2 30.8862 23.6559 45.8773
14481 1 55.149 6.52477 38.1351
14482 2 54.4133 6.03161 38.5993
14483 2 55.3579 7.36304 38.6387
14484 1 10.4641 3.96615 80.5509
14485 2 9.91507 3.88032 79.7196
14486 2 9.86472 3.93632 81.3508
14487 1 59.9974 15.3681 62.5924
14488 2 59.3462 14.9104 63.1977
14489 2 60.2324 16.2631 62.9714
14490 1 27.9989 5.83778 53.0157
14491 2 27.3941 5.83146 52.2194
14492 2 28.9513 5.82986 52.7109
14493 1 26.2974 17.3553 89.4618
14494 2 26.0747 17.0212 88.5459
14495 2 25.506 17.2367 90.0615
14496 1 65.5338 21.008 90.76
14497 2 66.2262 21.3862 90.1455
14498 2 65.5461 20.0098 90.7019
14499 1 38.8251 19.5204 51.2119
14500 2 38.7409 20.5123 51.1162
14501 2 38.4165 19.2333 52.0783
14502 1 0.371108 29.2261 39.9652
14503 2 0.733053 29.0209 40.8746
14504 2 0.929455 28.7685 39.2732
14505 1 40.8194 26.4656 83.6574
14506 2 41.0259 26.324 82.6893
14507 2 39.836 26.6071 83.7712
14508 1 52.2016 26.0299 90.7004
14509 2 51.8014 25.1669 91.0088
14510 2 52.9997 25.8414 90.1281
14511 1 37.5197 6.55306 64.6384
14512 2 37.9755 5.88519 65.2268
14513 2 37.5497 6.23713 63.6901
14514 1 30.7382 7.95065 53.0953
14515 2 30.5872 8.19852 52.1384
14516 2 31.7089 7.7596 53.241
14517 1 10.8815 12.8591 60.0705
14518 2 10.1405 12.5137 60.6464
14519 2 11.7508 12.4728 60.3788
14520 1 26.1244 19.2628 86.7037
14521 2 26.4558 20.0749 87.1839
14522 2 25.1874 19.0646 86.9914
14523 1 34.4187 26.71 61.6292
14524 2 35.0584 27.3875 61.9921
14525 2 34.888 26.1328 60.961
14526 1 46.7938 22.9238 78.4814
14527 2 47.52 23.5209 78.1407
14528 2 46.22 23.4306 79.1248
14529 1 12.448 21.8638 67.37
14530 2 12.2128 20.9199 67.138
14531 2 11.7181 22.2623 67.9253
14532 1 48.0564 20.6239 48.5504
14533 2 47.7553 19.6981 48.7788
14534 2 48.4855 21.0419 49.3511
14535 1 72.1888 25.4773 37.2906
14536 2 71.7437 24.8389 36.6627
14537 2 71.4944 26.028 37.7538
14538 1 20.4702 7.16172 43.9756
14539 2 20.2223 6.43895 44.6206
14540 2 21.3765 6.97387 43.5968
14541 1 44.4905 9.07811 31.1621
14542 2 44.6193 10.0132 30.8318
14543 2 43.5252 8.93055 31.3772
14544 1 70.8404 19.4287 68.7224
14545 2 71.1085 18.8893 69.5206
14546 2 70.8344 18.8437 67.9115
14547 1 29.9707 24.2778 76.6544
14548 2 30.3184 24.1655 77.5853
14549 2 29.9981 25.2452 76.4028
14550 1 76.8222 9.26417 83.2842
14551 2 76.5427 9.99978 82.6672
14552 2 77.204 8.50909 82.7512
14553 1 49.9427 26.1655 71.5383
14554 2 50.8612 26.3217 71.9018
14555 2 50.0064 25.6621 70.6766
14556 1 68.706 28.7624 53.1265
14557 2 67.978 28.3801 52.5574
14558 2 69.5919 28.5864 52.6972
14559 1 17.9749 0.275554 45.4833
14560 2 17.0352 0.545686 45.2738
14561 2 17.9699 29.4034 45.9725
14562 1 18.9678 1.99354 68.6744
14563 2 18.1311 1.81382 69.1916
14564 2 19.5066 2.69268 69.1444
14565 1 7.3844 23.3818 84.7571
14566 2 6.8958 23.0143 85.5485
14567 2 6.76513 23.9537 84.2192
14568 1 37.9615 1.02197 70.9896
14569 2 38.1432 0.0514655 71.1481
14570 2 36.9767 1.18894 71.0374
14571 1 31.6654 16.3516 62.2745
14572 2 32.0952 16.6511 63.1263
14573 2 30.9198 16.9754 62.0401
14574 1 56.2865 21.6828 22.3744
14575 2 57.2024 21.6619 21.9734
14576 2 55.7455 22.3983 21.9325
14577 1 18.4619 18.566 21.5377
14578 2 18.9535 19.4337 21.4639
14579 2 18.1905 18.258 20.6258
14580 1 32.6132 10.6656 68.7214
14581 2 31.9178 9.99333 68.9753
14582 2 32.2432 11.2816 68.026
14583 1 64.1195 29.4004 80.6215
14584 2 64.9561 29.9447 80.6823
14585 2 64.0771 28.7669 81.3941
14586 1 47.9613 23.0614 74.9832
14587 2 48.7986 23.5127 74.6745
14588 2 48.1939 22.3286 75.6226
14589 1 17.7029 21.3602 63.5566
14590 2 17.6492 21.4622 64.5499
14591 2 17.8376 20.3961 63.3274
14592 1 16.8632 24.8411 51.123
14593 2 17.1217 24.0057 51.6079
14594 2 15.867 24.8902 51.0511
14595 1 56.0797 23.8287 64.6854
14596 2 56.016 22.8308 64.6939
14597 2 56.925 24.1048 64.2279
14598 1 8.68029 2.35942 11.6508
14599 2 8.43768 3.32307 11.5389
14600 2 9.17092 2.23726 12.5135
14601 1 16.6876 0.111338 65.1511
14602 2 15.775 0.433891 64.8998
14603 2 16.9016 0.408449 66.0816
14604 1 25.1157 20.8764 36.2005
14605 2 25.8098 20.848 35.4812
14606 2 25.1901 21.7386 36.7016
14607 1 11.5819 3.39052 32.3235
14608 2 12.5634 3.26593 32.4694
14609 2 11.2219 4.02772 33.0049
14610 1 17.0309 10.563 90.0641
14611 2 17.2871 11.1337 90.8443
14612 2 16.1734 10.8978 89.6736
14613 1 69.384 3.72763 90.417
14614 2 69.5544 3.91321 89.4492
14615 2 68.9323 2.84048 90.5117
14616 1 7.76314 26.7575 24.7368
14617 2 7.93646 25.9871 25.3503
14618 2 7.65512 27.5939 25.2742
14619 1 26.1834 28.2302 52.184
14620 2 26.2497 28.4656 53.1536
14621 2 26.2962 29.0565 51.632
14622 1 42.2667 7.54603 82.9346
14623 2 41.3028 7.28022 82.952
14624 2 42.6678 7.40487 83.8397
14625 1 7.9015 3.62103 57.9706
14626 2 7.95952 3.3172 58.9216
14627 2 6.95045 3.57839 57.6645
14628 1 63.4726 14.6617 23.3251
14629 2 64.3733 14.2983 23.087
14630 2 62.7632 14.0968 22.9036
14631 1 16.6866 7.28048 28.0647
14632 2 16.8882 6.68719 28.844
14633 2 16.9592 6.82305 27.2182
14634 1 63.0524 20.8151 26.3169
14635 2 63.9817 20.5247 26.0886
14636 2 62.9369 20.8123 27.3102
14637 1 53.9809 29.4093 36.4369
14638 2 53.7016 0.241938 36.915
14639 2 53.4239 29.2944 35.6143
14640 1 79.6195 28.8583 89.5377
14641 2 0.477425 28.3565 89.6483
14642 2 79.6721 29.4323 88.7205
14643 1 47.0123 18.4281 34.0595
14644 2 47.9754 18.1959 34.1954
14645 2 46.872 18.7299 33.1165
14646 1 14.7755 16.579 61.607
14647 2 15.0847 16.7084 60.6649
14648 2 15.1298 17.3191 62.1787
14649 1 56.8583 19.1685 44.6013
14650 2 57.4704 19.1718 43.8106
14651 2 56.2216 18.401 44.5267
14652 1 37.095 4.11489 42.0475
14653 2 37.922 4.67553 42.0892
14654 2 36.5713 4.23013 42.8916
14655 1 29.7424 8.6558 61.8117
14656 2 29.7044 9.64706 61.938
14657 2 28.8279 8.26929 61.9312
14658 1 57.1731 1.94735 25.9461
14659 2 56.2529 2.27008 26.1674
14660 2 57.2943 1.94079 24.9535
14661 1 46.5229 1.12557 53.3754
14662 2 46.5589 0.293325 52.8222
14663 2 45.8548 1.75789 52.9832
14664 1 0.468756 21.5432 53.5928
14665 2 79.6027 21.1551 53.2775
14666 2 1.08296 20.8049 53.8715
14667 1 20.2396 10.0106 21.3518
14668 2 19.2654 9.97008 21.5736
14669 2 20.4169 9.47031 20.5292
14670 1 32.4297 14.3016 59.8901
14671 2 32.0608 15.1649 60.2345
14672 2 31.9942 14.0771 59.0184
14673 1 38.0225 1.06454 64.8352
14674 2 38.053 1.96247 64.3962
14675 2 37.0881 0.709758 64.8038
14676 1 29.5765 4.74577 70.2091
14677 2 30.4722 4.96818 69.8242
14678 2 28.8932 4.7356 69.479
14679 1 28.6836 14.2541 45.5493
14680 2 28.802 15.1655 45.1551
14681 2 29.5602 13.9273 45.9025
14682 1 49.4399 7.0722 81.337
14683 2 49.5909 6.13061 81.6379
14684 2 50.2772 7.60271 81.469
14685 1 60.5909 9.66129 33.0952
14686 2 61.5306 9.72507 32.7589
14687 2 60.2642 10.5725 33.3461
14688 1 51.0501 7.75216 31.4796
14689 2 51.0731 8.65665 31.9055
14690 2 50.3177 7.72252 30.7994
14691 1 15.5014 5.10191 25.7794
14692 2 15.9396 5.69751 25.1061
14693 2 16.148 4.89718 26.5142
14694 1 40.5821 4.42562 57.4262
14695 2 40.6165 4.18536 56.4561
14696 2 40.7175 3.60294 57.9783
14697 1 35.412 26.1083 83.3762
14698 2 34.6887 26.6417 83.8147
14699 2 35.8982 25.5741 84.0678
14700 1 5.62287 18.6444 84.1766
14701 2 5.75483 19.2065 84.9931
14702 2 6.13573 17.7913 84.2728
14703 1 32.6484 29.8518 56.8123
14704 2 32.738 29.5837 57.7715
14705 2 33.1802 29.2271 56.2406
14706 1 8.55101 29.7933 15.1208
14707 2 9.31626 29.1664 14.9748
14708 2 8.89654 0.666939 15.4635
14709 1 3.31973 9.06823 10.4395
14710 2 3.79578 9.55109 9.70445
14711 2 2.4475 8.71808 10.098
14712 1 51.2561 7.09902 61.6832
14713 2 50.9383 7.92798 61.223
14714 2 52.2245 6.95508 61.4795
14715 1 16.0012 10.8686 31.0206
14716 2 16.625 10.0999 30.8791
14717 2 16.4814 11.6037 31.4992
14718 1 16.0887 28.5351 15.0641
14719 2 15.618 29.3998 15.2399
14720 2 16.1193 27.9953 15.9054
14721 1 28.0611 11.0955 83.1711
14722 2 27.8413 10.7147 84.0692
14723 2 29.0537 11.1139 83.0507
14724 1 7.79543 22.9553 13.2372
14725 2 8.54832 22.8461 13.8862
14726 2 7.15613 22.1928 13.337
14727 1 62.6161 17.5897 14.0319
14728 2 62.3676 17.2754 14.9481
14729 2 61.8033 17.9431 13.5689
14730 1 74.9939 14.2645 41.8518
14731 2 75.274 15.0898 42.3421
14732 2 75.8022 13.721 41.6252
14733 1 79.9246 6.93648 22.6391
14734 2 79.9268 7.36958 21.7378
14735 2 79.2744 7.40876 23.2342
14736 1 16.8952 19.9265 48.2237
14737 2 17.7963 19.9085 48.6569
14738 2 16.2 19.6546 48.8891
14739 1 37.4987 11.2732 80.2374
14740 2 36.7394 11.8665 79.9702
14741 2 37.9386 11.643 81.0558
14742 1 36.406 19.8042 36.2062
14743 2 36.7988 19.6048 37.1039
14744 2 35.6935 19.1342 35.9978
14745 1 77.697 20.5095 30.5692
14746 2 77.0156 21.0951 30.13
14747 2 77.4434 20.3622 31.5252
14748 1 32.3023 25.2873 54.1539
14749 2 31.414 25.113 53.729
14750 2 32.5374 26.2538 54.0504
14751 1 37.9837 19.389 59.0429
14752 2 37.0275 19.097 59.062
14753 2 38.57 18.599 58.8636
14754 1 71.3429 22.9523 56.7296
14755 2 70.4306 23.0294 57.1317
14756 2 71.4458 23.6324 56.0036
14757 1 76.3732 20.7221 36.1216
14758 2 76.7373 21.1579 35.2984
14759 2 77.129 20.4565 36.7202
14760 1 55.9527 25.8128 45.5985
14761 2 56.2779 24.8868 45.7902
14762 2 55.3708 25.8001 44.7854
14763 1 31.5319 28.9946 90.7567
14764 2 32.0665 29.2338 91.5672
14765 2 31.8748 29.5054 89.9684
14766 1 34.3352 3.27636 51.8276
14767 2 34.3516 4.16391 51.3672
14768 2 33.5813 2.72745 51.4666
14769 1 62.9997 19.6845 70.9228
14770 2 63.3426 20.5457 70.5475
14771 2 62.6098 19.8477 71.8291
14772 1 5.19065 2.82567 12.058
14773 2 5.36502 2.02525 11.4845
14774 2 5.29455 2.57507 13.0205
14775 1 6.05057 21.7704 10.5339
14776 2 6.76788 22.4618 10.4478
14777 2 5.25117 22.1731 10.9797
14778 1 67.8099 21.4507 86.2483
14779 2 67.18 21.1558 86.9668
14780 2 68.4292 22.1461 86.6128
14781 1 46.9843 15.4603 32.1101
14782 2 47.5895 14.8411 31.6098
14783 2 46.9585 15.1946 33.0738
14784 1 18.6608 18.9589 37.0605
14785 2 19.1972 19.6876 37.4863
14786 2 18.9479 18.0748 37.4292
14787 1 76.0464 0.321182 22.8275
14788 2 75.1932 29.8649 22.5746
14789 2 75.8737 0.958356 23.5786
14790 1 71.6524 19.4839 25.0938
14791 2 72.4371 19.9596 24.6964
14792 2 70.9596 20.1522 25.3647
14793 1 37.9346 11.3611 50.0483
14794 2 37.0945 11.1037 49.5707
14795 2 37.7545 11.4223 51.03
14796 1 79.1705 21.4385 44.8518
14797 2 78.7369 22.1719 45.3754
14798 2 78.5019 20.7169 44.6722
14799 1 62.5533 12.5084 63.2966
14800 2 62.6954 13.0701 64.1117
14801 2 63.2256 12.7568 62.5993
14802 1 9.9233 16.6595 86.4841
14803 2 10.2855 16.1959 87.2927
14804 2 9.34794 16.0262 85.9665
14805 1 69.513 19.931 58.395
14806 2 70.5108 19.9332 58.4615
14807 2 69.1976 19.015 58.147
14808 1 74.2359 18.608 15.0126
14809 2 74.5375 19.2291 14.2893
14810 2 74.2843 19.0756 15.8952
14811 1 41.8403 10.442 47.559
14812 2 42.3535 9.88739 46.904
14813 2 40.9939 10.7622 47.1335
14814 1 13.7353 12.2264 31.7882
14815 2 14.5917 11.7986 31.4995
14816 2 13.7202 13.1794 31.4856
14817 1 79.5862 8.2946 36.5589
14818 2 78.596 8.27276 36.4209
14819 2 79.9079 7.38178 36.8105
14820 1 7.63044 9.94905 67.4848
14821 2 7.17491 9.38947 68.1772
14822 2 8.48396 10.3122 67.8585
14823 1 32.9631 17.476 59.2889
14824 2 32.9065 18.1133 60.0575
14825 2 33.6948 17.7634 58.6708
14826 1 34.361 22.6426 81.064
14827 2 34.9743 22.2654 80.37
14828 2 34.7784 22.5429 81.9673
14829 1 19.9126 28.1667 62.2551
14830 2 19.6416 27.2631 62.587
14831 2 20.7362 28.4656 62.7372
14832 1 11.1844 19.4772 67.3632
14833 2 11.8566 19.2683 68.0734
14834 2 10.4991 18.7497 67.3284
14835 1 2.47795 0.866577 42.403
14836 2 1.73979 0.450119 42.9338
14837 2 2.13164 1.67568 41.9283
14838 1 11.8871 11.4242 87.5546
14839 2 11.5346 12.3338 87.7746
14840 2 12.0639 10.9216 88.4008
14841 1 78.8445 9.2183 85.291
14842 2 79.4246 9.8712 84.8041
14843 2 78.0012 9.07139 84.7739
14844 1 2.68973 23.4936 40.9664
14845 2 1.91695 22.9778 41.3362
14846 2 2.54312 23.6603 39.9914
14847 1 34.8889 1.44293 80.1589
14848 2 35.109 0.487064 79.9643
14849 2 34.8132 1.94907 79.2998
14850 1 7.13037 0.505424 30.1876
14851 2 7.85951 0.542381 30.871
14852 2 7.52787 0.569562 29.2723
14853 1 72.585 25.1712 47.4038
14854 2 71.9925 24.3796 47.5535
14855 2 72.0605 25.9022 46.9673
14856 1 53.9286 6.50524 22.258
14857 2 53.534 6.28465 21.366
14858 2 53.2234 6.90204 22.8455
14859 1 65.7476 15.306 70.9908
14860 2 66.4876 15.5703 71.6092
14861 2 65.6903 15.9634 70.2394
14862 1 4.54394 29.6821 32.8325
14863 2 4.29437 0.279551 33.5946
14864 2 5.2334 29.0246 33.1364
14865 1 24.9892 12.5986 28.9121
14866 2 24.455 13.0571 29.6223
14867 2 25.7996 13.1446 28.6997
14868 1 55.253 1.96806 28.2206
14869 2 54.7153 1.69559 27.4227
14870 2 55.2394 1.23301 28.8984
14871 1 7.22609 8.81965 61.7116
14872 2 6.77847 8.71395 60.8237
14873 2 6.77954 8.22768 62.3826
14874 1 55.1152 16.0479 21.6105
14875 2 54.3666 15.4928 21.9729
14876 2 55.7497 15.4629 21.1053
14877 1 66.1818 9.94666 86.3583
14878 2 66.7206 10.0408 85.5211
14879 2 65.6824 9.08054 86.3377
14880 1 68.4319 23.9521 68.1592
14881 2 68.8016 24.5715 67.4666
14882 2 69.0876 23.8606 68.9086
14883 1 0.718296 22.2033 77.5553
14884 2 79.869 21.6781 77.5028
14885 2 1.14305 22.0617 78.4494
14886 1 57.5016 25.1046 55.5916
14887 2 56.8255 24.3746 55.6917
14888 2 57.8766 25.3368 56.4891
14889 1 58.7835 0.542267 57.7165
14890 2 58.0459 1.16933 57.9671
14891 2 59.4861 0.552826 58.428
14892 1 5.02076 3.83675 43.1268
14893 2 4.52195 3.62923 43.9683
14894 2 4.90117 4.80286 42.898
14895 1 27.114 16.5758 34.4319
14896 2 27.4471 16.6629 33.4931
14897 2 27.7464 17.0374 35.0541
14898 1 22.662 4.97351 55.4936
14899 2 21.6714 5.06693 55.3941
14900 2 22.8712 4.57506 56.3866
14901 1 40.7327 25.974 61.4023
14902 2 41.4688 25.923 62.0773
14903 2 40.518 25.0544 61.0733
14904 1 65.4674 1.02791 51.4336
14905 2 65.5147 0.851845 52.4168
14906 2 65.7919 0.224089 50.935
14907 1 23.5966 23.5329 42.6159
14908 2 22.8873 23.2261 43.2506
14909 2 24.2566 22.7956 42.4719
14910 1 64.9293 9.90668 75.3614
14911 2 65.7892 9.40581 75.4597
14912 2 64.7115 10.3672 76.2219
14913 1 23.0013 4.8998 86.2731
14914 2 22.512 4.63714 85.4415
14915 2 22.5747 4.4604 87.0637
14916 1 63.5805 29.6741 27.9967
14917 2 62.671 29.2934 27.8299
14918 2 63.5412 0.67131 27.9329
14919 1 78.3053 25.7471 46.4654
14920 2 78.4476 24.888 46.9569
14921 2 78.0427 25.551 45.5206
14922 1 67.3891 11.8938 44.5382
14923 2 67.3589 12.7346 45.0787
14924 2 66.6506 11.2848 44.8275
14925 1 73.3299 25.6391 57.7448
14926 2 73.9393 25.3065 58.4644
14927 2 73.7553 25.4896 56.8522
14928 1 32.1123 11.5532 62.032
14929 2 32.1396 12.5454 61.9102
14930 2 31.6083 11.1381 61.2746
14931 1 53.5977 15.3695 27.3097
14932 2 52.8822 15.9937 27.6235
14933 2 53.697 14.6202 27.9643
14934 1 53.2036 24.1667 61.4349
14935 2 53.4172 23.4813 62.1309
14936 2 53.9858 24.7788 61.3186
14937 1 72.7781 9.25657 30.7913
14938 2 73.3923 8.87157 31.4802
14939 2 73.0876 8.98518 29.8799
14940 1 33.3138 16.3977 53.0509
14941 2 33.3177 16.9762 52.2353
14942 2 32.3798 16.0949 53.2404
14943 1 15.7013 3.9666 51.011
14944 2 15.9423 3.00491 51.1417
14945 2 15.0831 4.05208 50.2296
14946 1 41.7746 29.0072 85.9862
14947 2 41.5778 28.1231 86.41
14948 2 42.7238 29.0223 85.6719
14949 1 40.6465 29.3161 83.6761
14950 2 41.0484 29.1928 84.5835
14951 2 40.4936 28.4221 83.255
14952 1 1.24209 25.154 24.8521
14953 2 1.1641 26.1457 24.7502
14954 2 2.20028 24.9083 24.9988
14955 1 59.5335 4.85229 52.2529
14956 2 59.9697 4.01232 52.5757
14957 2 59.562 4.87995 51.2537
14958 1 27.7367 29.8535 50.4185
14959 2 28.2459 0.662523 50.712
14960 2 26.9457 0.136168 49.8759
14961 1 19.2402 13.8091 26.7786
14962 2 19.9363 13.1708 26.4499
14963 2 19.1809 14.5881 26.1544
14964 1 18.1461 2.8161 14.0546
14965 2 18.01 3.05646 15.0157
14966 2 19.1252 2.79289 13.8523
14967 1 36.703 14.1344 67.6063
14968 2 35.8848 14.1067 67.032
14969 2 36.8971 15.0808 67.8645
14970 1 35.0381 2.98709 29.4235
14971 2 35.3129 2.55134 30.2806
14972 2 35.8253 3.4522 29.0187
14973 1 4.3118 14.5365 24.2998
14974 2 3.53121 13.929 24.4468
14975 2 4.10625 15.1686 23.5526
14976 1 4.85393 0.694845 61.2765
14977 2 4.44079 1.34212 61.917
14978 2 4.84686 29.7787 61.6773
14979 1 66.4893 24.0027 59.7685
14980 2 65.5834 24.2558 60.1081
14981 2 66.6766 23.0477 59.9984
14982 1 16.3949 19.7808 77.4411
14983 2 15.5932 20.0327 76.899
14984 2 16.3397 18.8135 77.6884
14985 1 26.067 23.172 41.2081
14986 2 26.138 22.4137 40.56
14987 2 25.7743 23.9971 40.7249
14988 1 14.7875 8.12848 71.027
14989 2 14.2774 7.29406 71.2356
14990 2 14.1508 8.89394 70.934
14991 1 8.09452 20.1414 67.6112
14992 2 8.97925 19.8633 67.9852
14993 2 8.00316 21.1352 67.6751
14994 1 64.3208 25.6275 63.2917
14995 2 64.3799 25.2328 64.2086
14996 2 63.4876 26.1756 63.2179
14997 1 23.4972 24.6968 86.8576
14998 2 22.8183 24.4302 86.1735
14999 2 23.3379 24.1856 87.7021
15000 1 59.3435 28.9909 41.0086
15001 2 59.3868 29.9425 40.7044
15002 2 60.198 28.5271 40.775
15003 1 2.90345 15.4596 73.4929
15004 2 3.13269 14.4976 73.6415
15005 2 3.39411 16.0254 74.1555
15006 1 18.2757 18.4712 53.9628
15007 2 17.4293 18.2917 53.4614
15008 2 18.339 17.8493 54.7434
15009 1 48.0041 23.2549 90.7654
15010 2 48.7598 23.5514 91.3493
15011 2 48.3148 23.2082 89.8161
15012 1 46.1651 16.0661 72.6401
15013 2 46.757 16.1259 73.444
15014 2 46.6458 15.5844 71.9074
15015 1 28.8787 4.18054 57.8951
15016 2 28.8742 3.53259 58.6568
15017 2 29.8049 4.25373 57.5253
15018 1 29.1982 16.4617 60.1772
15019 2 29.2552 15.6949 60.8165
15020 2 28.5223 17.1209 60.5069
15021 1 74.6918 1.35264 69.6201
15022 2 74.7444 0.354571 69.6531
15023 2 74.1934 1.68681 70.42
15024 1 3.70548 14.3293 47.4084
15025 2 2.93455 13.8014 47.7648
15026 2 3.71065 15.2368 47.8285
15027 1 53.3037 24.2658 40.0627
15028 2 52.6104 23.7337 40.5488
15029 2 52.934 24.5727 39.1857
15030 1 26.1908 0.0137422 33.1032
15031 2 25.4482 29.709 33.6996
15032 2 26.9995 29.4472 33.2618
15033 1 63.6475 5.10669 86.9851
15034 2 63.6718 4.97401 85.9943
15035 2 64.4344 5.65548 87.2673
15036 1 16.6956 2.5767 67.2466
15037 2 17.0766 3.02144 66.436
15038 2 17.44 2.27988 67.8447
15039 1 40.2605 24.2323 48.1501
15040 2 40.7099 24.7655 47.4333
15041 2 39.3627 23.9314 47.8285
15042 1 48.1744 16.1847 67.068
15043 2 48.0906 15.3693 66.4953
15044 2 47.5069 16.14 67.8113
15045 1 25.0661 7.68981 79.4115
15046 2 24.3591 8.30069 79.7679
15047 2 25.9426 7.9083 79.8406
15048 1 22.4217 13.0075 67.9347
15049 2 22.5681 13.3051 66.9913
15050 2 23.1499 12.3764 68.202
15051 1 62.3724 14.546 32.134
15052 2 61.817 14.1808 32.8811
15053 2 61.7909 14.7156 31.3384
15054 1 44.6848 27.9735 58.5704
15055 2 45.2981 28.2036 57.8149
15056 2 44.8565 27.0332 58.8645
15057 1 24.7949 10.8585 64.3633
15058 2 25.5641 11.0715 63.7609
15059 2 24.7524 9.87066 64.513
15060 1 47.8579 15.8761 70.3497
15061 2 48.2331 15.1102 69.8276
15062 2 48.525 16.172 71.0334
15063 1 27.3618 9.14686 79.7929
15064 2 27.9918 9.30119 79.0317
15065 2 26.5066 9.63611 79.6221
15066 1 50.4573 28.3811 58.4509
15067 2 50.1679 28.024 57.5628
15068 2 50.2929 27.6922 59.1568
15069 1 44.3301 20.911 40.2409
15070 2 44.4383 20.3387 41.0538
15071 2 44.0582 21.8331 40.5162
15072 1 50.687 15.2851 42.1615
15073 2 50.0046 14.9893 42.8299
15074 2 50.5273 14.8169 41.2924
15075 1 50.837 28.9574 90.6365
15076 2 51.4897 29.1394 89.901
15077 2 50.6576 27.975 90.6873
15078 1 22.8011 19.957 53.4241
15079 2 23.3745 20.7482 53.6365
15080 2 23.3822 19.1775 53.19
15081 1 54.3246 2.40749 25.6401
15082 2 53.6753 1.96995 26.2622
15083 2 54.0917 3.37498 25.5416
15084 1 63.4439 29.0993 87.5902
15085 2 64.2485 29.4989 87.1511
15086 2 63.7048 28.2558 88.0598
15087 1 63.7151 21.4617 82.6014
15088 2 64.4304 21.4139 83.2986
15089 2 63.1163 22.2398 82.7911
15090 1 4.33652 4.35679 25.5067
15091 2 4.73271 3.86256 24.7329
15092 2 4.91742 4.23647 26.3117
15093 1 74.4673 8.91161 24.2615
15094 2 74.5653 8.17227 23.5954
15095 2 74.6949 9.78342 23.8278
15096 1 59.0747 14.062 58.3534
15097 2 58.1643 13.6589 58.4465
15098 2 59.7664 13.3437 58.428
15099 1 17.9149 1.49688 82.087
15100 2 18.5938 0.86161 82.4551
15101 2 17.3294 1.8253 82.8282
15102 1 74.5818 12.8401 58.9865
15103 2 74.0486 13.2592 59.7214
15104 2 74.4299 11.8517 58.9863
15105 1 45.5907 11.42 79.898
15106 2 45.3579 11.2483 80.8552
15107 2 45.3392 12.3574 79.6568
15108 1 11.0634 2.00686 13.5423
15109 2 10.6645 2.25641 14.4247
15110 2 11.4656 2.81769 13.117
15111 1 40.6023 1.46713 29.2841
15112 2 40.2703 2.30532 29.7168
15113 2 39.8717 1.06498 28.7323
15114 1 7.91676 1.00674 77.8118
15115 2 8.89714 0.814967 77.8575
15116 2 7.50641 0.861689 78.7121
15117 1 0.416704 19.9367 31.4772
15118 2 0.582872 20.4036 30.6086
15119 2 79.6792 19.2713 31.3622
15120 1 28.7158 25.8314 90.8734
15121 2 28.1498 25.0073 90.8969
15122 2 28.8077 26.1458 89.9286
15123 1 5.14135 1.25566 28.3765
15124 2 5.20736 1.16504 29.3702
15125 2 5.32969 0.371971 27.948
15126 1 35.1189 15.6535 87.9491
15127 2 35.19 16.649 88.0114
15128 2 34.2429 15.4071 87.5345
15129 1 43.2946 17.1948 87.1071
15130 2 42.5066 17.6914 86.7432
15131 2 43.2165 17.1287 88.1019
15132 1 70.4931 13.1892 75.9912
15133 2 69.8605 13.9409 76.1776
15134 2 70.2073 12.3785 76.5023
15135 1 59.3901 22.934 46.2223
15136 2 59.5021 23.4486 47.0724
15137 2 60.2894 22.7242 45.8387
15138 1 13.6508 28.1649 66.7522
15139 2 14.334 28.635 67.3112
15140 2 12.735 28.447 67.038
15141 1 18.8987 3.62796 58.9842
15142 2 18.4809 4.17877 58.2617
15143 2 19.7626 3.24656 58.6554
15144 1 65.3605 14.4611 59.1414
15145 2 64.4185 14.7421 58.958
15146 2 65.3601 13.6858 59.773
15147 1 3.36094 23.521 72.7304
15148 2 2.37627 23.6951 72.7196
15149 2 3.54001 22.6474 73.1828
15150 1 11.7914 29.9912 11.3988
15151 2 11.7181 0.450576 10.5136
15152 2 11.8405 0.675512 12.1264
15153 1 2.28752 6.0527 85.9709
15154 2 2.74737 5.33509 86.4939
15155 2 2.30322 5.8187 84.9987
15156 1 16.2609 2.72038 76.1283
15157 2 16.5784 1.90118 76.6059
15158 2 15.3026 2.60377 75.8675
15159 1 11.1653 7.41386 81.9877
15160 2 10.7369 8.24392 81.6306
15161 2 11.3614 7.53227 82.9611
15162 1 13.1963 0.292955 87.3997
15163 2 13.7024 0.260006 86.5378
15164 2 13.2874 29.417 87.8734
15165 1 8.3712 17.3617 68.5805
15166 2 7.51833 17.5086 68.0794
15167 2 8.27151 16.5702 69.1834
15168 1 11.2113 26.3168 23.4787
15169 2 11.7369 25.9959 24.2666
15170 2 11.7731 26.2513 22.6541
15171 1 71.1212 2.41693 60.6999
15172 2 71.5382 2.53573 59.7987
15173 2 70.2335 1.96754 60.5997
15174 1 63.3831 15.9232 44.6627
15175 2 63.0095 16.5548 45.342
15176 2 62.7398 15.8327 43.9024
15177 1 42.342 25.5367 55.324
15178 2 41.7451 26.3083 55.5439
15179 2 42.9585 25.7938 54.5798
15180 1 42.6755 24.0287 49.6913
15181 2 42.9931 23.8674 50.6257
15182 2 41.8479 23.4931 49.5235
15183 1 48.4353 16.9969 28.7912
15184 2 48.033 17.4859 29.5651
15185 2 48.542 16.0309 29.0263
15186 1 25.4579 6.96041 43.2943
15187 2 25.6388 5.98187 43.393
15188 2 25.3699 7.37606 44.1996
15189 1 15.1042 13.8802 86.9744
15190 2 14.2682 14.2215 86.5447
15191 2 14.9868 13.8664 87.9674
15192 1 0.0741592 17.9384 85.2959
15193 2 79.8794 18.0626 86.2689
15194 2 0.930049 18.4014 85.0656
15195 1 2.32168 26.273 72.3657
15196 2 1.38127 26.0409 72.6142
15197 2 2.86308 26.4045 73.1961
15198 1 50.8462 2.04568 85.0863
15199 2 50.7132 1.92745 84.1022
15200 2 50.625 2.98684 85.3418
15201 1 40.9478 2.80104 34.0203
15202 2 40.9122 3.04623 33.0515
15203 2 40.0476 2.48181 34.3166
15204 1 40.5539 23.9791 65.1946
15205 2 40.1204 24.7987 64.8201
15206 2 41.0022 23.4728 64.4579
15207 1 8.35347 10.5223 82.7716
15208 2 8.75382 9.79602 82.2128
15209 2 7.35904 10.5139 82.6665
15210 1 33.9923 3.64797 43.7862
15211 2 34.5191 3.64538 44.6362
15212 2 33.5968 2.7418 43.6364
15213 1 69.2273 18.8298 22.1499
15214 2 68.7524 19.0075 23.0119
15215 2 69.2345 17.8462 21.97
15216 1 49.4756 9.64103 89.8267
15217 2 50.4338 9.41952 90.0079
15218 2 49.0656 10.0421 90.6459
15219 1 55.2789 9.74675 45.9453
15220 2 55.0449 10.5699 46.4626
15221 2 55.4986 9.00562 46.5797
15222 1 60.4635 22.0835 51.4227
15223 2 60.97 21.5188 52.0743
15224 2 60.0957 22.886 51.8926
15225 1 49.3538 26.1115 74.2324
15226 2 49.1091 26.1583 73.2639
15227 2 50.1151 25.4745 74.3535
15228 1 16.0877 25.6182 55.2393
15229 2 16.9506 25.1418 55.0706
15230 2 16.2746 26.5115 55.6481
15231 1 36.6885 7.95949 56.418
15232 2 36.7478 8.86788 56.8319
15233 2 37.2044 7.9491 55.5615
15234 1 60.5925 8.41774 87.6465
15235 2 60.3182 9.29149 88.0482
15236 2 61.5158 8.49866 87.271
15237 1 61.2622 27.9895 57.8929
15238 2 61.8187 28.6974 58.3278
15239 2 61.3941 27.1212 58.3711
15240 1 51.0376 6.50379 51.9992
15241 2 50.3894 5.74671 52.081
15242 2 51.6816 6.47526 52.7637
15243 1 43.6824 19.1697 90.6948
15244 2 43.0799 18.4074 90.4583
15245 2 44.6258 18.8432 90.7534
15246 1 47.9105 6.67477 61.372
15247 2 47.5177 6.76473 60.4568
15248 2 48.9085 6.67699 61.308
15249 1 1.47187 7.17489 19.2445
15250 2 2.10176 7.3515 18.4881
15251 2 1.04286 8.0325 19.5281
15252 1 66.1017 4.16559 54.1278
15253 2 66.7322 3.4363 53.8622
15254 2 66.2658 4.97163 53.5591
15255 1 59.5897 12.9355 81.1929
15256 2 58.595 12.8431 81.1476
15257 2 60.0141 12.2797 80.5685
15258 1 65.201 5.29415 16.3816
15259 2 64.5502 5.09145 17.1132
15260 2 64.8069 5.97481 15.764
15261 1 24.6598 13.7053 31.4118
15262 2 24.3025 14.624 31.5805
15263 2 24.4285 13.1111 32.1821
15264 1 50.3378 17.2471 35.5852
15265 2 50.0245 16.4451 36.0936
15266 2 49.6608 17.9786 35.6663
15267 1 28.3777 1.47046 45.853
15268 2 28.3119 1.35348 44.8621
15269 2 29.1873 0.991386 46.1921
15270 1 42.6734 25.716 58.3309
15271 2 43.5346 25.6803 58.8378
15272 2 42.8617 25.6663 57.35
15273 1 17.1667 22.8676 45.0022
15274 2 16.1957 22.9404 45.2299
15275 2 17.3574 21.9538 44.6437
15276 1 1.58028 25.4383 33.7403
15277 2 1.16213 25.163 32.8747
15278 2 0.960263 25.2205 34.4941
15279 1 23.6868 9.75599 84.5179
15280 2 23.343 9.00581 85.0827
15281 2 23.9371 10.5267 85.1038
15282 1 20.9629 19.954 64.6427
15283 2 20.6681 19.9501 63.6872
15284 2 20.3764 19.3436 65.175
15285 1 23.5857 14.6724 74.2692
15286 2 23.0818 13.9696 74.7714
15287 2 23.5395 14.4793 73.2891
15288 1 13.001 23.0405 18.4366
15289 2 13.0772 22.0446 18.4846
15290 2 13.3075 23.4403 19.3005
15291 1 70.4114 17.3472 64.7225
15292 2 70.4412 18.3449 64.7824
15293 2 71.336 16.9795 64.8221
15294 1 19.2385 9.66712 33.4215
15295 2 19.9804 10.3367 33.3865
15296 2 19.3767 9.05686 34.2015
15297 1 41.508 0.0379515 31.7957
15298 2 41.064 0.723652 31.219
15299 2 42.5005 0.114301 31.7003
15300 1 38.9761 28.2255 39.2176
15301 2 38.4678 28.6483 39.9678
15302 2 38.6485 28.5899 38.3459
15303 1 45.2302 21.7661 75.762
15304 2 45.2514 22.5188 76.42
15305 2 45.5246 22.0983 74.8659
15306 1 64.5498 25.6208 75.5843
15307 2 64.9416 25.4571 74.6789
15308 2 64.8431 26.5169 75.9174
15309 1 6.49807 13.5588 36.9484
15310 2 5.84357 13.5589 36.1923
15311 2 6.49033 12.6645 37.3958
15312 1 52.1486 28.3507 74.9772
15313 2 52.2688 27.521 75.5221
15314 2 51.9666 29.1245 75.5839
15315 1 19.373 10.0978 30.8141
15316 2 19.6842 11.0215 31.0371
15317 2 18.753 9.7733 31.5285
15318 1 44.9507 5.64425 39.5282
15319 2 44.5198 5.63535 40.4305
15320 2 45.297 6.56187 39.3332
15321 1 1.45017 18.7613 51.4902
15322 2 1.49385 19.3436 50.6785
15323 2 0.532412 18.8076 51.8847
15324 1 68.399 17.9397 40.1352
15325 2 67.9041 18.0145 41.001
15326 2 67.965 17.2444 39.5622
15327 1 42.9064 3.93257 51.5205
15328 2 42.5483 3.40857 52.2933
15329 2 43.0435 3.32324 50.7395
15330 1 28.8415 26.3481 63.7828
15331 2 29.7221 25.9352 64.0152
15332 2 28.106 25.7026 63.9884
15333 1 12.8785 12.9539 10.4611
15334 2 12.3046 12.58 9.73251
15335 2 13.5336 12.2596 10.7589
15336 1 54.1014 7.9056 54.9573
15337 2 54.9516 8.2476 54.557
15338 2 53.4511 8.65923 55.0525
15339 1 69.436 6.73907 32.2354
15340 2 70.0714 6.08019 31.8327
15341 2 68.8999 7.1711 31.5102
15342 1 29.5681 27.9867 68.673
15343 2 29.5607 28.633 67.9099
15344 2 28.6277 27.7713 68.9364
15345 1 79.9913 25.3233 61.1007
15346 2 79.1247 25.0549 60.6801
15347 2 0.200897 26.2703 60.857
15348 1 47.216 22.0675 69.3257
15349 2 48.1572 22.3737 69.1824
15350 2 46.705 22.7769 69.8111
15351 1 33.7905 11.7003 32.7014
15352 2 33.8111 12.6355 32.3481
15353 2 34.6211 11.2194 32.4203
15354 1 40.9333 13.2637 72.8135
15355 2 41.37 13.5141 73.6776
15356 2 41.6064 12.8331 72.2123
15357 1 75.5482 22.9568 53.6512
15358 2 76.1059 23.0755 54.4727
15359 2 74.9767 23.7662 53.5165
15360 1 65.6379 24.8982 20.2601
15361 2 65.2159 25.7818 20.0569
15362 2 66.0148 24.914 21.1862
15363 1 49.4596 24.9699 60.7059
15364 2 49.3115 24.8755 61.6904
15365 2 50.1858 24.3461 60.4168
15366 1 12.8757 11.4735 61.4713
15367 2 12.3459 11.7984 62.2547
15368 2 13.1724 10.5329 61.6365
15369 1 3.78412 16.6676 77.8073
15370 2 4.16706 17.3127 78.4686
15371 2 4.29853 16.7227 76.9515
15372 1 39.8758 6.35569 90.3954
15373 2 39.4814 7.27355 90.3506
15374 2 40.3156 6.13899 89.5238
15375 1 37.9362 26.0085 58.7365
15376 2 37.6263 25.3955 59.4633
15377 2 38.3886 25.4757 58.0214
15378 1 17.651 27.9475 36.702
15379 2 18.1447 27.5631 35.9219
15380 2 17.1073 28.7304 36.3994
15381 1 11.8705 19.1974 12.6006
15382 2 12.328 19.9565 13.0637
15383 2 12.556 18.562 12.2451
15384 1 36.0797 19.8162 45.8386
15385 2 35.9221 18.9518 46.316
15386 2 37.0398 19.8759 45.5653
15387 1 31.6481 29.9635 67.8544
15388 2 31.0332 29.2703 68.2305
15389 2 32.5258 29.542 67.6265
15390 1 64.8563 9.97899 83.2671
15391 2 65.51 9.22231 83.2556
15392 2 64.3557 10.0001 82.4017
15393 1 16.7345 4.66917 47.5826
15394 2 17.4713 4.97617 48.1849
15395 2 15.8524 4.92841 47.976
15396 1 74.6561 18.9459 20.7297
15397 2 75.254 19.7148 20.5032
15398 2 73.7037 19.2506 20.7211
15399 1 64.677 16.6578 83.8745
15400 2 65.347 15.9226 83.977
15401 2 64.4432 17.0236 84.7753
15402 1 37.65 12.8796 85.9991
15403 2 37.6567 12.2308 85.2382
15404 2 37.804 12.3891 86.8568
15405 1 74.0769 17.9838 60.2287
15406 2 74.9591 17.5638 60.0158
15407 2 74.2235 18.9123 60.5699
15408 1 34.5463 26.6514 87.1783
15409 2 35.0753 25.9601 86.686
15410 2 34.2541 27.3641 86.5405
15411 1 24.388 7.3155 82.6007
15412 2 24.2076 6.50697 82.0406
15413 2 23.5233 7.76362 82.8275
15414 1 67.8405 5.67161 40.4912
15415 2 67.0333 5.08161 40.4695
15416 2 67.7835 6.34164 39.7511
15417 1 53.0713 10.0162 58.6279
15418 2 53.5809 9.86671 59.4752
15419 2 53.7043 10.2811 57.9005
15420 1 13.9521 17.8476 18.0998
15421 2 13.442 18.6705 18.3497
15422 2 13.9387 17.2022 18.8635
15423 1 39.8229 29.6026 42.8853
15424 2 39.2212 29.4667 42.0982
15425 2 40.6242 0.131066 42.6049
15426 1 10.8185 16.4906 77.7656
15427 2 10.7325 15.5081 77.9311
15428 2 10.1131 16.7828 77.1197
15429 1 26.1597 21.8025 83.475
15430 2 25.4308 21.173 83.2058
15431 2 25.9293 22.7277 83.1736
15432 1 11.2417 13.4779 36.0542
15433 2 11.9498 14.1267 36.3327
15434 2 11.4226 12.5874 36.4718
15435 1 53.5148 22.611 42.9713
15436 2 53.334 21.6571 43.2107
15437 2 52.8376 23.1996 43.4129
15438 1 74.7254 10.83 27.9748
15439 2 75.0863 11.5493 28.5685
15440 2 75.483 10.3622 27.5196
15441 1 59.9819 5.26287 87.4517
15442 2 60.5857 5.79059 88.0491
15443 2 60.0556 5.60666 86.5156
15444 1 67.0791 7.87535 61.2199
15445 2 67.7864 7.69141 60.5373
15446 2 67.2942 8.72446 61.7023
15447 1 55.9618 10.2565 60.8097
15448 2 54.9987 10.4893 60.9441
15449 2 56.1112 9.99316 59.8566
15450 1 21.1207 2.66699 57.8173
15451 2 21.9651 3.16457 57.6187
15452 2 20.9844 1.95405 57.1294
15453 1 22.0802 7.444 75.7333
15454 2 21.346 7.34997 76.4058
15455 2 22.6764 8.20305 75.9948
15456 1 23.3387 16.1861 21.7398
15457 2 22.9665 15.5357 22.402
15458 2 24.2112 15.844 21.3909
15459 1 16.8172 12.4676 24.8141
15460 2 15.9853 12.9907 24.6289
15461 2 16.8097 11.6268 24.2728
15462 1 42.0204 8.76517 31.5846
15463 2 41.8365 8.22337 32.4047
15464 2 41.3042 8.59797 30.9071
15465 1 30.0032 11.2787 74.3175
15466 2 29.7099 11.5246 75.2413
15467 2 29.2165 10.9518 73.7939
15468 1 46.1244 16.5047 48.0246
15469 2 46.8823 16.9958 48.454
15470 2 46.3322 15.5268 48.0003
15471 1 23.6997 28.3747 83.6352
15472 2 23.5936 27.4326 83.3171
15473 2 22.7985 28.7706 83.8114
15474 1 53.4999 15.358 32.0568
15475 2 53.5578 14.7248 32.8287
15476 2 53.5843 16.2973 32.3892
15477 1 41.7799 10.5763 28.0579
15478 2 41.828 9.63007 28.3779
15479 2 40.833 10.8036 27.8305
15480 1 29.5755 13.7032 41.3232
15481 2 29.245 13.3988 40.4298
15482 2 30.411 13.2058 41.5566
15483 1 72.6038 19.298 17.5782
15484 2 73.4145 19.8527 17.3913
15485 2 72.3201 19.4317 18.5277
15486 1 71.3471 13.1603 58.2896
15487 2 71.8842 13.3908 59.101
15488 2 71.662 12.2867 57.9186
15489 1 73.5387 19.6656 47.9144
15490 2 74.2346 19.9231 48.5849
15491 2 73.3189 18.6956 48.018
15492 1 60.7207 29.4537 60.4415
15493 2 59.8512 29.6744 60.8835
15494 2 61.4606 29.5176 61.1112
15495 1 18.6227 26.9191 14.6587
15496 2 17.8108 27.0386 14.0873
15497 2 18.3711 27.0219 15.6211
15498 1 55.0157 25.1694 75.571
15499 2 54.5307 25.8009 76.176
15500 2 55.7471 24.7156 76.0801
15501 1 30.6374 14.1273 78.6404
15502 2 31.2194 14.1681 77.8282
15503 2 30.784 14.9452 79.1968
15504 1 78.1372 29.2207 29.7951
15505 2 77.5933 28.6253 30.3864
15506 2 79.0817 29.2431 30.1228
15507 1 28.8346 0.281614 34.1051
15508 2 28.7492 1.23206 33.8062
15509 2 29.6142 0.196072 34.7255
15510 1 20.5385 29.0631 35.7734
15511 2 21.517 29.2421 35.6705
15512 2 20.3673 28.6517 36.6686
15513 1 8.89405 3.6833 82.7187
15514 2 8.87174 3.63165 83.7171
15515 2 8.01018 4.00787 82.3819
15516 1 6.49214 6.28413 62.698
15517 2 7.01077 5.72651 62.0499
15518 2 5.87399 5.69807 63.2219
15519 1 42.8963 20.2311 70.8307
15520 2 43.2087 19.5707 71.5136
15521 2 43.5848 20.9481 70.7211
15522 1 22.6893 6.97818 59.3161
15523 2 23.38 6.48035 59.8406
15524 2 23.1408 7.58283 58.6599
15525 1 72.8627 26.5362 65.4955
15526 2 72.2862 26.4424 66.3073
15527 2 73.7575 26.8947 65.7617
15528 1 62.2295 17.299 37.3279
15529 2 61.4153 17.677 37.7685
15530 2 62.6646 16.6397 37.9412
15531 1 27.0671 11.4891 62.769
15532 2 27.0834 11.6007 61.7754
15533 2 27.9733 11.6886 63.1417
15534 1 32.2891 3.46951 67.804
15535 2 32.4772 4.45166 67.8063
15536 2 32.5736 3.07358 68.6771
15537 1 24.3606 26.2737 52.0436
15538 2 23.8912 25.9079 52.8473
15539 2 24.9655 27.0198 52.3218
15540 1 22.3408 12.9985 59.3914
15541 2 22.7484 12.1828 58.981
15542 2 21.6914 12.7255 60.1012
15543 1 12.0607 9.85891 90.3477
15544 2 12.541 9.05214 90.6917
15545 2 11.1243 9.6093 90.101
15546 1 75.4811 20.7003 60.91
15547 2 75.5155 19.8253 61.3929
15548 2 75.1736 21.4156 61.5376
15549 1 68.2927 14.968 41.3743
15550 2 68.0186 15.0049 42.3353
15551 2 69.2843 14.8525 41.3148
15552 1 67.7939 10.2003 62.0614
15553 2 67.32 10.7354 61.3622
15554 2 68.7811 10.2576 61.9129
15555 1 70.494 9.53062 44.551
15556 2 70.3488 10.3292 43.9669
15557 2 70.3262 9.7803 45.5047
15558 1 47.9378 1.69066 68.6685
15559 2 48.4331 1.33307 67.8768
15560 2 48.4834 1.54948 69.4946
15561 1 44.2255 20.252 30.0365
15562 2 45.1931 20.4635 29.8984
15563 2 43.6791 21.0752 29.8826
15564 1 26.2564 6.40291 29.7835
15565 2 26.2811 5.58372 29.2105
15566 2 26.0779 6.14102 30.7319
15567 1 66.7385 18.7898 72.0702
15568 2 67.3537 18.0153 71.9227
15569 2 65.9402 18.4869 72.5908
15570 1 45.2071 25.968 90.8236
15571 2 45.758 26.8016 90.8624
15572 2 45.8086 25.1751 90.7267
15573 1 23.6492 12.8558 24.4033
15574 2 23.9699 13.7405 24.7416
15575 2 23.1507 12.9874 23.5464
15576 1 6.3662 29.314 13.5752
15577 2 7.19464 29.6725 14.0056
15578 2 6.2864 29.6813 12.6485
15579 1 65.288 6.7765 73.2086
15580 2 64.2896 6.73274 73.2458
15581 2 65.6614 6.65748 74.1286
15582 1 58.6234 13.5902 42.0064
15583 2 57.8625 14.2249 42.1411
15584 2 59.2334 13.9465 41.2986
15585 1 6.55249 7.19851 52.5004
15586 2 7.38801 7.74631 52.4578
15587 2 5.89865 7.63533 53.1182
15588 1 22.8675 7.40272 50.656
15589 2 22.351 7.15016 51.4742
15590 2 22.4563 8.21345 50.2393
15591 1 22.3187 5.7192 30.7024
15592 2 23.0592 6.04615 31.2896
15593 2 22.5245 5.94411 29.75
15594 1 21.5989 12.0448 41.6325
15595 2 21.4458 11.6473 40.7278
15596 2 21.0807 11.5295 42.3151
15597 1 35.1471 24.681 64.0759
15598 2 34.3946 25.1712 63.636
15599 2 35.9506 25.2746 64.1208
15600 1 35.1361 15.684 91.0944
15601 2 35.0285 15.1408 91.9271
15602 2 34.2949 15.6385 90.5557
15603 1 27.6262 3.55803 54.9083
15604 2 27.5876 4.38025 54.3404
15605 2 27.9463 3.80022 55.8242
15606 1 70.768 16.651 46.8683
15607 2 71.2285 15.8263 46.5401
15608 2 71.1905 16.9507 47.7237
15609 1 48.0884 0.431989 44.3617
15610 2 48.2909 1.05662 45.116
15611 2 47.2004 0.664981 43.9652
15612 1 15.3853 16.7654 41.5799
15613 2 15.7161 17.633 41.9512
15614 2 15.7124 16.0123 42.1507
15615 1 70.5132 18.0338 81.4122
15616 2 70.931 18.385 80.5743
15617 2 70.9982 18.4013 82.2058
15618 1 47.7211 25.8451 35.4189
15619 2 48.5854 25.3769 35.2352
15620 2 47.9056 26.7849 35.7064
15621 1 22.7677 16.1169 77.2786
15622 2 23.7449 15.9321 77.3829
15623 2 22.2706 15.7302 78.0553
15624 1 4.01211 25.2353 86.6572
15625 2 4.1415 24.458 87.2728
15626 2 3.0704 25.564 86.7287
15627 1 47.1145 28.7558 66.1073
15628 2 47.8556 28.2404 65.677
15629 2 46.3498 28.8365 65.468
15630 1 46.3232 26.3951 70.9696
15631 2 45.9715 26.0642 70.0939
15632 2 47.1183 25.8506 71.2367
15633 1 15.5496 7.82498 14.2474
15634 2 16.0733 7.2841 14.9056
15635 2 16.0359 7.84901 13.3739
15636 1 44.6532 12.9918 67.4939
15637 2 45.5133 12.6499 67.1152
15638 2 44.7796 13.9308 67.8136
15639 1 20.5242 26.7741 12.4972
15640 2 20.5523 25.9361 11.9522
15641 2 20.1009 26.5819 13.3826
15642 1 11.4406 1.14226 47.2861
15643 2 12.3821 1.47921 47.287
15644 2 10.8141 1.9032 47.4549
15645 1 22.5265 16.9475 28.8669
15646 2 22.7785 17.7763 29.3665
15647 2 23.3228 16.603 28.3697
15648 1 53.6163 11.8656 24.7941
15649 2 52.9498 12.5649 24.5359
15650 2 53.1544 11.1337 25.295
15651 1 5.4608 17.257 24.0143
15652 2 6.26555 17.6725 23.5904
15653 2 5.57813 16.2646 24.0505
15654 1 63.617 10.0043 41.0214
15655 2 64.1093 10.0274 41.8915
15656 2 64.2419 10.2439 40.2784
15657 1 51.6725 5.52693 89.3676
15658 2 50.7374 5.86119 89.4856
15659 2 52.0535 5.89489 88.5194
15660 1 0.443302 16.6199 79.2542
15661 2 1.27746 17.1482 79.4126
15662 2 79.6459 17.2095 79.3826
15663 1 57.8657 3.54786 76.7416
15664 2 58.7086 4.05208 76.9292
15665 2 58.0911 2.61679 76.4546
15666 1 62.9903 17.3146 22.6923
15667 2 63.1924 16.5554 23.311
15668 2 63.8459 17.6956 22.3417
15669 1 35.8634 19.2362 61.8095
15670 2 34.9388 19.4654 61.5053
15671 2 35.8654 18.3192 62.2082
15672 1 27.6338 27.6452 29.8922
15673 2 28.49 28.0258 29.5429
15674 2 27.2253 28.2854 30.5427
15675 1 64.4788 4.99799 70.2112
15676 2 65.4337 5.27306 70.3237
15677 2 64.3655 4.05348 70.5195
15678 1 72.1088 16.1315 23.3749
15679 2 71.1995 15.8508 23.0674
15680 2 72.1832 17.1276 23.3295
15681 1 29.6711 17.3231 36.1818
15682 2 29.5948 17.8827 37.0071
15683 2 29.9726 17.8944 35.4184
15684 1 72.1676 13.7572 55.4866
15685 2 71.9333 13.1023 56.205
15686 2 71.6618 13.5332 54.6535
15687 1 75.1892 18.6275 45.8547
15688 2 74.9353 19.3551 46.492
15689 2 75.9678 18.925 45.3022
15690 1 75.1915 12.3047 39.5072
15691 2 75.7225 13.1267 39.3009
15692 2 74.9865 11.8185 38.6577
15693 1 9.10118 15.5324 32.9736
15694 2 9.6116 16.3906 33.0279
15695 2 8.67207 15.4562 32.0735
15696 1 57.8359 3.56003 48.3689
15697 2 58.3501 4.35258 48.6967
15698 2 58.1525 3.31288 47.4531
15699 1 14.5083 11.4947 70.0032
15700 2 15.2723 10.8933 70.2371
15701 2 14.4463 11.5835 69.009
15702 1 23.4063 11.4304 62.1881
15703 2 23.1866 12.385 62.3891
15704 2 23.8954 11.0306 62.9632
15705 1 20.1921 20.0758 39.0368
15706 2 20.6407 20.9694 39.0214
15707 2 20.1709 19.7297 39.9747
15708 1 77.4561 23.9311 50.8214
15709 2 78.065 24.5789 51.2793
15710 2 77.7188 23.8492 49.86
15711 1 67.9921 7.91009 82.9449
15712 2 67.1497 7.52201 83.3189
15713 2 68.1286 8.82904 83.3149
15714 1 20.2106 6.8767 21.1113
15715 2 20.2462 7.10799 20.1391
15716 2 19.3705 7.24375 21.5107
15717 1 71.8243 0.20519 89.3514
15718 2 71.6027 29.2431 89.1926
15719 2 71.9061 0.677596 88.4738
15720 1 45.2323 18.9308 82.259
15721 2 45.0992 18.8795 81.2692
15722 2 46.0856 18.4709 82.5048
15723 1 68.974 12.8127 84.4701
15724 2 68.8086 11.842 84.2959
15725 2 68.8802 13.3253 83.6166
15726 1 14.0242 24.0017 39.4038
15727 2 13.0923 24.2658 39.1549
15728 2 14.6555 24.2878 38.683
15729 1 62.1481 8.67828 84.0185
15730 2 61.1615 8.67236 83.855
15731 2 62.6237 8.93769 83.1779
15732 1 53.8321 20.1834 57.0618
15733 2 53.0256 20.5882 57.4926
15734 2 53.5814 19.3143 56.6355
15735 1 33.3052 18.777 36.4789
15736 2 33.0853 18.1909 35.6991
15737 2 33.7381 18.23 37.1954
15738 1 59.7995 26.7326 37.8274
15739 2 59.734 26.5103 38.8002
15740 2 58.8951 26.9817 37.4809
15741 1 28.9658 23.9197 81.162
15742 2 28.4314 24.5572 81.717
15743 2 29.3596 24.4061 80.3821
15744 1 37.2021 24.8418 70.9924
15745 2 38.0027 25.3667 71.2815
15746 2 37.3143 24.5605 70.0394
15747 1 56.2522 28.7905 44.4808
15748 2 55.9582 27.9018 44.1289
15749 2 55.5478 29.1581 45.0879
15750 1 60.0905 13.9816 72.8236
15751 2 59.827 13.1255 73.2681
15752 2 59.9698 14.7404 73.4636
15753 1 29.8614 29.062 61.9397
15754 2 29.5928 0.0203967 62.0361
15755 2 29.2145 28.5933 61.3382
15756 1 36.6378 3.08646 67.2622
15757 2 35.8638 3.09205 66.6291
15758 2 36.5755 2.28556 67.8578
15759 1 44.0341 0.620682 52.024
15760 2 44.6621 29.9432 51.6409
15761 2 43.7105 1.22456 51.2956
15762 1 20.3486 28.1622 59.4244
15763 2 20.2549 27.8309 60.3632
15764 2 20.7522 27.4449 58.8565
15765 1 22.151 7.65266 55.5284
15766 2 22.7743 8.42945 55.4385
15767 2 22.6434 6.80542 55.3289
15768 1 65.1773 13.5899 40.9835
15769 2 66.0382 13.2034 40.6525
15770 2 64.4518 13.4035 40.321
15771 1 44.8795 25.2872 29.7321
15772 2 45.6011 24.9632 30.3438
15773 2 44.928 24.7894 28.8662
15774 1 4.49016 28.0573 10.9424
15775 2 5.35462 27.6348 10.6701
15776 2 4.66576 28.9739 11.3016
15777 1 17.4556 3.09686 16.6184
15778 2 17.3719 2.10847 16.4916
15779 2 17.1636 3.34009 17.5434
15780 1 71.9679 0.0616717 34.9264
15781 2 72.3859 29.6931 35.7566
15782 2 72.4626 29.7236 34.1257
15783 1 12.4913 22.3844 29.9863
15784 2 13.202 22.402 29.2831
15785 2 12.9097 22.5082 30.8861
15786 1 8.73936 26.2697 39.5037
15787 2 9.63633 25.8657 39.3243
15788 2 8.68612 26.551 40.4619
15789 1 46.714 28.9552 57.1842
15790 2 46.7181 28.0452 56.7697
15791 2 46.5555 29.6433 56.4761
15792 1 11.2741 12.9014 26.593
15793 2 11.2743 13.4035 25.7282
15794 2 10.6275 12.1407 26.5367
15795 1 69.9711 21.4852 83.5185
15796 2 69.0159 21.5688 83.2344
15797 2 70.1942 22.2208 84.1581
15798 1 8.94045 6.88471 58.9149
15799 2 9.32018 7.80954 58.9372
15800 2 7.96625 6.91892 59.138
15801 1 22.4553 18.3392 82.4541
15802 2 22.692 17.8463 81.6168
15803 2 23.0324 19.1517 82.5369
15804 1 66.4852 8.88938 52.9088
15805 2 65.9376 8.25879 52.3587
15806 2 65.8879 9.38994 53.5354
15807 1 19.7973 6.9063 28.0677
15808 2 19.2726 7.29635 27.311
15809 2 20.5744 7.50035 28.2755
15810 1 29.0695 9.45984 77.0167
15811 2 28.5398 9.99832 76.3614
15812 2 29.5557 8.73149 76.5339
15813 1 16.7003 3.16066 21.2144
15814 2 16.5559 3.73325 20.4074
15815 2 17.4688 2.54206 21.051
15816 1 25.3479 12.1585 50.1706
15817 2 24.5075 12.4535 49.7159
15818 2 25.2035 11.2615 50.5885
15819 1 53.3725 22.9123 26.3294
15820 2 52.6638 22.3677 25.881
15821 2 53.0497 23.8521 26.4414
15822 1 47.6491 3.75034 90.9031
15823 2 46.7814 3.25384 90.9279
15824 2 47.5176 4.62863 90.4434
15825 1 75.4525 16.6076 25.669
15826 2 75.997 16.5896 26.5075
15827 2 75.7295 17.3879 25.1083
15828 1 79.2954 19.7173 77.3148
15829 2 78.8031 19.7312 78.1852
15830 2 78.7187 20.1119 76.5994
15831 1 15.4321 12.9699 77.5442
15832 2 14.9595 13.738 77.9763
15833 2 16.4161 13.0527 77.7019
15834 1 27.973 2.74823 29.1075
15835 2 27.053 2.80403 29.4955
15836 2 27.9243 2.35481 28.1894
15837 1 32.5455 0.691177 89.0107
15838 2 31.9978 1.45373 88.6663
15839 2 33.4926 0.797575 88.708
15840 1 64.404 13.9654 73.7689
15841 2 63.563 14.4449 73.5183
15842 2 64.1758 13.1401 74.2855
15843 1 72.5678 3.77472 84.2963
15844 2 72.0696 2.97403 83.9636
15845 2 72.5016 3.81785 85.2932
15846 1 5.20837 21.2968 82.2531
15847 2 4.97879 20.7176 83.0353
15848 2 4.36779 21.6442 81.8375
15849 1 16.5373 26.5676 12.4894
15850 2 16.9269 27.4369 12.7936
15851 2 17.0978 26.1913 11.7516
15852 1 53.0114 20.1154 35.8028
15853 2 52.2524 20.6319 36.1992
15854 2 53.6238 19.8103 36.5321
15855 1 74.6176 13.4653 78.9705
15856 2 73.6331 13.2961 79.0177
15857 2 74.905 13.9869 79.7738
15858 1 2.96337 9.4136 43.1437
15859 2 2.3426 9.79594 43.8281
15860 2 2.60452 8.53799 42.8203
15861 1 41.5957 26.0293 35.3875
15862 2 41.6723 26.4552 36.289
15863 2 40.8834 25.3277 35.4098
15864 1 26.0318 17.8319 50.7291
15865 2 26.6616 17.2773 50.1852
15866 2 26.1743 17.6422 51.7005
15867 1 6.41056 16.1537 90.1882
15868 2 5.54947 15.6636 90.0527
15869 2 7.17377 15.5109 90.1232
15870 1 69.0163 0.647989 61.3501
15871 2 68.6473 29.8898 60.8126
15872 2 68.6609 0.598816 62.2836
15873 1 27.6817 4.71099 82.7369
15874 2 28.3991 4.40616 83.3633
15875 2 27.5459 5.69636 82.8399
15876 1 22.9396 4.71091 76.8842
15877 2 22.7511 3.87423 76.37
15878 2 22.2654 4.81153 77.6159
15879 1 17.3299 29.2667 59.6712
15880 2 16.8582 29.4133 60.5408
15881 2 18.1498 28.7154 59.8255
15882 1 76.5067 14.9095 86.3294
15883 2 75.9976 15.6409 86.7831
15884 2 76.0229 14.6319 85.4994
15885 1 5.68564 14.4634 27.0693
15886 2 4.75729 14.3361 26.7201
15887 2 6.31458 13.8686 26.5687
15888 1 79.4228 0.533465 71.2932
15889 2 79.5105 0.297319 72.261
15890 2 78.9939 1.43274 71.2071
15891 1 14.4366 9.02111 60.0799
15892 2 14.5929 9.99222 59.8996
15893 2 14.8128 8.78359 60.9755
15894 1 51.6706 9.91159 38.274
15895 2 51.0618 9.12392 38.3682
15896 2 52.6172 9.61951 38.4112
15897 1 60.8726 29.7745 65.7494
15898 2 60.0698 29.217 65.5378
15899 2 61.6162 29.539 65.1237
15900 1 26.5091 24.5988 52.7486
15901 2 26.403 24.2785 53.69
15902 2 25.6196 24.8831 52.3909
15903 1 30.3127 20.8823 61.0417
15904 2 31.2555 20.7686 60.7285
15905 2 29.9124 21.6895 60.608
15906 1 53.6984 15.7051 83.6638
15907 2 52.7274 15.5646 83.8573
15908 2 53.8418 15.7235 82.6743
15909 1 24.4254 25.6986 70.8344
15910 2 24.4658 25.1438 70.0035
15911 2 23.5395 25.5682 71.2795
15912 1 42.8278 4.8877 55.5844
15913 2 42.2281 4.2776 55.0665
15914 2 43.4753 4.34419 56.1186
15915 1 63.7914 23.8354 65.6015
15916 2 64.4929 23.1411 65.4406
15917 2 63.6032 23.8981 66.5816
15918 1 38.4844 12.2176 76.9174
15919 2 39.177 11.5302 77.136
15920 2 38.7474 13.0951 77.3184
15921 1 3.76472 9.55087 30.1112
15922 2 3.6821 10.5475 30.1086
15923 2 4.73146 9.29649 30.0851
15924 1 26.7717 7.43548 83.8046
15925 2 25.7971 7.4441 83.5808
15926 2 26.9265 7.9625 84.6402
15927 1 67.8825 19.7654 48.0167
15928 2 67.7217 18.8228 48.3095
15929 2 67.1196 20.0724 47.4477
15930 1 11.5279 17.9884 90.179
15931 2 12.1973 17.37 89.7673
15932 2 10.7027 17.476 90.4167
15933 1 16.782 17.1713 24.3992
15934 2 17.1991 16.3599 23.9898
15935 2 15.9126 16.9202 24.8249
15936 1 37.3789 11.2928 72.8996
15937 2 36.7311 11.9336 73.3116
15938 2 37.7961 10.7337 73.616
15939 1 62.9783 25.7531 43.5628
15940 2 63.4747 25.9597 42.7197
15941 2 62.907 26.5811 44.1191
15942 1 8.28144 14.0945 28.68
15943 2 8.40342 13.5137 27.8751
15944 2 7.3693 14.5039 28.6605
15945 1 22.9099 20.7959 61.9246
15946 2 23.2246 21.7181 61.7001
15947 2 21.986 20.6624 61.5658
15948 1 77.9616 20.6068 18.527
15949 2 77.4521 21.3845 18.1588
15950 2 78.9422 20.7674 18.4146
15951 1 78.837 6.93717 57.0558
15952 2 79.8347 6.90068 57.1132
15953 2 78.4821 6.02789 56.8383
15954 1 73.6163 12.3664 30.8713
15955 2 74.5371 12.1568 31.2004
15956 2 72.9572 12.2189 31.6087
15957 1 59.5377 15.0738 27.3836
15958 2 59.8849 14.415 28.0512
15959 2 59.9648 15.9642 27.5409
15960 1 8.88397 11.104 42.5581
15961 2 8.0635 11.0053 41.995
15962 2 8.65315 10.9341 43.5161
15963 1 7.38259 23.4382 73.9253
15964 2 7.03571 24.2872 73.5268
15965 2 7.15707 23.4106 74.8992
15966 1 23.8742 12.4016 53.1145
15967 2 24.542 12.2234 53.8373
15968 2 22.9534 12.2188 53.459
15969 1 34.9666 24.0352 30.0546
15970 2 34.0661 23.8146 29.6798
15971 2 35.6326 24.0912 29.3108
15972 1 46.475 1.03622 48.197
15973 2 46.6192 1.56669 47.3616
15974 2 46.9161 1.49884 48.9659
15975 1 8.91797 19.863 13.0864
15976 2 9.10436 20.8365 12.954
15977 2 9.69086 19.3266 12.7474
15978 1 44.6827 18.0982 55.8233
15979 2 45.1431 17.7902 56.6558
15980 2 44.9125 17.4837 55.0686
15981 1 36.8595 22.7347 37.0283
15982 2 36.5312 23.4119 36.3699
15983 2 37.0446 21.873 36.5559
15984 1 68.8703 25.5822 49.4229
15985 2 69.6639 25.1075 49.8034
15986 2 68.8962 26.5446 49.6934
15987 1 40.9897 27.4367 44.4635
15988 2 41.0636 26.492 44.7829
15989 2 41.8747 27.7392 44.1096
15990 1 31.5155 6.76938 72.8008
15991 2 31.5208 5.77337 72.7118
15992 2 31.0496 7.02583 73.6478
15993 1 8.52791 1.59016 24.088
15994 2 8.3252 2.33046 24.729
15995 2 7.77019 0.937604 24.082
15996 1 0.366122 5.2661 25.3785
15997 2 0.0801666 4.33048 25.1715
15998 2 0.891995 5.63155 24.6105
15999 1 20.3332 9.85443 24.8319
16000 2 19.9173 8.94637 24.8818
16001 2 20.6111 10.0424 23.8899
16002 1 2.00122 28.9376 86.7794
16003 2 1.90334 28.3062 87.5487
16004 2 1.34564 29.6864 86.8772
16005 1 66.9833 23.7202 65.6131
16006 2 66.7945 22.7602 65.4063
16007 2 67.2633 23.8064 66.5692
16008 1 55.8923 10.2171 68.3459
16009 2 56.8701 10.392 68.4617
16010 2 55.4691 10.9902 67.8735
16011 1 58.1423 0.834695 77.1497
16012 2 58.6443 0.474797 77.9361
16013 2 57.5635 0.115137 76.766
16014 1 23.5122 14.3969 40.7503
16015 2 24.3248 14.4326 40.1685
16016 2 23.7901 14.3863 41.7108
16017 1 55.6928 9.28213 23.8457
16018 2 55.7 9.58146 24.7998
16019 2 55.0446 9.83918 23.3265
16020 1 0.164597 12.1586 41.7333
16021 2 0.158359 12.96 42.3314
16022 2 0.341955 11.3383 42.2769
16023 1 29.3605 8.87167 64.844
16024 2 29.0318 8.30432 64.089
16025 2 29.3676 9.83093 64.5616
16026 1 65.4446 18.3018 13.0489
16027 2 64.582 17.8761 13.3221
16028 2 65.5567 18.222 12.0584
16029 1 57.8834 7.62782 52.2407
16030 2 57.0823 8.16897 52.4964
16031 2 58.4253 7.42839 53.0571
16032 1 75.6003 7.91041 16.7773
16033 2 75.9518 6.98124 16.6629
16034 2 75.1131 7.97763 17.648
16035 1 43.271 18.0237 33.6192
16036 2 42.7078 18.5984 33.0255
16037 2 43.4061 18.483 34.4971
16038 1 32.2398 6.34171 68.1273
16039 2 31.9207 7.09673 68.7002
16040 2 31.9367 6.48677 67.1855
16041 1 76.5159 6.3533 75.0134
16042 2 77.4613 6.27226 75.3293
16043 2 75.8937 6.11859 75.7603
16044 1 11.49 25.5527 76.6556
16045 2 11.2532 26.005 75.7958
16046 2 10.7873 25.7483 77.3397
16047 1 41.5398 5.76583 47.6441
16048 2 42.278 6.38646 47.3799
16049 2 41.2835 5.93852 48.5952
16050 1 25.3873 17.689 77.2352
16051 2 25.7393 16.8864 77.7168
16052 2 25.9643 18.4799 77.4393
16053 1 11.6161 16.3231 25.547
16054 2 12.4822 16.2003 25.0624
16055 2 11.135 17.1163 25.1737
16056 1 50.3973 15.0736 37.7788
16057 2 50.0294 14.3716 38.3886
16058 2 51.3382 14.8413 37.5324
16059 1 28.0076 8.2461 73.5739
16060 2 28.6545 8.44686 74.3096
16061 2 27.0978 8.09759 73.9613
16062 1 56.101 3.58029 35.2798
16063 2 56.4855 4.33344 35.8136
16064 2 55.9375 2.79653 35.879
16065 1 46.2564 9.99995 75.3843
16066 2 46.7726 10.8323 75.1823
16067 2 45.3151 10.2407 75.6209
16068 1 8.91673 2.43525 50.6434
16069 2 8.55504 3.21206 51.1589
16070 2 9.60089 2.75856 49.9896
16071 1 39.0665 21.2426 62.5822
16072 2 39.8262 21.75 62.1755
16073 2 38.4326 21.8828 63.0162
16074 1 71.7392 28.1496 31.7075
16075 2 71.7681 27.4922 32.4604
16076 2 72.4009 28.88 31.8771
16077 1 57.4895 6.36117 86.2433
16078 2 57.1972 5.45464 85.9386
16079 2 57.2118 7.04509 85.5686
16080 1 79.5251 12.6922 63.8991
16081 2 79.0866 13.5891 63.8414
16082 2 79.8664 12.5472 64.8278
16083 1 51.3804 28.8873 65.8256
16084 2 50.5328 28.5498 65.4162
16085 2 51.9139 28.1155 66.1716
16086 1 8.13182 2.53574 71.1622
16087 2 8.86597 2.01259 70.7294
16088 2 8.49871 3.39714 71.5134
16089 1 11.7937 25.5988 50.7526
16090 2 11.5122 25.2805 51.6578
16091 2 12.7827 25.4894 50.6535
16092 1 75.731 10.9855 21.841
16093 2 75.3054 11.4737 22.6029
16094 2 76.4642 10.4006 22.1878
16095 1 46.9193 18.6454 90.7144
16096 2 46.8825 19.4041 90.0639
16097 2 47.5161 18.8902 91.4785
16098 1 1.31773 27.7286 25.2817
16099 2 1.61095 28.6596 25.4992
16100 2 1.49881 27.131 26.0628
16101 1 74.1869 3.02879 30.5976
16102 2 73.5569 3.45278 29.947
16103 2 74.5448 2.17932 30.2098
16104 1 2.23553 20.0973 86.8225
16105 2 2.35411 19.9071 85.8479
16106 2 2.59815 21.0056 87.0313
16107 1 74.8235 22.0263 27.2016
16108 2 75.7854 22.0206 26.9285
16109 2 74.4309 21.1179 27.0581
16110 1 3.8726 20.1331 27.5502
16111 2 3.10785 19.4888 27.561
16112 2 4.68183 19.6964 27.9432
16113 1 66.6357 25.544 28.4099
16114 2 66.1266 24.6848 28.3602
16115 2 66.2474 26.1995 27.7621
16116 1 1.11361 24.2712 48.4198
16117 2 1.71801 24.1697 47.6296
16118 2 0.216886 23.8839 48.2054
16119 1 22.5183 26.6442 75.7335
16120 2 23.1941 26.839 76.4443
16121 2 21.8451 27.3831 75.7022
16122 1 49.2803 22.1533 41.2365
16123 2 48.3177 22.2977 41.007
16124 2 49.6354 22.9608 41.7076
16125 1 10.2317 28.664 24.0925
16126 2 9.39226 28.7737 24.6247
16127 2 10.4647 27.6933 24.0338
16128 1 72.7978 4.54544 78.7565
16129 2 72.4028 3.92821 78.0761
16130 2 73.726 4.79522 78.481
16131 1 54.3505 15.7322 78.2836
16132 2 53.7876 14.9587 78.5747
16133 2 54.735 16.1859 79.0875
16134 1 63.8617 24.4897 60.6417
16135 2 63.9121 24.9081 61.5486
16136 2 63.5428 25.1675 59.9792
16137 1 32.1476 24.8385 61.6297
16138 2 32.6182 24.1909 62.2289
16139 2 32.464 25.7663 61.8276
16140 1 32.8231 7.13336 62.2945
16141 2 32.9256 7.50486 63.2173
16142 2 31.8679 6.88002 62.1414
16143 1 62.9599 14.709 57.9992
16144 2 62.386 13.9483 58.3025
16145 2 62.4744 15.5712 58.1438
16146 1 21.526 3.86431 50.2987
16147 2 22.1018 4.31588 50.9803
16148 2 20.6779 3.55642 50.7301
16149 1 0.244699 17.4415 45.5187
16150 2 79.6123 17.5603 46.2842
16151 2 0.3554 18.3123 45.0396
16152 1 65.6641 7.56849 36.0876
16153 2 65.939 7.86132 37.0034
16154 2 65.1383 6.72035 36.1527
16155 1 1.55222 7.95037 52.9422
16156 2 1.66311 7.08468 52.4541
16157 2 2.4522 8.33506 53.1473
16158 1 11.8527 1.80416 20.503
16159 2 12.2285 2.61204 20.9569
16160 2 12.4724 1.51281 19.7742
16161 1 4.13544 19.7372 22.4611
16162 2 4.99997 19.2347 22.4576
16163 2 4.31645 20.7108 22.6
16164 1 60.2801 27.4741 53.4748
16165 2 59.863 27.6434 54.3678
16166 2 59.9238 28.1311 52.8105
16167 1 38.0708 0.0943345 82.5239
16168 2 37.457 29.3055 82.5545
16169 2 38.8092 29.968 83.1863
16170 1 53.6458 8.23909 77.6093
16171 2 54.03 8.5905 78.463
16172 2 53.2927 7.31538 77.7579
16173 1 68.9467 27.3404 77.2073
16174 2 69.6745 27.0925 76.5679
16175 2 69.3137 27.3641 78.1372
16176 1 17.4883 19.3525 65.7877
16177 2 17.2617 18.5244 66.3005
16178 2 18.0127 19.1066 64.9725
16179 1 49.0644 13.2107 56.2027
16180 2 49.4148 12.29 56.3745
16181 2 48.4911 13.2016 55.3834
16182 1 33.7088 3.70137 40.9187
16183 2 33.3 3.2289 40.1379
16184 2 33.6639 3.11232 41.7256
16185 1 41.8769 2.09451 84.2571
16186 2 42.2911 2.10917 85.1672
16187 2 41.596 1.16114 84.0338
16188 1 13.0453 9.81901 64.7764
16189 2 12.3356 10.2475 65.3356
16190 2 13.6513 10.5245 64.4088
16191 1 64.1418 13.7548 12.7942
16192 2 65.0153 13.2941 12.6364
16193 2 63.6914 13.3516 13.5908
16194 1 65.9299 23.4541 14.3444
16195 2 66.8412 23.1877 14.6585
16196 2 65.4317 23.887 15.0957
16197 1 17.9243 10.6745 37.0999
16198 2 16.9625 10.943 37.1525
16199 2 18.2819 10.8921 36.1917
16200 1 68.6345 21.3393 54.4218
16201 2 68.7736 20.9248 55.3211
16202 2 68.5176 22.3271 54.5246
16203 1 14.5513 0.388834 77.0344
16204 2 14.0367 0.703714 76.2369
16205 2 15.4438 0.0461751 76.7412
16206 1 19.8659 16.1618 69.0446
16207 2 19.4861 15.2434 68.934
16208 2 19.1394 16.7922 69.3181
16209 1 6.84053 25.5293 56.6037
16210 2 6.11639 26.1172 56.2431
16211 2 7.10349 24.86 55.9087
16212 1 52.4754 29.8138 39.1193
16213 2 52.2029 0.587638 39.6911
16214 2 51.8921 29.0274 39.3228
16215 1 49.9417 7.57082 78.4408
16216 2 49.0095 7.62544 78.7985
16217 2 50.3166 6.66214 78.6246
16218 1 31.1499 4.36649 35.7963
16219 2 30.481 5.03398 35.4692
16220 2 31.8397 4.83069 36.3519
16221 1 60.5109 3.25799 59.6858
16222 2 59.8843 2.70647 60.2364
16223 2 60.8153 2.72693 58.895
16224 1 42.9295 7.46511 77.0951
16225 2 42.1879 6.82797 77.3049
16226 2 43.8056 7.04819 77.3373
16227 1 60.6759 25.5296 61.7401
16228 2 61.0595 25.6671 60.8269
16229 2 61.079 26.1898 62.3738
16230 1 29.8277 1.31044 51.6309
16231 2 29.7968 2.19138 51.1587
16232 2 30.7107 0.872541 51.4621
16233 1 30.4666 5.99177 56.2736
16234 2 31.4338 5.73845 56.2521
16235 2 30.1858 6.15533 57.2193
16236 1 8.63162 10.3757 78.9592
16237 2 9.42078 10.9468 78.7332
16238 2 8.88921 9.71519 79.6644
16239 1 50.4953 22.6697 68.0759
16240 2 51.2324 22.4333 67.4428
16241 2 50.5148 23.6528 68.2581
16242 1 19.5364 27.0449 85.8818
16243 2 19.5374 27.7443 86.5966
16244 2 20.1277 26.2867 86.1564
16245 1 9.69803 16.5283 40.5881
16246 2 9.398 17.2636 41.1959
16247 2 10.6599 16.6637 40.3507
16248 1 53.8198 22.1666 63.2673
16249 2 53.909 21.497 62.5299
16250 2 52.9233 22.069 63.6995
16251 1 1.38401 17.6124 73.6815
16252 2 1.57892 18.246 72.9328
16253 2 1.66737 16.6898 73.4196
16254 1 47.6401 16.5687 42.7342
16255 2 46.6738 16.824 42.7022
16256 2 47.8889 16.3223 43.6709
16257 1 7.50141 15.913 15.8326
16258 2 6.72338 16.4481 16.1618
16259 2 8.0409 15.5948 16.6121
16260 1 36.2085 26.0958 77.8101
16261 2 35.2286 25.9274 77.7032
16262 2 36.716 25.2632 77.5884
16263 1 16.2065 1.43654 70.7516
16264 2 16.4086 2.16761 71.4032
16265 2 16.7831 0.644088 70.9502
16266 1 45.4545 20.441 79.6549
16267 2 45.607 20.8383 80.5598
16268 2 45.6277 21.1326 78.9537
16269 1 72.0591 4.63816 90.0751
16270 2 71.2056 4.23951 90.4108
16271 2 71.9102 5.02744 89.1661
16272 1 79.6303 28.936 51.5282
16273 2 79.1923 29.7644 51.8775
16274 2 0.609123 29.1018 51.4082
16275 1 49.5205 23.5822 83.6419
16276 2 48.6268 23.1484 83.7567
16277 2 50.1033 23.3564 84.4225
16278 1 24.2927 1.6018 56.512
16279 2 24.053 2.42542 57.026
16280 2 23.4576 1.15003 56.1981
16281 1 14.0203 7.97863 27.4282
16282 2 13.7329 8.06185 26.4741
16283 2 14.8999 7.50486 27.4713
16284 1 78.7307 3.96542 22.9014
16285 2 79.1858 3.22926 23.4024
16286 2 79.3493 4.32523 22.2029
16287 1 41.256 10.5748 41.7314
16288 2 40.5934 9.96315 42.1636
16289 2 41.486 10.228 40.8221
16290 1 22.5097 0.957924 67.3669
16291 2 22.5056 0.830298 68.3587
16292 2 23.3228 1.47573 67.1009
16293 1 77.2572 25.5293 17.0815
16294 2 76.824 25.3589 16.1964
16295 2 77.8828 24.7793 17.2962
16296 1 0.33707 5.15952 64.7095
16297 2 79.9275 4.52143 65.3615
16298 2 79.6362 5.78901 64.374
16299 1 11.005 24.1681 79.2119
16300 2 10.3993 24.7515 79.7529
16301 2 10.4569 23.5438 78.6553
16302 1 16.9715 22.5379 25.1275
16303 2 16.2699 21.8864 25.416
16304 2 17.6681 22.6153 25.8408
16305 1 22.9127 7.59825 85.8482
16306 2 23.3349 8.00151 86.6601
16307 2 22.9481 6.60108 85.9146
16308 1 55.1724 7.35124 73.0359
16309 2 54.5165 7.70705 72.3702
16310 2 54.7078 7.18565 73.9058
16311 1 53.6513 6.44157 86.5462
16312 2 54.5545 6.48285 86.1191
16313 2 52.9686 6.19345 85.859
16314 1 22.5593 21.8909 48.2699
16315 2 21.8006 22.0085 47.6292
16316 2 22.1987 21.6828 49.1791
16317 1 78.1364 28.644 83.4307
16318 2 79.0131 28.1726 83.5269
16319 2 77.5494 28.1315 82.804
16320 1 69.1431 20.3166 45.6401
16321 2 69.704 21.1123 45.8685
16322 2 68.7563 19.93 46.4773
16323 1 31.9378 28.9234 63.6692
16324 2 31.6427 29.1092 64.6065
16325 2 31.2103 29.1815 63.0334
16326 1 26.1446 20.8567 52.6319
16327 2 26.067 20.7631 53.6245
16328 2 27.0719 21.1474 52.396
16329 1 57.8367 25.3196 39.096
16330 2 56.9176 25.7097 39.0411
16331 2 58.0569 25.1186 40.0505
16332 1 47.0591 18.9154 37.2799
16333 2 47.7563 19.5946 37.5091
16334 2 47.4379 17.9971 37.3945
16335 1 13.6984 1.55612 52.723
16336 2 14.0389 0.616086 52.7037
16337 2 13.8924 1.99892 51.8476
16338 1 74.4881 15.4492 30.1581
16339 2 73.6666 15.6129 29.6119
16340 2 74.2242 15.1623 31.079
16341 1 65.6601 14.6791 66.6132
16342 2 66.0055 13.9579 67.2137
16343 2 64.6941 14.5135 66.4147
16344 1 63.0977 10.5937 45.8917
16345 2 62.9878 10.4095 46.8684
16346 2 62.4141 11.2626 45.5997
16347 1 11.6535 9.10135 59.771
16348 2 12.5115 9.56167 59.543
16349 2 11.8507 8.25382 60.2637
16350 1 67.1289 26.396 24.3272
16351 2 66.464 26.6635 25.0245
16352 2 66.9136 25.4772 23.9963
16353 1 70.1748 25.1918 28.8567
16354 2 69.5306 24.9788 28.1222
16355 2 70.8149 25.8942 28.5455
16356 1 64.9398 24.7621 32.42
16357 2 64.042 25.1694 32.2524
16358 2 65.5163 24.8817 31.6117
16359 1 16.8011 8.59857 52.8971
16360 2 16.9613 9.57011 53.0716
16361 2 17.151 8.06013 53.6637
16362 1 41.1715 9.91764 70.2479
16363 2 41.9809 10.2874 69.7915
16364 2 40.9503 9.02255 69.8607
16365 1 8.46204 7.04496 83.6533
16366 2 7.52198 6.79045 83.8802
16367 2 8.61814 6.906 82.6754
16368 1 62.4906 28.0579 72.1344
16369 2 62.5147 27.3455 71.433
16370 2 61.5424 28.3262 72.3046
16371 1 4.53422 5.43226 36.9676
16372 2 3.97819 4.6072 37.0681
16373 2 4.26314 6.10303 37.6579
16374 1 63.4735 26.2245 47.9544
16375 2 62.4949 26.0582 48.0752
16376 2 63.6072 27.0865 47.4655
16377 1 32.8013 8.69604 79.3996
16378 2 33.7773 8.59729 79.5934
16379 2 32.5928 9.65737 79.2197
16380 1 8.50592 13.0061 16.0581
16381 2 8.6113 13.1078 17.0474
16382 2 7.55817 12.7673 15.8467
16383 1 61.8666 7.62278 76.6168
16384 2 61.9147 8.60742 76.7847
16385 2 62.7701 7.21674 76.754
16386 1 18.9752 10.4682 72.1793
16387 2 18.3133 11.1772 72.4226
16388 2 18.9998 9.77412 72.8988
16389 1 0.712849 24.9274 20.2192
16390 2 0.248888 24.6631 19.3737
16391 2 1.21858 25.7772 20.0703
16392 1 66.7856 3.81994 72.9555
16393 2 66.4081 4.19443 73.8025
16394 2 67.7737 3.97196 72.9351
16395 1 43.8425 5.26878 37.1118
16396 2 44.2646 5.32141 38.0168
16397 2 43.7032 6.19242 36.7548
16398 1 14.583 5.86277 20.0561
16399 2 15.012 6.65227 20.495
16400 2 15.2892 5.28177 19.6515
16401 1 4.82699 1.26264 86.1171
16402 2 5.82097 1.17808 86.1868
16403 2 4.39759 0.792083 86.8879
16404 1 67.38 1.45922 55.6236
16405 2 66.5889 1.24972 55.0488
16406 2 68.0203 0.691427 55.6021
16407 1 11.3027 7.67627 84.6699
16408 2 11.8736 7.63109 85.4897
16409 2 10.3891 7.32823 84.8804
16410 1 72.1901 1.82839 25.6799
16411 2 71.3468 1.30503 25.5574
16412 2 71.9749 2.80444 25.7119
16413 1 2.18417 25.278 81.6881
16414 2 1.24598 25.621 81.7346
16415 2 2.17364 24.2781 81.6832
16416 1 7.45593 19.1169 37.2951
16417 2 7.79168 18.3265 36.7827
16418 2 6.58544 19.4201 36.9074
16419 1 68.2065 23.8262 79.1429
16420 2 69.0026 24.1253 78.6167
16421 2 68.1737 22.8269 79.1586
16422 1 63.4499 15.9069 29.6445
16423 2 62.5231 15.5352 29.6988
16424 2 63.4708 16.6544 28.9807
16425 1 40.8154 3.21383 71.9777
16426 2 41.3162 2.35524 71.8679
16427 2 40.9331 3.55135 72.9116
16428 1 59.7613 6.13209 68.631
16429 2 60.6081 6.62922 68.8201
16430 2 59.3788 6.44396 67.7613
16431 1 60.857 26.2038 85.9279
16432 2 60.7126 25.7097 86.7852
16433 2 59.9731 26.4746 85.5464
16434 1 36.3671 28.1124 81.6542
16435 2 36.7862 27.3351 81.1848
16436 2 35.7413 27.7782 82.3589
16437 1 8.00526 28.5522 17.7237
16438 2 8.37412 28.5077 16.7953
16439 2 7.48891 29.4011 17.8369
16440 1 12.0927 6.09973 29.0239
16441 2 12.5602 6.72683 28.4008
16442 2 11.9583 5.2184 28.5709
16443 1 67.4808 3.67926 21.2122
16444 2 67.9229 4.57584 21.2388
16445 2 66.6764 3.72171 20.6196
16446 1 79.0321 27.2111 65.0412
16447 2 79.3084 27.1274 65.9987
16448 2 79.6087 26.6218 64.4753
16449 1 10.01 12.1303 68.7034
16450 2 10.6778 12.7089 69.1716
16451 2 10.4106 11.7756 67.8586
16452 1 32.6471 16.4839 79.6072
16453 2 32.4555 16.6095 80.5806
16454 2 33.6353 16.5096 79.456
16455 1 41.4576 27.738 30.2693
16456 2 40.6054 27.4392 29.84
16457 2 41.3199 28.6312 30.6974
16458 1 19.5208 26.4907 68.908
16459 2 19.71 25.9743 68.0728
16460 2 18.5645 26.783 68.9097
16461 1 12.7729 5.80303 59.6798
16462 2 13.2605 5.22168 60.3311
16463 2 12.7964 5.3808 58.7736
16464 1 69.0913 28.7739 91.0487
16465 2 69.96 28.5895 91.5084
16466 2 69.1929 28.6125 90.067
16467 1 12.0899 8.75454 21.3128
16468 2 11.7631 9.69961 21.3057
16469 2 11.4178 8.1661 20.8633
16470 1 2.67957 5.3363 23.9104
16471 2 2.62516 6.29224 23.6219
16472 2 3.24711 5.26753 24.7308
16473 1 51.9743 5.95557 67.8993
16474 2 51.6124 6.20156 68.7985
16475 2 51.3573 6.29248 67.1881
16476 1 35.8282 28.7909 72.1126
16477 2 35.2842 29.3875 71.5227
16478 2 35.3361 28.6294 72.9681
16479 1 55.4048 12.9552 88.6229
16480 2 55.3652 12.0279 88.995
16481 2 54.4863 13.2465 88.3555
16482 1 78.7778 29.3672 11.0747
16483 2 77.7937 29.4722 11.218
16484 2 78.9502 28.542 10.5367
16485 1 26.1304 12.9885 47.1167
16486 2 26.3976 13.5303 47.9135
16487 2 25.807 12.0912 47.4171
16488 1 20.2307 1.09026 27.5145
16489 2 19.3275 1.50572 27.4068
16490 2 20.9352 1.79194 27.4081
16491 1 60.6541 2.02719 63.5781
16492 2 61.327 2.24359 62.8707
16493 2 60.1737 1.18461 63.3346
16494 1 68.252 27.923 47.9532
16495 2 67.8206 28.2314 48.801
16496 2 67.7802 28.331 47.1715
16497 1 4.9121 3.95795 64.4128
16498 2 5.58731 3.36301 64.8489
16499 2 4.11176 3.41836 64.1515
16500 1 64.6491 16.8651 26.6652
16501 2 65.5604 16.4582 26.6034
16502 2 64.657 17.7674 26.2342
16503 1 49.4703 12.5619 90.4537
16504 2 49.9514 12.0997 89.7088
16505 2 48.5273 12.747 90.1772
16506 1 9.74992 28.034 86.143
16507 2 9.01783 28.1659 86.8114
16508 2 9.52336 28.5216 85.2999
16509 1 34.0469 8.99439 72.7218
16510 2 34.8841 9.5284 72.8399
16511 2 34.2681 8.1183 72.2933
16512 1 18.8229 26.2485 63.5058
16513 2 18.8238 25.3947 62.9852
16514 2 18.5572 26.0619 64.4516
16515 1 68.8166 25.4738 46.3263
16516 2 69.2015 25.5487 47.2462
16517 2 69.5502 25.5494 45.6509
16518 1 11.9101 9.34902 28.4805
16519 2 11.3281 9.70625 27.75
16520 2 12.6074 8.74929 28.0879
16521 1 1.49724 12.9924 16.6348
16522 2 1.16556 13.124 17.569
16523 2 2.44079 13.3167 16.5673
16524 1 35.3218 17.2232 74.92
16525 2 36.012 16.9121 75.5734
16526 2 35.0726 18.1699 75.1239
16527 1 63.3267 15.7298 89.3242
16528 2 63.4955 16.5233 89.9088
16529 2 64.1881 15.4269 88.9164
16530 1 78.9676 19.5053 52.628
16531 2 78.97 19.0673 53.5269
16532 2 78.7454 18.8272 51.9274
16533 1 16.8422 4.63644 37.7188
16534 2 17.7055 4.66317 37.2148
16535 2 16.3343 3.81273 37.4666
16536 1 32.1742 1.30407 29.6062
16537 2 32.1137 0.380038 29.2287
16538 2 33.1354 1.56336 29.7006
16539 1 23.2718 17.8351 40.4287
16540 2 23.6893 17.3653 39.6508
16541 2 23.4037 17.2904 41.2569
16542 1 42.1473 15.3003 44.6244
16543 2 41.976 15.6574 45.5426
16544 2 42.7469 15.9287 44.1289
16545 1 69.7743 26.1316 34.9041
16546 2 69.6424 25.3251 34.3277
16547 2 69.1212 26.841 34.6393
16548 1 76.475 24.0922 41.9197
16549 2 77.2071 24.5127 42.4556
16550 2 75.6111 24.1696 42.4173
16551 1 62.5108 8.63427 73.7897
16552 2 62.3959 7.8105 74.3448
16553 2 62.3862 9.44334 74.364
16554 1 23.9169 22.641 52.5855
16555 2 24.6712 21.9994 52.4461
16556 2 24.112 23.2174 53.379
16557 1 13.553 1.2445 36.9632
16558 2 14.0313 1.83945 37.6092
16559 2 12.6458 1.61985 36.7731
16560 1 76.0544 4.26845 28.2628
16561 2 75.6874 4.8992 28.9465
16562 2 75.9336 3.32736 28.5786
16563 1 41.344 23.3506 75.5872
16564 2 41.8496 22.5478 75.9032
16565 2 41.3241 24.0387 76.3125
16566 1 27.6839 3.09828 85.8293
16567 2 28.5586 3.31665 85.3966
16568 2 27.4672 3.795 86.5131
16569 1 59.3208 4.06849 28.0578
16570 2 59.7226 3.5353 28.8023
16571 2 58.3334 4.14391 28.197
16572 1 22.8655 26.2303 33.5351
16573 2 23.5934 25.9021 34.1371
16574 2 23.1158 27.1258 33.167
16575 1 72.4335 11.6926 84.2763
16576 2 72.4522 12.6023 83.8614
16577 2 72.2207 11.7746 85.2499
16578 1 2.71688 9.39675 33.0176
16579 2 3.35185 9.76739 33.6954
16580 2 3.10306 9.51003 32.1022
16581 1 51.8976 2.19059 82.6574
16582 2 52.6483 1.6611 82.2624
16583 2 52.2701 2.93841 83.2069
16584 1 33.4172 1.33068 43.125
16585 2 32.579 1.86126 42.9985
16586 2 33.5049 0.664479 42.3844
16587 1 28.3753 11.7885 80.128
16588 2 27.989 11.9447 81.0371
16589 2 28.0054 10.9398 79.75
16590 1 1.83709 28.8822 74.0267
16591 2 1.43347 29.2748 74.8531
16592 2 2.11951 27.9403 74.2088
16593 1 69.378 19.4393 43.1319
16594 2 69.1708 18.4721 43.2792
16595 2 69.3632 19.9205 44.0084
16596 1 74.9026 29.4954 42.6521
16597 2 74.3551 28.8689 42.0973
16598 2 75.6844 29.8172 42.1181
16599 1 63.1134 26.7346 30.1209
16600 2 62.7717 26.7566 31.0604
16601 2 63.289 25.7876 29.8521
16602 1 70.5365 10.657 71.7393
16603 2 70.4252 10.7931 70.7549
16604 2 69.6949 10.2739 72.12
16605 1 70.0994 10.1174 60.7689
16606 2 70.4716 9.21065 60.9669
16607 2 70.6713 10.8143 61.2016
16608 1 51.225 28.6745 82.7453
16609 2 51.4346 29.6166 83.0071
16610 2 51.9304 28.0637 83.1049
16611 1 18.5491 25.8844 83.3273
16612 2 19.2866 26.1732 83.9378
16613 2 18.8583 25.9465 82.3784
16614 1 56.3697 16.5592 43.0382
16615 2 55.3966 16.7568 43.1559
16616 2 56.8313 16.6188 43.9233
16617 1 49.7793 1.45695 65.7989
16618 2 49.9757 1.91688 64.933
16619 2 50.632 1.31383 66.3013
16620 1 50.5494 4.73571 46.7444
16621 2 50.3606 4.09648 47.4899
16622 2 51.5146 4.67534 46.4899
16623 1 36.6584 25.8376 38.5411
16624 2 37.3005 26.0747 37.812
16625 2 36.4095 26.6632 39.0475
16626 1 60.7454 19.3472 29.35
16627 2 61.7338 19.4648 29.2535
16628 2 60.3313 20.216 29.6216
16629 1 22.8108 24.1365 31.0405
16630 2 22.9809 24.5346 31.9419
16631 2 21.8273 24.1291 30.8596
16632 1 43.9223 14.7872 70.3231
16633 2 44.7039 14.1717 70.4245
16634 2 44.1908 15.7133 70.5879
16635 1 28.9349 14.6099 35.8884
16636 2 28.861 14.5426 36.8834
16637 2 28.565 15.4881 35.5853
16638 1 1.57801 16.9232 70.4619
16639 2 0.653808 16.5706 70.6089
16640 2 1.74131 17.6961 71.0749
16641 1 35.6001 17.7169 38.2713
16642 2 36.3477 17.1694 37.8953
16643 2 35.5304 17.5545 39.2556
16644 1 50.9398 28.7789 62.8521
16645 2 51.7439 28.9707 63.4148
16646 2 50.2102 28.4101 63.4281
16647 1 1.78909 1.99431 38.9746
16648 2 2.72371 2.17311 39.282
16649 2 1.32837 1.40196 39.6356
16650 1 5.70445 11.985 29.4048
16651 2 5.64659 12.9831 29.4229
16652 2 6.66134 11.7051 29.4826
16653 1 27.7098 17.0264 48.718
16654 2 27.0779 16.4427 48.2081
16655 2 28.3279 17.4856 48.0801
16656 1 30.0563 26.0923 60.0905
16657 2 29.4669 25.4071 59.6625
16658 2 29.5236 26.9164 60.2835
16659 1 67.5715 27.87 32.1322
16660 2 66.9491 28.1256 31.3924
16661 2 67.8521 26.917 32.0175
16662 1 61.4194 17.0917 87.532
16663 2 61.7251 16.3104 88.0761
16664 2 62.1254 17.3301 86.8651
16665 1 16.3697 13.0756 21.0344
16666 2 16.189 14.0553 21.1214
16667 2 16.9759 12.9162 20.2553
16668 1 31.011 7.36325 41.0489
16669 2 30.9744 7.59982 42.0198
16670 2 30.3636 6.62462 40.8611
16671 1 6.50952 7.48954 73.5214
16672 2 6.79839 7.39204 72.569
16673 2 5.59642 7.0978 73.6345
16674 1 63.9472 24.95 23.7293
16675 2 64.7275 24.624 23.1956
16676 2 63.2893 25.3938 23.1209
16677 1 17.8535 28.6976 26.0361
16678 2 18.3674 29.5338 25.8448
16679 2 18.2968 27.9233 25.5844
16680 1 0.373501 13.1371 33.9959
16681 2 0.0950056 13.4528 33.0888
16682 2 79.7681 13.5323 34.6868
16683 1 65.4155 0.408177 72.7175
16684 2 66.1527 0.624563 73.3575
16685 2 64.8519 1.22114 72.5711
16686 1 28.6606 18.4549 76.5872
16687 2 27.9479 19.106 76.8483
16688 2 29.3362 18.3881 77.3215
16689 1 11.2364 27.9765 17.8714
16690 2 11.1085 28.8232 17.355
16691 2 11.9789 27.4457 17.4627
16692 1 63.8131 9.31556 48.9824
16693 2 64.5783 9.95161 49.0822
16694 2 62.9632 9.83109 48.8739
16695 1 23.1788 1.42578 85.5691
16696 2 22.7512 2.16871 86.084
16697 2 22.9596 0.551191 86.0016
16698 1 68.4742 5.68274 43.4448
16699 2 68.4954 5.5275 42.4571
16700 2 67.5475 5.9359 43.7225
16701 1 29.6755 21.1771 48.5835
16702 2 30.6143 21.5151 48.6502
16703 2 29.6652 20.3214 48.0662
16704 1 39.9259 16.5818 55.7591
16705 2 39.3815 15.7434 55.7865
16706 2 40.235 16.8088 56.6827
16707 1 41.2716 19.2134 40.9731
16708 2 41.2474 18.998 41.9493
16709 2 42.2031 19.0961 40.6289
16710 1 54.0502 28.4656 62.6885
16711 2 54.803 27.9567 63.106
16712 2 53.6277 27.9088 61.9733
16713 1 50.7952 16.915 67.5937
16714 2 49.8325 17.0608 67.8217
16715 2 50.9029 16.0214 67.1579
16716 1 30.5404 0.56792 71.1048
16717 2 31.2712 1.24096 71.2186
16718 2 30.8897 29.6566 71.3228
16719 1 33.0935 23.2738 46.6803
16720 2 33.2427 23.5004 47.6428
16721 2 33.8058 22.6432 46.372
16722 1 14.2232 21.3924 53.3422
16723 2 14.8296 21.0726 54.0702
16724 2 14.4569 22.335 53.1036
16725 1 20.0548 7.24123 84.8759
16726 2 19.6858 8.07815 84.4718
16727 2 20.6578 7.47693 85.6381
16728 1 42.8573 8.65711 36.9534
16729 2 42.8286 8.77165 37.9464
16730 2 42.0876 9.14293 36.5394
16731 1 76.8832 8.00995 36.4085
16732 2 76.1099 8.04789 37.0414
16733 2 77.0358 7.06317 36.1251
16734 1 68.1966 9.46343 31.2591
16735 2 68.4996 9.61828 32.1994
16736 2 67.2606 9.11126 31.2642
16737 1 2.20012 24.8669 78.1223
16738 2 1.77949 24.5049 78.9542
16739 2 2.94079 24.2608 77.8324
16740 1 68.8666 20.2947 33.2414
16741 2 69.4852 20.6098 32.5216
16742 2 68.171 20.9925 33.4122
16743 1 2.49719 17.3159 10.5028
16744 2 1.97123 17.4767 9.66764
16745 2 3.34737 17.8412 10.4676
16746 1 71.4903 28.5411 85.2519
16747 2 71.9473 27.8098 85.7583
16748 2 71.6094 29.4074 85.7371
16749 1 74.2617 5.37591 12.3439
16750 2 73.414 5.8475 12.1012
16751 2 74.0953 4.39068 12.3842
16752 1 47.3859 25.0247 64.6485
16753 2 48.1677 24.9733 64.0271
16754 2 47.6493 25.5221 65.4751
16755 1 51.4992 15.7326 85.1521
16756 2 51.0264 16.5724 84.8856
16757 2 50.8298 15.0025 85.2896
16758 1 6.67961 15.9265 86.6685
16759 2 6.6653 14.9266 86.6746
16760 2 6.45595 16.2575 85.7518
16761 1 79.4185 18.8943 68.0834
16762 2 78.5567 19.2394 68.4554
16763 2 0.179263 19.4236 68.459
16764 1 67.9999 22.0215 81.8369
16765 2 68.2365 21.6163 80.9538
16766 2 68.05 23.0181 81.7705
16767 1 57.0884 21.6253 72.0566
16768 2 56.3218 22.0358 71.5627
16769 2 57.2959 22.1747 72.8659
16770 1 13.7093 15.7476 72.4709
16771 2 13.7545 16.6066 72.9809
16772 2 14.4932 15.685 71.8532
16773 1 18.0491 10.452 16.4397
16774 2 17.758 10.2506 17.3749
16775 2 18.9989 10.7648 16.4463
16776 1 16.837 29.3421 56.8926
16777 2 17.3013 29.7831 57.6607
16778 2 15.9622 28.9689 57.2016
16779 1 52.2782 5.48151 70.9299
16780 2 52.6561 4.93737 71.6789
16781 2 52.905 6.22962 70.7121
16782 1 66.9424 10.4595 10.9866
16783 2 67.5583 10.9097 10.3402
16784 2 66.4585 11.1511 11.5229
16785 1 39.5689 1.43807 78.1229
16786 2 38.655 1.83339 78.2152
16787 2 39.4908 0.465143 77.9054
16788 1 71.4108 26.1823 75.3927
16789 2 70.6989 25.6453 74.9401
16790 2 72.2543 26.1358 74.8576
16791 1 15.7172 15.9361 21.6137
16792 2 16.1092 16.8561 21.6164
16793 2 15.0232 15.8716 20.8966
16794 1 5.05301 21.1204 46.8465
16795 2 4.48606 20.6756 46.1531
16796 2 5.68018 20.4506 47.244
16797 1 8.06691 2.40601 43.6223
16798 2 8.35524 1.44871 43.6014
16799 2 7.21152 2.48534 44.1342
16800 1 1.57494 3.96308 87.6773
16801 2 0.613245 3.6975 87.6094
16802 2 1.99968 3.48373 88.4453
16803 1 43.5549 20.8841 87.3115
16804 2 42.6606 20.4566 87.1792
16805 2 44.1842 20.2215 87.7177
16806 1 19.6203 2.79085 35.0646
16807 2 18.9412 3.51521 35.1836
16808 2 19.5236 2.11935 35.7993
16809 1 26.4511 11.2787 58.2308
16810 2 25.9481 12.1349 58.1136
16811 2 26.1761 10.8452 59.089
16812 1 18.4933 2.85941 79.7332
16813 2 18.152 2.05506 79.2469
16814 2 18.6198 2.63575 80.6996
16815 1 40.7934 19.1393 78.7023
16816 2 39.9176 18.6573 78.6792
16817 2 40.9942 19.4211 79.6405
16818 1 9.81303 12.8925 74.5776
16819 2 9.76662 13.6534 75.2248
16820 2 8.88822 12.6403 74.2929
16821 1 64.814 3.67603 46.6909
16822 2 65.4982 3.56467 47.4117
16823 2 64.7129 4.64707 46.4744
16824 1 1.27625 9.39588 50.2262
16825 2 0.742978 8.73491 50.7542
16826 2 0.854701 9.5231 49.3283
16827 1 72.4381 16.1121 18.8694
16828 2 71.7995 16.6417 19.4278
16829 2 73.1769 16.7072 18.5532
16830 1 38.2264 10.6121 64.4794
16831 2 38.2977 11.5754 64.7381
16832 2 37.6776 10.1244 65.1584
16833 1 27.3883 4.74783 26.9432
16834 2 27.8879 5.08276 27.742
16835 2 27.3131 3.75179 26.9906
16836 1 58.099 28.1686 46.7302
16837 2 57.9371 28.4646 47.6715
16838 2 57.4017 28.5634 46.132
16839 1 19.059 27.6553 50.187
16840 2 18.9717 27.9557 51.1368
16841 2 19.995 27.3455 50.0201
16842 1 38.5774 17.7576 31.8429
16843 2 38.3794 17.2344 32.6718
16844 2 37.7465 18.221 31.5349
16845 1 71.4117 9.87881 36.0358
16846 2 71.385 9.40092 35.1577
16847 2 70.4908 10.1849 36.2768
16848 1 32.3616 14.4933 29.5364
16849 2 33.319 14.2049 29.5188
16850 2 32.2388 15.1988 30.2344
16851 1 62.5238 25.4898 18.915
16852 2 63.4669 25.629 18.613
16853 2 62.478 25.5671 19.911
16854 1 39.9289 15.8407 75.6503
16855 2 40.3637 16.6831 75.9688
16856 2 40.6007 15.2825 75.1634
16857 1 68.445 13.0108 64.1363
16858 2 68.8684 12.1072 64.2019
16859 2 68.5291 13.3511 63.1998
16860 1 32.2522 28.3019 70.6128
16861 2 33.115 27.993 70.2128
16862 2 31.4912 27.9974 70.0399
16863 1 60.7576 13.0888 38.836
16864 2 61.3241 13.5862 39.493
16865 2 60.5466 12.1808 39.198
16866 1 23.8161 5.57361 61.7777
16867 2 24.2908 4.81021 62.2157
16868 2 24.3174 6.42135 61.9509
16869 1 3.89732 18.2409 82.0818
16870 2 3.31581 18.8592 82.6105
16871 2 4.55762 17.8019 82.6912
16872 1 63.3787 17.8337 41.2874
16873 2 62.4245 17.6117 41.0871
16874 2 63.4616 18.8132 41.471
16875 1 41.2235 13.1238 63.8066
16876 2 41.1943 14.034 64.2198
16877 2 40.4906 13.0405 63.1315
16878 1 63.8255 26.2079 57.2635
16879 2 63.2861 25.7776 56.5397
16880 2 63.4806 25.9149 58.1553
16881 1 77.9972 13.6996 13.4944
16882 2 77.3116 13.2531 14.0694
16883 2 77.8376 13.4582 12.5371
16884 1 22.3338 2.65556 26.8048
16885 2 23.0232 3.05214 27.411
16886 2 22.7775 2.04167 26.1519
16887 1 64.0162 6.79708 31.1683
16888 2 64.9839 7.04155 31.1066
16889 2 63.602 7.26966 31.9462
16890 1 4.4357 26.7029 47.2799
16891 2 5.0593 27.3458 47.7247
16892 2 4.06511 26.0722 47.9618
16893 1 32.0381 18.0065 67.6465
16894 2 32.5203 18.8583 67.8513
16895 2 32.3659 17.6388 66.7762
16896 1 60.6561 28.7165 18.1022
16897 2 61.3044 28.5246 17.3654
16898 2 61.1575 28.907 18.9461
16899 1 36.8792 16.7408 55.5337
16900 2 36.9169 15.9133 54.9736
16901 2 36.6396 16.4967 56.4733
16902 1 0.878067 13.3013 19.2773
16903 2 1.00163 14.1586 19.777
16904 2 79.9152 13.0332 19.3083
16905 1 41.1405 19.5409 65.342
16906 2 40.2713 19.4943 64.8497
16907 2 41.4264 20.4957 65.4239
16908 1 2.6337 23.6034 59.746
16909 2 3.37683 23.1962 59.215
16910 2 1.91145 23.9114 59.1268
16911 1 21.7176 28.7504 90.1287
16912 2 22.3707 29.4022 89.7431
16913 2 21.1574 28.3661 89.3949
16914 1 54.8804 7.66437 88.8457
16915 2 54.9674 8.27734 88.0604
16916 2 55.6325 7.8307 89.4833
16917 1 34.2828 23.0212 72.4571
16918 2 34.3381 22.1121 72.87
16919 2 34.0369 23.691 73.1577
16920 1 35.7716 10.3998 30.9379
16921 2 35.8259 10.0156 30.0163
16922 2 35.8455 9.66368 31.6108
16923 1 25.0846 28.1902 60.8929
16924 2 25.9795 28.1528 60.4483
16925 2 25.1598 28.6972 61.7516
16926 1 19.3766 25.4029 55.382
16927 2 18.8666 24.5427 55.3771
16928 2 20.0837 25.3671 56.0882
16929 1 77.2518 2.65319 81.5396
16930 2 78.0243 2.23618 81.0607
16931 2 76.5227 2.85339 80.8851
16932 1 5.48174 13.5688 19.6033
16933 2 6.21227 13.9769 19.0558
16934 2 5.35821 12.6134 19.3351
16935 1 27.3982 10.8196 45.4429
16936 2 28.2181 11.3034 45.7491
16937 2 26.6954 11.4835 45.1874
16938 1 46.2633 26.7185 55.8221
16939 2 47.2489 26.5518 55.7922
16940 2 45.7893 26.0092 55.3003
16941 1 63.844 27.4972 90.8017
16942 2 64.7797 27.8336 90.6951
16943 2 63.7282 26.6593 90.2683
16944 1 67.9407 8.49103 16.4407
16945 2 67.9008 8.63604 17.4293
16946 2 68.2503 9.32993 15.993
16947 1 35.2046 3.68242 46.3349
16948 2 34.7098 3.25088 47.0891
16949 2 35.7535 4.44057 46.6868
16950 1 59.4526 27.4821 63.7284
16951 2 59.5991 28.2444 63.098
16952 2 60.2722 26.9099 63.7558
16953 1 55.4894 11.4403 30.4765
16954 2 55.2896 12.3847 30.2154
16955 2 54.9554 11.1984 31.2867
16956 1 5.47046 12.904 59.5457
16957 2 4.688 12.3687 59.2276
16958 2 5.56384 13.7249 58.9824
16959 1 49.1638 3.65361 60.1215
16960 2 49.2465 2.67071 60.286
16961 2 49.0296 3.81782 59.1442
16962 1 0.105107 26.2656 77.3297
16963 2 79.4953 26.3767 78.1145
16964 2 0.946832 25.8124 77.6233
16965 1 48.5561 28.1661 54.5339
16966 2 47.8502 28.2463 53.8302
16967 2 48.6015 29.0159 55.0589
16968 1 66.391 15.6766 87.8737
16969 2 67.1445 15.9671 88.4634
16970 2 66.7592 15.2355 87.0553
16971 1 53.7579 26.7825 50.3878
16972 2 54.133 27.4839 50.9938
16973 2 54.5007 26.2095 50.0412
16974 1 65.8545 16.5549 78.1518
16975 2 66.0569 17.5288 78.2546
16976 2 66.183 16.2383 77.2618
16977 1 11.1537 13.2669 54.9515
16978 2 11.1233 12.4042 55.4563
16979 2 10.5619 13.9366 55.4002
16980 1 30.4384 12.8742 30.1624
16981 2 30.3505 12.8144 31.1568
16982 2 31.1518 13.5353 29.93
16983 1 64.501 20.7923 13.6985
16984 2 64.6807 19.8726 13.3495
16985 2 65.3378 21.1667 14.0981
16986 1 5.46369 29.965 44.356
16987 2 5.12063 0.903948 44.3811
16988 2 5.19524 29.535 43.494
16989 1 26.4974 3.82731 65.1049
16990 2 26.4562 4.44999 64.3235
16991 2 25.5783 3.49299 65.3134
16992 1 29.334 5.95068 79.6361
16993 2 30.1865 5.42796 79.6307
16994 2 29.4369 6.75009 80.228
16995 1 20.4376 0.917063 53.4654
16996 2 21.1142 0.911161 54.2017
16997 2 20.0282 0.00855819 53.3817
16998 1 20.4261 1.45218 83.8508
16999 2 20.8429 1.0821 83.0205
17000 2 20.8904 1.07646 84.6528
17001 1 15.8004 10.438 66.3853
17002 2 15.5254 10.8104 65.4989
17003 2 16.74 10.715 66.5862
17004 1 35.3549 8.96033 33.1733
17005 2 35.8498 8.86127 34.0366
17006 2 34.612 8.29199 33.1365
17007 1 70.1743 3.13691 44.3945
17008 2 70.1363 2.55226 45.2049
17009 2 69.9052 4.06765 44.642
17010 1 56.9277 18.2357 34.5661
17011 2 56.2552 17.6106 34.9624
17012 2 57.3416 18.7842 35.2926
17013 1 53.7372 14.5498 40.2918
17014 2 52.826 14.1633 40.1492
17015 2 53.6969 15.2409 41.0135
17016 1 78.5827 27.7132 49.0035
17017 2 77.9312 27.1847 48.4592
17018 2 78.1064 28.4704 49.4506
17019 1 35.5162 10.7004 75.5768
17020 2 35.7891 10.6494 76.5375
17021 2 36.2423 10.3208 75.0035
17022 1 66.4915 28.5169 90.6453
17023 2 67.3637 28.6047 91.1264
17024 2 66.6307 28.6849 89.6694
17025 1 58.8628 2.178 84.1763
17026 2 58.4972 1.45432 83.591
17027 2 58.9913 3.0101 83.6368
17028 1 38.5273 4.60621 55.253
17029 2 39.3938 4.31186 54.8499
17030 2 38.7049 5.28221 55.9682
17031 1 68.0148 8.32881 46.6052
17032 2 68.3896 7.5821 47.1547
17033 2 67.4685 7.9509 45.8577
17034 1 2.23092 26.3744 45.7279
17035 2 3.21128 26.3958 45.924
17036 2 1.72053 26.3193 46.5861
17037 1 70.5796 26.5319 57.9301
17038 2 71.5774 26.4823 57.8877
17039 2 70.1989 25.6074 57.9125
17040 1 67.703 25.0865 76.7468
17041 2 68.2959 25.8856 76.8464
17042 2 67.3942 24.7861 77.6493
17043 1 17.2857 20.2531 39.3914
17044 2 17.2209 19.2552 39.3902
17045 2 18.1533 20.5303 39.8042
17046 1 7.16626 16.6585 64.1575
17047 2 7.03055 16.3782 63.2073
17048 2 7.65652 17.5298 64.1812
17049 1 62.4114 1.55671 34.9665
17050 2 62.9244 1.84392 35.7754
17051 2 61.5892 1.06364 35.2509
17052 1 30.7149 10.2637 85.5622
17053 2 30.6844 10.7521 84.6902
17054 2 31.0532 10.8769 86.2761
17055 1 71.3798 26.0631 63.3849
17056 2 71.7579 26.4775 64.2128
17057 2 71.9398 25.2783 63.1195
17058 1 25.8548 3.93331 24.8243
17059 2 26.0503 2.95645 24.911
17060 2 26.5789 4.45906 25.2707
17061 1 15.1859 28.345 42.9405
17062 2 15.4391 28.7508 43.8186
17063 2 15.9032 27.7135 42.6459
17064 1 14.3547 22.051 10.5743
17065 2 13.9127 21.685 9.75541
17066 2 14.7268 22.9576 10.3753
17067 1 7.82172 10.3429 39.1248
17068 2 7.45764 10.276 40.0538
17069 2 7.22786 9.83978 38.497
17070 1 29.6643 25.2631 86.1922
17071 2 30.2488 24.4521 86.2176
17072 2 29.1334 25.3179 87.0378
17073 1 10.7361 17.299 14.4721
17074 2 11.3262 17.788 13.8296
17075 2 11.1679 17.2812 15.3739
17076 1 55.4987 14.893 69.5031
17077 2 55.943 14.1957 70.0655
17078 2 55.7139 14.7315 68.54
17079 1 67.5534 20.9456 36.1541
17080 2 68.3276 20.5053 36.6087
17081 2 67.8859 21.6924 35.578
17082 1 57.6116 20.5328 76.6374
17083 2 58.0168 21.25 77.2043
17084 2 56.8121 20.8972 76.1599
17085 1 73.4274 4.22388 63.2833
17086 2 73.4886 5.1434 63.6715
17087 2 74.2653 4.0193 62.7772
17088 1 1.17028 17.35 55.3715
17089 2 1.41893 17.0133 56.2797
17090 2 0.175284 17.424 55.3043
17091 1 19.8462 25.7797 27.6337
17092 2 20.2647 25.4103 28.4634
17093 2 20.0993 26.7418 27.5326
17094 1 24.516 27.4227 21.6606
17095 2 24.9015 27.891 20.8655
17096 2 25.0141 26.5702 21.8192
17097 1 79.7966 2.9492 51.676
17098 2 78.8842 2.90092 51.2696
17099 2 79.8442 2.33336 52.4625
17100 1 66.269 15.4941 23.9844
17101 2 66.2799 15.4384 24.9828
17102 2 66.4043 14.5816 23.5982
17103 1 53.4588 13.9529 29.6139
17104 2 52.8317 13.1953 29.7952
17105 2 53.5222 14.5345 30.4248
17106 1 55.0376 15.5129 35.6502
17107 2 55.0014 15.5231 34.6509
17108 2 55.98 15.6587 35.9511
17109 1 71.295 23.3969 66.5884
17110 2 72.0965 22.9008 66.2545
17111 2 71.5845 24.0982 67.2397
17112 1 4.11854 10.9001 45.4375
17113 2 4.56908 10.8843 46.3301
17114 2 3.13322 11.0153 45.5634
17115 1 67.5397 20.6979 14.0903
17116 2 68.5045 20.8638 14.2944
17117 2 67.3149 21.0924 13.1993
17118 1 16.2761 24.4018 87.4019
17119 2 15.5767 24.2079 86.7139
17120 2 17.0191 23.7377 87.3183
17121 1 49.6183 5.88118 27.0979
17122 2 50.0983 6.64728 27.5253
17123 2 49.6409 5.98651 26.1037
17124 1 61.7407 10.0291 36.2277
17125 2 62.329 10.8377 36.2346
17126 2 61.1826 10.0158 37.0573
17127 1 57.3772 22.5621 74.571
17128 2 57.4165 23.1341 75.3903
17129 2 58.2981 22.2492 74.3385
17130 1 71.419 3.99114 81.0136
17131 2 71.9097 3.86966 80.1508
17132 2 71.4021 3.12455 81.5123
17133 1 6.92206 24.0102 39.7437
17134 2 6.52574 23.991 38.8258
17135 2 7.6665 24.6774 39.7715
17136 1 12.7102 7.58488 87.1184
17137 2 12.2905 8.05392 87.8955
17138 2 13.5992 7.21725 87.3914
17139 1 49.8091 11.9054 46.1628
17140 2 50.094 10.9501 46.0839
17141 2 48.8214 11.9714 46.0213
17142 1 59.0694 15.3557 53.1083
17143 2 58.7335 16.2192 52.7321
17144 2 58.8779 14.6148 52.4646
17145 1 65.5195 14.2636 56.2174
17146 2 65.626 15.0866 56.7754
17147 2 65.9635 13.4921 56.6733
17148 1 50.7146 23.3697 33.7773
17149 2 50.5082 24.3194 34.0126
17150 2 51.6141 23.1246 34.139
17151 1 68.9811 27.6283 27.121
17152 2 69.201 27.6134 28.0964
17153 2 69.5276 28.3318 26.6668
17154 1 52.9057 0.12516 43.4892
17155 2 52.0013 0.41686 43.178
17156 2 53.5937 0.778337 43.1729
17157 1 69.1253 1.74701 58.3941
17158 2 68.1491 1.67578 58.5989
17159 2 69.295 1.42354 57.4632
17160 1 19.2145 26.3765 19.994
17161 2 19.1379 26.5547 20.9751
17162 2 19.6224 27.1697 19.542
17163 1 59.7645 12.8847 66.1207
17164 2 60.0265 13.6603 66.6949
17165 2 59.6018 13.2017 65.1863
17166 1 43.7376 26.1163 66.6712
17167 2 44.431 25.6797 67.2443
17168 2 44.1246 26.3114 65.77
17169 1 41.4878 5.36033 78.6312
17170 2 41.34 4.90814 79.5108
17171 2 40.6058 5.61587 78.2354
17172 1 45.5755 13.1773 35.6303
17173 2 45.8952 13.3318 36.5651
17174 2 46.2674 13.4991 34.984
17175 1 34.827 7.59243 80.5476
17176 2 34.9739 7.84733 81.5033
17177 2 35.5689 6.99439 80.2443
17178 1 42.9485 12.6857 37.0186
17179 2 43.4923 13.0442 36.2598
17180 2 42.7655 13.4192 37.6732
17181 1 51.1597 11.6328 36.2775
17182 2 50.2077 11.8351 36.5073
17183 2 51.3811 10.7008 36.5644
17184 1 2.7958 10.5678 18.8328
17185 2 3.77981 10.5646 18.6547
17186 2 2.30105 10.6626 17.9689
17187 1 16.3222 15.4565 38.916
17188 2 15.7521 15.253 39.712
17189 2 16.7672 14.618 38.6015
17190 1 3.93955 11.2073 62.5569
17191 2 3.19607 11.1384 61.8917
17192 2 4.10273 10.3106 62.9684
17193 1 70.2262 9.56321 28.7236
17194 2 70.148 8.69409 29.2119
17195 2 69.3389 9.80651 28.3319
17196 1 74.6065 9.47647 45.9636
17197 2 75.5731 9.26041 46.1012
17198 2 74.0437 8.82722 46.4753
17199 1 43.3886 19.1331 38.5138
17200 2 43.2208 18.2647 38.9804
17201 2 43.9194 19.735 39.1104
17202 1 42.2734 17.2547 48.9959
17203 2 41.9362 16.7728 48.1872
17204 2 42.3477 16.6132 49.7594
17205 1 26.0028 12.7579 82.1648
17206 2 26.5032 12.1213 82.7516
17207 2 26.2575 12.6022 81.2104
17208 1 16.3587 3.24011 12.3324
17209 2 15.6757 3.75407 12.8513
17210 2 17.088 2.94 12.9473
17211 1 1.08766 13.2858 89.9355
17212 2 0.140859 13.6065 89.9619
17213 2 1.65203 13.8641 90.5246
17214 1 43.6253 16.984 80.3949
17215 2 43.5438 17.6311 79.6368
17216 2 43.1162 17.3288 81.1836
17217 1 11.4078 4.26599 67.363
17218 2 12.0056 4.24479 68.1644
17219 2 10.552 3.79328 67.5729
17220 1 42.1723 21.8405 61.4652
17221 2 41.3904 22.444 61.3093
17222 2 42.7129 21.7721 60.6267
17223 1 72.2796 18.6252 87.0052
17224 2 72.0002 19.5657 87.1987
17225 2 72.358 18.1175 87.8632
17226 1 31.7558 18.2167 51.5667
17227 2 31.9816 18.7723 50.7665
17228 2 31.3498 18.7977 52.2721
17229 1 28.758 10.9713 71.4481
17230 2 28.9253 10.1559 70.8939
17231 2 27.9198 10.8472 71.979
17232 1 20.7417 15.6533 25.0788
17233 2 21.008 16.1893 25.88
17234 2 21.55 15.2111 24.69
17235 1 33.3185 12.1232 71.2887
17236 2 33.5019 11.6726 72.1624
17237 2 33.2912 11.439 70.56
17238 1 17.9056 6.06633 11.8775
17239 2 17.9029 5.06648 11.8943
17240 2 18.4069 6.41167 12.6709
17241 1 48.161 3.86427 39.2055
17242 2 47.7819 4.78139 39.3288
17243 2 47.7791 3.25017 39.8962
17244 1 72.0413 14.8101 32.0957
17245 2 72.9537 14.9496 32.4804
17246 2 71.6711 13.9405 32.4227
17247 1 1.83424 0.40758 25.4269
17248 2 1.1531 0.805195 24.8121
17249 2 2.70335 0.890127 25.3182
17250 1 3.90562 21.6765 63.7357
17251 2 4.51256 21.0579 63.2368
17252 2 4.45019 22.3743 64.2011
17253 1 34.1045 12.9338 66.7096
17254 2 33.8238 13.7836 67.1558
17255 2 33.2969 12.4573 66.3621
17256 1 4.2748 8.96299 15.7326
17257 2 4.37935 9.39362 16.6291
17258 2 3.347 8.60085 15.643
17259 1 34.9995 23.0149 69.6024
17260 2 34.4905 22.2259 69.2582
17261 2 35.4393 22.7759 70.4681
17262 1 4.34581 16.7454 62.8116
17263 2 4.04694 17.6963 62.7304
17264 2 5.15263 16.5996 62.2391
17265 1 39.9523 26.9168 64.8424
17266 2 40.2115 26.7138 65.7866
17267 2 38.9698 26.7702 64.7275
17268 1 17.5003 22.5264 18.5343
17269 2 17.1867 23.2313 17.8981
17270 2 16.8653 21.7542 18.5156
17271 1 65.9911 5.02524 11.6448
17272 2 66.2464 4.71788 12.5615
17273 2 66.107 4.27267 10.9966
17274 1 38.3399 19.2103 54.9175
17275 2 39.1886 19.5915 54.5511
17276 2 38.2622 18.2503 54.6485
17277 1 57.9053 18.4636 73.5537
17278 2 58.5715 18.9241 72.967
17279 2 58.2261 17.5393 73.7606
17280 1 18.8353 26.8494 24.4281
17281 2 19.2369 25.936 24.3625
17282 2 19.1974 27.4261 23.6957
17283 1 39.6839 25.1529 77.2655
17284 2 40.1207 24.5991 77.9745
17285 2 38.736 24.8569 77.1482
17286 1 42.4436 21.7219 64.0512
17287 2 43.3955 21.9159 64.2883
17288 2 42.3597 21.6277 63.0592
17289 1 70.9743 20.0666 65.5403
17290 2 71.9067 20.0173 65.8983
17291 2 70.8979 20.8435 64.9153
17292 1 19.9467 16.6587 27.7809
17293 2 20.859 16.8738 28.1294
17294 2 19.7996 15.6703 27.8195
17295 1 65.0273 2.33468 15.4221
17296 2 65.6903 2.42725 14.6793
17297 2 64.101 2.41736 15.0544
17298 1 38.1807 19.2488 66.9656
17299 2 38.2888 18.8468 67.8748
17300 2 37.3415 19.7919 66.939
17301 1 66.3653 27.9734 15.6999
17302 2 67.0918 28.0012 15.0133
17303 2 66.2091 27.0268 15.9818
17304 1 16.7308 3.98001 54.4795
17305 2 17.1602 4.25764 55.3388
17306 2 15.7872 4.31037 54.4564
17307 1 25.4371 27.6747 43.3533
17308 2 24.7157 28.2714 43.0017
17309 2 25.9771 27.3195 42.5903
17310 1 57.4813 26.7388 24.9133
17311 2 58.4026 27.1269 24.9377
17312 2 57.0714 26.9093 24.0172
17313 1 8.48529 27.3595 51.4446
17314 2 7.56277 27.2712 51.8203
17315 2 9.15173 27.0424 52.1194
17316 1 19.5927 28.8346 66.633
17317 2 18.6476 28.5111 66.6793
17318 2 19.7878 29.4086 67.4283
17319 1 1.6392 1.0482 50.1095
17320 2 1.10592 1.2649 50.9272
17321 2 1.55613 1.7951 49.4497
17322 1 39.638 15.9911 78.8981
17323 2 39.8849 15.8428 79.8557
17324 2 38.7068 16.3519 78.846
17325 1 59.0087 20.8568 54.4382
17326 2 59.801 21.4035 54.7089
17327 2 59.2674 20.2402 53.6946
17328 1 9.63958 16.5565 48.5823
17329 2 9.58183 16.4425 49.5741
17330 2 8.94879 15.9844 48.1402
17331 1 56.8434 28.5442 27.191
17332 2 57.6607 28.257 26.6916
17333 2 56.4734 29.375 26.7753
17334 1 41.514 18.807 85.216
17335 2 41.4743 17.8115 85.3024
17336 2 41.3238 19.2264 86.1037
17337 1 44.3365 12.4476 90.4098
17338 2 44.2067 12.2058 91.3715
17339 2 45.314 12.5293 90.2157
17340 1 66.9211 11.4081 39.9166
17341 2 67.5043 10.6977 40.3105
17342 2 66.2724 10.9915 39.2797
17343 1 24.3515 22.9077 77.1097
17344 2 24.2024 23.6335 76.4381
17345 2 23.7703 23.0675 77.9076
17346 1 50.5815 12.8617 71.8846
17347 2 51.5651 12.9969 72.0043
17348 2 50.198 13.6344 71.3788
17349 1 78.3495 20.6228 90.7738
17350 2 78.4874 21.2889 90.0407
17351 2 77.377 20.5739 91.0012
17352 1 75.0214 1.54943 39.7967
17353 2 75.7637 1.14364 40.3299
17354 2 74.1506 1.14455 40.0757
17355 1 63.4623 2.18142 54.2506
17356 2 63.5836 3.13368 54.5307
17357 2 64.357 1.76491 54.0892
17358 1 18.7695 6.99507 66.9567
17359 2 18.6855 6.10664 66.5054
17360 2 18.0616 7.08106 67.6578
17361 1 15.0834 7.76795 57.1543
17362 2 14.7447 7.94901 58.0776
17363 2 15.3564 8.62869 56.7247
17364 1 70.8768 13.4385 73.0348
17365 2 71.1872 12.7112 73.647
17366 2 70.9837 13.1432 72.0854
17367 1 73.2682 7.47501 75.5446
17368 2 73.7985 8.3149 75.66
17369 2 73.8053 6.69489 75.8654
17370 1 51.6575 0.574304 76.5012
17371 2 52.5563 0.993921 76.6285
17372 2 51.1842 0.527011 77.3808
17373 1 63.0935 6.3686 34.0428
17374 2 62.6118 5.59154 33.6376
17375 2 63.5155 6.08668 34.9045
17376 1 14.9931 2.2611 57.2382
17377 2 15.2042 2.24462 56.2609
17378 2 14.091 2.66957 57.3775
17379 1 20.1124 12.8494 83.0132
17380 2 19.7246 13.771 83.0006
17381 2 19.9186 12.4182 83.8945
17382 1 21.2578 10.9248 29.1379
17383 2 20.8246 10.2652 29.7521
17384 2 20.6142 11.6624 28.9335
17385 1 15.2093 1.50458 31.0441
17386 2 15.747 0.769747 31.4575
17387 2 15.6589 2.38181 31.2123
17388 1 6.19509 24.3449 50.8681
17389 2 5.45217 23.6947 51.0272
17390 2 6.13653 25.0877 51.5351
17391 1 29.6028 18.4081 30.2469
17392 2 30.0652 17.5758 30.5525
17393 2 30.0125 19.2015 30.6971
17394 1 66.2261 18.2821 90.3164
17395 2 66.4802 17.5536 89.6801
17396 2 66.944 18.3892 91.0043
17397 1 18.5765 5.67465 49.6453
17398 2 18.4518 5.60333 50.6349
17399 2 19.2709 6.36605 49.4458
17400 1 44.1997 2.50562 41.4395
17401 2 44.6255 1.60672 41.5428
17402 2 44.4893 2.9141 40.5739
17403 1 77.9759 6.32308 52.379
17404 2 78.6333 6.92649 51.9275
17405 2 78.1673 6.29642 53.3602
17406 1 50.6246 1.26535 52.5252
17407 2 50.7073 0.863596 53.4373
17408 2 50.7271 0.549103 51.835
17409 1 51.4483 1.16845 68.1694
17410 2 52.2415 0.732784 68.5948
17411 2 50.6795 1.15818 68.8089
17412 1 1.99507 10.9357 75.3857
17413 2 2.67305 11.4306 74.8421
17414 2 2.02935 11.2553 76.3326
17415 1 67.7318 1.77655 29.5905
17416 2 67.309 1.81182 28.685
17417 2 67.6623 2.67403 30.026
17418 1 68.843 19.8297 29.1907
17419 2 69.3706 19.955 30.0308
17420 2 67.917 20.1835 29.3226
17421 1 29.8237 0.239899 73.8946
17422 2 30.4717 29.5335 73.6098
17423 2 29.2793 29.9026 74.6627
17424 1 33.0002 26.2381 81.4359
17425 2 32.9972 26.1802 82.4342
17426 2 33.8822 25.9221 81.0863
17427 1 23.4115 11.5924 45.4094
17428 2 23.0894 12.5388 45.3837
17429 2 24.0773 11.4868 46.148
17430 1 48.7685 19.1399 62.9347
17431 2 49.6007 19.4581 62.4807
17432 2 48.5739 19.7247 63.7221
17433 1 36.0541 0.318904 49.4043
17434 2 35.4493 0.253433 50.198
17435 2 35.6233 0.886804 48.7029
17436 1 60.9483 28.934 35.6033
17437 2 61.9094 28.6717 35.6895
17438 2 60.45 28.6477 36.4218
17439 1 75.3952 13.9774 21.8844
17440 2 74.8354 13.5693 22.6056
17441 2 76.3432 13.6764 21.9878
17442 1 7.31107 11.7226 20.6971
17443 2 7.41164 11.0446 19.969
17444 2 7.03759 12.5991 20.301
17445 1 29.808 2.07994 90.5438
17446 2 28.9481 2.59007 90.5635
17447 2 30.493 2.60096 90.0345
17448 1 14.111 7.97901 32.8883
17449 2 13.645 8.35919 33.6872
17450 2 15.0138 7.64337 33.1574
17451 1 31.8462 22.0039 43.9787
17452 2 31.9232 21.86 42.9921
17453 2 32.5508 21.4725 44.449
17454 1 76.47 2.908 17.7334
17455 2 76.8442 2.06033 18.1095
17456 2 77.2178 3.53687 17.5205
17457 1 24.2175 16.7712 34.228
17458 2 23.7967 17.4183 34.8638
17459 2 24.8974 16.2215 34.7132
17460 1 5.75301 2.4059 36.4581
17461 2 5.10385 2.78612 35.7993
17462 2 5.62037 1.41692 36.524
17463 1 65.6169 20.7501 59.782
17464 2 66.3037 21.1396 60.3956
17465 2 65.8934 20.9018 58.833
17466 1 18.498 3.01569 28.0393
17467 2 18.2201 3.94086 28.2978
17468 2 18.0513 2.35321 28.6406
17469 1 73.6497 28.0045 25.2884
17470 2 73.3736 28.5845 26.0548
17471 2 73.1142 28.2448 24.4788
17472 1 74.7244 28.1539 38.447
17473 2 74.0836 28.7852 38.0102
17474 2 75.5347 28.6567 38.7481
17475 1 2.32961 4.6532 14.6526
17476 2 2.54087 4.55148 15.6247
17477 2 1.37968 4.94726 14.5469
17478 1 55.4202 24.3439 79.119
17479 2 56.1231 23.9115 78.5542
17480 2 55.0627 23.6781 79.7739
17481 1 47.5522 21.7125 85.3008
17482 2 48.0448 21.1699 85.9813
17483 2 47.8565 21.4533 84.3841
17484 1 65.3946 2.94056 32.2054
17485 2 66.1561 3.17071 31.5995
17486 2 65.4789 3.45697 33.0576
17487 1 1.76101 9.73058 62.6625
17488 2 1.30545 10.3196 63.3299
17489 2 2.40204 9.12547 63.1346
17490 1 49.0441 28.809 74.1661
17491 2 49.7516 29.3525 73.7145
17492 2 49.2964 27.8418 74.1355
17493 1 39.838 15.7582 43.2984
17494 2 40.6992 15.7178 43.8051
17495 2 39.7898 16.6186 42.791
17496 1 3.44971 4.65878 48.0374
17497 2 4.22583 4.05623 48.2233
17498 2 3.68434 5.59494 48.2992
17499 1 1.47544 3.89382 62.4903
17500 2 0.70363 4.00522 63.1163
17501 2 2.10979 3.21528 62.8607
17502 1 65.9124 7.52587 66.2804
17503 2 66.8305 7.26249 65.9844
17504 2 65.9761 8.28317 66.9303
17505 1 76.036 16.434 55.1546
17506 2 77.035 16.4355 55.1995
17507 2 75.661 16.5622 56.0727
17508 1 75.1902 11.7009 82.2246
17509 2 75.6881 12.498 82.5664
17510 2 74.4158 12.0046 81.6696
17511 1 55.06 14.2968 76.1782
17512 2 54.9122 15.1496 76.6791
17513 2 54.2844 13.6835 76.3281
17514 1 75.9092 29.4923 46.3012
17515 2 75.6844 28.5187 46.3408
17516 2 75.0659 0.0272516 46.2493
17517 1 11.5503 22.9733 49.5431
17518 2 11.7237 23.8791 49.9297
17519 2 10.5704 22.864 49.3765
17520 1 46.9 6.71091 77.2623
17521 2 46.4591 6.52826 78.1411
17522 2 47.1972 5.84835 76.8528
17523 1 48.627 24.1005 28.8368
17524 2 47.8025 24.5351 29.1992
17525 2 48.3983 23.1924 28.4859
17526 1 33.4071 4.37078 84.4507
17527 2 34.2889 4.55897 84.8833
17528 2 32.6909 4.89426 84.9122
17529 1 13.6 10.0916 39.8292
17530 2 14.4911 10.5265 39.9586
17531 2 12.8768 10.7257 40.1029
17532 1 71.1063 1.38462 82.263
17533 2 70.7653 0.445645 82.2179
17534 2 72.0512 1.41206 81.937
17535 1 74.8972 15.3256 32.997
17536 2 75.2042 16.216 32.6609
17537 2 75.5755 14.9573 33.6328
17538 1 65.0198 9.24907 38.4921
17539 2 65.3435 8.78731 39.3179
17540 2 64.0288 9.13941 38.4156
17541 1 53.5 8.46989 39.6693
17542 2 52.7987 7.80763 39.9333
17543 2 54.1361 8.60268 40.4294
17544 1 65.4617 10.646 67.4524
17545 2 64.4899 10.4512 67.3197
17546 2 65.7915 11.2213 66.7038
17547 1 60.4837 20.2793 10.6368
17548 2 60.0209 19.8167 11.393
17549 2 60.2389 19.8356 9.77475
17550 1 17.2179 22.3858 37.7973
17551 2 17.0063 21.5018 38.2141
17552 2 17.5871 23.0023 38.4927
17553 1 24.7543 23.219 33.7984
17554 2 25.1503 23.8786 33.1595
17555 2 25.4135 22.4876 33.9734
17556 1 28.8802 16.9711 45.1749
17557 2 29.0915 17.8597 45.582
17558 2 29.4425 16.836 44.3591
17559 1 73.1163 10.8302 79.4832
17560 2 73.0815 10.4885 80.4224
17561 2 74.0616 11.0517 79.2439
17562 1 58.596 26.7644 58.1655
17563 2 59.1138 27.5984 58.3559
17564 2 57.6386 26.9011 58.4198
17565 1 39.0522 2.05128 74.5228
17566 2 38.8977 1.92842 75.5032
17567 2 39.1311 3.02679 74.3175
17568 1 40.949 18.7579 62.4405
17569 2 41.9351 18.8983 62.3519
17570 2 40.5715 19.4344 63.0729
17571 1 51.755 7.34886 84.4707
17572 2 52.0151 6.48406 84.0412
17573 2 51.3589 7.95685 83.7827
17574 1 6.68846 13.699 48.6535
17575 2 6.40641 14.2051 49.4686
17576 2 6.08108 12.9157 48.5208
17577 1 78.819 10.0517 76.4665
17578 2 79.2662 10.4995 75.6923
17579 2 79.2497 9.16463 76.6327
17580 1 67.9475 25.7621 89.1839
17581 2 68.5826 26.4112 88.7652
17582 2 68.3476 24.8458 89.1661
17583 1 59.384 15.5194 85.5031
17584 2 58.7576 14.8679 85.0751
17585 2 59.4049 15.3623 86.4905
17586 1 46.3759 29.0047 32.1139
17587 2 46.627 29.1412 33.0721
17588 2 45.7449 29.7262 31.8286
17589 1 16.3603 5.39471 15.3005
17590 2 15.3649 5.32351 15.3633
17591 2 16.781 4.6447 15.8109
17592 1 62.7779 23.9735 27.6927
17593 2 63.49 23.2783 27.595
17594 2 63.1471 24.8671 27.4375
17595 1 61.9205 8.28902 27.8013
17596 2 62.2355 9.17302 27.4559
17597 2 62.7074 7.69143 27.9547
17598 1 59.3896 21.8589 61.3369
17599 2 59.9362 21.0767 61.0379
17600 2 59.6643 22.6727 60.8248
17601 1 45.3747 6.33638 87.5455
17602 2 45.4021 6.79677 88.4328
17603 2 46.2925 6.32246 87.1488
17604 1 21.0106 24.9185 61.3023
17605 2 21.8358 24.3679 61.1759
17606 2 20.2568 24.328 61.5906
17607 1 4.93195 16.757 12.9077
17608 2 5.09131 16.3057 12.0296
17609 2 5.01027 17.7473 12.7926
17610 1 47.2219 20.7934 39.6502
17611 2 47.0156 21.3383 40.463
17612 2 46.5349 20.074 39.5481
17613 1 8.2968 21.5922 82.5653
17614 2 7.41338 22.0571 82.6238
17615 2 8.62494 21.6176 81.621
17616 1 56.5698 28.4995 55.7238
17617 2 56.2199 29.418 55.908
17618 2 57.5084 28.4265 56.0612
17619 1 61.14 10.0608 11.413
17620 2 61.9906 10.4664 11.0785
17621 2 61.079 10.1838 12.4035
17622 1 59.6595 11.6279 30.3053
17623 2 60.2975 12.3049 29.9385
17624 2 58.8137 11.6437 29.7721
17625 1 9.34113 10.3051 15.119
17626 2 9.64649 9.90779 14.2536
17627 2 9.97842 11.0228 15.3996
17628 1 33.7401 27.419 32.0461
17629 2 33.2716 27.7317 31.2198
17630 2 34.2359 28.1837 32.4578
17631 1 10.3254 28.0114 59.3001
17632 2 10.9282 28.1809 60.0798
17633 2 10.3669 28.7881 58.6716
17634 1 69.2756 29.0384 56.3459
17635 2 69.9592 28.3157 56.4485
17636 2 69.3795 29.4708 55.4503
17637 1 6.92619 20.8814 49.1921
17638 2 7.58336 20.6233 48.4839
17639 2 7.31863 20.6986 50.0935
17640 1 65.9275 11.6127 47.404
17641 2 65.1568 12.0418 47.875
17642 2 66.4731 11.0937 48.062
17643 1 28.2926 21.2285 88.4959
17644 2 27.9737 20.9649 87.5855
17645 2 27.5086 21.3216 89.1096
17646 1 61.6118 10.5218 75.3722
17647 2 62.0504 11.2405 75.9118
17648 2 60.8466 10.9103 74.8589
17649 1 76.0844 20.062 47.9154
17650 2 76.2891 20.9995 48.1969
17651 2 76.9043 19.4979 48.0138
17652 1 29.8804 14.2958 64.7912
17653 2 29.8391 15.2946 64.8188
17654 2 30.7378 13.9862 65.2022
17655 1 36.8604 7.33023 83.1804
17656 2 37.2423 7.74086 84.0084
17657 2 36.3444 8.02065 82.6734
17658 1 18.8161 16.3646 61.3141
17659 2 18.1758 16.8733 61.8897
17660 2 19.7507 16.6578 61.5156
17661 1 15.4656 22.259 75.6186
17662 2 15.8282 22.8254 74.8785
17663 2 14.7001 22.7315 76.0554
17664 1 25.7361 8.59199 68.7629
17665 2 26.5139 8.14295 69.2026
17666 2 25.0334 7.91204 68.5535
17667 1 49.7 21.2705 70.9863
17668 2 49.5093 20.4892 71.5806
17669 2 49.159 22.0566 71.2853
17670 1 0.278988 29.3425 27.5567
17671 2 0.600702 28.9405 28.4139
17672 2 1.04514 29.7791 27.0851
17673 1 33.7442 5.20116 79.6797
17674 2 33.7739 6.07391 80.167
17675 2 34.6765 4.89322 79.4904
17676 1 36.5761 10.6003 38.7564
17677 2 36.3046 9.86494 39.3774
17678 2 36.0074 11.4055 38.9245
17679 1 28.2982 10.3665 28.3515
17680 2 27.4868 10.7577 27.9173
17681 2 28.0511 9.99551 29.2466
17682 1 37.7541 17.0321 36.7437
17683 2 37.9505 17.0541 35.7634
17684 2 38.5741 16.7498 37.2417
17685 1 10.2327 1.17497 70.1716
17686 2 11.1623 1.4496 70.4173
17687 2 10.2639 0.322995 69.6489
17688 1 38.003 22.2278 71.4982
17689 2 37.5191 23.1028 71.51
17690 2 37.7094 21.6741 72.2775
17691 1 68.4798 24.0976 26.4949
17692 2 68.3445 23.1308 26.7115
17693 2 67.8164 24.6486 27.0012
17694 1 47.3839 4.95758 80.752
17695 2 47.6324 4.10895 81.219
17696 2 48.2142 5.45165 80.4942
17697 1 79.0344 2.72274 73.1013
17698 2 78.734 2.93539 72.1715
17699 2 0.0316637 2.65183 73.1214
17700 1 44.0564 16.1416 61.5304
17701 2 44.0398 17.0541 61.9391
17702 2 43.5242 16.1458 60.6838
17703 1 70.0363 23.5784 70.3782
17704 2 70.0064 23.2113 71.3079
17705 2 70.8073 23.1752 69.8852
17706 1 12.3651 22.2514 60.063
17707 2 12.8231 22.3406 60.9474
17708 2 12.3993 23.1265 59.5801
17709 1 19.3284 14.6872 59.355
17710 2 19.3373 15.3728 60.0829
17711 2 19.5616 13.7928 59.7367
17712 1 73.4084 4.47377 19.563
17713 2 72.4496 4.61511 19.8095
17714 2 73.4604 3.93788 18.7203
17715 1 54.927 4.45712 69.8892
17716 2 54.6403 4.19065 70.8094
17717 2 55.8721 4.16783 69.7376
17718 1 39.2033 17.5385 40.832
17719 2 40.0023 18.1092 40.6423
17720 2 38.42 18.1222 41.0457
17721 1 68.9386 5.21853 82.8736
17722 2 69.5977 5.28311 82.1243
17723 2 68.857 6.10799 83.3232
17724 1 56.4781 16.2242 29.678
17725 2 56.6267 16.6556 30.5678
17726 2 56.1768 15.2801 29.8115
17727 1 71.2196 11.7302 31.9987
17728 2 70.7512 10.8469 31.9791
17729 2 71.7227 11.8597 31.1443
17730 1 77.2485 28.6099 66.3208
17731 2 76.5611 28.11 66.8476
17732 2 77.8133 27.9618 65.81
17733 1 9.69984 4.94963 42.0892
17734 2 9.49354 4.39249 42.8936
17735 2 9.06963 5.72508 42.0503
17736 1 32.2583 23.7243 70.6296
17737 2 33.0057 23.3797 71.1976
17738 2 31.7547 24.4272 71.1318
17739 1 0.998164 5.18151 29.8851
17740 2 0.541882 4.37167 29.5164
17741 2 1.36363 4.97404 30.7925
17742 1 77.1347 26.004 21.9941
17743 2 76.9424 25.3323 21.2787
17744 2 77.0059 25.5815 22.8913
17745 1 64.9136 20.8959 17.4463
17746 2 65.1203 21.8712 17.3675
17747 2 64.0403 20.7774 17.9188
17748 1 6.48537 8.89008 69.9873
17749 2 6.19044 7.93484 70.0104
17750 2 7.3548 8.98228 70.4727
17751 1 37.3622 3.92785 87.6206
17752 2 38.3426 4.10251 87.7115
17753 2 37.2188 2.99206 87.2985
17754 1 27.4741 6.35467 90.4874
17755 2 28.0828 6.01742 91.2056
17756 2 27.9217 7.10062 89.9942
17757 1 71.8887 19.4965 29.1128
17758 2 71.4725 20.3372 29.4591
17759 2 71.1943 18.9481 28.6468
17760 1 30.7605 23.3557 90.3522
17761 2 31.2473 22.5441 90.0293
17762 2 29.981 23.5374 89.7527
17763 1 31.5601 18.9126 82.7882
17764 2 31.8226 19.2783 83.6812
17765 2 30.5637 18.8461 82.7351
17766 1 61.4639 15.2196 70.8854
17767 2 62.344 15.5918 71.18
17768 2 60.7684 15.4232 71.5745
17769 1 63.5674 15.0058 76.719
17770 2 63.8748 15.6844 77.3861
17771 2 63.1942 15.4721 75.9169
17772 1 66.4831 8.5975 69.5867
17773 2 67.085 8.15351 70.2504
17774 2 67.0332 9.00206 68.8562
17775 1 49.2127 13.1683 31.558
17776 2 48.8427 13.6561 30.7674
17777 2 50.0109 12.6354 31.2773
17778 1 75.7275 10.8103 62.0248
17779 2 76.5236 10.5621 62.5768
17780 2 75.702 11.8026 61.904
17781 1 21.7608 3.59316 88.3941
17782 2 21.6352 4.35405 89.0307
17783 2 20.9048 3.0827 88.3118
17784 1 21.5092 10.517 64.936
17785 2 21.4804 11.1651 65.697
17786 2 22.4236 10.1173 64.8729
17787 1 59.1967 21.6272 68.2977
17788 2 59.6068 21.7735 69.1979
17789 2 58.2995 22.0677 68.2646
17790 1 69.8215 24.2296 24.0515
17791 2 69.301 24.3988 24.8884
17792 2 70.6947 24.7147 24.0983
17793 1 60.2228 29.2353 78.3724
17794 2 60.9551 29.8426 78.0641
17795 2 59.8742 29.5543 79.2537
17796 1 8.2514 19.6299 33.3807
17797 2 7.47046 19.3989 33.961
17798 2 9.0875 19.6243 33.9292
17799 1 13.0855 17.4819 85.7856
17800 2 12.3885 17.139 85.1558
17801 2 13.8827 16.8787 85.761
17802 1 29.034 22.9528 74.3731
17803 2 28.5876 23.6759 74.9002
17804 2 29.9277 22.7514 74.774
17805 1 4.26634 3.2559 33.8131
17806 2 4.28676 4.20188 34.1367
17807 2 3.63197 2.72504 34.3751
17808 1 40.481 23.8544 52.8816
17809 2 40.963 24.2175 53.6789
17810 2 39.5414 24.1967 52.8757
17811 1 13.6058 8.86545 55.0031
17812 2 13.0309 9.25049 55.725
17813 2 14.3293 8.31039 55.4136
17814 1 13.1797 4.59048 88.7148
17815 2 12.3168 5.02191 88.9779
17816 2 13.6552 5.17175 88.0545
17817 1 37.7949 26.0461 42.7874
17818 2 38.5279 25.9001 42.123
17819 2 37.1075 25.3265 42.6888
17820 1 61.7831 9.10306 39.1009
17821 2 62.4785 9.24531 39.8052
17822 2 62.0855 8.38492 38.4741
17823 1 19.7676 10.0085 84.3242
17824 2 20.6527 9.66655 84.0085
17825 2 19.8888 10.5014 85.1858
17826 1 3.14296 27.3631 31.0102
17827 2 3.26982 26.9282 30.1187
17828 2 3.10773 28.3558 30.8949
17829 1 41.0662 9.51844 59.0256
17830 2 40.2968 10.0943 58.7492
17831 2 41.224 9.62183 60.0077
17832 1 43.5858 29.0014 67.3609
17833 2 43.3453 28.1089 66.9792
17834 2 44.5718 29.1454 67.2762
17835 1 65.8041 13.3531 26.7672
17836 2 66.4172 12.7615 26.2437
17837 2 66.2717 14.2103 26.9829
17838 1 58.3953 26.1832 49.4579
17839 2 58.102 26.732 50.2406
17840 2 59.3944 26.1516 49.4285
17841 1 64.9549 28.3189 46.7648
17842 2 65.5092 29.1103 47.0225
17843 2 65.311 27.9241 45.9178
17844 1 52.2312 9.87593 90.3122
17845 2 53.0719 9.47149 90.6722
17846 2 52.316 10.8723 90.3076
17847 1 19.4856 11.9161 35.2016
17848 2 19.8607 12.0689 36.1159
17849 2 19.605 12.7417 34.6501
17850 1 51.819 22.4082 47.9452
17851 2 51.5166 21.5006 48.2364
17852 2 51.3107 22.683 47.1291
17853 1 22.2051 6.95297 71.5865
17854 2 22.0895 5.97863 71.7796
17855 2 21.3072 7.38707 71.5132
17856 1 16.364 10.0252 18.6118
17857 2 16.2246 9.09684 18.2672
17858 2 16.213 10.04 19.6002
17859 1 25.7606 27.7305 38.2177
17860 2 26.1626 26.8535 38.4811
17861 2 25.965 28.4146 38.9179
17862 1 54.3302 1.17939 85.4253
17863 2 54.5344 1.7377 84.6212
17864 2 54.8298 0.315121 85.3666
17865 1 55.9554 17.8782 27.7444
17866 2 55.8573 17.2611 28.5252
17867 2 56.452 18.6985 28.0281
17868 1 75.8014 7.1831 69.3886
17869 2 76.1971 8.0071 69.794
17870 2 75.959 7.1888 68.4011
17871 1 0.727086 13.6529 68.9989
17872 2 0.306794 12.8315 68.6135
17873 2 1.1186 13.4385 69.8938
17874 1 74.535 2.14675 36.2672
17875 2 74.8222 2.88706 36.875
17876 2 74.0058 1.47558 36.7864
17877 1 7.60136 18.652 90.2061
17878 2 7.4749 17.6841 90.4234
17879 2 6.92083 19.1956 90.6973
17880 1 35.4275 15.0946 60.4816
17881 2 34.4396 15.1105 60.3274
17882 2 35.6784 14.2464 60.948
17883 1 52.1202 27.5384 80.2517
17884 2 52.8492 27.5959 79.5697
17885 2 51.2548 27.8233 79.8395
17886 1 66.387 0.698998 80.8144
17887 2 66.7173 1.186 81.6229
17888 2 67.1373 0.175089 80.4112
17889 1 65.6074 0.328923 24.9297
17890 2 66.03 1.12451 25.3637
17891 2 64.6569 0.539632 24.701
17892 1 74.2569 23.1143 22.002
17893 2 73.7325 23.1021 22.8534
17894 2 75.1988 23.3894 22.1945
17895 1 55.1478 7.62788 83.84
17896 2 55.8464 8.13638 84.3434
17897 2 54.3553 8.2171 83.6825
17898 1 39.1029 17.4595 73.5773
17899 2 38.2753 17.8634 73.967
17900 2 39.4332 16.7315 74.178
17901 1 26.3944 23.0001 30.1117
17902 2 26.7927 22.1457 30.4452
17903 2 26.4789 23.7047 30.8163
17904 1 19.4738 28.6863 74.7364
17905 2 19.845 29.3632 75.372
17906 2 18.5449 28.9486 74.4751
17907 1 78.8214 20.4093 41.6529
17908 2 79.3076 19.6615 41.2008
17909 2 78.3233 20.0531 42.4435
17910 1 57.659 3.98714 58.8587
17911 2 58.4857 4.35608 58.4338
17912 2 57.3824 3.15334 58.3809
17913 1 37.9425 6.31592 60.4847
17914 2 37.9377 5.66156 59.7285
17915 2 37.2742 7.03779 60.305
17916 1 30.4823 19.3543 43.9363
17917 2 30.9987 18.5036 44.0347
17918 2 31.027 20.1171 44.2849
17919 1 59.3296 28.4313 55.904
17920 2 59.9403 28.2151 56.6658
17921 2 59.3121 29.4209 55.7614
17922 1 24.9567 26.2915 80.6581
17923 2 24.4317 26.27 81.5089
17924 2 25.8465 25.8593 80.8044
17925 1 71.1437 6.48398 49.0066
17926 2 70.167 6.55161 48.803
17927 2 71.4103 5.52093 49.0449
17928 1 16.4992 6.774 79.3025
17929 2 15.5851 7.14999 79.1506
17930 2 16.4476 6.03215 79.9711
17931 1 23.5188 17.3108 90.6958
17932 2 23.1022 17.1925 91.5972
17933 2 22.9101 17.8519 90.1157
17934 1 0.783608 23.4234 83.7849
17935 2 0.101099 22.7088 83.9382
17936 2 1.47097 23.0944 83.1374
17937 1 49.1253 2.36378 29.37
17938 2 48.8245 2.99816 28.6579
17939 2 48.3495 2.12686 29.9548
17940 1 45.0394 14.3367 80.282
17941 2 45.8917 14.8559 80.2199
17942 2 44.6249 14.4825 81.1803
17943 1 75.2662 25.2847 50.0018
17944 2 76.192 25.2339 50.3762
17945 2 74.7541 24.4677 50.2671
17946 1 56.0216 19.8018 79.6456
17947 2 55.1916 20.0885 79.1672
17948 2 56.0826 20.2789 80.5223
17949 1 79.9913 28.8672 78.5408
17950 2 0.625502 28.8061 79.3115
17951 2 0.13954 28.0932 77.9251
17952 1 29.7543 28.5112 28.4352
17953 2 29.1923 28.9872 27.7587
17954 2 30.1012 27.6602 28.0409
17955 1 45.0844 5.85423 42.6444
17956 2 44.474 6.57763 42.9669
17957 2 45.9516 5.90427 43.14
17958 1 36.4785 10.1043 77.961
17959 2 37.0978 10.8293 78.2625
17960 2 36.2908 9.48709 78.725
17961 1 9.5586 18.5629 80.0436
17962 2 10.2744 17.9555 80.388
17963 2 8.84855 18.0204 79.5947
17964 1 50.5691 1.45553 61.4206
17965 2 51.3538 0.858861 61.5886
17966 2 50.5361 2.16815 62.1213
17967 1 14.5328 11.5438 90.3106
17968 2 13.5998 11.3178 90.5906
17969 2 14.5352 12.4262 89.8402
17970 1 13.5387 16.236 77.3919
17971 2 12.5473 16.3279 77.4847
17972 2 13.9812 16.5259 78.2405
17973 1 77.3362 25.5773 30.233
17974 2 76.4122 25.9589 30.2092
17975 2 77.8682 26.0361 30.9447
17976 1 25.8674 22.4562 89.7161
17977 2 25.5443 23.3935 89.8468
17978 2 25.191 21.8165 90.081
17979 1 1.79047 12.1153 60.3237
17980 2 1.17539 11.9237 59.5588
17981 2 2.02704 13.0869 60.3259
17982 1 79.5565 11.6585 73.9978
17983 2 78.9503 11.9711 74.7292
17984 2 0.502656 11.6703 74.3211
17985 1 15.7396 29.0675 9.9114
17986 2 16.1388 29.9805 9.99582
17987 2 16.3656 28.4757 9.40354
17988 1 25.0935 4.29792 84.2563
17989 2 25.8097 4.99309 84.3184
17990 2 24.8696 3.96728 85.1731
17991 1 15.3626 27.7183 79.311
17992 2 15.3816 27.6522 80.3086
17993 2 14.4915 27.3649 78.97
17994 1 62.7621 25.123 37.5659
17995 2 62.5029 24.3738 38.1755
17996 2 62.6528 25.9946 38.0439
17997 1 63.0519 18.6163 59.8229
17998 2 62.355 18.1642 59.2662
17999 2 63.4406 19.3832 59.3122
18000 1 41.1527 14.1065 30.7965
18001 2 41.3457 13.3992 31.4766
18002 2 41.9539 14.234 30.2118
18003 1 3.8508 23.1843 30.463
18004 2 4.74679 23.1321 30.9039
18005 2 3.68066 24.1233 30.164
18006 1 26.4975 13.0322 44.176
18007 2 26.6092 13.3589 45.1145
18008 2 27.2182 13.4189 43.6005
18009 1 58.9236 18.9704 21.3673
18010 2 59.5552 18.2017 21.2657
18011 2 59.4306 19.7823 21.6567
18012 1 19.0682 7.68349 14.6026
18013 2 19.0958 8.67314 14.7435
18014 2 19.4711 7.22292 15.3936
18015 1 65.678 0.549289 34.26
18016 2 65.0051 1.26404 34.0693
18017 2 66.4502 0.942984 34.7586
18018 1 25.6225 17.7045 53.8096
18019 2 24.8218 17.108 53.866
18020 2 25.5447 18.4322 54.491
18021 1 8.53042 0.0855559 49.1538
18022 2 8.73333 1.0457 48.9616
18023 2 8.09867 29.6694 48.3536
18024 1 32.0255 26.401 67.2117
18025 2 31.182 26.0898 67.6494
18026 2 32.6706 26.708 67.9114
18027 1 47.7684 15.9778 89.9508
18028 2 47.6933 16.7552 90.5754
18029 2 47.9286 15.1423 90.4763
18030 1 43.8374 24.8076 61.7822
18031 2 44.25 25.2826 61.005
18032 2 43.139 24.1725 61.4521
18033 1 11.3637 3.62794 22.5113
18034 2 12.0094 3.77966 23.2597
18035 2 11.5549 4.27183 21.7705
18036 1 64.0556 29.8299 43.6703
18037 2 63.7356 29.2181 42.947
18038 2 63.3238 0.464854 43.9178
18039 1 21.2569 20.1103 28.2268
18040 2 20.8742 19.5785 27.4713
18041 2 21.9033 19.5445 28.7387
18042 1 13.8245 28.3817 48.1822
18043 2 13.3305 29.1714 47.8183
18044 2 13.3027 27.5486 47.9985
18045 1 29.7701 27.3405 46.8739
18046 2 30.1629 28.2431 46.6977
18047 2 30.1739 26.6733 46.248
18048 1 16.9425 28.1503 76.6032
18049 2 17.3031 28.777 77.2941
18050 2 16.574 28.6758 75.8364
18051 1 15.7136 1.85738 89.0983
18052 2 16.2585 2.46829 88.5239
18053 2 15.65 2.23649 90.0214
18054 1 19.4429 27.9123 17.4758
18055 2 18.4729 27.9745 17.7111
18056 2 19.6368 27.0072 17.0975
18057 1 1.33372 3.34826 33.585
18058 2 1.51774 3.49202 34.5574
18059 2 1.59834 4.1645 33.0715
18060 1 40.0491 7.09282 75.0477
18061 2 39.2889 7.68066 74.7713
18062 2 39.9604 6.86719 76.0179
18063 1 12.0174 26.328 56.8201
18064 2 12.2883 25.3854 57.0152
18065 2 11.2553 26.3285 56.1727
18066 1 61.8239 1.99861 27.1454
18067 2 62.5989 2.31451 27.6928
18068 2 62.0804 1.98892 26.1789
18069 1 37.7026 1.06557 29.8602
18070 2 37.1618 0.978021 30.6968
18071 2 37.9214 2.02876 29.704
18072 1 5.40226 18.316 72.9997
18073 2 4.99824 19.1836 72.71
18074 2 4.75413 17.8242 73.5811
18075 1 58.534 14.0611 48.3108
18076 2 58.3417 13.7053 47.3962
18077 2 58.6917 15.0472 48.2585
18078 1 4.51186 21.5551 19.6151
18079 2 4.83102 21.1221 18.7721
18080 2 4.68354 20.9452 20.3888
18081 1 28.5914 19.6369 73.1071
18082 2 28.583 20.5394 73.5377
18083 2 28.072 19.6702 72.2532
18084 1 53.638 18.3075 80.0447
18085 2 54.5651 18.1201 80.3691
18086 2 53.659 19.0691 79.3969
18087 1 77.5165 16.6112 14.7195
18088 2 77.7133 16.1953 13.8317
18089 2 77.8246 17.5626 14.7176
18090 1 69.3156 14.0381 82.1958
18091 2 68.6498 13.8852 81.4655
18092 2 70.1182 13.462 82.0411
18093 1 15.8626 18.0657 69.9447
18094 2 16.5995 17.5509 70.3829
18095 2 15.0867 18.1362 70.5715
18096 1 24.6625 16.3211 83.6492
18097 2 24.5905 15.4802 83.1127
18098 2 23.958 16.9664 83.3537
18099 1 48.0235 24.5604 67.336
18100 2 48.8459 24.6434 67.8989
18101 2 47.2762 25.0719 67.7602
18102 1 1.97059 26.499 84.6242
18103 2 1.05574 26.1084 84.5217
18104 2 1.93301 27.2753 85.2534
18105 1 15.366 15.2515 53.8715
18106 2 15.5813 16.0838 53.3608
18107 2 15.0672 15.4947 54.7944
18108 1 46.7337 23.2813 30.7616
18109 2 46.2277 23.1337 31.6115
18110 2 47.0992 22.4095 30.4355
18111 1 78.0485 5.87609 70.219
18112 2 77.8744 4.89186 70.1876
18113 2 77.2575 6.3663 69.8528
18114 1 60.4619 14.8904 14.9542
18115 2 59.6229 15.3149 15.2945
18116 2 60.3789 13.8955 15.0112
18117 1 77.2135 4.86133 13.1553
18118 2 76.4294 4.42129 13.5931
18119 2 77.8651 5.15398 13.8551
18120 1 23.5503 21.0442 89.8567
18121 2 23.1236 21.8255 89.4011
18122 2 22.893 20.6231 90.4817
18123 1 61.0374 22.9513 59.3982
18124 2 61.0782 23.1414 58.4173
18125 2 61.7107 23.516 59.8755
18126 1 53.8234 10.8032 53.5668
18127 2 54.0331 11.7114 53.2047
18128 2 54.6675 10.273 53.6465
18129 1 58.0657 13.3835 87.8182
18130 2 57.1565 13.7336 88.0437
18131 2 58.3151 12.6626 88.4648
18132 1 0.0487822 4.14376 89.8526
18133 2 0.403696 3.48106 90.512
18134 2 0.701346 4.24959 89.1023
18135 1 22.7549 1.33995 70.4563
18136 2 22.1802 1.62294 71.2242
18137 2 23.1536 2.1481 70.0228
18138 1 45.8943 16.3889 51.1115
18139 2 45.4611 17.2307 51.4337
18140 2 46.8165 16.5932 50.783
18141 1 2.33655 11.1637 52.4938
18142 2 3.19813 11.4299 52.0616
18143 2 1.80839 10.5959 51.8624
18144 1 63.1844 10.023 58.0738
18145 2 62.3553 10.3893 58.4962
18146 2 63.3832 9.12102 58.4572
18147 1 6.27576 9.53976 36.4607
18148 2 7.18301 9.46392 36.047
18149 2 5.71365 10.1648 35.9191
18150 1 35.8309 15.7708 52.4157
18151 2 35.0457 16.0993 52.9406
18152 2 35.5712 14.9509 51.9055
18153 1 27.3222 15.7503 30.5177
18154 2 27.4824 15.0552 29.8168
18155 2 26.6435 16.4063 30.1876
18156 1 62.4806 13.5561 67.569
18157 2 62.6716 12.5762 67.6265
18158 2 62.6352 13.8714 66.6327
18159 1 32.7337 18.5315 47.876
18160 2 32.6272 19.2999 47.2449
18161 2 33.5709 18.0315 47.6541
18162 1 78.4191 12.4905 51.0779
18163 2 78.7551 12.6636 52.0037
18164 2 78.7426 13.2118 50.4655
18165 1 65.9921 2.34412 75.1614
18166 2 66.6213 2.22545 75.9295
18167 2 66.5086 2.59813 74.3436
18168 1 62.6891 2.78149 24.6848
18169 2 62.623 3.66269 25.1528
18170 2 61.9711 2.7175 23.9917
18171 1 57.8994 7.25159 81.0815
18172 2 58.889 7.1138 81.04
18173 2 57.6861 7.9258 81.7886
18174 1 21.0226 9.43839 57.8609
18175 2 21.791 10.0768 57.8154
18176 2 20.37 9.75087 58.5511
18177 1 42.9695 2.14628 38.2348
18178 2 43.9484 2.18262 38.4361
18179 2 42.5244 1.50476 38.8595
18180 1 25.726 21.5961 72.6503
18181 2 26.1981 22.2797 72.0937
18182 2 25.9739 21.7198 73.6112
18183 1 77.5944 17.47 76.5791
18184 2 77.7267 17.1173 77.5055
18185 2 78.3536 18.076 76.3416
18186 1 59.5723 7.40354 49.206
18187 2 59.5667 6.46724 49.5571
18188 2 58.6613 7.80316 49.3079
18189 1 57.33 7.32218 69.9558
18190 2 58.2095 6.92978 69.6866
18191 2 56.5983 6.67188 69.7515
18192 1 38.6479 6.60532 80.1708
18193 2 38.769 5.79626 80.7459
18194 2 38.8658 6.37563 79.2223
18195 1 31.6758 2.57114 46.7065
18196 2 32.6346 2.55615 46.9904
18197 2 31.3155 1.63832 46.6999
18198 1 30.9703 0.396778 79.9841
18199 2 30.5535 1.02309 79.3254
18200 2 31.3155 0.916403 80.7657
18201 1 28.2114 18.9044 60.7405
18202 2 29.114 19.2827 60.535
18203 2 27.78 19.445 61.4628
18204 1 0.707909 16.5504 76.1517
18205 2 1.50585 16.1787 75.6772
18206 2 79.9792 16.7273 75.4901
18207 1 76.4484 12.2561 15.381
18208 2 76.6588 12.7345 16.2336
18209 2 75.4593 12.1299 15.305
18210 1 35.7654 3.33287 82.7288
18211 2 35.5213 2.44962 82.3284
18212 2 36.0204 3.2053 83.6873
18213 1 15.2366 21.2303 57.7348
18214 2 15.7973 21.0446 56.9279
18215 2 14.5779 21.9526 57.524
18216 1 48.7143 19.0165 59.9032
18217 2 49.0837 18.152 59.5624
18218 2 47.8673 18.8421 60.4054
18219 1 34.3305 13.9537 51.0874
18220 2 33.4495 14.2483 51.4574
18221 2 34.1826 13.4468 50.2381
18222 1 38.824 15.6965 86.5795
18223 2 39.2616 15.9705 85.7231
18224 2 38.2912 14.8636 86.43
18225 1 21.9973 3.97646 44.7223
18226 2 21.1103 4.38654 44.9343
18227 2 21.8602 3.0555 44.3575
18228 1 44.4875 3.34567 80.9032
18229 2 44.9936 3.76078 81.6592
18230 2 44.9122 3.60476 80.0358
18231 1 6.58799 27.8859 85.7554
18232 2 7.04827 28.7708 85.6844
18233 2 6.70934 27.5202 86.6782
18234 1 68.7935 16.404 89.1993
18235 2 69.7374 16.5888 89.4731
18236 2 68.5807 15.4411 89.3657
18237 1 78.7717 21.9576 65.976
18238 2 78.0657 22.2555 65.3335
18239 2 78.8933 22.6534 66.6838
18240 1 60.9539 3.76821 76.6223
18241 2 60.6536 2.95322 77.1179
18242 2 61.3312 4.43131 77.2687
18243 1 50.4976 26.4509 76.7437
18244 2 50.0349 27.3372 76.765
18245 2 49.971 25.7871 77.2747
18246 1 16.3159 19.8407 81.1441
18247 2 15.7232 20.4368 81.6857
18248 2 15.7542 19.2181 80.5992
18249 1 30.024 4.37764 50.7515
18250 2 29.5801 4.46167 49.8594
18251 2 30.9042 4.85179 50.7317
18252 1 34.2584 24.7677 44.854
18253 2 33.3835 24.6986 45.3333
18254 2 34.9776 24.3534 45.4118
18255 1 18.2436 9.25168 63.0557
18256 2 18.5056 9.93147 63.7408
18257 2 18.3268 9.64985 62.1422
18258 1 18.6287 17.533 47.691
18259 2 18.8495 18.4536 48.0134
18260 2 17.8666 17.1668 48.2249
18261 1 32.3572 18.0115 73.9869
18262 2 33.2163 17.7796 73.5307
18263 2 32.4342 17.8121 74.9638
18264 1 26.4546 11.5023 77.3438
18265 2 25.6653 11.9607 76.9352
18266 2 26.4171 11.5974 78.3386
18267 1 69.4511 22.4628 42.7258
18268 2 70.4124 22.6095 42.4926
18269 2 69.2031 21.513 42.5354
18270 1 38.1141 25.0432 55.7851
18271 2 37.2027 25.4546 55.7972
18272 2 38.7379 25.6301 55.2689
18273 1 44.847 0.120795 39.6439
18274 2 43.863 0.017481 39.4986
18275 2 45.2485 29.2291 39.8527
18276 1 41.8096 24.7106 85.8006
18277 2 41.9156 25.5193 86.3792
18278 2 41.1222 24.8918 85.0973
18279 1 41.1522 17.2123 57.8276
18280 2 41.3921 18.1821 57.7836
18281 2 41.8662 16.7143 58.3198
18282 1 14.9473 12.6528 82.2721
18283 2 14.8414 13.2286 81.4614
18284 2 14.6058 11.7338 82.0751
18285 1 15.8984 11.1982 61.9255
18286 2 16.0942 10.2186 61.8821
18287 2 15.1071 11.3542 62.5167
18288 1 39.3211 28.9985 36.2043
18289 2 39.678 29.4257 35.3736
18290 2 38.7843 29.6671 36.7188
18291 1 20.4104 7.49003 48.344
18292 2 19.8831 7.45942 47.4949
18293 2 20.8218 8.39548 48.4484
18294 1 35.6511 21.5953 56.7124
18295 2 34.924 21.567 57.3983
18296 2 35.3178 22.0606 55.8924
18297 1 76.0707 27.3536 48.2813
18298 2 76.2314 28.3362 48.3741
18299 2 75.4653 27.0442 49.0147
18300 1 71.494 19.4845 90.6914
18301 2 70.9406 20.1742 90.2243
18302 2 71.1626 18.5723 90.4506
18303 1 9.01953 5.98959 71.3149
18304 2 9.13893 6.98242 71.3203
18305 2 9.73322 5.56501 71.872
18306 1 19.741 29.7997 12.3405
18307 2 20.5453 29.2415 12.137
18308 2 19.6592 29.9183 13.3301
18309 1 62.61 21.3896 32.3406
18310 2 61.6641 21.5339 32.6312
18311 2 62.7956 20.4085 32.2852
18312 1 30.5194 21.3598 71.3016
18313 2 29.8838 20.7695 70.8042
18314 2 30.7954 22.1214 70.7153
18315 1 47.031 6.43426 89.6531
18316 2 46.1301 6.08184 89.9064
18317 2 47.1057 7.39113 89.9338
18318 1 10.7428 18.0529 32.3746
18319 2 10.1234 18.572 31.7858
18320 2 11.438 18.666 32.75
18321 1 14.4431 19.8295 30.1904
18322 2 14.3022 20.1687 29.2603
18323 2 14.2733 20.5674 30.8436
18324 1 34.4276 28.8066 67.503
18325 2 34.2269 28.131 68.2124
18326 2 35.3718 28.6944 67.1933
18327 1 28.8467 28.479 40.155
18328 2 28.3259 27.6633 39.9035
18329 2 28.8549 29.1192 39.3868
18330 1 53.1335 26.5004 76.6007
18331 2 52.1946 26.4057 76.9316
18332 2 53.6347 27.1291 77.1953
18333 1 22.8638 25.2406 64.3601
18334 2 23.6832 24.9557 64.8575
18335 2 22.2413 25.7115 64.9852
18336 1 18.0353 3.26605 31.2646
18337 2 19.0028 3.04163 31.3811
18338 2 17.9187 3.8213 30.4411
18339 1 77.5669 14.1577 41.2198
18340 2 78.3981 14.4116 41.7144
18341 2 77.8004 13.9144 40.2784
18342 1 19.7638 4.61293 69.9426
18343 2 18.916 4.88109 70.4001
18344 2 20.5353 4.74882 70.5641
18345 1 10.5161 25.6824 61.3961
18346 2 11.1924 26.3265 61.0387
18347 2 10.1962 25.9967 62.2899
18348 1 51.3001 3.1557 80.0363
18349 2 50.7479 2.65365 79.3707
18350 2 51.2593 2.69147 80.9211
18351 1 11.4513 19.7588 16.0295
18352 2 12.0318 19.5989 16.8279
18353 2 11.9892 20.1954 15.3083
18354 1 4.74549 24.8018 90.478
18355 2 4.63994 23.8118 90.3836
18356 2 3.86714 25.2081 90.7297
18357 1 7.0312 29.4108 25.1225
18358 2 6.74209 29.2286 26.0623
18359 2 6.24009 29.3541 24.5135
18360 1 70.6755 21.7882 52.1459
18361 2 71.3993 21.9227 52.8226
18362 2 69.9632 21.2019 52.5317
18363 1 17.6753 20.259 85.8695
18364 2 17.5828 19.6006 86.6164
18365 2 17.8681 21.1652 86.2458
18366 1 50.963 8.13837 48.187
18367 2 50.6614 8.79374 47.4945
18368 2 50.4624 7.2801 48.074
18369 1 13.6999 24.0389 83.6485
18370 2 13.4413 24.2854 84.5824
18371 2 12.9208 24.1818 83.0381
18372 1 61.4758 20.2384 35.3602
18373 2 61.7377 19.4703 34.776
18374 2 61.5773 19.9769 36.3201
18375 1 62.4561 7.48088 21.8963
18376 2 63.0824 7.95376 22.5162
18377 2 62.8882 7.37825 21.0004
18378 1 56.1126 8.15886 76.4229
18379 2 55.1949 7.99976 76.787
18380 2 56.656 8.66049 77.096
18381 1 78.4078 3.78295 57.6444
18382 2 77.9522 3.95449 56.7709
18383 2 78.0823 2.91776 58.0259
18384 1 68.2663 10.0023 73.2069
18385 2 68.489 10.8782 73.635
18386 2 68.1745 9.30004 73.9129
18387 1 6.85427 13.2935 83.4299
18388 2 6.97089 14.2737 83.5898
18389 2 7.69679 12.9159 83.0457
18390 1 72.6974 22.1871 15.8937
18391 2 73.6634 22.065 15.6657
18392 2 72.6128 22.4541 16.8537
18393 1 26.6808 12.5649 67.5808
18394 2 26.8081 13.4253 68.0743
18395 2 25.7428 12.2427 67.7091
18396 1 2.78643 20.744 15.7641
18397 2 2.42161 21.2133 16.5683
18398 2 2.55039 21.2606 14.9411
18399 1 69.0283 24.3009 60.3921
18400 2 68.0642 24.3157 60.1267
18401 2 69.4133 25.2192 60.3004
18402 1 57.2659 14.0113 78.5633
18403 2 56.3391 14.2442 78.2688
18404 2 57.2216 13.443 79.385
18405 1 0.61059 1.14895 75.6273
18406 2 79.6234 1.1167 75.4713
18407 2 1.03117 1.77674 74.9723
18408 1 0.744548 15.8717 20.0957
18409 2 1.66489 16.2173 19.9125
18410 2 0.150767 16.0762 19.3174
18411 1 9.87157 17.3372 17.8093
18412 2 9.61539 17.9285 18.574
18413 2 10.0432 16.4116 18.1467
18414 1 35.4764 13.256 82.503
18415 2 36.319 13.7317 82.7553
18416 2 35.4814 13.0672 81.521
18417 1 64.0501 23.5749 90.0347
18418 2 64.4563 22.7714 90.47
18419 2 64.6788 24.3488 90.1109
18420 1 68.9762 27.4474 38.4744
18421 2 68.2223 27.8598 37.963
18422 2 68.9685 26.4567 38.3387
18423 1 8.39782 2.70373 85.7445
18424 2 9.37782 2.63252 85.9303
18425 2 7.97499 1.80207 85.8353
18426 1 59.9725 27.791 75.9759
18427 2 59.9175 28.1112 75.0302
18428 2 59.205 28.1622 76.4986
18429 1 0.358897 0.66198 33.5857
18430 2 0.762104 1.57442 33.5159
18431 2 79.4287 0.735261 33.9454
18432 1 32.5236 6.61737 59.6064
18433 2 31.5473 6.76138 59.7681
18434 2 33.0151 6.65827 60.4763
18435 1 22.9653 28.2649 62.9845
18436 2 22.9262 27.7622 63.848
18437 2 23.5116 29.0937 63.1056
18438 1 76.0662 8.32855 55.9824
18439 2 75.1593 8.26999 56.3999
18440 2 76.7467 8.52103 56.6894
18441 1 59.7964 25.5919 20.8407
18442 2 60.7557 25.7906 21.0411
18443 2 59.213 26.2481 21.3195
18444 1 20.08 0.649075 87.1953
18445 2 19.9644 29.9473 87.8982
18446 2 19.4051 1.37389 87.3339
18447 1 27.4508 3.42429 90.9253
18448 2 27.4629 3.62635 91.9046
18449 2 27.2165 4.25289 90.4169
18450 1 50.283 10.2897 79.359
18451 2 50.556 9.39524 79.005
18452 2 50.9761 10.6203 79.9996
18453 1 69.5212 18.6382 87.6889
18454 2 68.8207 17.9263 87.6386
18455 2 70.3153 18.2898 88.1868
18456 1 50.4697 25.2907 51.5822
18457 2 49.5282 25.5328 51.8166
18458 2 51.0588 26.0899 51.7011
18459 1 10.0955 1.17857 81.8984
18460 2 10.4741 1.94958 81.3864
18461 2 9.1435 1.03438 81.6283
18462 1 44.8235 5.4109 33.7274
18463 2 45.2241 5.13134 34.5999
18464 2 44.5077 6.35743 33.7936
18465 1 78.4642 15.4567 73.786
18466 2 79.1289 15.2333 73.0731
18467 2 78.6443 14.8991 74.5963
18468 1 5.09691 3.94458 56.9815
18469 2 4.52014 3.2606 56.5349
18470 2 4.52152 4.66826 57.3626
18471 1 36.5132 5.24037 69.2104
18472 2 36.5083 4.67235 68.3874
18473 2 35.7845 4.94094 69.8264
18474 1 38.4259 8.12731 54.2626
18475 2 39.0264 7.35056 54.4523
18476 2 38.2767 8.20033 53.2765
18477 1 9.82139 28.2909 81.5907
18478 2 8.87 28.3779 81.2952
18479 2 9.97781 28.875 82.3872
18480 1 62.6046 5.20633 78.1384
18481 2 61.9483 5.94182 78.3067
18482 2 63.2799 5.50959 77.4661
18483 1 69.0662 7.25072 59.0474
18484 2 69.4316 6.44369 59.5113
18485 2 69.5952 8.05642 59.3139
18486 1 43.6085 24.7947 33.3339
18487 2 42.809 24.8938 32.7415
18488 2 44.0816 23.9413 33.1152
18489 1 63.4238 8.40337 86.8052
18490 2 64.2465 7.85711 86.9626
18491 2 63.2702 8.49875 85.8216
18492 1 76.0432 28.0305 34.4128
18493 2 76.1033 29.0287 34.4141
18494 2 76.9045 27.6451 34.0817
18495 1 24.9111 27.2369 35.1018
18496 2 25.2945 27.0478 36.0059
18497 2 24.7775 28.2222 34.9958
18498 1 40.4914 7.60012 65.1697
18499 2 39.5259 7.47341 65.3973
18500 2 41.0531 7.0341 65.7731
18501 1 72.2444 19.8609 58.6743
18502 2 72.335 19.3782 57.8032
18503 2 73.1528 20.0865 59.0264
18504 1 73.8428 9.79587 15.2795
18505 2 74.6403 9.39405 15.7296
18506 2 73.0453 9.71167 15.8769
18507 1 68.4248 1.73395 50.3375
18508 2 68.3315 1.86464 51.3245
18509 2 68.2526 0.775407 50.1104
18510 1 71.0587 19.7702 61.9911
18511 2 70.2705 19.4551 62.5198
18512 2 71.8998 19.56 62.4895
18513 1 11.999 28.4586 64.3627
18514 2 12.7228 28.5682 65.044
18515 2 11.5972 27.5468 64.4471
18516 1 11.5549 0.100965 57.3969
18517 2 11.9221 0.770276 56.751
18518 2 12.1711 29.3151 57.4489
18519 1 17.2522 26.042 58.1366
18520 2 17.1754 26.0514 59.1336
18521 2 17.3715 26.977 57.8027
18522 1 60.5259 11.8399 84.3537
18523 2 60.0667 11.1224 83.83
18524 2 59.9884 12.6819 84.3079
18525 1 50.4818 12.8002 81.3912
18526 2 50.0466 12.2849 82.1294
18527 2 51.4032 13.0697 81.671
18528 1 29.748 7.40126 45.6375
18529 2 30.0257 7.98809 44.8769
18530 2 29.244 6.61333 45.2839
18531 1 65.3571 4.25854 34.7122
18532 2 66.0373 4.40033 35.4313
18533 2 64.4411 4.4013 35.087
18534 1 65.3204 27.0856 71.4207
18535 2 64.8715 27.8975 71.7939
18536 2 66.2753 27.2983 71.2134
18537 1 30.5948 10.9731 51.8864
18538 2 30.6682 10.8507 52.8761
18539 2 31.5071 11.1033 51.4981
18540 1 17.4296 23.8732 21.2654
18541 2 17.1603 24.711 21.7403
18542 2 17.1587 23.9328 20.3047
18543 1 56.7839 29.2364 48.8977
18544 2 56.8703 29.5166 49.8538
18545 2 56.4613 0.00950055 48.3516
18546 1 32.5825 26.0849 49.3885
18547 2 33.4333 26.3023 49.8669
18548 2 32.79 25.7953 48.4541
18549 1 0.921617 1.76869 16.5059
18550 2 1.34071 1.58703 15.6163
18551 2 1.40421 1.25238 17.2134
18552 1 62.8459 5.2035 17.6704
18553 2 63.2714 4.8327 18.4959
18554 2 62.0154 4.68665 17.4626
18555 1 75.3838 21.9454 74.0547
18556 2 76.1177 22.3375 74.6094
18557 2 74.5027 22.2966 74.3715
18558 1 2.2655 13.5434 38.0854
18559 2 1.70959 12.7137 38.0348
18560 2 1.68577 14.3431 37.9292
18561 1 78.6226 3.95059 27.2442
18562 2 79.1066 4.80858 27.0723
18563 2 77.6924 4.14879 27.5531
18564 1 70.257 15.8622 55.0525
18565 2 70.9206 15.2511 55.4842
18566 2 70.1208 16.6674 55.6296
18567 1 1.11871 5.15989 73.8677
18568 2 1.4611 5.43256 74.7668
18569 2 1.61318 4.34905 73.5545
18570 1 73.9398 23.2457 24.8483
18571 2 74.7301 23.3187 25.4567
18572 2 73.1177 23.0687 25.3895
18573 1 8.60441 5.31466 61.6102
18574 2 8.72704 5.88836 60.8004
18575 2 9.45562 4.82757 61.8057
18576 1 8.25633 7.04289 38.7004
18577 2 8.11946 6.78685 37.7435
18578 2 8.19256 6.22763 39.276
18579 1 13.5992 3.30089 26.3648
18580 2 14.1905 4.06685 26.1126
18581 2 12.7015 3.64811 26.6363
18582 1 29.0839 8.10428 70.0162
18583 2 29.1673 7.83976 69.0554
18584 2 28.1782 7.84888 70.3547
18585 1 14.4517 4.7823 67.6679
18586 2 15.2924 4.69661 68.2026
18587 2 14.5872 5.4535 66.9391
18588 1 8.39017 14.5004 76.2241
18589 2 8.00771 14.5724 77.1453
18590 2 7.97325 15.1926 75.635
18591 1 53.9665 2.73436 43.3426
18592 2 54.8707 3.04362 43.6374
18593 2 53.272 3.09254 43.9666
18594 1 2.57684 12.6581 21.879
18595 2 2.67434 12.8085 22.8628
18596 2 3.25803 13.2024 21.3894
18597 1 54.9771 10.5746 56.8308
18598 2 55.401 9.79944 57.2993
18599 2 55.5121 11.4016 57.0035
18600 1 52.1387 4.3709 35.2726
18601 2 52.3959 5.3369 35.2992
18602 2 52.334 3.94946 36.1582
18603 1 72.0283 26.0662 33.414
18604 2 72.5675 25.2566 33.1823
18605 2 71.1951 25.7865 33.8909
18606 1 18.2065 10.1133 28.3091
18607 2 17.6696 9.27039 28.2751
18608 2 18.5419 10.2576 29.2401
18609 1 76.6563 3.51636 37.4332
18610 2 76.3331 4.27174 38.0033
18611 2 76.3441 2.64902 37.8208
18612 1 15.6111 20.3911 45.7816
18613 2 16.3604 19.7308 45.7305
18614 2 15.3 20.4696 46.7287
18615 1 23.7372 29.0384 58.0098
18616 2 23.1088 29.8055 58.139
18617 2 23.2409 28.1779 58.1249
18618 1 1.49159 22.0706 29.4817
18619 2 2.43122 21.9127 29.7853
18620 2 1.31597 23.0541 29.4387
18621 1 31.9099 10.3484 77.2189
18622 2 32.3165 11.1661 77.6263
18623 2 30.9536 10.2751 77.5022
18624 1 13.0726 10.4288 80.2765
18625 2 12.6955 10.9183 79.4903
18626 2 12.6777 9.51103 80.3184
18627 1 76.7941 13.925 44.3402
18628 2 76.2344 13.1541 44.036
18629 2 76.7233 14.0168 45.3335
18630 1 47.9083 27.4901 68.8983
18631 2 47.3523 26.7098 69.1848
18632 2 47.5558 27.8515 68.0351
18633 1 28.2083 13.1038 33.7064
18634 2 28.7916 12.3135 33.519
18635 2 28.6074 13.6444 34.447
18636 1 39.9002 12.5302 54.4776
18637 2 40.4835 12.5126 53.6655
18638 2 39.3781 13.3829 54.4945
18639 1 42.9318 0.395113 63.2128
18640 2 43.5544 29.893 62.6127
18641 2 41.9934 0.090703 63.0494
18642 1 64.4175 19.8115 36.147
18643 2 65.2599 20.3023 36.3696
18644 2 63.7771 19.8847 36.9116
18645 1 37.5286 12.523 42.4176
18646 2 38.2813 12.7381 41.7954
18647 2 37.8872 12.3919 43.3418
18648 1 20.5799 25.0189 45.7499
18649 2 21.2482 25.5937 46.2221
18650 2 20.5276 24.1284 46.2018
18651 1 54.7702 7.07575 48.4138
18652 2 55.6876 7.40363 48.6394
18653 2 54.6885 6.96999 47.4228
18654 1 4.0373 22.2313 90.1778
18655 2 3.26121 21.8849 90.7048
18656 2 3.74239 22.4337 89.2439
18657 1 21.0334 25.9919 40.3311
18658 2 21.9505 25.5971 40.2759
18659 2 20.7475 26.038 41.2883
18660 1 79.1112 22.0328 88.3984
18661 2 79.6182 22.8778 88.228
18662 2 79.3193 21.3687 87.6803
18663 1 38.6288 13.9403 90.1507
18664 2 38.7211 12.9667 89.942
18665 2 38.7347 14.0817 91.1349
18666 1 36.2271 22.2157 60.8363
18667 2 36.8712 21.5652 61.2388
18668 2 35.6117 21.7332 60.213
18669 1 49.7319 0.639077 70.6541
18670 2 49.5008 1.05292 71.5346
18671 2 50.6641 0.278923 70.6895
18672 1 34.5659 19.2681 76.7344
18673 2 33.7174 19.7173 76.4547
18674 2 34.7836 19.5237 77.6764
18675 1 20.6622 23.9203 90.601
18676 2 19.7682 24.1945 90.2466
18677 2 21.2784 23.7271 89.8375
18678 1 5.33388 26.1626 21.5487
18679 2 5.33555 25.9772 22.5313
18680 2 6.18779 26.6163 21.2936
18681 1 67.0799 21.6202 11.5135
18682 2 66.1129 21.6095 11.7683
18683 2 67.1639 21.535 10.5207
18684 1 11.7662 7.13175 17.2508
18685 2 11.2187 6.78617 18.013
18686 2 12.2118 7.98535 17.5207
18687 1 42.7723 1.76888 73.5976
18688 2 43.6928 2.11075 73.4086
18689 2 42.6665 0.858169 73.1983
18690 1 33.3783 19.551 63.9272
18691 2 33.077 18.6397 64.2077
18692 2 33.2087 19.6717 62.9491
18693 1 13.2115 2.59283 79.6621
18694 2 12.4493 1.95364 79.5594
18695 2 13.0437 3.1879 80.4481
18696 1 65.9871 10.0125 57.4006
18697 2 65.8607 10.4074 56.4906
18698 2 65.1101 9.99428 57.8807
18699 1 41.0558 11.8046 79.9763
18700 2 40.2351 12.1224 80.4512
18701 2 40.7954 11.376 79.1111
18702 1 17.2441 28.2487 67.8793
18703 2 17.2675 27.4676 67.2553
18704 2 16.3313 28.3279 68.2799
18705 1 16.0026 1.11121 48.342
18706 2 16.8776 0.834677 47.9446
18707 2 16.1038 1.21509 49.3314
18708 1 70.4453 17.3763 15.0782
18709 2 69.4515 17.34 15.1836
18710 2 70.6898 17.1369 14.1386
18711 1 16.7911 7.78981 17.1778
18712 2 17.7737 7.96372 17.1134
18713 2 16.597 6.85713 16.8738
18714 1 78.3004 25.3958 24.9339
18715 2 77.5891 24.866 25.3958
18716 2 79.1871 25.1998 25.3528
18717 1 12.1963 1.03649 65.65
18718 2 12.7968 1.83609 65.6396
18719 2 12.7421 0.211778 65.7985
18720 1 51.5105 18.6326 73.0738
18721 2 51.7301 18.2068 72.196
18722 2 50.8744 18.0484 73.5779
18723 1 41.8129 27.4699 53.1375
18724 2 41.8008 26.8347 52.3652
18725 2 42.7597 27.6782 53.3829
18726 1 19.2969 25.2301 80.3535
18727 2 19.3235 25.6261 79.4357
18728 2 18.6078 24.5061 80.3843
18729 1 5.68629 23.3349 48.2228
18730 2 5.64793 22.7235 47.4324
18731 2 6.29155 22.945 48.9168
18732 1 50.897 22.203 29.0914
18733 2 50.9233 22.3572 28.1037
18734 2 50.5265 21.293 29.277
18735 1 35.1004 16.8837 71.1681
18736 2 34.4969 16.4614 71.8445
18737 2 35.5846 17.6519 71.587
18738 1 49.5507 16.4785 63.8905
18739 2 49.2672 16.4252 64.848
18740 2 49.7872 17.4236 63.6651
18741 1 44.344 8.41872 73.3236
18742 2 44.3245 8.00194 72.4148
18743 2 44.2793 9.41277 73.2359
18744 1 3.19905 4.77257 31.6625
18745 2 3.25895 4.95192 30.6805
18746 2 3.96684 4.19682 31.9436
18747 1 62.116 16.3722 34.5288
18748 2 62.6631 17.0721 34.9879
18749 2 61.855 16.6965 33.6195
18750 1 73.4586 20.291 63.1266
18751 2 73.6915 19.9989 64.0542
18752 2 72.8418 21.0769 63.1697
18753 1 21.6291 8.17245 82.4261
18754 2 21.4647 7.74646 83.3157
18755 2 21.1935 7.62716 81.7099
18756 1 35.1579 29.4882 37.2987
18757 2 35.1928 28.8552 38.072
18758 2 34.6613 29.063 36.542
18759 1 22.8543 10.1236 77.0168
18760 2 23.1022 11.0489 77.3039
18761 2 21.9891 9.86234 77.4448
18762 1 11.0172 12.5773 82.8642
18763 2 11.7911 13.1234 82.5435
18764 2 11.3178 11.6379 83.029
18765 1 75.3241 1.42985 84.6167
18766 2 75.2556 0.871696 83.7898
18767 2 74.5291 1.2612 85.1995
18768 1 43.021 16.0772 76.5642
18769 2 43.1575 15.8125 75.6096
18770 2 43.7433 16.7112 76.8408
18771 1 46.1431 7.24288 37.3469
18772 2 46.9674 6.99195 36.8393
18773 2 46.1982 8.20384 37.618
18774 1 68.3564 11.0168 55.1114
18775 2 69.0039 10.2558 55.0703
18776 2 67.4686 10.6822 55.4275
18777 1 74.4598 15.7939 14.5445
18778 2 74.847 16.6649 14.8469
18779 2 74.794 15.0582 15.1335
18780 1 31.3025 28.3041 82.1261
18781 2 31.8631 28.9997 82.5753
18782 2 30.3517 28.4012 82.4202
18783 1 57.9018 19.5894 90.4885
18784 2 58.8046 20.0132 90.4148
18785 2 57.2196 20.1819 90.06
18786 1 56.0592 8.09727 40.9722
18787 2 55.9394 8.15557 41.9633
18788 2 56.7047 7.36444 40.757
18789 1 54.3317 4.65564 89.3189
18790 2 55.0741 5.30771 89.1648
18791 2 53.5238 5.14265 89.6506
18792 1 21.8454 12.8758 75.4691
18793 2 22.1877 12.9147 76.4079
18794 2 21.245 12.0827 75.3659
18795 1 1.14368 6.25227 60.3696
18796 2 0.601165 6.1963 59.5314
18797 2 0.563525 6.043 61.1567
18798 1 0.735139 8.31879 75.4001
18799 2 1.09693 9.08678 75.9286
18800 2 1.34692 7.53315 75.4923
18801 1 12.8435 16.4792 11.9222
18802 2 13.8366 16.374 11.8696
18803 2 12.4078 15.5846 11.8228
18804 1 42.1248 28.544 37.6612
18805 2 42.0215 29.2675 38.3437
18806 2 41.2218 28.2133 37.3868
18807 1 67.5895 4.10629 31.078
18808 2 67.3232 5.06294 31.1959
18809 2 68.4727 3.94926 31.5199
18810 1 62.6945 2.43062 11.4996
18811 2 63.0185 2.44764 10.5537
18812 2 61.7679 2.80436 11.5413
18813 1 57.7187 1.68119 13.7245
18814 2 57.5288 2.35202 14.4414
18815 2 57.8014 2.14844 12.8443
18816 1 62.0352 2.28128 39.9874
18817 2 62.6014 1.87663 40.7055
18818 2 61.0803 2.29504 40.284
18819 1 12.6837 19.9039 33.1
18820 2 13.35 20.5618 33.4509
18821 2 13.1646 19.1274 32.6927
18822 1 76.0167 28.0328 24.1059
18823 2 75.2554 27.6087 24.5964
18824 2 76.0175 29.0176 24.2791
18825 1 18.0777 13.5123 77.6399
18826 2 18.802 12.9129 77.2991
18827 2 18.4863 14.3032 78.0954
18828 1 71.4172 29.552 39.7649
18829 2 72.1064 29.8449 39.1022
18830 2 71.7248 29.7802 40.6887
18831 1 38.5608 4.36031 65.6948
18832 2 38.2211 3.70385 66.3684
18833 2 38.6611 3.90724 64.809
18834 1 10.2071 20.6522 63.2464
18835 2 9.79935 21.1279 62.467
18836 2 11.1287 21.0053 63.4074
18837 1 7.16086 4.95291 33.7426
18838 2 7.84051 5.54813 33.3139
18839 2 6.40886 5.50782 34.0984
18840 1 26.5112 26.3942 41.1375
18841 2 27.4504 26.0595 41.2133
18842 2 26.0802 25.9972 40.3271
18843 1 36.2763 20.0238 65.1952
18844 2 35.6229 19.2865 65.0233
18845 2 37.014 19.9792 64.5216
18846 1 44.4531 17.004 30.2672
18847 2 45.0753 17.6476 29.8215
18848 2 43.8472 17.5017 30.8879
18849 1 39.2718 23.9657 89.4084
18850 2 40.2487 23.7922 89.5332
18851 2 39.0122 24.7887 89.9136
18852 1 43.9092 8.27697 90.7409
18853 2 42.9792 8.41314 90.3997
18854 2 44.1476 7.30763 90.6811
18855 1 65.6755 27.6574 85.4737
18856 2 65.3648 28.6064 85.5272
18857 2 66.3532 27.5692 84.7437
18858 1 17.7301 23.1413 65.8952
18859 2 17.5636 24.1264 65.8525
18860 2 17.176 22.7409 66.625
18861 1 72.1814 8.76512 52.5918
18862 2 71.7715 7.95776 53.0163
18863 2 71.8085 9.59033 53.0161
18864 1 71.137 26.3083 16.1341
18865 2 71.7463 25.612 16.5136
18866 2 70.5845 26.7035 16.8679
18867 1 52.5737 20.6185 38.8441
18868 2 52.1817 21.0901 38.0542
18869 2 53.1446 21.2549 39.3628
18870 1 32.9531 9.69245 90.9752
18871 2 31.9827 9.47879 91.0878
18872 2 33.4947 8.86243 91.1082
18873 1 27.3512 5.98007 77.2461
18874 2 28.1673 6.13623 77.8026
18875 2 26.9778 6.85859 76.9481
18876 1 57.0882 9.56606 78.7804
18877 2 57.8639 9.04266 79.1331
18878 2 57.0032 10.4213 79.2917
18879 1 8.03588 21.8286 87.3809
18880 2 8.35271 20.8985 87.5664
18881 2 7.04267 21.8703 87.4896
18882 1 2.84531 14.2951 81.0029
18883 2 3.38646 13.4655 80.8657
18884 2 3.44848 15.0456 81.273
18885 1 66.7305 17.921 42.1477
18886 2 66.555 17.0192 42.5427
18887 2 66.4828 18.6286 42.8095
18888 1 74.9748 8.48303 80.6323
18889 2 75.4828 7.75782 81.097
18890 2 75.5419 8.87615 79.9086
18891 1 62.7934 14.3635 82.0045
18892 2 62.1572 14.3835 81.2333
18893 2 63.6756 14.0047 81.6996
18894 1 9.51181 6.23467 33.0323
18895 2 9.8477 5.51279 33.6373
18896 2 10.283 6.6529 32.5523
18897 1 47.257 29.1086 87.722
18898 2 48.1636 28.7292 87.5374
18899 2 47.2971 29.6865 88.5371
18900 1 71.1227 13.5242 19.2556
18901 2 71.0177 13.3596 20.2363
18902 2 72.0924 13.4894 19.0137
18903 1 15.0117 13.9795 47.3373
18904 2 14.5436 13.5258 48.0956
18905 2 15.5637 14.7349 47.6905
18906 1 68.0032 16.311 68.0809
18907 2 67.5278 15.4414 67.947
18908 2 67.5447 16.8343 68.7992
18909 1 24.1166 5.90426 90.7258
18910 2 25.0011 6.1279 90.3163
18911 2 24.2209 5.11899 91.3361
18912 1 74.1812 1.51035 15.7348
18913 2 74.02 1.68793 16.7056
18914 2 74.7623 2.23072 15.3561
18915 1 48.6902 15.4127 53.6062
18916 2 47.9987 16.0924 53.8507
18917 2 48.2419 14.5488 53.3767
18918 1 4.94027 19.4756 90.7594
18919 2 4.8926 20.44 90.4991
18920 2 4.03522 19.0604 90.6674
18921 1 76.8652 19.7575 68.3132
18922 2 76.0285 19.9822 67.8139
18923 2 76.7569 18.871 68.7632
18924 1 11.2751 4.84541 51.6625
18925 2 10.4893 5.46229 51.7071
18926 2 11.6654 4.86885 50.7421
18927 1 77.0039 27.9641 78.1346
18928 2 76.3516 28.3602 78.7808
18929 2 77.5822 27.3006 78.6092
18930 1 34.8947 19.7374 42.4286
18931 2 35.5182 19.4798 43.1668
18932 2 34.511 18.9126 42.0133
18933 1 26.2352 1.95467 62.3885
18934 2 25.9028 2.27352 61.5009
18935 2 25.4894 1.50806 62.8828
18936 1 73.45 5.2047 23.0505
18937 2 73.6294 4.52138 22.3428
18938 2 74.2576 5.302 23.6322
18939 1 74.1442 14.051 72.6834
18940 2 75.0039 13.9484 73.1837
18941 2 73.6233 13.1992 72.7374
18942 1 67.208 16.541 29.3005
18943 2 66.2944 16.8689 29.5413
18944 2 67.2803 16.4558 28.3068
18945 1 54.8491 5.25565 30.2432
18946 2 54.3409 4.39443 30.2519
18947 2 54.4287 5.89719 30.8849
18948 1 7.33794 21.0067 51.9774
18949 2 7.91651 20.3539 52.4663
18950 2 7.25477 21.846 52.5147
18951 1 67.6206 22.0921 74.8338
18952 2 68.5836 22.3126 74.6786
18953 2 67.2139 22.7797 75.4353
18954 1 22.932 9.87906 39.5039
18955 2 23.6348 9.2272 39.7888
18956 2 22.0427 9.42228 39.4826
18957 1 27.707 1.232 83.4176
18958 2 28.3311 1.19672 82.6371
18959 2 28.0339 1.91075 84.0753
18960 1 73.6793 4.00858 70.9205
18961 2 73.443 4.91738 71.2643
18962 2 74.6585 3.849 71.0458
18963 1 8.91261 19.4603 74.3602
18964 2 8.23527 19.0112 73.7775
18965 2 9.15224 18.8557 75.1198
18966 1 46.5188 19.6087 42.6585
18967 2 45.5511 19.5395 42.901
18968 2 46.6757 20.4566 42.1521
18969 1 75.5494 10.0352 53.9061
18970 2 75.4099 10.9274 54.3357
18971 2 75.5842 9.32736 54.6117
18972 1 74.4003 6.96753 19.1552
18973 2 74.3597 7.5369 19.9763
18974 2 74.5397 6.01285 19.4182
18975 1 58.3368 25.5566 75.8232
18976 2 58.3921 25.0168 76.6632
18977 2 59.2576 25.7122 75.4658
18978 1 15.1989 23.3037 36.0328
18979 2 15.3091 24.2949 35.9589
18980 2 15.9204 22.9307 36.6162
18981 1 59.2316 0.591346 72.4974
18982 2 59.9034 1.11154 73.0247
18983 2 59.4484 29.6166 72.5507
18984 1 77.0103 5.27354 35.4591
18985 2 77.1064 4.57193 36.1652
18986 2 76.0457 5.36962 35.2138
18987 1 69.8485 0.156672 44.5167
18988 2 70.7812 29.8819 44.2831
18989 2 69.8571 0.668591 45.3757
18990 1 72.1194 11.3347 74.7501
18991 2 73.0968 11.1333 74.8138
18992 2 71.8708 12.0044 75.45
18993 1 31.777 14.0746 51.857
18994 2 31.2984 13.7042 52.6531
18995 2 31.1123 14.4663 51.2209
18996 1 39.5506 29.5062 51.0613
18997 2 39.6842 28.6644 51.5843
18998 2 40.2724 0.159178 51.2905
18999 1 68.4062 25.9089 19.391
19000 2 68.7297 25.9428 20.3366
19001 2 67.7676 25.1468 19.2842
19002 1 73.02 22.5808 46.0333
19003 2 73.3852 22.315 46.9254
19004 2 72.0283 22.6916 46.0988
19005 1 52.1879 25.7596 43.6488
19006 2 52.9581 25.6658 43.018
19007 2 51.5145 25.0446 43.4613
19008 1 7.72214 18.1933 52.7012
19009 2 8.56201 18.4369 52.2162
19010 2 7.95152 17.8399 53.6081
19011 1 12.5957 21.5276 46.688
19012 2 13.2126 21.8631 45.9761
19013 2 12.5494 20.5296 46.6457
19014 1 45.3405 26.1888 51.2666
19015 2 44.6774 25.7955 51.9034
19016 2 45.5955 27.1053 51.5748
19017 1 6.41057 11.082 14.5051
19018 2 6.09932 11.0113 13.5574
19019 2 6.26933 10.2072 14.9685
19020 1 21.7631 25.0525 15.9241
19021 2 22.2717 25.9084 16.0182
19022 2 20.9931 25.0504 16.5621
19023 1 12.8495 28.8272 28.5908
19024 2 13.7105 29.089 28.1547
19025 2 12.1077 29.3924 28.2299
19026 1 5.24801 19.7611 32.2614
19027 2 4.65253 19.9299 33.0468
19028 2 5.00805 20.3882 31.5203
19029 1 78.2793 4.83736 17.2748
19030 2 78.318 5.60939 17.9092
19031 2 78.6437 5.11719 16.3866
19032 1 4.58506 19.5414 36.5815
19033 2 4.09074 18.7018 36.8067
19034 2 4.04564 20.0831 35.9369
19035 1 59.1971 28.5937 22.7274
19036 2 59.5961 28.705 23.6376
19037 2 58.2208 28.3951 22.8135
19038 1 14.1737 29.9196 54.8666
19039 2 14.5758 0.688632 54.3696
19040 2 14.6813 29.769 55.7149
19041 1 1.14585 21.6814 90.4404
19042 2 0.670198 21.234 91.1978
19043 2 0.483261 21.9426 89.7384
19044 1 73.8544 6.08225 72.9909
19045 2 73.6113 5.27374 73.5268
19046 2 73.9924 6.85974 73.6045
19047 1 68.4204 13.7215 46.4586
19048 2 69.0926 14.2439 46.9832
19049 2 67.586 13.6142 46.9993
19050 1 78.3358 13.6411 90.0667
19051 2 77.8407 12.812 90.3267
19052 2 77.7321 14.4328 90.1601
19053 1 14.5861 18.3073 48.7636
19054 2 14.7607 18.4247 49.7412
19055 2 15.2908 17.7186 48.3675
19056 1 61.4297 0.29119 55.3967
19057 2 62.1239 0.681623 54.792
19058 2 61.5209 0.689192 56.3095
19059 1 9.06655 6.75172 22.6591
19060 2 9.75341 6.52563 21.9684
19061 2 8.17183 6.41941 22.3607
19062 1 53.2293 14.3784 22.4152
19063 2 52.5959 14.8758 21.8225
19064 2 52.9278 14.4566 23.3654
19065 1 30.8692 25.6851 51.6547
19066 2 30.228 24.997 51.9947
19067 2 30.9849 25.5739 50.6676
19068 1 61.2075 28.4815 28.7033
19069 2 60.3671 28.2046 29.1692
19070 2 61.9979 28.1249 29.2013
19071 1 54.826 1.77274 40.6283
19072 2 54.7501 2.30801 41.4696
19073 2 54.7926 2.38583 39.839
19074 1 70.352 10.2714 66.551
19075 2 70.3755 9.38713 66.0847
19076 2 70.2538 10.1265 67.5356
19077 1 75.1134 13.6411 28.2824
19078 2 76.1062 13.525 28.3133
19079 2 74.7935 14.0088 29.1556
19080 1 47.4218 28.0464 61.1339
19081 2 46.5194 28.3437 61.4456
19082 2 47.4898 27.0516 61.2105
19083 1 0.214846 7.72759 82.0515
19084 2 79.4271 7.38459 82.5631
19085 2 0.642743 6.97347 81.5533
19086 1 26.029 16.5074 87.0341
19087 2 25.8867 17.4965 87.07
19088 2 26.1149 16.2174 86.0809
19089 1 15.1202 19.6384 74.1509
19090 2 15.0481 20.5258 74.6062
19091 2 14.2235 19.1959 74.1391
19092 1 74.7328 6.19239 29.6946
19093 2 73.9371 5.85008 30.1942
19094 2 75.4385 6.47452 30.3446
19095 1 20.1707 5.4184 54.701
19096 2 19.4501 4.88472 55.1438
19097 2 19.9368 5.56079 53.7392
19098 1 51.3927 0.877947 35.6303
19099 2 51.5489 0.585992 36.5739
19100 2 50.5807 1.46026 35.5917
19101 1 13.6264 23.9421 79.6718
19102 2 13.3187 23.1166 80.145
19103 2 12.8319 24.4652 79.3632
19104 1 46.4897 1.4825 63.0106
19105 2 45.5143 1.64715 63.1569
19106 2 47.0192 2.21558 63.4375
19107 1 53.7553 8.1332 31.6975
19108 2 52.8601 8.01178 31.2687
19109 2 53.8287 9.06295 32.0583
19110 1 12.9915 6.88292 13.9647
19111 2 13.7573 7.44384 13.6504
19112 2 12.6987 7.19496 14.8685
19113 1 7.53 13.3887 62.4983
19114 2 7.54976 14.2922 62.0701
19115 2 8.45798 13.0182 62.5377
19116 1 8.09252 9.49418 45.6923
19117 2 7.9679 10.0824 46.4913
19118 2 7.30023 9.5802 45.0882
19119 1 17.9068 13.7061 29.4684
19120 2 18.4213 13.934 28.6418
19121 2 18.4599 13.9177 30.2742
19122 1 33.9651 27.0709 43.3482
19123 2 33.9337 26.2574 43.929
19124 2 34.8694 27.1459 42.9281
19125 1 23.29 27.5599 45.1071
19126 2 24.0937 27.3588 44.5471
19127 2 23.2761 26.9518 45.9008
19128 1 10.8509 24.6171 53.7698
19129 2 10.3878 25.3124 54.3194
19130 2 10.408 23.7316 53.9104
19131 1 25.0302 2.93089 79.8694
19132 2 24.8366 2.1786 80.4992
19133 2 24.1918 3.44962 79.7021
19134 1 24.6293 15.1949 25.0318
19135 2 24.2141 15.3578 25.9268
19136 2 25.4357 15.7771 24.9276
19137 1 60.2119 15.326 67.1824
19138 2 59.7759 16.016 67.7601
19139 2 61.0942 15.0698 67.5773
19140 1 70.7329 14.0146 13.2558
19141 2 70.4629 14.2393 12.3196
19142 2 69.9942 14.2597 13.8837
19143 1 68.8012 6.02935 19.8013
19144 2 68.7071 6.58732 20.6258
19145 2 69.7292 6.12198 19.4403
19146 1 3.77795 22.5164 12.0235
19147 2 4.05558 23.1016 12.7853
19148 2 2.78424 22.555 11.9184
19149 1 72.0378 21.2214 22.822
19150 2 71.9847 20.7052 21.9672
19151 2 72.9275 21.0651 23.251
19152 1 72.7725 27.4948 90.7291
19153 2 73.3693 26.84 90.2654
19154 2 71.9025 27.5572 90.24
19155 1 47.8805 18.0436 54.2499
19156 2 47.241 18.156 53.4894
19157 2 48.0698 18.9355 54.6607
19158 1 34.3643 0.620268 45.7432
19159 2 34.8207 1.39141 46.1871
19160 2 34.2972 0.793389 44.7606
19161 1 48.506 6.26755 42.8145
19162 2 47.945 6.58913 42.0518
19163 2 48.3371 5.2935 42.9651
19164 1 4.0472 7.28826 27.9428
19165 2 4.90145 7.08459 28.4211
19166 2 3.66175 8.14025 28.2971
19167 1 60.698 4.77925 35.3727
19168 2 61.4037 4.59381 36.0566
19169 2 59.8097 4.8617 35.8244
19170 1 24.48 22.9964 58.8713
19171 2 23.9443 22.9611 59.715
19172 2 25.0859 23.7917 58.8942
19173 1 41.4436 13.6387 83.7089
19174 2 41.6534 12.7475 84.1112
19175 2 41.2073 14.2847 84.4347
19176 1 12.5089 25.5793 19.7608
19177 2 13.1183 26.1373 19.1975
19178 2 12.9795 25.319 20.6038
19179 1 47.097 27.0864 45.0478
19180 2 47.2042 26.5077 45.8562
19181 2 46.4028 26.6924 44.4455
19182 1 8.56319 16.6491 59.9886
19183 2 9.01705 17.227 60.6669
19184 2 7.78579 16.1848 60.4129
19185 1 48.3244 10.4884 38.8721
19186 2 47.6549 9.91102 39.3395
19187 2 48.8817 10.968 39.5498
19188 1 36.4456 15.8719 43.1445
19189 2 36.5847 14.8971 42.9704
19190 2 35.9542 16.2811 42.3757
19191 1 10.1395 2.98628 90.7052
19192 2 10.67 3.827 90.597
19193 2 9.36682 2.99576 90.0704
19194 1 16.535 3.16726 61.9641
19195 2 16.6709 3.63636 62.8368
19196 2 16.9132 2.24322 62.02
19197 1 44.4361 22.2519 59.6111
19198 2 45.0699 21.6281 59.1536
19199 2 44.9535 22.9152 60.1518
19200 1 16.8982 27.0079 89.1295
19201 2 17.8105 27.314 88.8575
19202 2 16.8479 26.0113 89.0648
19203 1 4.62427 28.6017 41.9697
19204 2 4.79516 27.9181 41.2601
19205 2 4.08914 29.3541 41.5856
19206 1 75.269 4.94575 54.739
19207 2 76.1988 4.6017 54.6083
19208 2 74.6254 4.36421 54.2414
19209 1 23.1472 20.539 45.7091
19210 2 23.5871 19.7069 45.3716
19211 2 23.0394 20.4801 46.7015
19212 1 47.024 20.4291 52.3781
19213 2 46.6839 21.2263 52.8769
19214 2 46.2539 19.9349 51.9748
19215 1 25.3555 2.88001 49.5327
19216 2 26.015 2.77391 50.2769
19217 2 25.1356 1.98198 49.1517
19218 1 42.9313 12.2282 70.9839
19219 2 42.8764 13.1554 70.6133
19220 2 43.5919 11.6961 70.4543
19221 1 7.53027 1.57747 46.4465
19222 2 8.34134 1.89436 46.9382
19223 2 7.04453 2.36318 46.0635
19224 1 19.0256 6.24984 63.774
19225 2 19.2127 5.52932 64.4418
19226 2 18.5885 7.02372 64.2324
19227 1 36.5283 9.4817 66.9395
19228 2 36.783 9.04114 67.8003
19229 2 35.5653 9.2973 66.7428
19230 1 58.2117 15.8736 71.3615
19231 2 57.2875 16.2513 71.3053
19232 2 58.5418 15.9386 72.3032
19233 1 23.2153 0.0847852 45.7537
19234 2 23.2058 29.0917 45.6371
19235 2 23.9493 0.478416 45.2004
19236 1 37.8784 19.6955 88.4552
19237 2 37.0501 19.1572 88.2999
19238 2 38.6044 19.0989 88.7973
19239 1 17.4677 24.9706 78.0312
19240 2 17.2504 25.6357 78.7456
19241 2 18.2143 25.321 77.4656
19242 1 54.679 27.9247 80.5958
19243 2 55.632 27.7209 80.82
19244 2 54.5514 27.8737 79.6053
19245 1 8.10922 9.88063 59.2054
19246 2 8.41952 10.1385 60.1204
19247 2 7.32691 9.2623 59.2806
19248 1 0.715034 10.4183 80.1401
19249 2 79.7152 10.4079 80.155
19250 2 1.0312 10.9142 79.3314
19251 1 15.7897 27.0556 86.2678
19252 2 14.9942 27.4209 86.7512
19253 2 16.1429 26.2603 86.7606
19254 1 17.0843 12.0323 33.2781
19255 2 17.1442 12.9418 33.6895
19256 2 17.7918 11.4428 33.6681
19257 1 34.8394 8.0331 37.5111
19258 2 34.3725 7.57803 38.2693
19259 2 35.7338 8.35879 37.8177
19260 1 3.18609 23.3264 75.7906
19261 2 3.9323 23.5628 75.1683
19262 2 2.91143 22.3773 75.6364
19263 1 65.3205 0.74885 77.8019
19264 2 66.2053 1.17539 77.6141
19265 2 65.4316 0.0467484 78.5052
19266 1 4.31636 28.1694 38.7749
19267 2 4.73702 28.848 38.1728
19268 2 3.4221 27.9094 38.4107
19269 1 45.6033 22.9972 73.243
19270 2 45.3307 23.8849 73.6142
19271 2 45.2562 22.9054 72.3097
19272 1 40.4245 17.2792 68.0826
19273 2 40.4062 17.1762 67.0881
19274 2 39.573 16.9257 68.47
19275 1 38.8306 11.7414 68.4659
19276 2 39.0911 11.0902 67.7532
19277 2 39.4797 12.5021 68.4758
19278 1 71.9111 13.1057 36.4186
19279 2 71.4525 13.7701 35.8284
19280 2 71.2268 12.586 36.9301
19281 1 56.0025 18.2814 50.212
19282 2 55.3877 19.0355 50.443
19283 2 55.5857 17.7181 49.4986
19284 1 57.1714 25.9313 70.8707
19285 2 57.3412 26.1819 69.9177
19286 2 56.199 25.7336 70.9952
19287 1 14.4895 5.20394 17.2883
19288 2 15.2571 4.92919 17.8674
19289 2 13.9108 5.84985 17.7863
19290 1 19.3513 14.1917 90.9137
19291 2 19.6653 13.5549 90.2095
19292 2 18.4937 13.8588 91.3057
19293 1 11.9896 17.372 37.9478
19294 2 12.401 16.653 37.3875
19295 2 12.7117 17.9061 38.3875
19296 1 75.1202 5.39172 81.3178
19297 2 76.0608 5.69127 81.4773
19298 2 75.1041 4.72718 80.5707
19299 1 26.516 24.9489 32.042
19300 2 26.3561 25.8718 31.6919
19301 2 27.4962 24.8115 32.1843
19302 1 72.349 25.1334 71.3578
19303 2 71.6204 25.8025 71.5045
19304 2 72.7057 24.83 72.2414
19305 1 13.1147 20.105 37.0544
19306 2 13.6228 19.6755 37.801
19307 2 13.1536 19.5195 36.2447
19308 1 9.55598 13.4686 85.7548
19309 2 10.2944 13.3996 86.4256
19310 2 9.84507 14.0577 85.0002
19311 1 43.0087 5.73138 73.426
19312 2 42.4766 6.05016 74.2105
19313 2 42.7625 6.26529 72.6171
19314 1 16.9174 16.5636 30.9395
19315 2 16.2982 17.1979 30.4766
19316 2 16.9509 15.7017 30.4336
19317 1 11.3738 2.17613 44.1954
19318 2 12.0895 2.87293 44.2423
19319 2 10.5685 2.49111 44.6978
19320 1 41.5539 10.7382 35.9462
19321 2 42.1201 11.5005 36.2597
19322 2 40.7195 10.6947 36.4956
19323 1 48.755 13.8239 48.5389
19324 2 48.0717 13.0981 48.6187
19325 2 48.5986 14.3375 47.6953
19326 1 44.796 22.8089 70.6195
19327 2 44.1097 23.471 70.9204
19328 2 45.0056 22.9616 69.6537
19329 1 51.4259 4.13268 43.7625
19330 2 50.9973 3.55535 43.0675
19331 2 51.3906 3.66996 44.6483
19332 1 16.1389 9.15048 73.3956
19333 2 16.2 8.15923 73.2786
19334 2 15.1775 9.42354 73.4288
19335 1 56.1021 26.127 30.528
19336 2 55.3806 25.8849 31.1767
19337 2 56.9161 26.4208 31.0292
19338 1 42.7157 20.6695 54.1622
19339 2 42.995 21.4699 54.6925
19340 2 42.4794 20.9515 53.2323
19341 1 17.7188 7.38836 21.5629
19342 2 17.5785 6.80556 22.3633
19343 2 16.8389 7.75232 21.2573
19344 1 23.85 8.30363 65.2432
19345 2 23.8048 8.19988 66.2368
19346 2 24.3699 7.54421 64.8521
19347 1 63.8799 8.82213 71.2627
19348 2 63.8304 8.99936 72.2456
19349 2 64.3669 7.96349 71.1029
19350 1 43.2125 23.5987 40.6983
19351 2 42.5823 24.1354 40.1372
19352 2 42.7716 23.3665 41.5653
19353 1 19.0178 1.83532 20.4497
19354 2 18.858 2.50927 19.7284
19355 2 19.9727 1.53944 20.4239
19356 1 10.2255 22.3179 14.276
19357 2 10.2309 23.2054 14.7367
19358 2 11.1665 22.0144 14.1261
19359 1 25.8612 13.5381 87.9726
19360 2 26.6394 14.1608 87.8917
19361 2 25.3891 13.4786 87.0931
19362 1 5.87382 4.34045 76.916
19363 2 6.58086 4.89855 76.4817
19364 2 6.18564 3.39198 76.9722
19365 1 49.9002 27.6133 36.968
19366 2 50.013 27.5697 37.9606
19367 2 50.3517 26.827 36.5463
19368 1 18.018 12.0148 64.1045
19369 2 18.0414 12.6635 64.8652
19370 2 17.0943 11.6429 64.0119
19371 1 14.8515 1.14203 20.7369
19372 2 14.967 0.233466 21.1384
19373 2 15.3991 1.80442 21.2482
19374 1 48.7198 18.9812 27.0973
19375 2 47.882 19.0164 26.5524
19376 2 48.5961 18.3443 27.8582
19377 1 67.6652 24.7993 52.5669
19378 2 67.3591 25.4486 53.2631
19379 2 68.6534 24.6681 52.6449
19380 1 5.03271 16.3301 55.5081
19381 2 4.77098 17.2854 55.3711
19382 2 4.238 15.7419 55.358
19383 1 73.35 23.1971 50.7441
19384 2 72.3845 23.3291 50.5194
19385 2 73.5498 23.6302 51.623
19386 1 49.4626 0.567133 32.0702
19387 2 49.8702 29.8206 32.5961
19388 2 48.8609 1.10261 32.6628
19389 1 24.5542 1.08966 25.8051
19390 2 25.404 1.50944 26.1241
19391 2 24.7438 0.167008 25.4693
19392 1 62.2184 5.4692 62.21
19393 2 61.7203 5.03044 61.462
19394 2 62.7478 6.2383 61.8519
19395 1 49.982 3.21599 54.7176
19396 2 50.1379 3.66409 53.8374
19397 2 50.3631 2.29176 54.6933
19398 1 42.7292 19.669 59.5128
19399 2 42.7032 18.8686 60.1116
19400 2 43.6795 19.893 59.2967
19401 1 76.6217 25.9373 57.5651
19402 2 76.4113 25.1102 58.0865
19403 2 77.3485 25.7406 56.9071
19404 1 46.1056 16.4224 75.4086
19405 2 47.0887 16.2438 75.448
19406 2 45.7161 15.9676 74.6076
19407 1 42.4792 22.4048 30.2478
19408 2 41.6033 21.9246 30.2931
19409 2 42.3192 23.3919 30.259
19410 1 47.7446 18.7894 85.2468
19411 2 47.8882 18.42 84.3286
19412 2 47.4155 18.0632 85.8504
19413 1 71.1011 9.17889 84.4493
19414 2 70.1546 9.48367 84.3439
19415 2 71.7119 9.96998 84.4146
19416 1 45.1369 11.1273 38.6795
19417 2 45.7022 11.9413 38.5464
19418 2 44.3083 11.2026 38.1247
19419 1 71.6958 7.03903 19.0006
19420 2 72.6941 7.04511 18.9422
19421 2 71.3683 7.9613 19.206
19422 1 77.7463 25.2678 34.2017
19423 2 78.5629 25.2025 34.7752
19424 2 77.8678 25.9994 33.5309
19425 1 56.0667 7.93 43.5745
19426 2 56.8953 8.0841 44.1127
19427 2 55.4163 7.39188 44.1106
19428 1 23.6076 28.553 87.4098
19429 2 24.516 28.6056 87.8244
19430 2 22.9964 29.2022 87.8627
19431 1 22.1417 17.6728 48.8363
19432 2 22.8144 17.1255 48.3383
19433 2 21.2231 17.4487 48.5109
19434 1 7.90102 22.2966 36.3893
19435 2 8.727 22.6603 36.82
19436 2 7.15253 22.9507 36.4986
19437 1 75.9119 14.3652 69.5039
19438 2 75.9304 13.8581 68.6422
19439 2 76.8079 14.3072 69.9441
19440 1 49.0589 17.3074 77.0836
19441 2 48.1242 17.127 77.3897
19442 2 49.3328 18.225 77.3719
19443 1 15.8219 25.753 45.1828
19444 2 15.8112 24.8846 44.6871
19445 2 15.6241 25.5877 46.149
19446 1 34.474 27.3819 89.9737
19447 2 35.3224 27.911 89.9847
19448 2 34.3803 26.9205 89.0915
19449 1 6.49253 11.0235 77.5544
19450 2 7.33202 11.0796 78.0949
19451 2 6.20644 10.0681 77.4813
19452 1 69.9352 10.9216 63.8168
19453 2 70.7309 11.2536 63.3102
19454 2 70.1786 10.0862 64.3096
19455 1 75.4082 4.38048 15.6952
19456 2 75.2759 3.96623 16.5957
19457 2 74.5257 4.68147 15.3338
19458 1 65.2567 8.42076 46.9135
19459 2 64.7194 8.83396 47.6487
19460 2 66.205 8.73129 46.9787
19461 1 78.3359 29.8749 38.5563
19462 2 79.0874 29.6947 39.1909
19463 2 77.4926 0.024796 39.0723
19464 1 24.6283 8.37712 90.5688
19465 2 24.2444 8.55827 89.6633
19466 2 24.2017 7.55879 90.954
19467 1 4.89709 28.8244 15.7622
19468 2 5.51013 29.0569 15.0071
19469 2 5.24909 29.219 16.6109
19470 1 0.299492 4.15572 77.8646
19471 2 0.920222 4.29678 77.0934
19472 2 0.823314 4.14463 78.7164
19473 1 71.9924 2.28086 64.4235
19474 2 72.5745 3.03362 64.1162
19475 2 72.5064 1.42405 64.3831
19476 1 12.9373 7.37764 90.0805
19477 2 12.034 6.95896 89.9871
19478 2 13.6097 6.67269 90.3062
19479 1 10.396 23.5251 69.3832
19480 2 10.1575 23.1534 70.2804
19481 2 9.75698 23.1766 68.6975
19482 1 58.6292 23.3725 26.6989
19483 2 58.6093 24.1455 26.0648
19484 2 57.8908 23.4696 27.3662
19485 1 59.5487 8.39973 42.0867
19486 2 59.8231 9.32479 41.824
19487 2 59.5069 7.82065 41.2725
