ITEM: TIMESTEP
0
ITEM: NUMBER OF ATOMS
19487
ITEM: BOX BOUNDS pp pp ff
0.0000000000000000e+00 8.0000000000000000e+01
0.0000000000000000e+00 3.0000000000000000e+01
0.0000000000000000e+00 1.1647665900000000e+02
ITEM: ATOMS id type x y z
1 5 0 0 0
2 5 1.24592 2.158 0
3 5 0 4.316 0
4 5 1.24592 6.474 0
5 5 0 8.632 0
6 5 1.24592 10.79 0
7 5 0 12.948 0
8 5 1.24592 15.106 0
9 5 0 17.264 0
10 5 1.24592 19.422 0
11 5 0 21.58 0
12 5 1.24592 23.738 0
13 5 2.49184 0 0
14 5 3.73777 2.158 0
15 5 2.49184 4.316 0
16 5 3.73777 6.474 0
17 5 2.49184 8.632 0
18 5 3.73777 10.79 0
19 5 2.49184 12.948 0
20 5 3.73777 15.106 0
21 5 2.49184 17.264 0
22 5 3.73777 19.422 0
23 5 2.49184 21.58 0
24 5 3.73777 23.738 0
25 5 4.98369 0 0
26 5 6.22961 2.158 0
27 5 4.98369 4.316 0
28 5 6.22961 6.474 0
29 5 4.98369 8.632 0
30 5 6.22961 10.79 0
31 5 4.98369 12.948 0
32 5 6.22961 15.106 0
33 5 4.98369 17.264 0
34 5 6.22961 19.422 0
35 5 4.98369 21.58 0
36 5 6.22961 23.738 0
37 5 7.47553 0 0
38 5 8.72146 2.158 0
39 5 7.47553 4.316 0
40 5 8.72146 6.474 0
41 5 7.47553 8.632 0
42 5 8.72146 10.79 0
43 5 7.47553 12.948 0
44 5 8.72146 15.106 0
45 5 7.47553 17.264 0
46 5 8.72146 19.422 0
47 5 7.47553 21.58 0
48 5 8.72146 23.738 0
49 5 9.96738 0 0
50 5 11.2133 2.158 0
51 5 9.96738 4.316 0
52 5 11.2133 6.474 0
53 5 9.96738 8.632 0
54 5 11.2133 10.79 0
55 5 9.96738 12.948 0
56 5 11.2133 15.106 0
57 5 9.96738 17.264 0
58 5 11.2133 19.422 0
59 5 9.96738 21.58 0
60 5 11.2133 23.738 0
61 5 12.4592 0 0
62 5 13.7051 2.158 0
63 5 12.4592 4.316 0
64 5 13.7051 6.474 0
65 5 12.4592 8.632 0
66 5 13.7051 10.79 0
67 5 12.4592 12.948 0
68 5 13.7051 15.106 0
69 5 12.4592 17.264 0
70 5 13.7051 19.422 0
71 5 12.4592 21.58 0
72 5 13.7051 23.738 0
73 5 14.9511 0 0
74 5 16.197 2.158 0
75 5 14.9511 4.316 0
76 5 16.197 6.474 0
77 5 14.9511 8.632 0
78 5 16.197 10.79 0
79 5 14.9511 12.948 0
80 5 16.197 15.106 0
81 5 14.9511 17.264 0
82 5 16.197 19.422 0
83 5 14.9511 21.58 0
84 5 16.197 23.738 0
85 5 17.4429 0 0
86 5 18.6888 2.158 0
87 5 17.4429 4.316 0
88 5 18.6888 6.474 0
89 5 17.4429 8.632 0
90 5 18.6888 10.79 0
91 5 17.4429 12.948 0
92 5 18.6888 15.106 0
93 5 17.4429 17.264 0
94 5 18.6888 19.422 0
95 5 17.4429 21.58 0
96 5 18.6888 23.738 0
97 5 19.9348 0 0
98 5 21.1807 2.158 0
99 5 19.9348 4.316 0
100 5 21.1807 6.474 0
101 5 19.9348 8.632 0
102 5 21.1807 10.79 0
103 5 19.9348 12.948 0
104 5 21.1807 15.106 0
105 5 19.9348 17.264 0
106 5 21.1807 19.422 0
107 5 19.9348 21.58 0
108 5 21.1807 23.738 0
109 5 22.4266 0 0
110 5 23.6725 2.158 0
111 5 22.4266 4.316 0
112 5 23.6725 6.474 0
113 5 22.4266 8.632 0
114 5 23.6725 10.79 0
115 5 22.4266 12.948 0
116 5 23.6725 15.106 0
117 5 22.4266 17.264 0
118 5 23.6725 19.422 0
119 5 22.4266 21.58 0
120 5 23.6725 23.738 0
121 5 24.9184 0 0
122 5 26.1644 2.158 0
123 5 24.9184 4.316 0
124 5 26.1644 6.474 0
125 5 24.9184 8.632 0
126 5 26.1644 10.79 0
127 5 24.9184 12.948 0
128 5 26.1644 15.106 0
129 5 24.9184 17.264 0
130 5 26.1644 19.422 0
131 5 24.9184 21.58 0
132 5 26.1644 23.738 0
133 5 27.4103 0 0
134 5 28.6562 2.158 0
135 5 27.4103 4.316 0
136 5 28.6562 6.474 0
137 5 27.4103 8.632 0
138 5 28.6562 10.79 0
139 5 27.4103 12.948 0
140 5 28.6562 15.106 0
141 5 27.4103 17.264 0
142 5 28.6562 19.422 0
143 5 27.4103 21.58 0
144 5 28.6562 23.738 0
145 5 29.9021 0 0
146 5 31.1481 2.158 0
147 5 29.9021 4.316 0
148 5 31.1481 6.474 0
149 5 29.9021 8.632 0
150 5 31.1481 10.79 0
151 5 29.9021 12.948 0
152 5 31.1481 15.106 0
153 5 29.9021 17.264 0
154 5 31.1481 19.422 0
155 5 29.9021 21.58 0
156 5 31.1481 23.738 0
157 5 32.394 0 0
158 5 33.6399 2.158 0
159 5 32.394 4.316 0
160 5 33.6399 6.474 0
161 5 32.394 8.632 0
162 5 33.6399 10.79 0
163 5 32.394 12.948 0
164 5 33.6399 15.106 0
165 5 32.394 17.264 0
166 5 33.6399 19.422 0
167 5 32.394 21.58 0
168 5 33.6399 23.738 0
169 5 34.8858 0 0
170 5 36.1317 2.158 0
171 5 34.8858 4.316 0
172 5 36.1317 6.474 0
173 5 34.8858 8.632 0
174 5 36.1317 10.79 0
175 5 34.8858 12.948 0
176 5 36.1317 15.106 0
177 5 34.8858 17.264 0
178 5 36.1317 19.422 0
179 5 34.8858 21.58 0
180 5 36.1317 23.738 0
181 5 37.3777 0 0
182 5 38.6236 2.158 0
183 5 37.3777 4.316 0
184 5 38.6236 6.474 0
185 5 37.3777 8.632 0
186 5 38.6236 10.79 0
187 5 37.3777 12.948 0
188 5 38.6236 15.106 0
189 5 37.3777 17.264 0
190 5 38.6236 19.422 0
191 5 37.3777 21.58 0
192 5 38.6236 23.738 0
193 5 39.8695 0 0
194 5 41.1154 2.158 0
195 5 39.8695 4.316 0
196 5 41.1154 6.474 0
197 5 39.8695 8.632 0
198 5 41.1154 10.79 0
199 5 39.8695 12.948 0
200 5 41.1154 15.106 0
201 5 39.8695 17.264 0
202 5 41.1154 19.422 0
203 5 39.8695 21.58 0
204 5 41.1154 23.738 0
205 5 42.3614 0 0
206 5 43.6073 2.158 0
207 5 42.3614 4.316 0
208 5 43.6073 6.474 0
209 5 42.3614 8.632 0
210 5 43.6073 10.79 0
211 5 42.3614 12.948 0
212 5 43.6073 15.106 0
213 5 42.3614 17.264 0
214 5 43.6073 19.422 0
215 5 42.3614 21.58 0
216 5 43.6073 23.738 0
217 5 44.8532 0 0
218 5 46.0991 2.158 0
219 5 44.8532 4.316 0
220 5 46.0991 6.474 0
221 5 44.8532 8.632 0
222 5 46.0991 10.79 0
223 5 44.8532 12.948 0
224 5 46.0991 15.106 0
225 5 44.8532 17.264 0
226 5 46.0991 19.422 0
227 5 44.8532 21.58 0
228 5 46.0991 23.738 0
229 5 47.345 0 0
230 5 48.591 2.158 0
231 5 47.345 4.316 0
232 5 48.591 6.474 0
233 5 47.345 8.632 0
234 5 48.591 10.79 0
235 5 47.345 12.948 0
236 5 48.591 15.106 0
237 5 47.345 17.264 0
238 5 48.591 19.422 0
239 5 47.345 21.58 0
240 5 48.591 23.738 0
241 5 49.8369 0 0
242 5 51.0828 2.158 0
243 5 49.8369 4.316 0
244 5 51.0828 6.474 0
245 5 49.8369 8.632 0
246 5 51.0828 10.79 0
247 5 49.8369 12.948 0
248 5 51.0828 15.106 0
249 5 49.8369 17.264 0
250 5 51.0828 19.422 0
251 5 49.8369 21.58 0
252 5 51.0828 23.738 0
253 5 52.3287 0 0
254 5 53.5746 2.158 0
255 5 52.3287 4.316 0
256 5 53.5746 6.474 0
257 5 52.3287 8.632 0
258 5 53.5746 10.79 0
259 5 52.3287 12.948 0
260 5 53.5746 15.106 0
261 5 52.3287 17.264 0
262 5 53.5746 19.422 0
263 5 52.3287 21.58 0
264 5 53.5746 23.738 0
265 5 54.8206 0 0
266 5 56.0665 2.158 0
267 5 54.8206 4.316 0
268 5 56.0665 6.474 0
269 5 54.8206 8.632 0
270 5 56.0665 10.79 0
271 5 54.8206 12.948 0
272 5 56.0665 15.106 0
273 5 54.8206 17.264 0
274 5 56.0665 19.422 0
275 5 54.8206 21.58 0
276 5 56.0665 23.738 0
277 5 57.3124 0 0
278 5 58.5583 2.158 0
279 5 57.3124 4.316 0
280 5 58.5583 6.474 0
281 5 57.3124 8.632 0
282 5 58.5583 10.79 0
283 5 57.3124 12.948 0
284 5 58.5583 15.106 0
285 5 57.3124 17.264 0
286 5 58.5583 19.422 0
287 5 57.3124 21.58 0
288 5 58.5583 23.738 0
289 5 59.8043 0 0
290 5 61.0502 2.158 0
291 5 59.8043 4.316 0
292 5 61.0502 6.474 0
293 5 59.8043 8.632 0
294 5 61.0502 10.79 0
295 5 59.8043 12.948 0
296 5 61.0502 15.106 0
297 5 59.8043 17.264 0
298 5 61.0502 19.422 0
299 5 59.8043 21.58 0
300 5 61.0502 23.738 0
301 5 62.2961 0 0
302 5 63.542 2.158 0
303 5 62.2961 4.316 0
304 5 63.542 6.474 0
305 5 62.2961 8.632 0
306 5 63.542 10.79 0
307 5 62.2961 12.948 0
308 5 63.542 15.106 0
309 5 62.2961 17.264 0
310 5 63.542 19.422 0
311 5 62.2961 21.58 0
312 5 63.542 23.738 0
313 5 64.7879 0 0
314 5 66.0339 2.158 0
315 5 64.7879 4.316 0
316 5 66.0339 6.474 0
317 5 64.7879 8.632 0
318 5 66.0339 10.79 0
319 5 64.7879 12.948 0
320 5 66.0339 15.106 0
321 5 64.7879 17.264 0
322 5 66.0339 19.422 0
323 5 64.7879 21.58 0
324 5 66.0339 23.738 0
325 5 67.2798 0 0
326 5 68.5257 2.158 0
327 5 67.2798 4.316 0
328 5 68.5257 6.474 0
329 5 67.2798 8.632 0
330 5 68.5257 10.79 0
331 5 67.2798 12.948 0
332 5 68.5257 15.106 0
333 5 67.2798 17.264 0
334 5 68.5257 19.422 0
335 5 67.2798 21.58 0
336 5 68.5257 23.738 0
337 5 69.7716 0 0
338 5 71.0176 2.158 0
339 5 69.7716 4.316 0
340 5 71.0176 6.474 0
341 5 69.7716 8.632 0
342 5 71.0176 10.79 0
343 5 69.7716 12.948 0
344 5 71.0176 15.106 0
345 5 69.7716 17.264 0
346 5 71.0176 19.422 0
347 5 69.7716 21.58 0
348 5 71.0176 23.738 0
349 5 72.2635 0 0
350 5 73.5094 2.158 0
351 5 72.2635 4.316 0
352 5 73.5094 6.474 0
353 5 72.2635 8.632 0
354 5 73.5094 10.79 0
355 5 72.2635 12.948 0
356 5 73.5094 15.106 0
357 5 72.2635 17.264 0
358 5 73.5094 19.422 0
359 5 72.2635 21.58 0
360 5 73.5094 23.738 0
361 5 74.7553 0 0
362 5 76.0012 2.158 0
363 5 74.7553 4.316 0
364 5 76.0012 6.474 0
365 5 74.7553 8.632 0
366 5 76.0012 10.79 0
367 5 74.7553 12.948 0
368 5 76.0012 15.106 0
369 5 74.7553 17.264 0
370 5 76.0012 19.422 0
371 5 74.7553 21.58 0
372 5 76.0012 23.738 0
373 5 77.2472 0 0
374 5 78.4931 2.158 0
375 5 77.2472 4.316 0
376 5 78.4931 6.474 0
377 5 77.2472 8.632 0
378 5 78.4931 10.79 0
379 5 77.2472 12.948 0
380 5 78.4931 15.106 0
381 5 77.2472 17.264 0
382 5 78.4931 19.422 0
383 5 77.2472 21.58 0
384 5 78.4931 23.738 0
385 5 0.83061 1.43867 2.03458
386 5 2.07654 3.59667 2.03458
387 5 0.83061 5.75467 2.03458
388 5 2.07654 7.91267 2.03458
389 5 0.83061 10.0707 2.03458
390 5 2.07654 12.2287 2.03458
391 5 0.83061 14.3867 2.03458
392 5 2.07654 16.5447 2.03458
393 5 0.83061 18.7027 2.03458
394 5 2.07654 20.8607 2.03458
395 5 0.83061 23.0187 2.03458
396 5 2.07654 25.1767 2.03458
397 5 3.32246 1.43867 2.03458
398 5 4.56838 3.59667 2.03458
399 5 3.32246 5.75467 2.03458
400 5 4.56838 7.91267 2.03458
401 5 3.32246 10.0707 2.03458
402 5 4.56838 12.2287 2.03458
403 5 3.32246 14.3867 2.03458
404 5 4.56838 16.5447 2.03458
405 5 3.32246 18.7027 2.03458
406 5 4.56838 20.8607 2.03458
407 5 3.32246 23.0187 2.03458
408 5 4.56838 25.1767 2.03458
409 5 5.8143 1.43867 2.03458
410 5 7.06023 3.59667 2.03458
411 5 5.8143 5.75467 2.03458
412 5 7.06023 7.91267 2.03458
413 5 5.8143 10.0707 2.03458
414 5 7.06023 12.2287 2.03458
415 5 5.8143 14.3867 2.03458
416 5 7.06023 16.5447 2.03458
417 5 5.8143 18.7027 2.03458
418 5 7.06023 20.8607 2.03458
419 5 5.8143 23.0187 2.03458
420 5 7.06023 25.1767 2.03458
421 5 8.30615 1.43867 2.03458
422 5 9.55207 3.59667 2.03458
423 5 8.30615 5.75467 2.03458
424 5 9.55207 7.91267 2.03458
425 5 8.30615 10.0707 2.03458
426 5 9.55207 12.2287 2.03458
427 5 8.30615 14.3867 2.03458
428 5 9.55207 16.5447 2.03458
429 5 8.30615 18.7027 2.03458
430 5 9.55207 20.8607 2.03458
431 5 8.30615 23.0187 2.03458
432 5 9.55207 25.1767 2.03458
433 5 10.798 1.43867 2.03458
434 5 12.0439 3.59667 2.03458
435 5 10.798 5.75467 2.03458
436 5 12.0439 7.91267 2.03458
437 5 10.798 10.0707 2.03458
438 5 12.0439 12.2287 2.03458
439 5 10.798 14.3867 2.03458
440 5 12.0439 16.5447 2.03458
441 5 10.798 18.7027 2.03458
442 5 12.0439 20.8607 2.03458
443 5 10.798 23.0187 2.03458
444 5 12.0439 25.1767 2.03458
445 5 13.2898 1.43867 2.03458
446 5 14.5358 3.59667 2.03458
447 5 13.2898 5.75467 2.03458
448 5 14.5358 7.91267 2.03458
449 5 13.2898 10.0707 2.03458
450 5 14.5358 12.2287 2.03458
451 5 13.2898 14.3867 2.03458
452 5 14.5358 16.5447 2.03458
453 5 13.2898 18.7027 2.03458
454 5 14.5358 20.8607 2.03458
455 5 13.2898 23.0187 2.03458
456 5 14.5358 25.1767 2.03458
457 5 15.7817 1.43867 2.03458
458 5 17.0276 3.59667 2.03458
459 5 15.7817 5.75467 2.03458
460 5 17.0276 7.91267 2.03458
461 5 15.7817 10.0707 2.03458
462 5 17.0276 12.2287 2.03458
463 5 15.7817 14.3867 2.03458
464 5 17.0276 16.5447 2.03458
465 5 15.7817 18.7027 2.03458
466 5 17.0276 20.8607 2.03458
467 5 15.7817 23.0187 2.03458
468 5 17.0276 25.1767 2.03458
469 5 18.2735 1.43867 2.03458
470 5 19.5194 3.59667 2.03458
471 5 18.2735 5.75467 2.03458
472 5 19.5194 7.91267 2.03458
473 5 18.2735 10.0707 2.03458
474 5 19.5194 12.2287 2.03458
475 5 18.2735 14.3867 2.03458
476 5 19.5194 16.5447 2.03458
477 5 18.2735 18.7027 2.03458
478 5 19.5194 20.8607 2.03458
479 5 18.2735 23.0187 2.03458
480 5 19.5194 25.1767 2.03458
481 5 20.7654 1.43867 2.03458
482 5 22.0113 3.59667 2.03458
483 5 20.7654 5.75467 2.03458
484 5 22.0113 7.91267 2.03458
485 5 20.7654 10.0707 2.03458
486 5 22.0113 12.2287 2.03458
487 5 20.7654 14.3867 2.03458
488 5 22.0113 16.5447 2.03458
489 5 20.7654 18.7027 2.03458
490 5 22.0113 20.8607 2.03458
491 5 20.7654 23.0187 2.03458
492 5 22.0113 25.1767 2.03458
493 5 23.2572 1.43867 2.03458
494 5 24.5031 3.59667 2.03458
495 5 23.2572 5.75467 2.03458
496 5 24.5031 7.91267 2.03458
497 5 23.2572 10.0707 2.03458
498 5 24.5031 12.2287 2.03458
499 5 23.2572 14.3867 2.03458
500 5 24.5031 16.5447 2.03458
501 5 23.2572 18.7027 2.03458
502 5 24.5031 20.8607 2.03458
503 5 23.2572 23.0187 2.03458
504 5 24.5031 25.1767 2.03458
505 5 25.7491 1.43867 2.03458
506 5 26.995 3.59667 2.03458
507 5 25.7491 5.75467 2.03458
508 5 26.995 7.91267 2.03458
509 5 25.7491 10.0707 2.03458
510 5 26.995 12.2287 2.03458
511 5 25.7491 14.3867 2.03458
512 5 26.995 16.5447 2.03458
513 5 25.7491 18.7027 2.03458
514 5 26.995 20.8607 2.03458
515 5 25.7491 23.0187 2.03458
516 5 26.995 25.1767 2.03458
517 5 28.2409 1.43867 2.03458
518 5 29.4868 3.59667 2.03458
519 5 28.2409 5.75467 2.03458
520 5 29.4868 7.91267 2.03458
521 5 28.2409 10.0707 2.03458
522 5 29.4868 12.2287 2.03458
523 5 28.2409 14.3867 2.03458
524 5 29.4868 16.5447 2.03458
525 5 28.2409 18.7027 2.03458
526 5 29.4868 20.8607 2.03458
527 5 28.2409 23.0187 2.03458
528 5 29.4868 25.1767 2.03458
529 5 30.7327 1.43867 2.03458
530 5 31.9787 3.59667 2.03458
531 5 30.7327 5.75467 2.03458
532 5 31.9787 7.91267 2.03458
533 5 30.7327 10.0707 2.03458
534 5 31.9787 12.2287 2.03458
535 5 30.7327 14.3867 2.03458
536 5 31.9787 16.5447 2.03458
537 5 30.7327 18.7027 2.03458
538 5 31.9787 20.8607 2.03458
539 5 30.7327 23.0187 2.03458
540 5 31.9787 25.1767 2.03458
541 5 33.2246 1.43867 2.03458
542 5 34.4705 3.59667 2.03458
543 5 33.2246 5.75467 2.03458
544 5 34.4705 7.91267 2.03458
545 5 33.2246 10.0707 2.03458
546 5 34.4705 12.2287 2.03458
547 5 33.2246 14.3867 2.03458
548 5 34.4705 16.5447 2.03458
549 5 33.2246 18.7027 2.03458
550 5 34.4705 20.8607 2.03458
551 5 33.2246 23.0187 2.03458
552 5 34.4705 25.1767 2.03458
553 5 35.7164 1.43867 2.03458
554 5 36.9624 3.59667 2.03458
555 5 35.7164 5.75467 2.03458
556 5 36.9624 7.91267 2.03458
557 5 35.7164 10.0707 2.03458
558 5 36.9624 12.2287 2.03458
559 5 35.7164 14.3867 2.03458
560 5 36.9624 16.5447 2.03458
561 5 35.7164 18.7027 2.03458
562 5 36.9624 20.8607 2.03458
563 5 35.7164 23.0187 2.03458
564 5 36.9624 25.1767 2.03458
565 5 38.2083 1.43867 2.03458
566 5 39.4542 3.59667 2.03458
567 5 38.2083 5.75467 2.03458
568 5 39.4542 7.91267 2.03458
569 5 38.2083 10.0707 2.03458
570 5 39.4542 12.2287 2.03458
571 5 38.2083 14.3867 2.03458
572 5 39.4542 16.5447 2.03458
573 5 38.2083 18.7027 2.03458
574 5 39.4542 20.8607 2.03458
575 5 38.2083 23.0187 2.03458
576 5 39.4542 25.1767 2.03458
577 5 40.7001 1.43867 2.03458
578 5 41.946 3.59667 2.03458
579 5 40.7001 5.75467 2.03458
580 5 41.946 7.91267 2.03458
581 5 40.7001 10.0707 2.03458
582 5 41.946 12.2287 2.03458
583 5 40.7001 14.3867 2.03458
584 5 41.946 16.5447 2.03458
585 5 40.7001 18.7027 2.03458
586 5 41.946 20.8607 2.03458
587 5 40.7001 23.0187 2.03458
588 5 41.946 25.1767 2.03458
589 5 43.192 1.43867 2.03458
590 5 44.4379 3.59667 2.03458
591 5 43.192 5.75467 2.03458
592 5 44.4379 7.91267 2.03458
593 5 43.192 10.0707 2.03458
594 5 44.4379 12.2287 2.03458
595 5 43.192 14.3867 2.03458
596 5 44.4379 16.5447 2.03458
597 5 43.192 18.7027 2.03458
598 5 44.4379 20.8607 2.03458
599 5 43.192 23.0187 2.03458
600 5 44.4379 25.1767 2.03458
601 5 45.6838 1.43867 2.03458
602 5 46.9297 3.59667 2.03458
603 5 45.6838 5.75467 2.03458
604 5 46.9297 7.91267 2.03458
605 5 45.6838 10.0707 2.03458
606 5 46.9297 12.2287 2.03458
607 5 45.6838 14.3867 2.03458
608 5 46.9297 16.5447 2.03458
609 5 45.6838 18.7027 2.03458
610 5 46.9297 20.8607 2.03458
611 5 45.6838 23.0187 2.03458
612 5 46.9297 25.1767 2.03458
613 5 48.1757 1.43867 2.03458
614 5 49.4216 3.59667 2.03458
615 5 48.1757 5.75467 2.03458
616 5 49.4216 7.91267 2.03458
617 5 48.1757 10.0707 2.03458
618 5 49.4216 12.2287 2.03458
619 5 48.1757 14.3867 2.03458
620 5 49.4216 16.5447 2.03458
621 5 48.1757 18.7027 2.03458
622 5 49.4216 20.8607 2.03458
623 5 48.1757 23.0187 2.03458
624 5 49.4216 25.1767 2.03458
625 5 50.6675 1.43867 2.03458
626 5 51.9134 3.59667 2.03458
627 5 50.6675 5.75467 2.03458
628 5 51.9134 7.91267 2.03458
629 5 50.6675 10.0707 2.03458
630 5 51.9134 12.2287 2.03458
631 5 50.6675 14.3867 2.03458
632 5 51.9134 16.5447 2.03458
633 5 50.6675 18.7027 2.03458
634 5 51.9134 20.8607 2.03458
635 5 50.6675 23.0187 2.03458
636 5 51.9134 25.1767 2.03458
637 5 53.1594 1.43867 2.03458
638 5 54.4053 3.59667 2.03458
639 5 53.1594 5.75467 2.03458
640 5 54.4053 7.91267 2.03458
641 5 53.1594 10.0707 2.03458
642 5 54.4053 12.2287 2.03458
643 5 53.1594 14.3867 2.03458
644 5 54.4053 16.5447 2.03458
645 5 53.1594 18.7027 2.03458
646 5 54.4053 20.8607 2.03458
647 5 53.1594 23.0187 2.03458
648 5 54.4053 25.1767 2.03458
649 5 55.6512 1.43867 2.03458
650 5 56.8971 3.59667 2.03458
651 5 55.6512 5.75467 2.03458
652 5 56.8971 7.91267 2.03458
653 5 55.6512 10.0707 2.03458
654 5 56.8971 12.2287 2.03458
655 5 55.6512 14.3867 2.03458
656 5 56.8971 16.5447 2.03458
657 5 55.6512 18.7027 2.03458
658 5 56.8971 20.8607 2.03458
659 5 55.6512 23.0187 2.03458
660 5 56.8971 25.1767 2.03458
661 5 58.143 1.43867 2.03458
662 5 59.389 3.59667 2.03458
663 5 58.143 5.75467 2.03458
664 5 59.389 7.91267 2.03458
665 5 58.143 10.0707 2.03458
666 5 59.389 12.2287 2.03458
667 5 58.143 14.3867 2.03458
668 5 59.389 16.5447 2.03458
669 5 58.143 18.7027 2.03458
670 5 59.389 20.8607 2.03458
671 5 58.143 23.0187 2.03458
672 5 59.389 25.1767 2.03458
673 5 60.6349 1.43867 2.03458
674 5 61.8808 3.59667 2.03458
675 5 60.6349 5.75467 2.03458
676 5 61.8808 7.91267 2.03458
677 5 60.6349 10.0707 2.03458
678 5 61.8808 12.2287 2.03458
679 5 60.6349 14.3867 2.03458
680 5 61.8808 16.5447 2.03458
681 5 60.6349 18.7027 2.03458
682 5 61.8808 20.8607 2.03458
683 5 60.6349 23.0187 2.03458
684 5 61.8808 25.1767 2.03458
685 5 63.1267 1.43867 2.03458
686 5 64.3726 3.59667 2.03458
687 5 63.1267 5.75467 2.03458
688 5 64.3726 7.91267 2.03458
689 5 63.1267 10.0707 2.03458
690 5 64.3726 12.2287 2.03458
691 5 63.1267 14.3867 2.03458
692 5 64.3726 16.5447 2.03458
693 5 63.1267 18.7027 2.03458
694 5 64.3726 20.8607 2.03458
695 5 63.1267 23.0187 2.03458
696 5 64.3726 25.1767 2.03458
697 5 65.6186 1.43867 2.03458
698 5 66.8645 3.59667 2.03458
699 5 65.6186 5.75467 2.03458
700 5 66.8645 7.91267 2.03458
701 5 65.6186 10.0707 2.03458
702 5 66.8645 12.2287 2.03458
703 5 65.6186 14.3867 2.03458
704 5 66.8645 16.5447 2.03458
705 5 65.6186 18.7027 2.03458
706 5 66.8645 20.8607 2.03458
707 5 65.6186 23.0187 2.03458
708 5 66.8645 25.1767 2.03458
709 5 68.1104 1.43867 2.03458
710 5 69.3563 3.59667 2.03458
711 5 68.1104 5.75467 2.03458
712 5 69.3563 7.91267 2.03458
713 5 68.1104 10.0707 2.03458
714 5 69.3563 12.2287 2.03458
715 5 68.1104 14.3867 2.03458
716 5 69.3563 16.5447 2.03458
717 5 68.1104 18.7027 2.03458
718 5 69.3563 20.8607 2.03458
719 5 68.1104 23.0187 2.03458
720 5 69.3563 25.1767 2.03458
721 5 70.6023 1.43867 2.03458
722 5 71.8482 3.59667 2.03458
723 5 70.6023 5.75467 2.03458
724 5 71.8482 7.91267 2.03458
725 5 70.6023 10.0707 2.03458
726 5 71.8482 12.2287 2.03458
727 5 70.6023 14.3867 2.03458
728 5 71.8482 16.5447 2.03458
729 5 70.6023 18.7027 2.03458
730 5 71.8482 20.8607 2.03458
731 5 70.6023 23.0187 2.03458
732 5 71.8482 25.1767 2.03458
733 5 73.0941 1.43867 2.03458
734 5 74.34 3.59667 2.03458
735 5 73.0941 5.75467 2.03458
736 5 74.34 7.91267 2.03458
737 5 73.0941 10.0707 2.03458
738 5 74.34 12.2287 2.03458
739 5 73.0941 14.3867 2.03458
740 5 74.34 16.5447 2.03458
741 5 73.0941 18.7027 2.03458
742 5 74.34 20.8607 2.03458
743 5 73.0941 23.0187 2.03458
744 5 74.34 25.1767 2.03458
745 5 75.5859 1.43867 2.03458
746 5 76.8319 3.59667 2.03458
747 5 75.5859 5.75467 2.03458
748 5 76.8319 7.91267 2.03458
749 5 75.5859 10.0707 2.03458
750 5 76.8319 12.2287 2.03458
751 5 75.5859 14.3867 2.03458
752 5 76.8319 16.5447 2.03458
753 5 75.5859 18.7027 2.03458
754 5 76.8319 20.8607 2.03458
755 5 75.5859 23.0187 2.03458
756 5 76.8319 25.1767 2.03458
757 5 78.0778 1.43867 2.03458
758 5 79.3237 3.59667 2.03458
759 5 78.0778 5.75467 2.03458
760 5 79.3237 7.91267 2.03458
761 5 78.0778 10.0707 2.03458
762 5 79.3237 12.2287 2.03458
763 5 78.0778 14.3867 2.03458
764 5 79.3237 16.5447 2.03458
765 5 78.0778 18.7027 2.03458
766 5 79.3237 20.8607 2.03458
767 5 78.0778 23.0187 2.03458
768 5 79.3237 25.1767 2.03458
769 5 1.66123 2.87733 4.06916
770 5 2.90715 5.03533 4.06916
771 5 1.66123 7.19333 4.06916
772 5 2.90715 9.35134 4.06916
773 5 1.66123 11.5093 4.06916
774 5 2.90715 13.6673 4.06916
775 5 1.66123 15.8253 4.06916
776 5 2.90715 17.9833 4.06916
777 5 1.66123 20.1413 4.06916
778 5 2.90715 22.2993 4.06916
779 5 1.66123 24.4573 4.06916
780 5 2.90715 26.6153 4.06916
781 5 4.15307 2.87733 4.06916
782 5 5.399 5.03533 4.06916
783 5 4.15307 7.19333 4.06916
784 5 5.399 9.35134 4.06916
785 5 4.15307 11.5093 4.06916
786 5 5.399 13.6673 4.06916
787 5 4.15307 15.8253 4.06916
788 5 5.399 17.9833 4.06916
789 5 4.15307 20.1413 4.06916
790 5 5.399 22.2993 4.06916
791 5 4.15307 24.4573 4.06916
792 5 5.399 26.6153 4.06916
793 5 6.64492 2.87733 4.06916
794 5 7.89084 5.03533 4.06916
795 5 6.64492 7.19333 4.06916
796 5 7.89084 9.35134 4.06916
797 5 6.64492 11.5093 4.06916
798 5 7.89084 13.6673 4.06916
799 5 6.64492 15.8253 4.06916
800 5 7.89084 17.9833 4.06916
801 5 6.64492 20.1413 4.06916
802 5 7.89084 22.2993 4.06916
803 5 6.64492 24.4573 4.06916
804 5 7.89084 26.6153 4.06916
805 5 9.13676 2.87733 4.06916
806 5 10.3827 5.03533 4.06916
807 5 9.13676 7.19333 4.06916
808 5 10.3827 9.35134 4.06916
809 5 9.13676 11.5093 4.06916
810 5 10.3827 13.6673 4.06916
811 5 9.13676 15.8253 4.06916
812 5 10.3827 17.9833 4.06916
813 5 9.13676 20.1413 4.06916
814 5 10.3827 22.2993 4.06916
815 5 9.13676 24.4573 4.06916
816 5 10.3827 26.6153 4.06916
817 5 11.6286 2.87733 4.06916
818 5 12.8745 5.03533 4.06916
819 5 11.6286 7.19333 4.06916
820 5 12.8745 9.35134 4.06916
821 5 11.6286 11.5093 4.06916
822 5 12.8745 13.6673 4.06916
823 5 11.6286 15.8253 4.06916
824 5 12.8745 17.9833 4.06916
825 5 11.6286 20.1413 4.06916
826 5 12.8745 22.2993 4.06916
827 5 11.6286 24.4573 4.06916
828 5 12.8745 26.6153 4.06916
829 5 14.1204 2.87733 4.06916
830 5 15.3664 5.03533 4.06916
831 5 14.1204 7.19333 4.06916
832 5 15.3664 9.35134 4.06916
833 5 14.1204 11.5093 4.06916
834 5 15.3664 13.6673 4.06916
835 5 14.1204 15.8253 4.06916
836 5 15.3664 17.9833 4.06916
837 5 14.1204 20.1413 4.06916
838 5 15.3664 22.2993 4.06916
839 5 14.1204 24.4573 4.06916
840 5 15.3664 26.6153 4.06916
841 5 16.6123 2.87733 4.06916
842 5 17.8582 5.03533 4.06916
843 5 16.6123 7.19333 4.06916
844 5 17.8582 9.35134 4.06916
845 5 16.6123 11.5093 4.06916
846 5 17.8582 13.6673 4.06916
847 5 16.6123 15.8253 4.06916
848 5 17.8582 17.9833 4.06916
849 5 16.6123 20.1413 4.06916
850 5 17.8582 22.2993 4.06916
851 5 16.6123 24.4573 4.06916
852 5 17.8582 26.6153 4.06916
853 5 19.1041 2.87733 4.06916
854 5 20.3501 5.03533 4.06916
855 5 19.1041 7.19333 4.06916
856 5 20.3501 9.35134 4.06916
857 5 19.1041 11.5093 4.06916
858 5 20.3501 13.6673 4.06916
859 5 19.1041 15.8253 4.06916
860 5 20.3501 17.9833 4.06916
861 5 19.1041 20.1413 4.06916
862 5 20.3501 22.2993 4.06916
863 5 19.1041 24.4573 4.06916
864 5 20.3501 26.6153 4.06916
865 5 21.596 2.87733 4.06916
866 5 22.8419 5.03533 4.06916
867 5 21.596 7.19333 4.06916
868 5 22.8419 9.35134 4.06916
869 5 21.596 11.5093 4.06916
870 5 22.8419 13.6673 4.06916
871 5 21.596 15.8253 4.06916
872 5 22.8419 17.9833 4.06916
873 5 21.596 20.1413 4.06916
874 5 22.8419 22.2993 4.06916
875 5 21.596 24.4573 4.06916
876 5 22.8419 26.6153 4.06916
877 5 24.0878 2.87733 4.06916
878 5 25.3337 5.03533 4.06916
879 5 24.0878 7.19333 4.06916
880 5 25.3337 9.35134 4.06916
881 5 24.0878 11.5093 4.06916
882 5 25.3337 13.6673 4.06916
883 5 24.0878 15.8253 4.06916
884 5 25.3337 17.9833 4.06916
885 5 24.0878 20.1413 4.06916
886 5 25.3337 22.2993 4.06916
887 5 24.0878 24.4573 4.06916
888 5 25.3337 26.6153 4.06916
889 5 26.5797 2.87733 4.06916
890 5 27.8256 5.03533 4.06916
891 5 26.5797 7.19333 4.06916
892 5 27.8256 9.35134 4.06916
893 5 26.5797 11.5093 4.06916
894 5 27.8256 13.6673 4.06916
895 5 26.5797 15.8253 4.06916
896 5 27.8256 17.9833 4.06916
897 5 26.5797 20.1413 4.06916
898 5 27.8256 22.2993 4.06916
899 5 26.5797 24.4573 4.06916
900 5 27.8256 26.6153 4.06916
901 5 29.0715 2.87733 4.06916
902 5 30.3174 5.03533 4.06916
903 5 29.0715 7.19333 4.06916
904 5 30.3174 9.35134 4.06916
905 5 29.0715 11.5093 4.06916
906 5 30.3174 13.6673 4.06916
907 5 29.0715 15.8253 4.06916
908 5 30.3174 17.9833 4.06916
909 5 29.0715 20.1413 4.06916
910 5 30.3174 22.2993 4.06916
911 5 29.0715 24.4573 4.06916
912 5 30.3174 26.6153 4.06916
913 5 31.5634 2.87733 4.06916
914 5 32.8093 5.03533 4.06916
915 5 31.5634 7.19333 4.06916
916 5 32.8093 9.35134 4.06916
917 5 31.5634 11.5093 4.06916
918 5 32.8093 13.6673 4.06916
919 5 31.5634 15.8253 4.06916
920 5 32.8093 17.9833 4.06916
921 5 31.5634 20.1413 4.06916
922 5 32.8093 22.2993 4.06916
923 5 31.5634 24.4573 4.06916
924 5 32.8093 26.6153 4.06916
925 5 34.0552 2.87733 4.06916
926 5 35.3011 5.03533 4.06916
927 5 34.0552 7.19333 4.06916
928 5 35.3011 9.35134 4.06916
929 5 34.0552 11.5093 4.06916
930 5 35.3011 13.6673 4.06916
931 5 34.0552 15.8253 4.06916
932 5 35.3011 17.9833 4.06916
933 5 34.0552 20.1413 4.06916
934 5 35.3011 22.2993 4.06916
935 5 34.0552 24.4573 4.06916
936 5 35.3011 26.6153 4.06916
937 5 36.547 2.87733 4.06916
938 5 37.793 5.03533 4.06916
939 5 36.547 7.19333 4.06916
940 5 37.793 9.35134 4.06916
941 5 36.547 11.5093 4.06916
942 5 37.793 13.6673 4.06916
943 5 36.547 15.8253 4.06916
944 5 37.793 17.9833 4.06916
945 5 36.547 20.1413 4.06916
946 5 37.793 22.2993 4.06916
947 5 36.547 24.4573 4.06916
948 5 37.793 26.6153 4.06916
949 5 39.0389 2.87733 4.06916
950 5 40.2848 5.03533 4.06916
951 5 39.0389 7.19333 4.06916
952 5 40.2848 9.35134 4.06916
953 5 39.0389 11.5093 4.06916
954 5 40.2848 13.6673 4.06916
955 5 39.0389 15.8253 4.06916
956 5 40.2848 17.9833 4.06916
957 5 39.0389 20.1413 4.06916
958 5 40.2848 22.2993 4.06916
959 5 39.0389 24.4573 4.06916
960 5 40.2848 26.6153 4.06916
961 5 41.5307 2.87733 4.06916
962 5 42.7767 5.03533 4.06916
963 5 41.5307 7.19333 4.06916
964 5 42.7767 9.35134 4.06916
965 5 41.5307 11.5093 4.06916
966 5 42.7767 13.6673 4.06916
967 5 41.5307 15.8253 4.06916
968 5 42.7767 17.9833 4.06916
969 5 41.5307 20.1413 4.06916
970 5 42.7767 22.2993 4.06916
971 5 41.5307 24.4573 4.06916
972 5 42.7767 26.6153 4.06916
973 5 44.0226 2.87733 4.06916
974 5 45.2685 5.03533 4.06916
975 5 44.0226 7.19333 4.06916
976 5 45.2685 9.35134 4.06916
977 5 44.0226 11.5093 4.06916
978 5 45.2685 13.6673 4.06916
979 5 44.0226 15.8253 4.06916
980 5 45.2685 17.9833 4.06916
981 5 44.0226 20.1413 4.06916
982 5 45.2685 22.2993 4.06916
983 5 44.0226 24.4573 4.06916
984 5 45.2685 26.6153 4.06916
985 5 46.5144 2.87733 4.06916
986 5 47.7604 5.03533 4.06916
987 5 46.5144 7.19333 4.06916
988 5 47.7604 9.35134 4.06916
989 5 46.5144 11.5093 4.06916
990 5 47.7604 13.6673 4.06916
991 5 46.5144 15.8253 4.06916
992 5 47.7604 17.9833 4.06916
993 5 46.5144 20.1413 4.06916
994 5 47.7604 22.2993 4.06916
995 5 46.5144 24.4573 4.06916
996 5 47.7604 26.6153 4.06916
997 5 49.0063 2.87733 4.06916
998 5 50.2522 5.03533 4.06916
999 5 49.0063 7.19333 4.06916
1000 5 50.2522 9.35134 4.06916
1001 5 49.0063 11.5093 4.06916
1002 5 50.2522 13.6673 4.06916
1003 5 49.0063 15.8253 4.06916
1004 5 50.2522 17.9833 4.06916
1005 5 49.0063 20.1413 4.06916
1006 5 50.2522 22.2993 4.06916
1007 5 49.0063 24.4573 4.06916
1008 5 50.2522 26.6153 4.06916
1009 5 51.4981 2.87733 4.06916
1010 5 52.744 5.03533 4.06916
1011 5 51.4981 7.19333 4.06916
1012 5 52.744 9.35134 4.06916
1013 5 51.4981 11.5093 4.06916
1014 5 52.744 13.6673 4.06916
1015 5 51.4981 15.8253 4.06916
1016 5 52.744 17.9833 4.06916
1017 5 51.4981 20.1413 4.06916
1018 5 52.744 22.2993 4.06916
1019 5 51.4981 24.4573 4.06916
1020 5 52.744 26.6153 4.06916
1021 5 53.99 2.87733 4.06916
1022 5 55.2359 5.03533 4.06916
1023 5 53.99 7.19333 4.06916
1024 5 55.2359 9.35134 4.06916
1025 5 53.99 11.5093 4.06916
1026 5 55.2359 13.6673 4.06916
1027 5 53.99 15.8253 4.06916
1028 5 55.2359 17.9833 4.06916
1029 5 53.99 20.1413 4.06916
1030 5 55.2359 22.2993 4.06916
1031 5 53.99 24.4573 4.06916
1032 5 55.2359 26.6153 4.06916
1033 5 56.4818 2.87733 4.06916
1034 5 57.7277 5.03533 4.06916
1035 5 56.4818 7.19333 4.06916
1036 5 57.7277 9.35134 4.06916
1037 5 56.4818 11.5093 4.06916
1038 5 57.7277 13.6673 4.06916
1039 5 56.4818 15.8253 4.06916
1040 5 57.7277 17.9833 4.06916
1041 5 56.4818 20.1413 4.06916
1042 5 57.7277 22.2993 4.06916
1043 5 56.4818 24.4573 4.06916
1044 5 57.7277 26.6153 4.06916
1045 5 58.9736 2.87733 4.06916
1046 5 60.2196 5.03533 4.06916
1047 5 58.9736 7.19333 4.06916
1048 5 60.2196 9.35134 4.06916
1049 5 58.9736 11.5093 4.06916
1050 5 60.2196 13.6673 4.06916
1051 5 58.9736 15.8253 4.06916
1052 5 60.2196 17.9833 4.06916
1053 5 58.9736 20.1413 4.06916
1054 5 60.2196 22.2993 4.06916
1055 5 58.9736 24.4573 4.06916
1056 5 60.2196 26.6153 4.06916
1057 5 61.4655 2.87733 4.06916
1058 5 62.7114 5.03533 4.06916
1059 5 61.4655 7.19333 4.06916
1060 5 62.7114 9.35134 4.06916
1061 5 61.4655 11.5093 4.06916
1062 5 62.7114 13.6673 4.06916
1063 5 61.4655 15.8253 4.06916
1064 5 62.7114 17.9833 4.06916
1065 5 61.4655 20.1413 4.06916
1066 5 62.7114 22.2993 4.06916
1067 5 61.4655 24.4573 4.06916
1068 5 62.7114 26.6153 4.06916
1069 5 63.9573 2.87733 4.06916
1070 5 65.2033 5.03533 4.06916
1071 5 63.9573 7.19333 4.06916
1072 5 65.2033 9.35134 4.06916
1073 5 63.9573 11.5093 4.06916
1074 5 65.2033 13.6673 4.06916
1075 5 63.9573 15.8253 4.06916
1076 5 65.2033 17.9833 4.06916
1077 5 63.9573 20.1413 4.06916
1078 5 65.2033 22.2993 4.06916
1079 5 63.9573 24.4573 4.06916
1080 5 65.2033 26.6153 4.06916
1081 5 66.4492 2.87733 4.06916
1082 5 67.6951 5.03533 4.06916
1083 5 66.4492 7.19333 4.06916
1084 5 67.6951 9.35134 4.06916
1085 5 66.4492 11.5093 4.06916
1086 5 67.6951 13.6673 4.06916
1087 5 66.4492 15.8253 4.06916
1088 5 67.6951 17.9833 4.06916
1089 5 66.4492 20.1413 4.06916
1090 5 67.6951 22.2993 4.06916
1091 5 66.4492 24.4573 4.06916
1092 5 67.6951 26.6153 4.06916
1093 5 68.941 2.87733 4.06916
1094 5 70.1869 5.03533 4.06916
1095 5 68.941 7.19333 4.06916
1096 5 70.1869 9.35134 4.06916
1097 5 68.941 11.5093 4.06916
1098 5 70.1869 13.6673 4.06916
1099 5 68.941 15.8253 4.06916
1100 5 70.1869 17.9833 4.06916
1101 5 68.941 20.1413 4.06916
1102 5 70.1869 22.2993 4.06916
1103 5 68.941 24.4573 4.06916
1104 5 70.1869 26.6153 4.06916
1105 5 71.4329 2.87733 4.06916
1106 5 72.6788 5.03533 4.06916
1107 5 71.4329 7.19333 4.06916
1108 5 72.6788 9.35134 4.06916
1109 5 71.4329 11.5093 4.06916
1110 5 72.6788 13.6673 4.06916
1111 5 71.4329 15.8253 4.06916
1112 5 72.6788 17.9833 4.06916
1113 5 71.4329 20.1413 4.06916
1114 5 72.6788 22.2993 4.06916
1115 5 71.4329 24.4573 4.06916
1116 5 72.6788 26.6153 4.06916
1117 5 73.9247 2.87733 4.06916
1118 5 75.1706 5.03533 4.06916
1119 5 73.9247 7.19333 4.06916
1120 5 75.1706 9.35134 4.06916
1121 5 73.9247 11.5093 4.06916
1122 5 75.1706 13.6673 4.06916
1123 5 73.9247 15.8253 4.06916
1124 5 75.1706 17.9833 4.06916
1125 5 73.9247 20.1413 4.06916
1126 5 75.1706 22.2993 4.06916
1127 5 73.9247 24.4573 4.06916
1128 5 75.1706 26.6153 4.06916
1129 5 76.4166 2.87733 4.06916
1130 5 77.6625 5.03533 4.06916
1131 5 76.4166 7.19333 4.06916
1132 5 77.6625 9.35134 4.06916
1133 5 76.4166 11.5093 4.06916
1134 5 77.6625 13.6673 4.06916
1135 5 76.4166 15.8253 4.06916
1136 5 77.6625 17.9833 4.06916
1137 5 76.4166 20.1413 4.06916
1138 5 77.6625 22.2993 4.06916
1139 5 76.4166 24.4573 4.06916
1140 5 77.6625 26.6153 4.06916
1141 5 78.9084 2.87733 4.06916
1142 5 0.15432 5.03533 4.06916
1143 5 78.9084 7.19333 4.06916
1144 5 0.15432 9.35134 4.06916
1145 5 78.9084 11.5093 4.06916
1146 5 0.15432 13.6673 4.06916
1147 5 78.9084 15.8253 4.06916
1148 5 0.15432 17.9833 4.06916
1149 5 78.9084 20.1413 4.06916
1150 5 0.15432 22.2993 4.06916
1151 5 78.9084 24.4573 4.06916
1152 5 0.15432 26.6153 4.06916
1153 5 0 0 6.10375
1154 5 1.24592 2.158 6.10375
1155 5 0 4.316 6.10375
1156 5 1.24592 6.474 6.10375
1157 5 0 8.632 6.10375
1158 5 1.24592 10.79 6.10375
1159 5 0 12.948 6.10375
1160 5 1.24592 15.106 6.10375
1161 5 0 17.264 6.10375
1162 5 1.24592 19.422 6.10375
1163 5 0 21.58 6.10375
1164 5 1.24592 23.738 6.10375
1165 5 2.49184 0 6.10375
1166 5 3.73777 2.158 6.10375
1167 5 2.49184 4.316 6.10375
1168 5 3.73777 6.474 6.10375
1169 5 2.49184 8.632 6.10375
1170 5 3.73777 10.79 6.10375
1171 5 2.49184 12.948 6.10375
1172 5 3.73777 15.106 6.10375
1173 5 2.49184 17.264 6.10375
1174 5 3.73777 19.422 6.10375
1175 5 2.49184 21.58 6.10375
1176 5 3.73777 23.738 6.10375
1177 5 4.98369 0 6.10375
1178 5 6.22961 2.158 6.10375
1179 5 4.98369 4.316 6.10375
1180 5 6.22961 6.474 6.10375
1181 5 4.98369 8.632 6.10375
1182 5 6.22961 10.79 6.10375
1183 5 4.98369 12.948 6.10375
1184 5 6.22961 15.106 6.10375
1185 5 4.98369 17.264 6.10375
1186 5 6.22961 19.422 6.10375
1187 5 4.98369 21.58 6.10375
1188 5 6.22961 23.738 6.10375
1189 5 7.47553 0 6.10375
1190 5 8.72146 2.158 6.10375
1191 5 7.47553 4.316 6.10375
1192 5 8.72146 6.474 6.10375
1193 5 7.47553 8.632 6.10375
1194 5 8.72146 10.79 6.10375
1195 5 7.47553 12.948 6.10375
1196 5 8.72146 15.106 6.10375
1197 5 7.47553 17.264 6.10375
1198 5 8.72146 19.422 6.10375
1199 5 7.47553 21.58 6.10375
1200 5 8.72146 23.738 6.10375
1201 5 9.96738 0 6.10375
1202 5 11.2133 2.158 6.10375
1203 5 9.96738 4.316 6.10375
1204 5 11.2133 6.474 6.10375
1205 5 9.96738 8.632 6.10375
1206 5 11.2133 10.79 6.10375
1207 5 9.96738 12.948 6.10375
1208 5 11.2133 15.106 6.10375
1209 5 9.96738 17.264 6.10375
1210 5 11.2133 19.422 6.10375
1211 5 9.96738 21.58 6.10375
1212 5 11.2133 23.738 6.10375
1213 5 12.4592 0 6.10375
1214 5 13.7051 2.158 6.10375
1215 5 12.4592 4.316 6.10375
1216 5 13.7051 6.474 6.10375
1217 5 12.4592 8.632 6.10375
1218 5 13.7051 10.79 6.10375
1219 5 12.4592 12.948 6.10375
1220 5 13.7051 15.106 6.10375
1221 5 12.4592 17.264 6.10375
1222 5 13.7051 19.422 6.10375
1223 5 12.4592 21.58 6.10375
1224 5 13.7051 23.738 6.10375
1225 5 14.9511 0 6.10375
1226 5 16.197 2.158 6.10375
1227 5 14.9511 4.316 6.10375
1228 5 16.197 6.474 6.10375
1229 5 14.9511 8.632 6.10375
1230 5 16.197 10.79 6.10375
1231 5 14.9511 12.948 6.10375
1232 5 16.197 15.106 6.10375
1233 5 14.9511 17.264 6.10375
1234 5 16.197 19.422 6.10375
1235 5 14.9511 21.58 6.10375
1236 5 16.197 23.738 6.10375
1237 5 17.4429 0 6.10375
1238 5 18.6888 2.158 6.10375
1239 5 17.4429 4.316 6.10375
1240 5 18.6888 6.474 6.10375
1241 5 17.4429 8.632 6.10375
1242 5 18.6888 10.79 6.10375
1243 5 17.4429 12.948 6.10375
1244 5 18.6888 15.106 6.10375
1245 5 17.4429 17.264 6.10375
1246 5 18.6888 19.422 6.10375
1247 5 17.4429 21.58 6.10375
1248 5 18.6888 23.738 6.10375
1249 5 19.9348 0 6.10375
1250 5 21.1807 2.158 6.10375
1251 5 19.9348 4.316 6.10375
1252 5 21.1807 6.474 6.10375
1253 5 19.9348 8.632 6.10375
1254 5 21.1807 10.79 6.10375
1255 5 19.9348 12.948 6.10375
1256 5 21.1807 15.106 6.10375
1257 5 19.9348 17.264 6.10375
1258 5 21.1807 19.422 6.10375
1259 5 19.9348 21.58 6.10375
1260 5 21.1807 23.738 6.10375
1261 5 22.4266 0 6.10375
1262 5 23.6725 2.158 6.10375
1263 5 22.4266 4.316 6.10375
1264 5 23.6725 6.474 6.10375
1265 5 22.4266 8.632 6.10375
1266 5 23.6725 10.79 6.10375
1267 5 22.4266 12.948 6.10375
1268 5 23.6725 15.106 6.10375
1269 5 22.4266 17.264 6.10375
1270 5 23.6725 19.422 6.10375
1271 5 22.4266 21.58 6.10375
1272 5 23.6725 23.738 6.10375
1273 5 24.9184 0 6.10375
1274 5 26.1644 2.158 6.10375
1275 5 24.9184 4.316 6.10375
1276 5 26.1644 6.474 6.10375
1277 5 24.9184 8.632 6.10375
1278 5 26.1644 10.79 6.10375
1279 5 24.9184 12.948 6.10375
1280 5 26.1644 15.106 6.10375
1281 5 24.9184 17.264 6.10375
1282 5 26.1644 19.422 6.10375
1283 5 24.9184 21.58 6.10375
1284 5 26.1644 23.738 6.10375
1285 5 27.4103 0 6.10375
1286 5 28.6562 2.158 6.10375
1287 5 27.4103 4.316 6.10375
1288 5 28.6562 6.474 6.10375
1289 5 27.4103 8.632 6.10375
1290 5 28.6562 10.79 6.10375
1291 5 27.4103 12.948 6.10375
1292 5 28.6562 15.106 6.10375
1293 5 27.4103 17.264 6.10375
1294 5 28.6562 19.422 6.10375
1295 5 27.4103 21.58 6.10375
1296 5 28.6562 23.738 6.10375
1297 5 29.9021 0 6.10375
1298 5 31.1481 2.158 6.10375
1299 5 29.9021 4.316 6.10375
1300 5 31.1481 6.474 6.10375
1301 5 29.9021 8.632 6.10375
1302 5 31.1481 10.79 6.10375
1303 5 29.9021 12.948 6.10375
1304 5 31.1481 15.106 6.10375
1305 5 29.9021 17.264 6.10375
1306 5 31.1481 19.422 6.10375
1307 5 29.9021 21.58 6.10375
1308 5 31.1481 23.738 6.10375
1309 5 32.394 0 6.10375
1310 5 33.6399 2.158 6.10375
1311 5 32.394 4.316 6.10375
1312 5 33.6399 6.474 6.10375
1313 5 32.394 8.632 6.10375
1314 5 33.6399 10.79 6.10375
1315 5 32.394 12.948 6.10375
1316 5 33.6399 15.106 6.10375
1317 5 32.394 17.264 6.10375
1318 5 33.6399 19.422 6.10375
1319 5 32.394 21.58 6.10375
1320 5 33.6399 23.738 6.10375
1321 5 34.8858 0 6.10375
1322 5 36.1317 2.158 6.10375
1323 5 34.8858 4.316 6.10375
1324 5 36.1317 6.474 6.10375
1325 5 34.8858 8.632 6.10375
1326 5 36.1317 10.79 6.10375
1327 5 34.8858 12.948 6.10375
1328 5 36.1317 15.106 6.10375
1329 5 34.8858 17.264 6.10375
1330 5 36.1317 19.422 6.10375
1331 5 34.8858 21.58 6.10375
1332 5 36.1317 23.738 6.10375
1333 5 37.3777 0 6.10375
1334 5 38.6236 2.158 6.10375
1335 5 37.3777 4.316 6.10375
1336 5 38.6236 6.474 6.10375
1337 5 37.3777 8.632 6.10375
1338 5 38.6236 10.79 6.10375
1339 5 37.3777 12.948 6.10375
1340 5 38.6236 15.106 6.10375
1341 5 37.3777 17.264 6.10375
1342 5 38.6236 19.422 6.10375
1343 5 37.3777 21.58 6.10375
1344 5 38.6236 23.738 6.10375
1345 5 39.8695 0 6.10375
1346 5 41.1154 2.158 6.10375
1347 5 39.8695 4.316 6.10375
1348 5 41.1154 6.474 6.10375
1349 5 39.8695 8.632 6.10375
1350 5 41.1154 10.79 6.10375
1351 5 39.8695 12.948 6.10375
1352 5 41.1154 15.106 6.10375
1353 5 39.8695 17.264 6.10375
1354 5 41.1154 19.422 6.10375
1355 5 39.8695 21.58 6.10375
1356 5 41.1154 23.738 6.10375
1357 5 42.3614 0 6.10375
1358 5 43.6073 2.158 6.10375
1359 5 42.3614 4.316 6.10375
1360 5 43.6073 6.474 6.10375
1361 5 42.3614 8.632 6.10375
1362 5 43.6073 10.79 6.10375
1363 5 42.3614 12.948 6.10375
1364 5 43.6073 15.106 6.10375
1365 5 42.3614 17.264 6.10375
1366 5 43.6073 19.422 6.10375
1367 5 42.3614 21.58 6.10375
1368 5 43.6073 23.738 6.10375
1369 5 44.8532 0 6.10375
1370 5 46.0991 2.158 6.10375
1371 5 44.8532 4.316 6.10375
1372 5 46.0991 6.474 6.10375
1373 5 44.8532 8.632 6.10375
1374 5 46.0991 10.79 6.10375
1375 5 44.8532 12.948 6.10375
1376 5 46.0991 15.106 6.10375
1377 5 44.8532 17.264 6.10375
1378 5 46.0991 19.422 6.10375
1379 5 44.8532 21.58 6.10375
1380 5 46.0991 23.738 6.10375
1381 5 47.345 0 6.10375
1382 5 48.591 2.158 6.10375
1383 5 47.345 4.316 6.10375
1384 5 48.591 6.474 6.10375
1385 5 47.345 8.632 6.10375
1386 5 48.591 10.79 6.10375
1387 5 47.345 12.948 6.10375
1388 5 48.591 15.106 6.10375
1389 5 47.345 17.264 6.10375
1390 5 48.591 19.422 6.10375
1391 5 47.345 21.58 6.10375
1392 5 48.591 23.738 6.10375
1393 5 49.8369 0 6.10375
1394 5 51.0828 2.158 6.10375
1395 5 49.8369 4.316 6.10375
1396 5 51.0828 6.474 6.10375
1397 5 49.8369 8.632 6.10375
1398 5 51.0828 10.79 6.10375
1399 5 49.8369 12.948 6.10375
1400 5 51.0828 15.106 6.10375
1401 5 49.8369 17.264 6.10375
1402 5 51.0828 19.422 6.10375
1403 5 49.8369 21.58 6.10375
1404 5 51.0828 23.738 6.10375
1405 5 52.3287 0 6.10375
1406 5 53.5746 2.158 6.10375
1407 5 52.3287 4.316 6.10375
1408 5 53.5746 6.474 6.10375
1409 5 52.3287 8.632 6.10375
1410 5 53.5746 10.79 6.10375
1411 5 52.3287 12.948 6.10375
1412 5 53.5746 15.106 6.10375
1413 5 52.3287 17.264 6.10375
1414 5 53.5746 19.422 6.10375
1415 5 52.3287 21.58 6.10375
1416 5 53.5746 23.738 6.10375
1417 5 54.8206 0 6.10375
1418 5 56.0665 2.158 6.10375
1419 5 54.8206 4.316 6.10375
1420 5 56.0665 6.474 6.10375
1421 5 54.8206 8.632 6.10375
1422 5 56.0665 10.79 6.10375
1423 5 54.8206 12.948 6.10375
1424 5 56.0665 15.106 6.10375
1425 5 54.8206 17.264 6.10375
1426 5 56.0665 19.422 6.10375
1427 5 54.8206 21.58 6.10375
1428 5 56.0665 23.738 6.10375
1429 5 57.3124 0 6.10375
1430 5 58.5583 2.158 6.10375
1431 5 57.3124 4.316 6.10375
1432 5 58.5583 6.474 6.10375
1433 5 57.3124 8.632 6.10375
1434 5 58.5583 10.79 6.10375
1435 5 57.3124 12.948 6.10375
1436 5 58.5583 15.106 6.10375
1437 5 57.3124 17.264 6.10375
1438 5 58.5583 19.422 6.10375
1439 5 57.3124 21.58 6.10375
1440 5 58.5583 23.738 6.10375
1441 5 59.8043 0 6.10375
1442 5 61.0502 2.158 6.10375
1443 5 59.8043 4.316 6.10375
1444 5 61.0502 6.474 6.10375
1445 5 59.8043 8.632 6.10375
1446 5 61.0502 10.79 6.10375
1447 5 59.8043 12.948 6.10375
1448 5 61.0502 15.106 6.10375
1449 5 59.8043 17.264 6.10375
1450 5 61.0502 19.422 6.10375
1451 5 59.8043 21.58 6.10375
1452 5 61.0502 23.738 6.10375
1453 5 62.2961 0 6.10375
1454 5 63.542 2.158 6.10375
1455 5 62.2961 4.316 6.10375
1456 5 63.542 6.474 6.10375
1457 5 62.2961 8.632 6.10375
1458 5 63.542 10.79 6.10375
1459 5 62.2961 12.948 6.10375
1460 5 63.542 15.106 6.10375
1461 5 62.2961 17.264 6.10375
1462 5 63.542 19.422 6.10375
1463 5 62.2961 21.58 6.10375
1464 5 63.542 23.738 6.10375
1465 5 64.7879 0 6.10375
1466 5 66.0339 2.158 6.10375
1467 5 64.7879 4.316 6.10375
1468 5 66.0339 6.474 6.10375
1469 5 64.7879 8.632 6.10375
1470 5 66.0339 10.79 6.10375
1471 5 64.7879 12.948 6.10375
1472 5 66.0339 15.106 6.10375
1473 5 64.7879 17.264 6.10375
1474 5 66.0339 19.422 6.10375
1475 5 64.7879 21.58 6.10375
1476 5 66.0339 23.738 6.10375
1477 5 67.2798 0 6.10375
1478 5 68.5257 2.158 6.10375
1479 5 67.2798 4.316 6.10375
1480 5 68.5257 6.474 6.10375
1481 5 67.2798 8.632 6.10375
1482 5 68.5257 10.79 6.10375
1483 5 67.2798 12.948 6.10375
1484 5 68.5257 15.106 6.10375
1485 5 67.2798 17.264 6.10375
1486 5 68.5257 19.422 6.10375
1487 5 67.2798 21.58 6.10375
1488 5 68.5257 23.738 6.10375
1489 5 69.7716 0 6.10375
1490 5 71.0176 2.158 6.10375
1491 5 69.7716 4.316 6.10375
1492 5 71.0176 6.474 6.10375
1493 5 69.7716 8.632 6.10375
1494 5 71.0176 10.79 6.10375
1495 5 69.7716 12.948 6.10375
1496 5 71.0176 15.106 6.10375
1497 5 69.7716 17.264 6.10375
1498 5 71.0176 19.422 6.10375
1499 5 69.7716 21.58 6.10375
1500 5 71.0176 23.738 6.10375
1501 5 72.2635 0 6.10375
1502 5 73.5094 2.158 6.10375
1503 5 72.2635 4.316 6.10375
1504 5 73.5094 6.474 6.10375
1505 5 72.2635 8.632 6.10375
1506 5 73.5094 10.79 6.10375
1507 5 72.2635 12.948 6.10375
1508 5 73.5094 15.106 6.10375
1509 5 72.2635 17.264 6.10375
1510 5 73.5094 19.422 6.10375
1511 5 72.2635 21.58 6.10375
1512 5 73.5094 23.738 6.10375
1513 5 74.7553 0 6.10375
1514 5 76.0012 2.158 6.10375
1515 5 74.7553 4.316 6.10375
1516 5 76.0012 6.474 6.10375
1517 5 74.7553 8.632 6.10375
1518 5 76.0012 10.79 6.10375
1519 5 74.7553 12.948 6.10375
1520 5 76.0012 15.106 6.10375
1521 5 74.7553 17.264 6.10375
1522 5 76.0012 19.422 6.10375
1523 5 74.7553 21.58 6.10375
1524 5 76.0012 23.738 6.10375
1525 5 77.2472 0 6.10375
1526 5 78.4931 2.158 6.10375
1527 5 77.2472 4.316 6.10375
1528 5 78.4931 6.474 6.10375
1529 5 77.2472 8.632 6.10375
1530 5 78.4931 10.79 6.10375
1531 5 77.2472 12.948 6.10375
1532 5 78.4931 15.106 6.10375
1533 5 77.2472 17.264 6.10375
1534 5 78.4931 19.422 6.10375
1535 5 77.2472 21.58 6.10375
1536 5 78.4931 23.738 6.10375
1537 5 0.83061 1.43867 8.13833
1538 5 2.07654 3.59667 8.13833
1539 5 0.83061 5.75467 8.13833
1540 5 2.07654 7.91267 8.13833
1541 5 0.83061 10.0707 8.13833
1542 5 2.07654 12.2287 8.13833
1543 5 0.83061 14.3867 8.13833
1544 5 2.07654 16.5447 8.13833
1545 5 0.83061 18.7027 8.13833
1546 5 2.07654 20.8607 8.13833
1547 5 0.83061 23.0187 8.13833
1548 5 2.07654 25.1767 8.13833
1549 5 3.32246 1.43867 8.13833
1550 5 4.56838 3.59667 8.13833
1551 5 3.32246 5.75467 8.13833
1552 5 4.56838 7.91267 8.13833
1553 5 3.32246 10.0707 8.13833
1554 5 4.56838 12.2287 8.13833
1555 5 3.32246 14.3867 8.13833
1556 5 4.56838 16.5447 8.13833
1557 5 3.32246 18.7027 8.13833
1558 5 4.56838 20.8607 8.13833
1559 5 3.32246 23.0187 8.13833
1560 5 4.56838 25.1767 8.13833
1561 5 5.8143 1.43867 8.13833
1562 5 7.06023 3.59667 8.13833
1563 5 5.8143 5.75467 8.13833
1564 5 7.06023 7.91267 8.13833
1565 5 5.8143 10.0707 8.13833
1566 5 7.06023 12.2287 8.13833
1567 5 5.8143 14.3867 8.13833
1568 5 7.06023 16.5447 8.13833
1569 5 5.8143 18.7027 8.13833
1570 5 7.06023 20.8607 8.13833
1571 5 5.8143 23.0187 8.13833
1572 5 7.06023 25.1767 8.13833
1573 5 8.30615 1.43867 8.13833
1574 5 9.55207 3.59667 8.13833
1575 5 8.30615 5.75467 8.13833
1576 5 9.55207 7.91267 8.13833
1577 5 8.30615 10.0707 8.13833
1578 5 9.55207 12.2287 8.13833
1579 5 8.30615 14.3867 8.13833
1580 5 9.55207 16.5447 8.13833
1581 5 8.30615 18.7027 8.13833
1582 5 9.55207 20.8607 8.13833
1583 5 8.30615 23.0187 8.13833
1584 5 9.55207 25.1767 8.13833
1585 5 10.798 1.43867 8.13833
1586 5 12.0439 3.59667 8.13833
1587 5 10.798 5.75467 8.13833
1588 5 12.0439 7.91267 8.13833
1589 5 10.798 10.0707 8.13833
1590 5 12.0439 12.2287 8.13833
1591 5 10.798 14.3867 8.13833
1592 5 12.0439 16.5447 8.13833
1593 5 10.798 18.7027 8.13833
1594 5 12.0439 20.8607 8.13833
1595 5 10.798 23.0187 8.13833
1596 5 12.0439 25.1767 8.13833
1597 5 13.2898 1.43867 8.13833
1598 5 14.5358 3.59667 8.13833
1599 5 13.2898 5.75467 8.13833
1600 5 14.5358 7.91267 8.13833
1601 5 13.2898 10.0707 8.13833
1602 5 14.5358 12.2287 8.13833
1603 5 13.2898 14.3867 8.13833
1604 5 14.5358 16.5447 8.13833
1605 5 13.2898 18.7027 8.13833
1606 5 14.5358 20.8607 8.13833
1607 5 13.2898 23.0187 8.13833
1608 5 14.5358 25.1767 8.13833
1609 5 15.7817 1.43867 8.13833
1610 5 17.0276 3.59667 8.13833
1611 5 15.7817 5.75467 8.13833
1612 5 17.0276 7.91267 8.13833
1613 5 15.7817 10.0707 8.13833
1614 5 17.0276 12.2287 8.13833
1615 5 15.7817 14.3867 8.13833
1616 5 17.0276 16.5447 8.13833
1617 5 15.7817 18.7027 8.13833
1618 5 17.0276 20.8607 8.13833
1619 5 15.7817 23.0187 8.13833
1620 5 17.0276 25.1767 8.13833
1621 5 18.2735 1.43867 8.13833
1622 5 19.5194 3.59667 8.13833
1623 5 18.2735 5.75467 8.13833
1624 5 19.5194 7.91267 8.13833
1625 5 18.2735 10.0707 8.13833
1626 5 19.5194 12.2287 8.13833
1627 5 18.2735 14.3867 8.13833
1628 5 19.5194 16.5447 8.13833
1629 5 18.2735 18.7027 8.13833
1630 5 19.5194 20.8607 8.13833
1631 5 18.2735 23.0187 8.13833
1632 5 19.5194 25.1767 8.13833
1633 5 20.7654 1.43867 8.13833
1634 5 22.0113 3.59667 8.13833
1635 5 20.7654 5.75467 8.13833
1636 5 22.0113 7.91267 8.13833
1637 5 20.7654 10.0707 8.13833
1638 5 22.0113 12.2287 8.13833
1639 5 20.7654 14.3867 8.13833
1640 5 22.0113 16.5447 8.13833
1641 5 20.7654 18.7027 8.13833
1642 5 22.0113 20.8607 8.13833
1643 5 20.7654 23.0187 8.13833
1644 5 22.0113 25.1767 8.13833
1645 5 23.2572 1.43867 8.13833
1646 5 24.5031 3.59667 8.13833
1647 5 23.2572 5.75467 8.13833
1648 5 24.5031 7.91267 8.13833
1649 5 23.2572 10.0707 8.13833
1650 5 24.5031 12.2287 8.13833
1651 5 23.2572 14.3867 8.13833
1652 5 24.5031 16.5447 8.13833
1653 5 23.2572 18.7027 8.13833
1654 5 24.5031 20.8607 8.13833
1655 5 23.2572 23.0187 8.13833
1656 5 24.5031 25.1767 8.13833
1657 5 25.7491 1.43867 8.13833
1658 5 26.995 3.59667 8.13833
1659 5 25.7491 5.75467 8.13833
1660 5 26.995 7.91267 8.13833
1661 5 25.7491 10.0707 8.13833
1662 5 26.995 12.2287 8.13833
1663 5 25.7491 14.3867 8.13833
1664 5 26.995 16.5447 8.13833
1665 5 25.7491 18.7027 8.13833
1666 5 26.995 20.8607 8.13833
1667 5 25.7491 23.0187 8.13833
1668 5 26.995 25.1767 8.13833
1669 5 28.2409 1.43867 8.13833
1670 5 29.4868 3.59667 8.13833
1671 5 28.2409 5.75467 8.13833
1672 5 29.4868 7.91267 8.13833
1673 5 28.2409 10.0707 8.13833
1674 5 29.4868 12.2287 8.13833
1675 5 28.2409 14.3867 8.13833
1676 5 29.4868 16.5447 8.13833
1677 5 28.2409 18.7027 8.13833
1678 5 29.4868 20.8607 8.13833
1679 5 28.2409 23.0187 8.13833
1680 5 29.4868 25.1767 8.13833
1681 5 30.7327 1.43867 8.13833
1682 5 31.9787 3.59667 8.13833
1683 5 30.7327 5.75467 8.13833
1684 5 31.9787 7.91267 8.13833
1685 5 30.7327 10.0707 8.13833
1686 5 31.9787 12.2287 8.13833
1687 5 30.7327 14.3867 8.13833
1688 5 31.9787 16.5447 8.13833
1689 5 30.7327 18.7027 8.13833
1690 5 31.9787 20.8607 8.13833
1691 5 30.7327 23.0187 8.13833
1692 5 31.9787 25.1767 8.13833
1693 5 33.2246 1.43867 8.13833
1694 5 34.4705 3.59667 8.13833
1695 5 33.2246 5.75467 8.13833
1696 5 34.4705 7.91267 8.13833
1697 5 33.2246 10.0707 8.13833
1698 5 34.4705 12.2287 8.13833
1699 5 33.2246 14.3867 8.13833
1700 5 34.4705 16.5447 8.13833
1701 5 33.2246 18.7027 8.13833
1702 5 34.4705 20.8607 8.13833
1703 5 33.2246 23.0187 8.13833
1704 5 34.4705 25.1767 8.13833
1705 5 35.7164 1.43867 8.13833
1706 5 36.9624 3.59667 8.13833
1707 5 35.7164 5.75467 8.13833
1708 5 36.9624 7.91267 8.13833
1709 5 35.7164 10.0707 8.13833
1710 5 36.9624 12.2287 8.13833
1711 5 35.7164 14.3867 8.13833
1712 5 36.9624 16.5447 8.13833
1713 5 35.7164 18.7027 8.13833
1714 5 36.9624 20.8607 8.13833
1715 5 35.7164 23.0187 8.13833
1716 5 36.9624 25.1767 8.13833
1717 5 38.2083 1.43867 8.13833
1718 5 39.4542 3.59667 8.13833
1719 5 38.2083 5.75467 8.13833
1720 5 39.4542 7.91267 8.13833
1721 5 38.2083 10.0707 8.13833
1722 5 39.4542 12.2287 8.13833
1723 5 38.2083 14.3867 8.13833
1724 5 39.4542 16.5447 8.13833
1725 5 38.2083 18.7027 8.13833
1726 5 39.4542 20.8607 8.13833
1727 5 38.2083 23.0187 8.13833
1728 5 39.4542 25.1767 8.13833
1729 5 40.7001 1.43867 8.13833
1730 5 41.946 3.59667 8.13833
1731 5 40.7001 5.75467 8.13833
1732 5 41.946 7.91267 8.13833
1733 5 40.7001 10.0707 8.13833
1734 5 41.946 12.2287 8.13833
1735 5 40.7001 14.3867 8.13833
1736 5 41.946 16.5447 8.13833
1737 5 40.7001 18.7027 8.13833
1738 5 41.946 20.8607 8.13833
1739 5 40.7001 23.0187 8.13833
1740 5 41.946 25.1767 8.13833
1741 5 43.192 1.43867 8.13833
1742 5 44.4379 3.59667 8.13833
1743 5 43.192 5.75467 8.13833
1744 5 44.4379 7.91267 8.13833
1745 5 43.192 10.0707 8.13833
1746 5 44.4379 12.2287 8.13833
1747 5 43.192 14.3867 8.13833
1748 5 44.4379 16.5447 8.13833
1749 5 43.192 18.7027 8.13833
1750 5 44.4379 20.8607 8.13833
1751 5 43.192 23.0187 8.13833
1752 5 44.4379 25.1767 8.13833
1753 5 45.6838 1.43867 8.13833
1754 5 46.9297 3.59667 8.13833
1755 5 45.6838 5.75467 8.13833
1756 5 46.9297 7.91267 8.13833
1757 5 45.6838 10.0707 8.13833
1758 5 46.9297 12.2287 8.13833
1759 5 45.6838 14.3867 8.13833
1760 5 46.9297 16.5447 8.13833
1761 5 45.6838 18.7027 8.13833
1762 5 46.9297 20.8607 8.13833
1763 5 45.6838 23.0187 8.13833
1764 5 46.9297 25.1767 8.13833
1765 5 48.1757 1.43867 8.13833
1766 5 49.4216 3.59667 8.13833
1767 5 48.1757 5.75467 8.13833
1768 5 49.4216 7.91267 8.13833
1769 5 48.1757 10.0707 8.13833
1770 5 49.4216 12.2287 8.13833
1771 5 48.1757 14.3867 8.13833
1772 5 49.4216 16.5447 8.13833
1773 5 48.1757 18.7027 8.13833
1774 5 49.4216 20.8607 8.13833
1775 5 48.1757 23.0187 8.13833
1776 5 49.4216 25.1767 8.13833
1777 5 50.6675 1.43867 8.13833
1778 5 51.9134 3.59667 8.13833
1779 5 50.6675 5.75467 8.13833
1780 5 51.9134 7.91267 8.13833
1781 5 50.6675 10.0707 8.13833
1782 5 51.9134 12.2287 8.13833
1783 5 50.6675 14.3867 8.13833
1784 5 51.9134 16.5447 8.13833
1785 5 50.6675 18.7027 8.13833
1786 5 51.9134 20.8607 8.13833
1787 5 50.6675 23.0187 8.13833
1788 5 51.9134 25.1767 8.13833
1789 5 53.1594 1.43867 8.13833
1790 5 54.4053 3.59667 8.13833
1791 5 53.1594 5.75467 8.13833
1792 5 54.4053 7.91267 8.13833
1793 5 53.1594 10.0707 8.13833
1794 5 54.4053 12.2287 8.13833
1795 5 53.1594 14.3867 8.13833
1796 5 54.4053 16.5447 8.13833
1797 5 53.1594 18.7027 8.13833
1798 5 54.4053 20.8607 8.13833
1799 5 53.1594 23.0187 8.13833
1800 5 54.4053 25.1767 8.13833
1801 5 55.6512 1.43867 8.13833
1802 5 56.8971 3.59667 8.13833
1803 5 55.6512 5.75467 8.13833
1804 5 56.8971 7.91267 8.13833
1805 5 55.6512 10.0707 8.13833
1806 5 56.8971 12.2287 8.13833
1807 5 55.6512 14.3867 8.13833
1808 5 56.8971 16.5447 8.13833
1809 5 55.6512 18.7027 8.13833
1810 5 56.8971 20.8607 8.13833
1811 5 55.6512 23.0187 8.13833
1812 5 56.8971 25.1767 8.13833
1813 5 58.143 1.43867 8.13833
1814 5 59.389 3.59667 8.13833
1815 5 58.143 5.75467 8.13833
1816 5 59.389 7.91267 8.13833
1817 5 58.143 10.0707 8.13833
1818 5 59.389 12.2287 8.13833
1819 5 58.143 14.3867 8.13833
1820 5 59.389 16.5447 8.13833
1821 5 58.143 18.7027 8.13833
1822 5 59.389 20.8607 8.13833
1823 5 58.143 23.0187 8.13833
1824 5 59.389 25.1767 8.13833
1825 5 60.6349 1.43867 8.13833
1826 5 61.8808 3.59667 8.13833
1827 5 60.6349 5.75467 8.13833
1828 5 61.8808 7.91267 8.13833
1829 5 60.6349 10.0707 8.13833
1830 5 61.8808 12.2287 8.13833
1831 5 60.6349 14.3867 8.13833
1832 5 61.8808 16.5447 8.13833
1833 5 60.6349 18.7027 8.13833
1834 5 61.8808 20.8607 8.13833
1835 5 60.6349 23.0187 8.13833
1836 5 61.8808 25.1767 8.13833
1837 5 63.1267 1.43867 8.13833
1838 5 64.3726 3.59667 8.13833
1839 5 63.1267 5.75467 8.13833
1840 5 64.3726 7.91267 8.13833
1841 5 63.1267 10.0707 8.13833
1842 5 64.3726 12.2287 8.13833
1843 5 63.1267 14.3867 8.13833
1844 5 64.3726 16.5447 8.13833
1845 5 63.1267 18.7027 8.13833
1846 5 64.3726 20.8607 8.13833
1847 5 63.1267 23.0187 8.13833
1848 5 64.3726 25.1767 8.13833
1849 5 65.6186 1.43867 8.13833
1850 5 66.8645 3.59667 8.13833
1851 5 65.6186 5.75467 8.13833
1852 5 66.8645 7.91267 8.13833
1853 5 65.6186 10.0707 8.13833
1854 5 66.8645 12.2287 8.13833
1855 5 65.6186 14.3867 8.13833
1856 5 66.8645 16.5447 8.13833
1857 5 65.6186 18.7027 8.13833
1858 5 66.8645 20.8607 8.13833
1859 5 65.6186 23.0187 8.13833
1860 5 66.8645 25.1767 8.13833
1861 5 68.1104 1.43867 8.13833
1862 5 69.3563 3.59667 8.13833
1863 5 68.1104 5.75467 8.13833
1864 5 69.3563 7.91267 8.13833
1865 5 68.1104 10.0707 8.13833
1866 5 69.3563 12.2287 8.13833
1867 5 68.1104 14.3867 8.13833
1868 5 69.3563 16.5447 8.13833
1869 5 68.1104 18.7027 8.13833
1870 5 69.3563 20.8607 8.13833
1871 5 68.1104 23.0187 8.13833
1872 5 69.3563 25.1767 8.13833
1873 5 70.6023 1.43867 8.13833
1874 5 71.8482 3.59667 8.13833
1875 5 70.6023 5.75467 8.13833
1876 5 71.8482 7.91267 8.13833
1877 5 70.6023 10.0707 8.13833
1878 5 71.8482 12.2287 8.13833
1879 5 70.6023 14.3867 8.13833
1880 5 71.8482 16.5447 8.13833
1881 5 70.6023 18.7027 8.13833
1882 5 71.8482 20.8607 8.13833
1883 5 70.6023 23.0187 8.13833
1884 5 71.8482 25.1767 8.13833
1885 5 73.0941 1.43867 8.13833
1886 5 74.34 3.59667 8.13833
1887 5 73.0941 5.75467 8.13833
1888 5 74.34 7.91267 8.13833
1889 5 73.0941 10.0707 8.13833
1890 5 74.34 12.2287 8.13833
1891 5 73.0941 14.3867 8.13833
1892 5 74.34 16.5447 8.13833
1893 5 73.0941 18.7027 8.13833
1894 5 74.34 20.8607 8.13833
1895 5 73.0941 23.0187 8.13833
1896 5 74.34 25.1767 8.13833
1897 5 75.5859 1.43867 8.13833
1898 5 76.8319 3.59667 8.13833
1899 5 75.5859 5.75467 8.13833
1900 5 76.8319 7.91267 8.13833
1901 5 75.5859 10.0707 8.13833
1902 5 76.8319 12.2287 8.13833
1903 5 75.5859 14.3867 8.13833
1904 5 76.8319 16.5447 8.13833
1905 5 75.5859 18.7027 8.13833
1906 5 76.8319 20.8607 8.13833
1907 5 75.5859 23.0187 8.13833
1908 5 76.8319 25.1767 8.13833
1909 5 78.0778 1.43867 8.13833
1910 5 79.3237 3.59667 8.13833
1911 5 78.0778 5.75467 8.13833
1912 5 79.3237 7.91267 8.13833
1913 5 78.0778 10.0707 8.13833
1914 5 79.3237 12.2287 8.13833
1915 5 78.0778 14.3867 8.13833
1916 5 79.3237 16.5447 8.13833
1917 5 78.0778 18.7027 8.13833
1918 5 79.3237 20.8607 8.13833
1919 5 78.0778 23.0187 8.13833
1920 5 79.3237 25.1767 8.13833
1921 6 0 0 93.3383
1922 6 1.24592 2.158 93.3383
1923 6 0 4.316 93.3383
1924 6 1.24592 6.474 93.3383
1925 6 0 8.632 93.3383
1926 6 1.24592 10.79 93.3383
1927 6 0 12.948 93.3383
1928 6 1.24592 15.106 93.3383
1929 6 0 17.264 93.3383
1930 6 1.24592 19.422 93.3383
1931 6 0 21.58 93.3383
1932 6 1.24592 23.738 93.3383
1933 6 2.49184 0 93.3383
1934 6 3.73777 2.158 93.3383
1935 6 2.49184 4.316 93.3383
1936 6 3.73777 6.474 93.3383
1937 6 2.49184 8.632 93.3383
1938 6 3.73777 10.79 93.3383
1939 6 2.49184 12.948 93.3383
1940 6 3.73777 15.106 93.3383
1941 6 2.49184 17.264 93.3383
1942 6 3.73777 19.422 93.3383
1943 6 2.49184 21.58 93.3383
1944 6 3.73777 23.738 93.3383
1945 6 4.98369 0 93.3383
1946 6 6.22961 2.158 93.3383
1947 6 4.98369 4.316 93.3383
1948 6 6.22961 6.474 93.3383
1949 6 4.98369 8.632 93.3383
1950 6 6.22961 10.79 93.3383
1951 6 4.98369 12.948 93.3383
1952 6 6.22961 15.106 93.3383
1953 6 4.98369 17.264 93.3383
1954 6 6.22961 19.422 93.3383
1955 6 4.98369 21.58 93.3383
1956 6 6.22961 23.738 93.3383
1957 6 7.47553 0 93.3383
1958 6 8.72146 2.158 93.3383
1959 6 7.47553 4.316 93.3383
1960 6 8.72146 6.474 93.3383
1961 6 7.47553 8.632 93.3383
1962 6 8.72146 10.79 93.3383
1963 6 7.47553 12.948 93.3383
1964 6 8.72146 15.106 93.3383
1965 6 7.47553 17.264 93.3383
1966 6 8.72146 19.422 93.3383
1967 6 7.47553 21.58 93.3383
1968 6 8.72146 23.738 93.3383
1969 6 9.96738 0 93.3383
1970 6 11.2133 2.158 93.3383
1971 6 9.96738 4.316 93.3383
1972 6 11.2133 6.474 93.3383
1973 6 9.96738 8.632 93.3383
1974 6 11.2133 10.79 93.3383
1975 6 9.96738 12.948 93.3383
1976 6 11.2133 15.106 93.3383
1977 6 9.96738 17.264 93.3383
1978 6 11.2133 19.422 93.3383
1979 6 9.96738 21.58 93.3383
1980 6 11.2133 23.738 93.3383
1981 6 12.4592 0 93.3383
1982 6 13.7051 2.158 93.3383
1983 6 12.4592 4.316 93.3383
1984 6 13.7051 6.474 93.3383
1985 6 12.4592 8.632 93.3383
1986 6 13.7051 10.79 93.3383
1987 6 12.4592 12.948 93.3383
1988 6 13.7051 15.106 93.3383
1989 6 12.4592 17.264 93.3383
1990 6 13.7051 19.422 93.3383
1991 6 12.4592 21.58 93.3383
1992 6 13.7051 23.738 93.3383
1993 6 14.9511 0 93.3383
1994 6 16.197 2.158 93.3383
1995 6 14.9511 4.316 93.3383
1996 6 16.197 6.474 93.3383
1997 6 14.9511 8.632 93.3383
1998 6 16.197 10.79 93.3383
1999 6 14.9511 12.948 93.3383
2000 6 16.197 15.106 93.3383
2001 6 14.9511 17.264 93.3383
2002 6 16.197 19.422 93.3383
2003 6 14.9511 21.58 93.3383
2004 6 16.197 23.738 93.3383
2005 6 17.4429 0 93.3383
2006 6 18.6888 2.158 93.3383
2007 6 17.4429 4.316 93.3383
2008 6 18.6888 6.474 93.3383
2009 6 17.4429 8.632 93.3383
2010 6 18.6888 10.79 93.3383
2011 6 17.4429 12.948 93.3383
2012 6 18.6888 15.106 93.3383
2013 6 17.4429 17.264 93.3383
2014 6 18.6888 19.422 93.3383
2015 6 17.4429 21.58 93.3383
2016 6 18.6888 23.738 93.3383
2017 6 19.9348 0 93.3383
2018 6 21.1807 2.158 93.3383
2019 6 19.9348 4.316 93.3383
2020 6 21.1807 6.474 93.3383
2021 6 19.9348 8.632 93.3383
2022 6 21.1807 10.79 93.3383
2023 6 19.9348 12.948 93.3383
2024 6 21.1807 15.106 93.3383
2025 6 19.9348 17.264 93.3383
2026 6 21.1807 19.422 93.3383
2027 6 19.9348 21.58 93.3383
2028 6 21.1807 23.738 93.3383
2029 6 22.4266 0 93.3383
2030 6 23.6725 2.158 93.3383
2031 6 22.4266 4.316 93.3383
2032 6 23.6725 6.474 93.3383
2033 6 22.4266 8.632 93.3383
2034 6 23.6725 10.79 93.3383
2035 6 22.4266 12.948 93.3383
2036 6 23.6725 15.106 93.3383
2037 6 22.4266 17.264 93.3383
2038 6 23.6725 19.422 93.3383
2039 6 22.4266 21.58 93.3383
2040 6 23.6725 23.738 93.3383
2041 6 24.9184 0 93.3383
2042 6 26.1644 2.158 93.3383
2043 6 24.9184 4.316 93.3383
2044 6 26.1644 6.474 93.3383
2045 6 24.9184 8.632 93.3383
2046 6 26.1644 10.79 93.3383
2047 6 24.9184 12.948 93.3383
2048 6 26.1644 15.106 93.3383
2049 6 24.9184 17.264 93.3383
2050 6 26.1644 19.422 93.3383
2051 6 24.9184 21.58 93.3383
2052 6 26.1644 23.738 93.3383
2053 6 27.4103 0 93.3383
2054 6 28.6562 2.158 93.3383
2055 6 27.4103 4.316 93.3383
2056 6 28.6562 6.474 93.3383
2057 6 27.4103 8.632 93.3383
2058 6 28.6562 10.79 93.3383
2059 6 27.4103 12.948 93.3383
2060 6 28.6562 15.106 93.3383
2061 6 27.4103 17.264 93.3383
2062 6 28.6562 19.422 93.3383
2063 6 27.4103 21.58 93.3383
2064 6 28.6562 23.738 93.3383
2065 6 29.9021 0 93.3383
2066 6 31.1481 2.158 93.3383
2067 6 29.9021 4.316 93.3383
2068 6 31.1481 6.474 93.3383
2069 6 29.9021 8.632 93.3383
2070 6 31.1481 10.79 93.3383
2071 6 29.9021 12.948 93.3383
2072 6 31.1481 15.106 93.3383
2073 6 29.9021 17.264 93.3383
2074 6 31.1481 19.422 93.3383
2075 6 29.9021 21.58 93.3383
2076 6 31.1481 23.738 93.3383
2077 6 32.394 0 93.3383
2078 6 33.6399 2.158 93.3383
2079 6 32.394 4.316 93.3383
2080 6 33.6399 6.474 93.3383
2081 6 32.394 8.632 93.3383
2082 6 33.6399 10.79 93.3383
2083 6 32.394 12.948 93.3383
2084 6 33.6399 15.106 93.3383
2085 6 32.394 17.264 93.3383
2086 6 33.6399 19.422 93.3383
2087 6 32.394 21.58 93.3383
2088 6 33.6399 23.738 93.3383
2089 6 34.8858 0 93.3383
2090 6 36.1317 2.158 93.3383
2091 6 34.8858 4.316 93.3383
2092 6 36.1317 6.474 93.3383
2093 6 34.8858 8.632 93.3383
2094 6 36.1317 10.79 93.3383
2095 6 34.8858 12.948 93.3383
2096 6 36.1317 15.106 93.3383
2097 6 34.8858 17.264 93.3383
2098 6 36.1317 19.422 93.3383
2099 6 34.8858 21.58 93.3383
2100 6 36.1317 23.738 93.3383
2101 6 37.3777 0 93.3383
2102 6 38.6236 2.158 93.3383
2103 6 37.3777 4.316 93.3383
2104 6 38.6236 6.474 93.3383
2105 6 37.3777 8.632 93.3383
2106 6 38.6236 10.79 93.3383
2107 6 37.3777 12.948 93.3383
2108 6 38.6236 15.106 93.3383
2109 6 37.3777 17.264 93.3383
2110 6 38.6236 19.422 93.3383
2111 6 37.3777 21.58 93.3383
2112 6 38.6236 23.738 93.3383
2113 6 39.8695 0 93.3383
2114 6 41.1154 2.158 93.3383
2115 6 39.8695 4.316 93.3383
2116 6 41.1154 6.474 93.3383
2117 6 39.8695 8.632 93.3383
2118 6 41.1154 10.79 93.3383
2119 6 39.8695 12.948 93.3383
2120 6 41.1154 15.106 93.3383
2121 6 39.8695 17.264 93.3383
2122 6 41.1154 19.422 93.3383
2123 6 39.8695 21.58 93.3383
2124 6 41.1154 23.738 93.3383
2125 6 42.3614 0 93.3383
2126 6 43.6073 2.158 93.3383
2127 6 42.3614 4.316 93.3383
2128 6 43.6073 6.474 93.3383
2129 6 42.3614 8.632 93.3383
2130 6 43.6073 10.79 93.3383
2131 6 42.3614 12.948 93.3383
2132 6 43.6073 15.106 93.3383
2133 6 42.3614 17.264 93.3383
2134 6 43.6073 19.422 93.3383
2135 6 42.3614 21.58 93.3383
2136 6 43.6073 23.738 93.3383
2137 6 44.8532 0 93.3383
2138 6 46.0991 2.158 93.3383
2139 6 44.8532 4.316 93.3383
2140 6 46.0991 6.474 93.3383
2141 6 44.8532 8.632 93.3383
2142 6 46.0991 10.79 93.3383
2143 6 44.8532 12.948 93.3383
2144 6 46.0991 15.106 93.3383
2145 6 44.8532 17.264 93.3383
2146 6 46.0991 19.422 93.3383
2147 6 44.8532 21.58 93.3383
2148 6 46.0991 23.738 93.3383
2149 6 47.345 0 93.3383
2150 6 48.591 2.158 93.3383
2151 6 47.345 4.316 93.3383
2152 6 48.591 6.474 93.3383
2153 6 47.345 8.632 93.3383
2154 6 48.591 10.79 93.3383
2155 6 47.345 12.948 93.3383
2156 6 48.591 15.106 93.3383
2157 6 47.345 17.264 93.3383
2158 6 48.591 19.422 93.3383
2159 6 47.345 21.58 93.3383
2160 6 48.591 23.738 93.3383
2161 6 49.8369 0 93.3383
2162 6 51.0828 2.158 93.3383
2163 6 49.8369 4.316 93.3383
2164 6 51.0828 6.474 93.3383
2165 6 49.8369 8.632 93.3383
2166 6 51.0828 10.79 93.3383
2167 6 49.8369 12.948 93.3383
2168 6 51.0828 15.106 93.3383
2169 6 49.8369 17.264 93.3383
2170 6 51.0828 19.422 93.3383
2171 6 49.8369 21.58 93.3383
2172 6 51.0828 23.738 93.3383
2173 6 52.3287 0 93.3383
2174 6 53.5746 2.158 93.3383
2175 6 52.3287 4.316 93.3383
2176 6 53.5746 6.474 93.3383
2177 6 52.3287 8.632 93.3383
2178 6 53.5746 10.79 93.3383
2179 6 52.3287 12.948 93.3383
2180 6 53.5746 15.106 93.3383
2181 6 52.3287 17.264 93.3383
2182 6 53.5746 19.422 93.3383
2183 6 52.3287 21.58 93.3383
2184 6 53.5746 23.738 93.3383
2185 6 54.8206 0 93.3383
2186 6 56.0665 2.158 93.3383
2187 6 54.8206 4.316 93.3383
2188 6 56.0665 6.474 93.3383
2189 6 54.8206 8.632 93.3383
2190 6 56.0665 10.79 93.3383
2191 6 54.8206 12.948 93.3383
2192 6 56.0665 15.106 93.3383
2193 6 54.8206 17.264 93.3383
2194 6 56.0665 19.422 93.3383
2195 6 54.8206 21.58 93.3383
2196 6 56.0665 23.738 93.3383
2197 6 57.3124 0 93.3383
2198 6 58.5583 2.158 93.3383
2199 6 57.3124 4.316 93.3383
2200 6 58.5583 6.474 93.3383
2201 6 57.3124 8.632 93.3383
2202 6 58.5583 10.79 93.3383
2203 6 57.3124 12.948 93.3383
2204 6 58.5583 15.106 93.3383
2205 6 57.3124 17.264 93.3383
2206 6 58.5583 19.422 93.3383
2207 6 57.3124 21.58 93.3383
2208 6 58.5583 23.738 93.3383
2209 6 59.8043 0 93.3383
2210 6 61.0502 2.158 93.3383
2211 6 59.8043 4.316 93.3383
2212 6 61.0502 6.474 93.3383
2213 6 59.8043 8.632 93.3383
2214 6 61.0502 10.79 93.3383
2215 6 59.8043 12.948 93.3383
2216 6 61.0502 15.106 93.3383
2217 6 59.8043 17.264 93.3383
2218 6 61.0502 19.422 93.3383
2219 6 59.8043 21.58 93.3383
2220 6 61.0502 23.738 93.3383
2221 6 62.2961 0 93.3383
2222 6 63.542 2.158 93.3383
2223 6 62.2961 4.316 93.3383
2224 6 63.542 6.474 93.3383
2225 6 62.2961 8.632 93.3383
2226 6 63.542 10.79 93.3383
2227 6 62.2961 12.948 93.3383
2228 6 63.542 15.106 93.3383
2229 6 62.2961 17.264 93.3383
2230 6 63.542 19.422 93.3383
2231 6 62.2961 21.58 93.3383
2232 6 63.542 23.738 93.3383
2233 6 64.7879 0 93.3383
2234 6 66.0339 2.158 93.3383
2235 6 64.7879 4.316 93.3383
2236 6 66.0339 6.474 93.3383
2237 6 64.7879 8.632 93.3383
2238 6 66.0339 10.79 93.3383
2239 6 64.7879 12.948 93.3383
2240 6 66.0339 15.106 93.3383
2241 6 64.7879 17.264 93.3383
2242 6 66.0339 19.422 93.3383
2243 6 64.7879 21.58 93.3383
2244 6 66.0339 23.738 93.3383
2245 6 67.2798 0 93.3383
2246 6 68.5257 2.158 93.3383
2247 6 67.2798 4.316 93.3383
2248 6 68.5257 6.474 93.3383
2249 6 67.2798 8.632 93.3383
2250 6 68.5257 10.79 93.3383
2251 6 67.2798 12.948 93.3383
2252 6 68.5257 15.106 93.3383
2253 6 67.2798 17.264 93.3383
2254 6 68.5257 19.422 93.3383
2255 6 67.2798 21.58 93.3383
2256 6 68.5257 23.738 93.3383
2257 6 69.7716 0 93.3383
2258 6 71.0176 2.158 93.3383
2259 6 69.7716 4.316 93.3383
2260 6 71.0176 6.474 93.3383
2261 6 69.7716 8.632 93.3383
2262 6 71.0176 10.79 93.3383
2263 6 69.7716 12.948 93.3383
2264 6 71.0176 15.106 93.3383
2265 6 69.7716 17.264 93.3383
2266 6 71.0176 19.422 93.3383
2267 6 69.7716 21.58 93.3383
2268 6 71.0176 23.738 93.3383
2269 6 72.2635 0 93.3383
2270 6 73.5094 2.158 93.3383
2271 6 72.2635 4.316 93.3383
2272 6 73.5094 6.474 93.3383
2273 6 72.2635 8.632 93.3383
2274 6 73.5094 10.79 93.3383
2275 6 72.2635 12.948 93.3383
2276 6 73.5094 15.106 93.3383
2277 6 72.2635 17.264 93.3383
2278 6 73.5094 19.422 93.3383
2279 6 72.2635 21.58 93.3383
2280 6 73.5094 23.738 93.3383
2281 6 74.7553 0 93.3383
2282 6 76.0012 2.158 93.3383
2283 6 74.7553 4.316 93.3383
2284 6 76.0012 6.474 93.3383
2285 6 74.7553 8.632 93.3383
2286 6 76.0012 10.79 93.3383
2287 6 74.7553 12.948 93.3383
2288 6 76.0012 15.106 93.3383
2289 6 74.7553 17.264 93.3383
2290 6 76.0012 19.422 93.3383
2291 6 74.7553 21.58 93.3383
2292 6 76.0012 23.738 93.3383
2293 6 77.2472 0 93.3383
2294 6 78.4931 2.158 93.3383
2295 6 77.2472 4.316 93.3383
2296 6 78.4931 6.474 93.3383
2297 6 77.2472 8.632 93.3383
2298 6 78.4931 10.79 93.3383
2299 6 77.2472 12.948 93.3383
2300 6 78.4931 15.106 93.3383
2301 6 77.2472 17.264 93.3383
2302 6 78.4931 19.422 93.3383
2303 6 77.2472 21.58 93.3383
2304 6 78.4931 23.738 93.3383
2305 6 0.83061 1.43867 95.3729
2306 6 2.07654 3.59667 95.3729
2307 6 0.83061 5.75467 95.3729
2308 6 2.07654 7.91267 95.3729
2309 6 0.83061 10.0707 95.3729
2310 6 2.07654 12.2287 95.3729
2311 6 0.83061 14.3867 95.3729
2312 6 2.07654 16.5447 95.3729
2313 6 0.83061 18.7027 95.3729
2314 6 2.07654 20.8607 95.3729
2315 6 0.83061 23.0187 95.3729
2316 6 2.07654 25.1767 95.3729
2317 6 3.32246 1.43867 95.3729
2318 6 4.56838 3.59667 95.3729
2319 6 3.32246 5.75467 95.3729
2320 6 4.56838 7.91267 95.3729
2321 6 3.32246 10.0707 95.3729
2322 6 4.56838 12.2287 95.3729
2323 6 3.32246 14.3867 95.3729
2324 6 4.56838 16.5447 95.3729
2325 6 3.32246 18.7027 95.3729
2326 6 4.56838 20.8607 95.3729
2327 6 3.32246 23.0187 95.3729
2328 6 4.56838 25.1767 95.3729
2329 6 5.8143 1.43867 95.3729
2330 6 7.06023 3.59667 95.3729
2331 6 5.8143 5.75467 95.3729
2332 6 7.06023 7.91267 95.3729
2333 6 5.8143 10.0707 95.3729
2334 6 7.06023 12.2287 95.3729
2335 6 5.8143 14.3867 95.3729
2336 6 7.06023 16.5447 95.3729
2337 6 5.8143 18.7027 95.3729
2338 6 7.06023 20.8607 95.3729
2339 6 5.8143 23.0187 95.3729
2340 6 7.06023 25.1767 95.3729
2341 6 8.30615 1.43867 95.3729
2342 6 9.55207 3.59667 95.3729
2343 6 8.30615 5.75467 95.3729
2344 6 9.55207 7.91267 95.3729
2345 6 8.30615 10.0707 95.3729
2346 6 9.55207 12.2287 95.3729
2347 6 8.30615 14.3867 95.3729
2348 6 9.55207 16.5447 95.3729
2349 6 8.30615 18.7027 95.3729
2350 6 9.55207 20.8607 95.3729
2351 6 8.30615 23.0187 95.3729
2352 6 9.55207 25.1767 95.3729
2353 6 10.798 1.43867 95.3729
2354 6 12.0439 3.59667 95.3729
2355 6 10.798 5.75467 95.3729
2356 6 12.0439 7.91267 95.3729
2357 6 10.798 10.0707 95.3729
2358 6 12.0439 12.2287 95.3729
2359 6 10.798 14.3867 95.3729
2360 6 12.0439 16.5447 95.3729
2361 6 10.798 18.7027 95.3729
2362 6 12.0439 20.8607 95.3729
2363 6 10.798 23.0187 95.3729
2364 6 12.0439 25.1767 95.3729
2365 6 13.2898 1.43867 95.3729
2366 6 14.5358 3.59667 95.3729
2367 6 13.2898 5.75467 95.3729
2368 6 14.5358 7.91267 95.3729
2369 6 13.2898 10.0707 95.3729
2370 6 14.5358 12.2287 95.3729
2371 6 13.2898 14.3867 95.3729
2372 6 14.5358 16.5447 95.3729
2373 6 13.2898 18.7027 95.3729
2374 6 14.5358 20.8607 95.3729
2375 6 13.2898 23.0187 95.3729
2376 6 14.5358 25.1767 95.3729
2377 6 15.7817 1.43867 95.3729
2378 6 17.0276 3.59667 95.3729
2379 6 15.7817 5.75467 95.3729
2380 6 17.0276 7.91267 95.3729
2381 6 15.7817 10.0707 95.3729
2382 6 17.0276 12.2287 95.3729
2383 6 15.7817 14.3867 95.3729
2384 6 17.0276 16.5447 95.3729
2385 6 15.7817 18.7027 95.3729
2386 6 17.0276 20.8607 95.3729
2387 6 15.7817 23.0187 95.3729
2388 6 17.0276 25.1767 95.3729
2389 6 18.2735 1.43867 95.3729
2390 6 19.5194 3.59667 95.3729
2391 6 18.2735 5.75467 95.3729
2392 6 19.5194 7.91267 95.3729
2393 6 18.2735 10.0707 95.3729
2394 6 19.5194 12.2287 95.3729
2395 6 18.2735 14.3867 95.3729
2396 6 19.5194 16.5447 95.3729
2397 6 18.2735 18.7027 95.3729
2398 6 19.5194 20.8607 95.3729
2399 6 18.2735 23.0187 95.3729
2400 6 19.5194 25.1767 95.3729
2401 6 20.7654 1.43867 95.3729
2402 6 22.0113 3.59667 95.3729
2403 6 20.7654 5.75467 95.3729
2404 6 22.0113 7.91267 95.3729
2405 6 20.7654 10.0707 95.3729
2406 6 22.0113 12.2287 95.3729
2407 6 20.7654 14.3867 95.3729
2408 6 22.0113 16.5447 95.3729
2409 6 20.7654 18.7027 95.3729
2410 6 22.0113 20.8607 95.3729
2411 6 20.7654 23.0187 95.3729
2412 6 22.0113 25.1767 95.3729
2413 6 23.2572 1.43867 95.3729
2414 6 24.5031 3.59667 95.3729
2415 6 23.2572 5.75467 95.3729
2416 6 24.5031 7.91267 95.3729
2417 6 23.2572 10.0707 95.3729
2418 6 24.5031 12.2287 95.3729
2419 6 23.2572 14.3867 95.3729
2420 6 24.5031 16.5447 95.3729
2421 6 23.2572 18.7027 95.3729
2422 6 24.5031 20.8607 95.3729
2423 6 23.2572 23.0187 95.3729
2424 6 24.5031 25.1767 95.3729
2425 6 25.7491 1.43867 95.3729
2426 6 26.995 3.59667 95.3729
2427 6 25.7491 5.75467 95.3729
2428 6 26.995 7.91267 95.3729
2429 6 25.7491 10.0707 95.3729
2430 6 26.995 12.2287 95.3729
2431 6 25.7491 14.3867 95.3729
2432 6 26.995 16.5447 95.3729
2433 6 25.7491 18.7027 95.3729
2434 6 26.995 20.8607 95.3729
2435 6 25.7491 23.0187 95.3729
2436 6 26.995 25.1767 95.3729
2437 6 28.2409 1.43867 95.3729
2438 6 29.4868 3.59667 95.3729
2439 6 28.2409 5.75467 95.3729
2440 6 29.4868 7.91267 95.3729
2441 6 28.2409 10.0707 95.3729
2442 6 29.4868 12.2287 95.3729
2443 6 28.2409 14.3867 95.3729
2444 6 29.4868 16.5447 95.3729
2445 6 28.2409 18.7027 95.3729
2446 6 29.4868 20.8607 95.3729
2447 6 28.2409 23.0187 95.3729
2448 6 29.4868 25.1767 95.3729
2449 6 30.7327 1.43867 95.3729
2450 6 31.9787 3.59667 95.3729
2451 6 30.7327 5.75467 95.3729
2452 6 31.9787 7.91267 95.3729
2453 6 30.7327 10.0707 95.3729
2454 6 31.9787 12.2287 95.3729
2455 6 30.7327 14.3867 95.3729
2456 6 31.9787 16.5447 95.3729
2457 6 30.7327 18.7027 95.3729
2458 6 31.9787 20.8607 95.3729
2459 6 30.7327 23.0187 95.3729
2460 6 31.9787 25.1767 95.3729
2461 6 33.2246 1.43867 95.3729
2462 6 34.4705 3.59667 95.3729
2463 6 33.2246 5.75467 95.3729
2464 6 34.4705 7.91267 95.3729
2465 6 33.2246 10.0707 95.3729
2466 6 34.4705 12.2287 95.3729
2467 6 33.2246 14.3867 95.3729
2468 6 34.4705 16.5447 95.3729
2469 6 33.2246 18.7027 95.3729
2470 6 34.4705 20.8607 95.3729
2471 6 33.2246 23.0187 95.3729
2472 6 34.4705 25.1767 95.3729
2473 6 35.7164 1.43867 95.3729
2474 6 36.9624 3.59667 95.3729
2475 6 35.7164 5.75467 95.3729
2476 6 36.9624 7.91267 95.3729
2477 6 35.7164 10.0707 95.3729
2478 6 36.9624 12.2287 95.3729
2479 6 35.7164 14.3867 95.3729
2480 6 36.9624 16.5447 95.3729
2481 6 35.7164 18.7027 95.3729
2482 6 36.9624 20.8607 95.3729
2483 6 35.7164 23.0187 95.3729
2484 6 36.9624 25.1767 95.3729
2485 6 38.2083 1.43867 95.3729
2486 6 39.4542 3.59667 95.3729
2487 6 38.2083 5.75467 95.3729
2488 6 39.4542 7.91267 95.3729
2489 6 38.2083 10.0707 95.3729
2490 6 39.4542 12.2287 95.3729
2491 6 38.2083 14.3867 95.3729
2492 6 39.4542 16.5447 95.3729
2493 6 38.2083 18.7027 95.3729
2494 6 39.4542 20.8607 95.3729
2495 6 38.2083 23.0187 95.3729
2496 6 39.4542 25.1767 95.3729
2497 6 40.7001 1.43867 95.3729
2498 6 41.946 3.59667 95.3729
2499 6 40.7001 5.75467 95.3729
2500 6 41.946 7.91267 95.3729
2501 6 40.7001 10.0707 95.3729
2502 6 41.946 12.2287 95.3729
2503 6 40.7001 14.3867 95.3729
2504 6 41.946 16.5447 95.3729
2505 6 40.7001 18.7027 95.3729
2506 6 41.946 20.8607 95.3729
2507 6 40.7001 23.0187 95.3729
2508 6 41.946 25.1767 95.3729
2509 6 43.192 1.43867 95.3729
2510 6 44.4379 3.59667 95.3729
2511 6 43.192 5.75467 95.3729
2512 6 44.4379 7.91267 95.3729
2513 6 43.192 10.0707 95.3729
2514 6 44.4379 12.2287 95.3729
2515 6 43.192 14.3867 95.3729
2516 6 44.4379 16.5447 95.3729
2517 6 43.192 18.7027 95.3729
2518 6 44.4379 20.8607 95.3729
2519 6 43.192 23.0187 95.3729
2520 6 44.4379 25.1767 95.3729
2521 6 45.6838 1.43867 95.3729
2522 6 46.9297 3.59667 95.3729
2523 6 45.6838 5.75467 95.3729
2524 6 46.9297 7.91267 95.3729
2525 6 45.6838 10.0707 95.3729
2526 6 46.9297 12.2287 95.3729
2527 6 45.6838 14.3867 95.3729
2528 6 46.9297 16.5447 95.3729
2529 6 45.6838 18.7027 95.3729
2530 6 46.9297 20.8607 95.3729
2531 6 45.6838 23.0187 95.3729
2532 6 46.9297 25.1767 95.3729
2533 6 48.1757 1.43867 95.3729
2534 6 49.4216 3.59667 95.3729
2535 6 48.1757 5.75467 95.3729
2536 6 49.4216 7.91267 95.3729
2537 6 48.1757 10.0707 95.3729
2538 6 49.4216 12.2287 95.3729
2539 6 48.1757 14.3867 95.3729
2540 6 49.4216 16.5447 95.3729
2541 6 48.1757 18.7027 95.3729
2542 6 49.4216 20.8607 95.3729
2543 6 48.1757 23.0187 95.3729
2544 6 49.4216 25.1767 95.3729
2545 6 50.6675 1.43867 95.3729
2546 6 51.9134 3.59667 95.3729
2547 6 50.6675 5.75467 95.3729
2548 6 51.9134 7.91267 95.3729
2549 6 50.6675 10.0707 95.3729
2550 6 51.9134 12.2287 95.3729
2551 6 50.6675 14.3867 95.3729
2552 6 51.9134 16.5447 95.3729
2553 6 50.6675 18.7027 95.3729
2554 6 51.9134 20.8607 95.3729
2555 6 50.6675 23.0187 95.3729
2556 6 51.9134 25.1767 95.3729
2557 6 53.1594 1.43867 95.3729
2558 6 54.4053 3.59667 95.3729
2559 6 53.1594 5.75467 95.3729
2560 6 54.4053 7.91267 95.3729
2561 6 53.1594 10.0707 95.3729
2562 6 54.4053 12.2287 95.3729
2563 6 53.1594 14.3867 95.3729
2564 6 54.4053 16.5447 95.3729
2565 6 53.1594 18.7027 95.3729
2566 6 54.4053 20.8607 95.3729
2567 6 53.1594 23.0187 95.3729
2568 6 54.4053 25.1767 95.3729
2569 6 55.6512 1.43867 95.3729
2570 6 56.8971 3.59667 95.3729
2571 6 55.6512 5.75467 95.3729
2572 6 56.8971 7.91267 95.3729
2573 6 55.6512 10.0707 95.3729
2574 6 56.8971 12.2287 95.3729
2575 6 55.6512 14.3867 95.3729
2576 6 56.8971 16.5447 95.3729
2577 6 55.6512 18.7027 95.3729
2578 6 56.8971 20.8607 95.3729
2579 6 55.6512 23.0187 95.3729
2580 6 56.8971 25.1767 95.3729
2581 6 58.143 1.43867 95.3729
2582 6 59.389 3.59667 95.3729
2583 6 58.143 5.75467 95.3729
2584 6 59.389 7.91267 95.3729
2585 6 58.143 10.0707 95.3729
2586 6 59.389 12.2287 95.3729
2587 6 58.143 14.3867 95.3729
2588 6 59.389 16.5447 95.3729
2589 6 58.143 18.7027 95.3729
2590 6 59.389 20.8607 95.3729
2591 6 58.143 23.0187 95.3729
2592 6 59.389 25.1767 95.3729
2593 6 60.6349 1.43867 95.3729
2594 6 61.8808 3.59667 95.3729
2595 6 60.6349 5.75467 95.3729
2596 6 61.8808 7.91267 95.3729
2597 6 60.6349 10.0707 95.3729
2598 6 61.8808 12.2287 95.3729
2599 6 60.6349 14.3867 95.3729
2600 6 61.8808 16.5447 95.3729
2601 6 60.6349 18.7027 95.3729
2602 6 61.8808 20.8607 95.3729
2603 6 60.6349 23.0187 95.3729
2604 6 61.8808 25.1767 95.3729
2605 6 63.1267 1.43867 95.3729
2606 6 64.3726 3.59667 95.3729
2607 6 63.1267 5.75467 95.3729
2608 6 64.3726 7.91267 95.3729
2609 6 63.1267 10.0707 95.3729
2610 6 64.3726 12.2287 95.3729
2611 6 63.1267 14.3867 95.3729
2612 6 64.3726 16.5447 95.3729
2613 6 63.1267 18.7027 95.3729
2614 6 64.3726 20.8607 95.3729
2615 6 63.1267 23.0187 95.3729
2616 6 64.3726 25.1767 95.3729
2617 6 65.6186 1.43867 95.3729
2618 6 66.8645 3.59667 95.3729
2619 6 65.6186 5.75467 95.3729
2620 6 66.8645 7.91267 95.3729
2621 6 65.6186 10.0707 95.3729
2622 6 66.8645 12.2287 95.3729
2623 6 65.6186 14.3867 95.3729
2624 6 66.8645 16.5447 95.3729
2625 6 65.6186 18.7027 95.3729
2626 6 66.8645 20.8607 95.3729
2627 6 65.6186 23.0187 95.3729
2628 6 66.8645 25.1767 95.3729
2629 6 68.1104 1.43867 95.3729
2630 6 69.3563 3.59667 95.3729
2631 6 68.1104 5.75467 95.3729
2632 6 69.3563 7.91267 95.3729
2633 6 68.1104 10.0707 95.3729
2634 6 69.3563 12.2287 95.3729
2635 6 68.1104 14.3867 95.3729
2636 6 69.3563 16.5447 95.3729
2637 6 68.1104 18.7027 95.3729
2638 6 69.3563 20.8607 95.3729
2639 6 68.1104 23.0187 95.3729
2640 6 69.3563 25.1767 95.3729
2641 6 70.6023 1.43867 95.3729
2642 6 71.8482 3.59667 95.3729
2643 6 70.6023 5.75467 95.3729
2644 6 71.8482 7.91267 95.3729
2645 6 70.6023 10.0707 95.3729
2646 6 71.8482 12.2287 95.3729
2647 6 70.6023 14.3867 95.3729
2648 6 71.8482 16.5447 95.3729
2649 6 70.6023 18.7027 95.3729
2650 6 71.8482 20.8607 95.3729
2651 6 70.6023 23.0187 95.3729
2652 6 71.8482 25.1767 95.3729
2653 6 73.0941 1.43867 95.3729
2654 6 74.34 3.59667 95.3729
2655 6 73.0941 5.75467 95.3729
2656 6 74.34 7.91267 95.3729
2657 6 73.0941 10.0707 95.3729
2658 6 74.34 12.2287 95.3729
2659 6 73.0941 14.3867 95.3729
2660 6 74.34 16.5447 95.3729
2661 6 73.0941 18.7027 95.3729
2662 6 74.34 20.8607 95.3729
2663 6 73.0941 23.0187 95.3729
2664 6 74.34 25.1767 95.3729
2665 6 75.5859 1.43867 95.3729
2666 6 76.8319 3.59667 95.3729
2667 6 75.5859 5.75467 95.3729
2668 6 76.8319 7.91267 95.3729
2669 6 75.5859 10.0707 95.3729
2670 6 76.8319 12.2287 95.3729
2671 6 75.5859 14.3867 95.3729
2672 6 76.8319 16.5447 95.3729
2673 6 75.5859 18.7027 95.3729
2674 6 76.8319 20.8607 95.3729
2675 6 75.5859 23.0187 95.3729
2676 6 76.8319 25.1767 95.3729
2677 6 78.0778 1.43867 95.3729
2678 6 79.3237 3.59667 95.3729
2679 6 78.0778 5.75467 95.3729
2680 6 79.3237 7.91267 95.3729
2681 6 78.0778 10.0707 95.3729
2682 6 79.3237 12.2287 95.3729
2683 6 78.0778 14.3867 95.3729
2684 6 79.3237 16.5447 95.3729
2685 6 78.0778 18.7027 95.3729
2686 6 79.3237 20.8607 95.3729
2687 6 78.0778 23.0187 95.3729
2688 6 79.3237 25.1767 95.3729
2689 6 1.66123 2.87733 97.4075
2690 6 2.90715 5.03533 97.4075
2691 6 1.66123 7.19333 97.4075
2692 6 2.90715 9.35134 97.4075
2693 6 1.66123 11.5093 97.4075
2694 6 2.90715 13.6673 97.4075
2695 6 1.66123 15.8253 97.4075
2696 6 2.90715 17.9833 97.4075
2697 6 1.66123 20.1413 97.4075
2698 6 2.90715 22.2993 97.4075
2699 6 1.66123 24.4573 97.4075
2700 6 2.90715 26.6153 97.4075
2701 6 4.15307 2.87733 97.4075
2702 6 5.399 5.03533 97.4075
2703 6 4.15307 7.19333 97.4075
2704 6 5.399 9.35134 97.4075
2705 6 4.15307 11.5093 97.4075
2706 6 5.399 13.6673 97.4075
2707 6 4.15307 15.8253 97.4075
2708 6 5.399 17.9833 97.4075
2709 6 4.15307 20.1413 97.4075
2710 6 5.399 22.2993 97.4075
2711 6 4.15307 24.4573 97.4075
2712 6 5.399 26.6153 97.4075
2713 6 6.64492 2.87733 97.4075
2714 6 7.89084 5.03533 97.4075
2715 6 6.64492 7.19333 97.4075
2716 6 7.89084 9.35134 97.4075
2717 6 6.64492 11.5093 97.4075
2718 6 7.89084 13.6673 97.4075
2719 6 6.64492 15.8253 97.4075
2720 6 7.89084 17.9833 97.4075
2721 6 6.64492 20.1413 97.4075
2722 6 7.89084 22.2993 97.4075
2723 6 6.64492 24.4573 97.4075
2724 6 7.89084 26.6153 97.4075
2725 6 9.13676 2.87733 97.4075
2726 6 10.3827 5.03533 97.4075
2727 6 9.13676 7.19333 97.4075
2728 6 10.3827 9.35134 97.4075
2729 6 9.13676 11.5093 97.4075
2730 6 10.3827 13.6673 97.4075
2731 6 9.13676 15.8253 97.4075
2732 6 10.3827 17.9833 97.4075
2733 6 9.13676 20.1413 97.4075
2734 6 10.3827 22.2993 97.4075
2735 6 9.13676 24.4573 97.4075
2736 6 10.3827 26.6153 97.4075
2737 6 11.6286 2.87733 97.4075
2738 6 12.8745 5.03533 97.4075
2739 6 11.6286 7.19333 97.4075
2740 6 12.8745 9.35134 97.4075
2741 6 11.6286 11.5093 97.4075
2742 6 12.8745 13.6673 97.4075
2743 6 11.6286 15.8253 97.4075
2744 6 12.8745 17.9833 97.4075
2745 6 11.6286 20.1413 97.4075
2746 6 12.8745 22.2993 97.4075
2747 6 11.6286 24.4573 97.4075
2748 6 12.8745 26.6153 97.4075
2749 6 14.1204 2.87733 97.4075
2750 6 15.3664 5.03533 97.4075
2751 6 14.1204 7.19333 97.4075
2752 6 15.3664 9.35134 97.4075
2753 6 14.1204 11.5093 97.4075
2754 6 15.3664 13.6673 97.4075
2755 6 14.1204 15.8253 97.4075
2756 6 15.3664 17.9833 97.4075
2757 6 14.1204 20.1413 97.4075
2758 6 15.3664 22.2993 97.4075
2759 6 14.1204 24.4573 97.4075
2760 6 15.3664 26.6153 97.4075
2761 6 16.6123 2.87733 97.4075
2762 6 17.8582 5.03533 97.4075
2763 6 16.6123 7.19333 97.4075
2764 6 17.8582 9.35134 97.4075
2765 6 16.6123 11.5093 97.4075
2766 6 17.8582 13.6673 97.4075
2767 6 16.6123 15.8253 97.4075
2768 6 17.8582 17.9833 97.4075
2769 6 16.6123 20.1413 97.4075
2770 6 17.8582 22.2993 97.4075
2771 6 16.6123 24.4573 97.4075
2772 6 17.8582 26.6153 97.4075
2773 6 19.1041 2.87733 97.4075
2774 6 20.3501 5.03533 97.4075
2775 6 19.1041 7.19333 97.4075
2776 6 20.3501 9.35134 97.4075
2777 6 19.1041 11.5093 97.4075
2778 6 20.3501 13.6673 97.4075
2779 6 19.1041 15.8253 97.4075
2780 6 20.3501 17.9833 97.4075
2781 6 19.1041 20.1413 97.4075
2782 6 20.3501 22.2993 97.4075
2783 6 19.1041 24.4573 97.4075
2784 6 20.3501 26.6153 97.4075
2785 6 21.596 2.87733 97.4075
2786 6 22.8419 5.03533 97.4075
2787 6 21.596 7.19333 97.4075
2788 6 22.8419 9.35134 97.4075
2789 6 21.596 11.5093 97.4075
2790 6 22.8419 13.6673 97.4075
2791 6 21.596 15.8253 97.4075
2792 6 22.8419 17.9833 97.4075
2793 6 21.596 20.1413 97.4075
2794 6 22.8419 22.2993 97.4075
2795 6 21.596 24.4573 97.4075
2796 6 22.8419 26.6153 97.4075
2797 6 24.0878 2.87733 97.4075
2798 6 25.3337 5.03533 97.4075
2799 6 24.0878 7.19333 97.4075
2800 6 25.3337 9.35134 97.4075
2801 6 24.0878 11.5093 97.4075
2802 6 25.3337 13.6673 97.4075
2803 6 24.0878 15.8253 97.4075
2804 6 25.3337 17.9833 97.4075
2805 6 24.0878 20.1413 97.4075
2806 6 25.3337 22.2993 97.4075
2807 6 24.0878 24.4573 97.4075
2808 6 25.3337 26.6153 97.4075
2809 6 26.5797 2.87733 97.4075
2810 6 27.8256 5.03533 97.4075
2811 6 26.5797 7.19333 97.4075
2812 6 27.8256 9.35134 97.4075
2813 6 26.5797 11.5093 97.4075
2814 6 27.8256 13.6673 97.4075
2815 6 26.5797 15.8253 97.4075
2816 6 27.8256 17.9833 97.4075
2817 6 26.5797 20.1413 97.4075
2818 6 27.8256 22.2993 97.4075
2819 6 26.5797 24.4573 97.4075
2820 6 27.8256 26.6153 97.4075
2821 6 29.0715 2.87733 97.4075
2822 6 30.3174 5.03533 97.4075
2823 6 29.0715 7.19333 97.4075
2824 6 30.3174 9.35134 97.4075
2825 6 29.0715 11.5093 97.4075
2826 6 30.3174 13.6673 97.4075
2827 6 29.0715 15.8253 97.4075
2828 6 30.3174 17.9833 97.4075
2829 6 29.0715 20.1413 97.4075
2830 6 30.3174 22.2993 97.4075
2831 6 29.0715 24.4573 97.4075
2832 6 30.3174 26.6153 97.4075
2833 6 31.5634 2.87733 97.4075
2834 6 32.8093 5.03533 97.4075
2835 6 31.5634 7.19333 97.4075
2836 6 32.8093 9.35134 97.4075
2837 6 31.5634 11.5093 97.4075
2838 6 32.8093 13.6673 97.4075
2839 6 31.5634 15.8253 97.4075
2840 6 32.8093 17.9833 97.4075
2841 6 31.5634 20.1413 97.4075
2842 6 32.8093 22.2993 97.4075
2843 6 31.5634 24.4573 97.4075
2844 6 32.8093 26.6153 97.4075
2845 6 34.0552 2.87733 97.4075
2846 6 35.3011 5.03533 97.4075
2847 6 34.0552 7.19333 97.4075
2848 6 35.3011 9.35134 97.4075
2849 6 34.0552 11.5093 97.4075
2850 6 35.3011 13.6673 97.4075
2851 6 34.0552 15.8253 97.4075
2852 6 35.3011 17.9833 97.4075
2853 6 34.0552 20.1413 97.4075
2854 6 35.3011 22.2993 97.4075
2855 6 34.0552 24.4573 97.4075
2856 6 35.3011 26.6153 97.4075
2857 6 36.547 2.87733 97.4075
2858 6 37.793 5.03533 97.4075
2859 6 36.547 7.19333 97.4075
2860 6 37.793 9.35134 97.4075
2861 6 36.547 11.5093 97.4075
2862 6 37.793 13.6673 97.4075
2863 6 36.547 15.8253 97.4075
2864 6 37.793 17.9833 97.4075
2865 6 36.547 20.1413 97.4075
2866 6 37.793 22.2993 97.4075
2867 6 36.547 24.4573 97.4075
2868 6 37.793 26.6153 97.4075
2869 6 39.0389 2.87733 97.4075
2870 6 40.2848 5.03533 97.4075
2871 6 39.0389 7.19333 97.4075
2872 6 40.2848 9.35134 97.4075
2873 6 39.0389 11.5093 97.4075
2874 6 40.2848 13.6673 97.4075
2875 6 39.0389 15.8253 97.4075
2876 6 40.2848 17.9833 97.4075
2877 6 39.0389 20.1413 97.4075
2878 6 40.2848 22.2993 97.4075
2879 6 39.0389 24.4573 97.4075
2880 6 40.2848 26.6153 97.4075
2881 6 41.5307 2.87733 97.4075
2882 6 42.7767 5.03533 97.4075
2883 6 41.5307 7.19333 97.4075
2884 6 42.7767 9.35134 97.4075
2885 6 41.5307 11.5093 97.4075
2886 6 42.7767 13.6673 97.4075
2887 6 41.5307 15.8253 97.4075
2888 6 42.7767 17.9833 97.4075
2889 6 41.5307 20.1413 97.4075
2890 6 42.7767 22.2993 97.4075
2891 6 41.5307 24.4573 97.4075
2892 6 42.7767 26.6153 97.4075
2893 6 44.0226 2.87733 97.4075
2894 6 45.2685 5.03533 97.4075
2895 6 44.0226 7.19333 97.4075
2896 6 45.2685 9.35134 97.4075
2897 6 44.0226 11.5093 97.4075
2898 6 45.2685 13.6673 97.4075
2899 6 44.0226 15.8253 97.4075
2900 6 45.2685 17.9833 97.4075
2901 6 44.0226 20.1413 97.4075
2902 6 45.2685 22.2993 97.4075
2903 6 44.0226 24.4573 97.4075
2904 6 45.2685 26.6153 97.4075
2905 6 46.5144 2.87733 97.4075
2906 6 47.7604 5.03533 97.4075
2907 6 46.5144 7.19333 97.4075
2908 6 47.7604 9.35134 97.4075
2909 6 46.5144 11.5093 97.4075
2910 6 47.7604 13.6673 97.4075
2911 6 46.5144 15.8253 97.4075
2912 6 47.7604 17.9833 97.4075
2913 6 46.5144 20.1413 97.4075
2914 6 47.7604 22.2993 97.4075
2915 6 46.5144 24.4573 97.4075
2916 6 47.7604 26.6153 97.4075
2917 6 49.0063 2.87733 97.4075
2918 6 50.2522 5.03533 97.4075
2919 6 49.0063 7.19333 97.4075
2920 6 50.2522 9.35134 97.4075
2921 6 49.0063 11.5093 97.4075
2922 6 50.2522 13.6673 97.4075
2923 6 49.0063 15.8253 97.4075
2924 6 50.2522 17.9833 97.4075
2925 6 49.0063 20.1413 97.4075
2926 6 50.2522 22.2993 97.4075
2927 6 49.0063 24.4573 97.4075
2928 6 50.2522 26.6153 97.4075
2929 6 51.4981 2.87733 97.4075
2930 6 52.744 5.03533 97.4075
2931 6 51.4981 7.19333 97.4075
2932 6 52.744 9.35134 97.4075
2933 6 51.4981 11.5093 97.4075
2934 6 52.744 13.6673 97.4075
2935 6 51.4981 15.8253 97.4075
2936 6 52.744 17.9833 97.4075
2937 6 51.4981 20.1413 97.4075
2938 6 52.744 22.2993 97.4075
2939 6 51.4981 24.4573 97.4075
2940 6 52.744 26.6153 97.4075
2941 6 53.99 2.87733 97.4075
2942 6 55.2359 5.03533 97.4075
2943 6 53.99 7.19333 97.4075
2944 6 55.2359 9.35134 97.4075
2945 6 53.99 11.5093 97.4075
2946 6 55.2359 13.6673 97.4075
2947 6 53.99 15.8253 97.4075
2948 6 55.2359 17.9833 97.4075
2949 6 53.99 20.1413 97.4075
2950 6 55.2359 22.2993 97.4075
2951 6 53.99 24.4573 97.4075
2952 6 55.2359 26.6153 97.4075
2953 6 56.4818 2.87733 97.4075
2954 6 57.7277 5.03533 97.4075
2955 6 56.4818 7.19333 97.4075
2956 6 57.7277 9.35134 97.4075
2957 6 56.4818 11.5093 97.4075
2958 6 57.7277 13.6673 97.4075
2959 6 56.4818 15.8253 97.4075
2960 6 57.7277 17.9833 97.4075
2961 6 56.4818 20.1413 97.4075
2962 6 57.7277 22.2993 97.4075
2963 6 56.4818 24.4573 97.4075
2964 6 57.7277 26.6153 97.4075
2965 6 58.9736 2.87733 97.4075
2966 6 60.2196 5.03533 97.4075
2967 6 58.9736 7.19333 97.4075
2968 6 60.2196 9.35134 97.4075
2969 6 58.9736 11.5093 97.4075
2970 6 60.2196 13.6673 97.4075
2971 6 58.9736 15.8253 97.4075
2972 6 60.2196 17.9833 97.4075
2973 6 58.9736 20.1413 97.4075
2974 6 60.2196 22.2993 97.4075
2975 6 58.9736 24.4573 97.4075
2976 6 60.2196 26.6153 97.4075
2977 6 61.4655 2.87733 97.4075
2978 6 62.7114 5.03533 97.4075
2979 6 61.4655 7.19333 97.4075
2980 6 62.7114 9.35134 97.4075
2981 6 61.4655 11.5093 97.4075
2982 6 62.7114 13.6673 97.4075
2983 6 61.4655 15.8253 97.4075
2984 6 62.7114 17.9833 97.4075
2985 6 61.4655 20.1413 97.4075
2986 6 62.7114 22.2993 97.4075
2987 6 61.4655 24.4573 97.4075
2988 6 62.7114 26.6153 97.4075
2989 6 63.9573 2.87733 97.4075
2990 6 65.2033 5.03533 97.4075
2991 6 63.9573 7.19333 97.4075
2992 6 65.2033 9.35134 97.4075
2993 6 63.9573 11.5093 97.4075
2994 6 65.2033 13.6673 97.4075
2995 6 63.9573 15.8253 97.4075
2996 6 65.2033 17.9833 97.4075
2997 6 63.9573 20.1413 97.4075
2998 6 65.2033 22.2993 97.4075
2999 6 63.9573 24.4573 97.4075
3000 6 65.2033 26.6153 97.4075
3001 6 66.4492 2.87733 97.4075
3002 6 67.6951 5.03533 97.4075
3003 6 66.4492 7.19333 97.4075
3004 6 67.6951 9.35134 97.4075
3005 6 66.4492 11.5093 97.4075
3006 6 67.6951 13.6673 97.4075
3007 6 66.4492 15.8253 97.4075
3008 6 67.6951 17.9833 97.4075
3009 6 66.4492 20.1413 97.4075
3010 6 67.6951 22.2993 97.4075
3011 6 66.4492 24.4573 97.4075
3012 6 67.6951 26.6153 97.4075
3013 6 68.941 2.87733 97.4075
3014 6 70.1869 5.03533 97.4075
3015 6 68.941 7.19333 97.4075
3016 6 70.1869 9.35134 97.4075
3017 6 68.941 11.5093 97.4075
3018 6 70.1869 13.6673 97.4075
3019 6 68.941 15.8253 97.4075
3020 6 70.1869 17.9833 97.4075
3021 6 68.941 20.1413 97.4075
3022 6 70.1869 22.2993 97.4075
3023 6 68.941 24.4573 97.4075
3024 6 70.1869 26.6153 97.4075
3025 6 71.4329 2.87733 97.4075
3026 6 72.6788 5.03533 97.4075
3027 6 71.4329 7.19333 97.4075
3028 6 72.6788 9.35134 97.4075
3029 6 71.4329 11.5093 97.4075
3030 6 72.6788 13.6673 97.4075
3031 6 71.4329 15.8253 97.4075
3032 6 72.6788 17.9833 97.4075
3033 6 71.4329 20.1413 97.4075
3034 6 72.6788 22.2993 97.4075
3035 6 71.4329 24.4573 97.4075
3036 6 72.6788 26.6153 97.4075
3037 6 73.9247 2.87733 97.4075
3038 6 75.1706 5.03533 97.4075
3039 6 73.9247 7.19333 97.4075
3040 6 75.1706 9.35134 97.4075
3041 6 73.9247 11.5093 97.4075
3042 6 75.1706 13.6673 97.4075
3043 6 73.9247 15.8253 97.4075
3044 6 75.1706 17.9833 97.4075
3045 6 73.9247 20.1413 97.4075
3046 6 75.1706 22.2993 97.4075
3047 6 73.9247 24.4573 97.4075
3048 6 75.1706 26.6153 97.4075
3049 6 76.4166 2.87733 97.4075
3050 6 77.6625 5.03533 97.4075
3051 6 76.4166 7.19333 97.4075
3052 6 77.6625 9.35134 97.4075
3053 6 76.4166 11.5093 97.4075
3054 6 77.6625 13.6673 97.4075
3055 6 76.4166 15.8253 97.4075
3056 6 77.6625 17.9833 97.4075
3057 6 76.4166 20.1413 97.4075
3058 6 77.6625 22.2993 97.4075
3059 6 76.4166 24.4573 97.4075
3060 6 77.6625 26.6153 97.4075
3061 6 78.9084 2.87733 97.4075
3062 6 0.15432 5.03533 97.4075
3063 6 78.9084 7.19333 97.4075
3064 6 0.15432 9.35134 97.4075
3065 6 78.9084 11.5093 97.4075
3066 6 0.15432 13.6673 97.4075
3067 6 78.9084 15.8253 97.4075
3068 6 0.15432 17.9833 97.4075
3069 6 78.9084 20.1413 97.4075
3070 6 0.15432 22.2993 97.4075
3071 6 78.9084 24.4573 97.4075
3072 6 0.15432 26.6153 97.4075
3073 6 0 0 99.4421
3074 6 1.24592 2.158 99.4421
3075 6 0 4.316 99.4421
3076 6 1.24592 6.474 99.4421
3077 6 0 8.632 99.4421
3078 6 1.24592 10.79 99.4421
3079 6 0 12.948 99.4421
3080 6 1.24592 15.106 99.4421
3081 6 0 17.264 99.4421
3082 6 1.24592 19.422 99.4421
3083 6 0 21.58 99.4421
3084 6 1.24592 23.738 99.4421
3085 6 2.49184 0 99.4421
3086 6 3.73777 2.158 99.4421
3087 6 2.49184 4.316 99.4421
3088 6 3.73777 6.474 99.4421
3089 6 2.49184 8.632 99.4421
3090 6 3.73777 10.79 99.4421
3091 6 2.49184 12.948 99.4421
3092 6 3.73777 15.106 99.4421
3093 6 2.49184 17.264 99.4421
3094 6 3.73777 19.422 99.4421
3095 6 2.49184 21.58 99.4421
3096 6 3.73777 23.738 99.4421
3097 6 4.98369 0 99.4421
3098 6 6.22961 2.158 99.4421
3099 6 4.98369 4.316 99.4421
3100 6 6.22961 6.474 99.4421
3101 6 4.98369 8.632 99.4421
3102 6 6.22961 10.79 99.4421
3103 6 4.98369 12.948 99.4421
3104 6 6.22961 15.106 99.4421
3105 6 4.98369 17.264 99.4421
3106 6 6.22961 19.422 99.4421
3107 6 4.98369 21.58 99.4421
3108 6 6.22961 23.738 99.4421
3109 6 7.47553 0 99.4421
3110 6 8.72146 2.158 99.4421
3111 6 7.47553 4.316 99.4421
3112 6 8.72146 6.474 99.4421
3113 6 7.47553 8.632 99.4421
3114 6 8.72146 10.79 99.4421
3115 6 7.47553 12.948 99.4421
3116 6 8.72146 15.106 99.4421
3117 6 7.47553 17.264 99.4421
3118 6 8.72146 19.422 99.4421
3119 6 7.47553 21.58 99.4421
3120 6 8.72146 23.738 99.4421
3121 6 9.96738 0 99.4421
3122 6 11.2133 2.158 99.4421
3123 6 9.96738 4.316 99.4421
3124 6 11.2133 6.474 99.4421
3125 6 9.96738 8.632 99.4421
3126 6 11.2133 10.79 99.4421
3127 6 9.96738 12.948 99.4421
3128 6 11.2133 15.106 99.4421
3129 6 9.96738 17.264 99.4421
3130 6 11.2133 19.422 99.4421
3131 6 9.96738 21.58 99.4421
3132 6 11.2133 23.738 99.4421
3133 6 12.4592 0 99.4421
3134 6 13.7051 2.158 99.4421
3135 6 12.4592 4.316 99.4421
3136 6 13.7051 6.474 99.4421
3137 6 12.4592 8.632 99.4421
3138 6 13.7051 10.79 99.4421
3139 6 12.4592 12.948 99.4421
3140 6 13.7051 15.106 99.4421
3141 6 12.4592 17.264 99.4421
3142 6 13.7051 19.422 99.4421
3143 6 12.4592 21.58 99.4421
3144 6 13.7051 23.738 99.4421
3145 6 14.9511 0 99.4421
3146 6 16.197 2.158 99.4421
3147 6 14.9511 4.316 99.4421
3148 6 16.197 6.474 99.4421
3149 6 14.9511 8.632 99.4421
3150 6 16.197 10.79 99.4421
3151 6 14.9511 12.948 99.4421
3152 6 16.197 15.106 99.4421
3153 6 14.9511 17.264 99.4421
3154 6 16.197 19.422 99.4421
3155 6 14.9511 21.58 99.4421
3156 6 16.197 23.738 99.4421
3157 6 17.4429 0 99.4421
3158 6 18.6888 2.158 99.4421
3159 6 17.4429 4.316 99.4421
3160 6 18.6888 6.474 99.4421
3161 6 17.4429 8.632 99.4421
3162 6 18.6888 10.79 99.4421
3163 6 17.4429 12.948 99.4421
3164 6 18.6888 15.106 99.4421
3165 6 17.4429 17.264 99.4421
3166 6 18.6888 19.422 99.4421
3167 6 17.4429 21.58 99.4421
3168 6 18.6888 23.738 99.4421
3169 6 19.9348 0 99.4421
3170 6 21.1807 2.158 99.4421
3171 6 19.9348 4.316 99.4421
3172 6 21.1807 6.474 99.4421
3173 6 19.9348 8.632 99.4421
3174 6 21.1807 10.79 99.4421
3175 6 19.9348 12.948 99.4421
3176 6 21.1807 15.106 99.4421
3177 6 19.9348 17.264 99.4421
3178 6 21.1807 19.422 99.4421
3179 6 19.9348 21.58 99.4421
3180 6 21.1807 23.738 99.4421
3181 6 22.4266 0 99.4421
3182 6 23.6725 2.158 99.4421
3183 6 22.4266 4.316 99.4421
3184 6 23.6725 6.474 99.4421
3185 6 22.4266 8.632 99.4421
3186 6 23.6725 10.79 99.4421
3187 6 22.4266 12.948 99.4421
3188 6 23.6725 15.106 99.4421
3189 6 22.4266 17.264 99.4421
3190 6 23.6725 19.422 99.4421
3191 6 22.4266 21.58 99.4421
3192 6 23.6725 23.738 99.4421
3193 6 24.9184 0 99.4421
3194 6 26.1644 2.158 99.4421
3195 6 24.9184 4.316 99.4421
3196 6 26.1644 6.474 99.4421
3197 6 24.9184 8.632 99.4421
3198 6 26.1644 10.79 99.4421
3199 6 24.9184 12.948 99.4421
3200 6 26.1644 15.106 99.4421
3201 6 24.9184 17.264 99.4421
3202 6 26.1644 19.422 99.4421
3203 6 24.9184 21.58 99.4421
3204 6 26.1644 23.738 99.4421
3205 6 27.4103 0 99.4421
3206 6 28.6562 2.158 99.4421
3207 6 27.4103 4.316 99.4421
3208 6 28.6562 6.474 99.4421
3209 6 27.4103 8.632 99.4421
3210 6 28.6562 10.79 99.4421
3211 6 27.4103 12.948 99.4421
3212 6 28.6562 15.106 99.4421
3213 6 27.4103 17.264 99.4421
3214 6 28.6562 19.422 99.4421
3215 6 27.4103 21.58 99.4421
3216 6 28.6562 23.738 99.4421
3217 6 29.9021 0 99.4421
3218 6 31.1481 2.158 99.4421
3219 6 29.9021 4.316 99.4421
3220 6 31.1481 6.474 99.4421
3221 6 29.9021 8.632 99.4421
3222 6 31.1481 10.79 99.4421
3223 6 29.9021 12.948 99.4421
3224 6 31.1481 15.106 99.4421
3225 6 29.9021 17.264 99.4421
3226 6 31.1481 19.422 99.4421
3227 6 29.9021 21.58 99.4421
3228 6 31.1481 23.738 99.4421
3229 6 32.394 0 99.4421
3230 6 33.6399 2.158 99.4421
3231 6 32.394 4.316 99.4421
3232 6 33.6399 6.474 99.4421
3233 6 32.394 8.632 99.4421
3234 6 33.6399 10.79 99.4421
3235 6 32.394 12.948 99.4421
3236 6 33.6399 15.106 99.4421
3237 6 32.394 17.264 99.4421
3238 6 33.6399 19.422 99.4421
3239 6 32.394 21.58 99.4421
3240 6 33.6399 23.738 99.4421
3241 6 34.8858 0 99.4421
3242 6 36.1317 2.158 99.4421
3243 6 34.8858 4.316 99.4421
3244 6 36.1317 6.474 99.4421
3245 6 34.8858 8.632 99.4421
3246 6 36.1317 10.79 99.4421
3247 6 34.8858 12.948 99.4421
3248 6 36.1317 15.106 99.4421
3249 6 34.8858 17.264 99.4421
3250 6 36.1317 19.422 99.4421
3251 6 34.8858 21.58 99.4421
3252 6 36.1317 23.738 99.4421
3253 6 37.3777 0 99.4421
3254 6 38.6236 2.158 99.4421
3255 6 37.3777 4.316 99.4421
3256 6 38.6236 6.474 99.4421
3257 6 37.3777 8.632 99.4421
3258 6 38.6236 10.79 99.4421
3259 6 37.3777 12.948 99.4421
3260 6 38.6236 15.106 99.4421
3261 6 37.3777 17.264 99.4421
3262 6 38.6236 19.422 99.4421
3263 6 37.3777 21.58 99.4421
3264 6 38.6236 23.738 99.4421
3265 6 39.8695 0 99.4421
3266 6 41.1154 2.158 99.4421
3267 6 39.8695 4.316 99.4421
3268 6 41.1154 6.474 99.4421
3269 6 39.8695 8.632 99.4421
3270 6 41.1154 10.79 99.4421
3271 6 39.8695 12.948 99.4421
3272 6 41.1154 15.106 99.4421
3273 6 39.8695 17.264 99.4421
3274 6 41.1154 19.422 99.4421
3275 6 39.8695 21.58 99.4421
3276 6 41.1154 23.738 99.4421
3277 6 42.3614 0 99.4421
3278 6 43.6073 2.158 99.4421
3279 6 42.3614 4.316 99.4421
3280 6 43.6073 6.474 99.4421
3281 6 42.3614 8.632 99.4421
3282 6 43.6073 10.79 99.4421
3283 6 42.3614 12.948 99.4421
3284 6 43.6073 15.106 99.4421
3285 6 42.3614 17.264 99.4421
3286 6 43.6073 19.422 99.4421
3287 6 42.3614 21.58 99.4421
3288 6 43.6073 23.738 99.4421
3289 6 44.8532 0 99.4421
3290 6 46.0991 2.158 99.4421
3291 6 44.8532 4.316 99.4421
3292 6 46.0991 6.474 99.4421
3293 6 44.8532 8.632 99.4421
3294 6 46.0991 10.79 99.4421
3295 6 44.8532 12.948 99.4421
3296 6 46.0991 15.106 99.4421
3297 6 44.8532 17.264 99.4421
3298 6 46.0991 19.422 99.4421
3299 6 44.8532 21.58 99.4421
3300 6 46.0991 23.738 99.4421
3301 6 47.345 0 99.4421
3302 6 48.591 2.158 99.4421
3303 6 47.345 4.316 99.4421
3304 6 48.591 6.474 99.4421
3305 6 47.345 8.632 99.4421
3306 6 48.591 10.79 99.4421
3307 6 47.345 12.948 99.4421
3308 6 48.591 15.106 99.4421
3309 6 47.345 17.264 99.4421
3310 6 48.591 19.422 99.4421
3311 6 47.345 21.58 99.4421
3312 6 48.591 23.738 99.4421
3313 6 49.8369 0 99.4421
3314 6 51.0828 2.158 99.4421
3315 6 49.8369 4.316 99.4421
3316 6 51.0828 6.474 99.4421
3317 6 49.8369 8.632 99.4421
3318 6 51.0828 10.79 99.4421
3319 6 49.8369 12.948 99.4421
3320 6 51.0828 15.106 99.4421
3321 6 49.8369 17.264 99.4421
3322 6 51.0828 19.422 99.4421
3323 6 49.8369 21.58 99.4421
3324 6 51.0828 23.738 99.4421
3325 6 52.3287 0 99.4421
3326 6 53.5746 2.158 99.4421
3327 6 52.3287 4.316 99.4421
3328 6 53.5746 6.474 99.4421
3329 6 52.3287 8.632 99.4421
3330 6 53.5746 10.79 99.4421
3331 6 52.3287 12.948 99.4421
3332 6 53.5746 15.106 99.4421
3333 6 52.3287 17.264 99.4421
3334 6 53.5746 19.422 99.4421
3335 6 52.3287 21.58 99.4421
3336 6 53.5746 23.738 99.4421
3337 6 54.8206 0 99.4421
3338 6 56.0665 2.158 99.4421
3339 6 54.8206 4.316 99.4421
3340 6 56.0665 6.474 99.4421
3341 6 54.8206 8.632 99.4421
3342 6 56.0665 10.79 99.4421
3343 6 54.8206 12.948 99.4421
3344 6 56.0665 15.106 99.4421
3345 6 54.8206 17.264 99.4421
3346 6 56.0665 19.422 99.4421
3347 6 54.8206 21.58 99.4421
3348 6 56.0665 23.738 99.4421
3349 6 57.3124 0 99.4421
3350 6 58.5583 2.158 99.4421
3351 6 57.3124 4.316 99.4421
3352 6 58.5583 6.474 99.4421
3353 6 57.3124 8.632 99.4421
3354 6 58.5583 10.79 99.4421
3355 6 57.3124 12.948 99.4421
3356 6 58.5583 15.106 99.4421
3357 6 57.3124 17.264 99.4421
3358 6 58.5583 19.422 99.4421
3359 6 57.3124 21.58 99.4421
3360 6 58.5583 23.738 99.4421
3361 6 59.8043 0 99.4421
3362 6 61.0502 2.158 99.4421
3363 6 59.8043 4.316 99.4421
3364 6 61.0502 6.474 99.4421
3365 6 59.8043 8.632 99.4421
3366 6 61.0502 10.79 99.4421
3367 6 59.8043 12.948 99.4421
3368 6 61.0502 15.106 99.4421
3369 6 59.8043 17.264 99.4421
3370 6 61.0502 19.422 99.4421
3371 6 59.8043 21.58 99.4421
3372 6 61.0502 23.738 99.4421
3373 6 62.2961 0 99.4421
3374 6 63.542 2.158 99.4421
3375 6 62.2961 4.316 99.4421
3376 6 63.542 6.474 99.4421
3377 6 62.2961 8.632 99.4421
3378 6 63.542 10.79 99.4421
3379 6 62.2961 12.948 99.4421
3380 6 63.542 15.106 99.4421
3381 6 62.2961 17.264 99.4421
3382 6 63.542 19.422 99.4421
3383 6 62.2961 21.58 99.4421
3384 6 63.542 23.738 99.4421
3385 6 64.7879 0 99.4421
3386 6 66.0339 2.158 99.4421
3387 6 64.7879 4.316 99.4421
3388 6 66.0339 6.474 99.4421
3389 6 64.7879 8.632 99.4421
3390 6 66.0339 10.79 99.4421
3391 6 64.7879 12.948 99.4421
3392 6 66.0339 15.106 99.4421
3393 6 64.7879 17.264 99.4421
3394 6 66.0339 19.422 99.4421
3395 6 64.7879 21.58 99.4421
3396 6 66.0339 23.738 99.4421
3397 6 67.2798 0 99.4421
3398 6 68.5257 2.158 99.4421
3399 6 67.2798 4.316 99.4421
3400 6 68.5257 6.474 99.4421
3401 6 67.2798 8.632 99.4421
3402 6 68.5257 10.79 99.4421
3403 6 67.2798 12.948 99.4421
3404 6 68.5257 15.106 99.4421
3405 6 67.2798 17.264 99.4421
3406 6 68.5257 19.422 99.4421
3407 6 67.2798 21.58 99.4421
3408 6 68.5257 23.738 99.4421
3409 6 69.7716 0 99.4421
3410 6 71.0176 2.158 99.4421
3411 6 69.7716 4.316 99.4421
3412 6 71.0176 6.474 99.4421
3413 6 69.7716 8.632 99.4421
3414 6 71.0176 10.79 99.4421
3415 6 69.7716 12.948 99.4421
3416 6 71.0176 15.106 99.4421
3417 6 69.7716 17.264 99.4421
3418 6 71.0176 19.422 99.4421
3419 6 69.7716 21.58 99.4421
3420 6 71.0176 23.738 99.4421
3421 6 72.2635 0 99.4421
3422 6 73.5094 2.158 99.4421
3423 6 72.2635 4.316 99.4421
3424 6 73.5094 6.474 99.4421
3425 6 72.2635 8.632 99.4421
3426 6 73.5094 10.79 99.4421
3427 6 72.2635 12.948 99.4421
3428 6 73.5094 15.106 99.4421
3429 6 72.2635 17.264 99.4421
3430 6 73.5094 19.422 99.4421
3431 6 72.2635 21.58 99.4421
3432 6 73.5094 23.738 99.4421
3433 6 74.7553 0 99.4421
3434 6 76.0012 2.158 99.4421
3435 6 74.7553 4.316 99.4421
3436 6 76.0012 6.474 99.4421
3437 6 74.7553 8.632 99.4421
3438 6 76.0012 10.79 99.4421
3439 6 74.7553 12.948 99.4421
3440 6 76.0012 15.106 99.4421
3441 6 74.7553 17.264 99.4421
3442 6 76.0012 19.422 99.4421
3443 6 74.7553 21.58 99.4421
3444 6 76.0012 23.738 99.4421
3445 6 77.2472 0 99.4421
3446 6 78.4931 2.158 99.4421
3447 6 77.2472 4.316 99.4421
3448 6 78.4931 6.474 99.4421
3449 6 77.2472 8.632 99.4421
3450 6 78.4931 10.79 99.4421
3451 6 77.2472 12.948 99.4421
3452 6 78.4931 15.106 99.4421
3453 6 77.2472 17.264 99.4421
3454 6 78.4931 19.422 99.4421
3455 6 77.2472 21.58 99.4421
3456 6 78.4931 23.738 99.4421
3457 6 0.83061 1.43867 101.477
3458 6 2.07654 3.59667 101.477
3459 6 0.83061 5.75467 101.477
3460 6 2.07654 7.91267 101.477
3461 6 0.83061 10.0707 101.477
3462 6 2.07654 12.2287 101.477
3463 6 0.83061 14.3867 101.477
3464 6 2.07654 16.5447 101.477
3465 6 0.83061 18.7027 101.477
3466 6 2.07654 20.8607 101.477
3467 6 0.83061 23.0187 101.477
3468 6 2.07654 25.1767 101.477
3469 6 3.32246 1.43867 101.477
3470 6 4.56838 3.59667 101.477
3471 6 3.32246 5.75467 101.477
3472 6 4.56838 7.91267 101.477
3473 6 3.32246 10.0707 101.477
3474 6 4.56838 12.2287 101.477
3475 6 3.32246 14.3867 101.477
3476 6 4.56838 16.5447 101.477
3477 6 3.32246 18.7027 101.477
3478 6 4.56838 20.8607 101.477
3479 6 3.32246 23.0187 101.477
3480 6 4.56838 25.1767 101.477
3481 6 5.8143 1.43867 101.477
3482 6 7.06023 3.59667 101.477
3483 6 5.8143 5.75467 101.477
3484 6 7.06023 7.91267 101.477
3485 6 5.8143 10.0707 101.477
3486 6 7.06023 12.2287 101.477
3487 6 5.8143 14.3867 101.477
3488 6 7.06023 16.5447 101.477
3489 6 5.8143 18.7027 101.477
3490 6 7.06023 20.8607 101.477
3491 6 5.8143 23.0187 101.477
3492 6 7.06023 25.1767 101.477
3493 6 8.30615 1.43867 101.477
3494 6 9.55207 3.59667 101.477
3495 6 8.30615 5.75467 101.477
3496 6 9.55207 7.91267 101.477
3497 6 8.30615 10.0707 101.477
3498 6 9.55207 12.2287 101.477
3499 6 8.30615 14.3867 101.477
3500 6 9.55207 16.5447 101.477
3501 6 8.30615 18.7027 101.477
3502 6 9.55207 20.8607 101.477
3503 6 8.30615 23.0187 101.477
3504 6 9.55207 25.1767 101.477
3505 6 10.798 1.43867 101.477
3506 6 12.0439 3.59667 101.477
3507 6 10.798 5.75467 101.477
3508 6 12.0439 7.91267 101.477
3509 6 10.798 10.0707 101.477
3510 6 12.0439 12.2287 101.477
3511 6 10.798 14.3867 101.477
3512 6 12.0439 16.5447 101.477
3513 6 10.798 18.7027 101.477
3514 6 12.0439 20.8607 101.477
3515 6 10.798 23.0187 101.477
3516 6 12.0439 25.1767 101.477
3517 6 13.2898 1.43867 101.477
3518 6 14.5358 3.59667 101.477
3519 6 13.2898 5.75467 101.477
3520 6 14.5358 7.91267 101.477
3521 6 13.2898 10.0707 101.477
3522 6 14.5358 12.2287 101.477
3523 6 13.2898 14.3867 101.477
3524 6 14.5358 16.5447 101.477
3525 6 13.2898 18.7027 101.477
3526 6 14.5358 20.8607 101.477
3527 6 13.2898 23.0187 101.477
3528 6 14.5358 25.1767 101.477
3529 6 15.7817 1.43867 101.477
3530 6 17.0276 3.59667 101.477
3531 6 15.7817 5.75467 101.477
3532 6 17.0276 7.91267 101.477
3533 6 15.7817 10.0707 101.477
3534 6 17.0276 12.2287 101.477
3535 6 15.7817 14.3867 101.477
3536 6 17.0276 16.5447 101.477
3537 6 15.7817 18.7027 101.477
3538 6 17.0276 20.8607 101.477
3539 6 15.7817 23.0187 101.477
3540 6 17.0276 25.1767 101.477
3541 6 18.2735 1.43867 101.477
3542 6 19.5194 3.59667 101.477
3543 6 18.2735 5.75467 101.477
3544 6 19.5194 7.91267 101.477
3545 6 18.2735 10.0707 101.477
3546 6 19.5194 12.2287 101.477
3547 6 18.2735 14.3867 101.477
3548 6 19.5194 16.5447 101.477
3549 6 18.2735 18.7027 101.477
3550 6 19.5194 20.8607 101.477
3551 6 18.2735 23.0187 101.477
3552 6 19.5194 25.1767 101.477
3553 6 20.7654 1.43867 101.477
3554 6 22.0113 3.59667 101.477
3555 6 20.7654 5.75467 101.477
3556 6 22.0113 7.91267 101.477
3557 6 20.7654 10.0707 101.477
3558 6 22.0113 12.2287 101.477
3559 6 20.7654 14.3867 101.477
3560 6 22.0113 16.5447 101.477
3561 6 20.7654 18.7027 101.477
3562 6 22.0113 20.8607 101.477
3563 6 20.7654 23.0187 101.477
3564 6 22.0113 25.1767 101.477
3565 6 23.2572 1.43867 101.477
3566 6 24.5031 3.59667 101.477
3567 6 23.2572 5.75467 101.477
3568 6 24.5031 7.91267 101.477
3569 6 23.2572 10.0707 101.477
3570 6 24.5031 12.2287 101.477
3571 6 23.2572 14.3867 101.477
3572 6 24.5031 16.5447 101.477
3573 6 23.2572 18.7027 101.477
3574 6 24.5031 20.8607 101.477
3575 6 23.2572 23.0187 101.477
3576 6 24.5031 25.1767 101.477
3577 6 25.7491 1.43867 101.477
3578 6 26.995 3.59667 101.477
3579 6 25.7491 5.75467 101.477
3580 6 26.995 7.91267 101.477
3581 6 25.7491 10.0707 101.477
3582 6 26.995 12.2287 101.477
3583 6 25.7491 14.3867 101.477
3584 6 26.995 16.5447 101.477
3585 6 25.7491 18.7027 101.477
3586 6 26.995 20.8607 101.477
3587 6 25.7491 23.0187 101.477
3588 6 26.995 25.1767 101.477
3589 6 28.2409 1.43867 101.477
3590 6 29.4868 3.59667 101.477
3591 6 28.2409 5.75467 101.477
3592 6 29.4868 7.91267 101.477
3593 6 28.2409 10.0707 101.477
3594 6 29.4868 12.2287 101.477
3595 6 28.2409 14.3867 101.477
3596 6 29.4868 16.5447 101.477
3597 6 28.2409 18.7027 101.477
3598 6 29.4868 20.8607 101.477
3599 6 28.2409 23.0187 101.477
3600 6 29.4868 25.1767 101.477
3601 6 30.7327 1.43867 101.477
3602 6 31.9787 3.59667 101.477
3603 6 30.7327 5.75467 101.477
3604 6 31.9787 7.91267 101.477
3605 6 30.7327 10.0707 101.477
3606 6 31.9787 12.2287 101.477
3607 6 30.7327 14.3867 101.477
3608 6 31.9787 16.5447 101.477
3609 6 30.7327 18.7027 101.477
3610 6 31.9787 20.8607 101.477
3611 6 30.7327 23.0187 101.477
3612 6 31.9787 25.1767 101.477
3613 6 33.2246 1.43867 101.477
3614 6 34.4705 3.59667 101.477
3615 6 33.2246 5.75467 101.477
3616 6 34.4705 7.91267 101.477
3617 6 33.2246 10.0707 101.477
3618 6 34.4705 12.2287 101.477
3619 6 33.2246 14.3867 101.477
3620 6 34.4705 16.5447 101.477
3621 6 33.2246 18.7027 101.477
3622 6 34.4705 20.8607 101.477
3623 6 33.2246 23.0187 101.477
3624 6 34.4705 25.1767 101.477
3625 6 35.7164 1.43867 101.477
3626 6 36.9624 3.59667 101.477
3627 6 35.7164 5.75467 101.477
3628 6 36.9624 7.91267 101.477
3629 6 35.7164 10.0707 101.477
3630 6 36.9624 12.2287 101.477
3631 6 35.7164 14.3867 101.477
3632 6 36.9624 16.5447 101.477
3633 6 35.7164 18.7027 101.477
3634 6 36.9624 20.8607 101.477
3635 6 35.7164 23.0187 101.477
3636 6 36.9624 25.1767 101.477
3637 6 38.2083 1.43867 101.477
3638 6 39.4542 3.59667 101.477
3639 6 38.2083 5.75467 101.477
3640 6 39.4542 7.91267 101.477
3641 6 38.2083 10.0707 101.477
3642 6 39.4542 12.2287 101.477
3643 6 38.2083 14.3867 101.477
3644 6 39.4542 16.5447 101.477
3645 6 38.2083 18.7027 101.477
3646 6 39.4542 20.8607 101.477
3647 6 38.2083 23.0187 101.477
3648 6 39.4542 25.1767 101.477
3649 6 40.7001 1.43867 101.477
3650 6 41.946 3.59667 101.477
3651 6 40.7001 5.75467 101.477
3652 6 41.946 7.91267 101.477
3653 6 40.7001 10.0707 101.477
3654 6 41.946 12.2287 101.477
3655 6 40.7001 14.3867 101.477
3656 6 41.946 16.5447 101.477
3657 6 40.7001 18.7027 101.477
3658 6 41.946 20.8607 101.477
3659 6 40.7001 23.0187 101.477
3660 6 41.946 25.1767 101.477
3661 6 43.192 1.43867 101.477
3662 6 44.4379 3.59667 101.477
3663 6 43.192 5.75467 101.477
3664 6 44.4379 7.91267 101.477
3665 6 43.192 10.0707 101.477
3666 6 44.4379 12.2287 101.477
3667 6 43.192 14.3867 101.477
3668 6 44.4379 16.5447 101.477
3669 6 43.192 18.7027 101.477
3670 6 44.4379 20.8607 101.477
3671 6 43.192 23.0187 101.477
3672 6 44.4379 25.1767 101.477
3673 6 45.6838 1.43867 101.477
3674 6 46.9297 3.59667 101.477
3675 6 45.6838 5.75467 101.477
3676 6 46.9297 7.91267 101.477
3677 6 45.6838 10.0707 101.477
3678 6 46.9297 12.2287 101.477
3679 6 45.6838 14.3867 101.477
3680 6 46.9297 16.5447 101.477
3681 6 45.6838 18.7027 101.477
3682 6 46.9297 20.8607 101.477
3683 6 45.6838 23.0187 101.477
3684 6 46.9297 25.1767 101.477
3685 6 48.1757 1.43867 101.477
3686 6 49.4216 3.59667 101.477
3687 6 48.1757 5.75467 101.477
3688 6 49.4216 7.91267 101.477
3689 6 48.1757 10.0707 101.477
3690 6 49.4216 12.2287 101.477
3691 6 48.1757 14.3867 101.477
3692 6 49.4216 16.5447 101.477
3693 6 48.1757 18.7027 101.477
3694 6 49.4216 20.8607 101.477
3695 6 48.1757 23.0187 101.477
3696 6 49.4216 25.1767 101.477
3697 6 50.6675 1.43867 101.477
3698 6 51.9134 3.59667 101.477
3699 6 50.6675 5.75467 101.477
3700 6 51.9134 7.91267 101.477
3701 6 50.6675 10.0707 101.477
3702 6 51.9134 12.2287 101.477
3703 6 50.6675 14.3867 101.477
3704 6 51.9134 16.5447 101.477
3705 6 50.6675 18.7027 101.477
3706 6 51.9134 20.8607 101.477
3707 6 50.6675 23.0187 101.477
3708 6 51.9134 25.1767 101.477
3709 6 53.1594 1.43867 101.477
3710 6 54.4053 3.59667 101.477
3711 6 53.1594 5.75467 101.477
3712 6 54.4053 7.91267 101.477
3713 6 53.1594 10.0707 101.477
3714 6 54.4053 12.2287 101.477
3715 6 53.1594 14.3867 101.477
3716 6 54.4053 16.5447 101.477
3717 6 53.1594 18.7027 101.477
3718 6 54.4053 20.8607 101.477
3719 6 53.1594 23.0187 101.477
3720 6 54.4053 25.1767 101.477
3721 6 55.6512 1.43867 101.477
3722 6 56.8971 3.59667 101.477
3723 6 55.6512 5.75467 101.477
3724 6 56.8971 7.91267 101.477
3725 6 55.6512 10.0707 101.477
3726 6 56.8971 12.2287 101.477
3727 6 55.6512 14.3867 101.477
3728 6 56.8971 16.5447 101.477
3729 6 55.6512 18.7027 101.477
3730 6 56.8971 20.8607 101.477
3731 6 55.6512 23.0187 101.477
3732 6 56.8971 25.1767 101.477
3733 6 58.143 1.43867 101.477
3734 6 59.389 3.59667 101.477
3735 6 58.143 5.75467 101.477
3736 6 59.389 7.91267 101.477
3737 6 58.143 10.0707 101.477
3738 6 59.389 12.2287 101.477
3739 6 58.143 14.3867 101.477
3740 6 59.389 16.5447 101.477
3741 6 58.143 18.7027 101.477
3742 6 59.389 20.8607 101.477
3743 6 58.143 23.0187 101.477
3744 6 59.389 25.1767 101.477
3745 6 60.6349 1.43867 101.477
3746 6 61.8808 3.59667 101.477
3747 6 60.6349 5.75467 101.477
3748 6 61.8808 7.91267 101.477
3749 6 60.6349 10.0707 101.477
3750 6 61.8808 12.2287 101.477
3751 6 60.6349 14.3867 101.477
3752 6 61.8808 16.5447 101.477
3753 6 60.6349 18.7027 101.477
3754 6 61.8808 20.8607 101.477
3755 6 60.6349 23.0187 101.477
3756 6 61.8808 25.1767 101.477
3757 6 63.1267 1.43867 101.477
3758 6 64.3726 3.59667 101.477
3759 6 63.1267 5.75467 101.477
3760 6 64.3726 7.91267 101.477
3761 6 63.1267 10.0707 101.477
3762 6 64.3726 12.2287 101.477
3763 6 63.1267 14.3867 101.477
3764 6 64.3726 16.5447 101.477
3765 6 63.1267 18.7027 101.477
3766 6 64.3726 20.8607 101.477
3767 6 63.1267 23.0187 101.477
3768 6 64.3726 25.1767 101.477
3769 6 65.6186 1.43867 101.477
3770 6 66.8645 3.59667 101.477
3771 6 65.6186 5.75467 101.477
3772 6 66.8645 7.91267 101.477
3773 6 65.6186 10.0707 101.477
3774 6 66.8645 12.2287 101.477
3775 6 65.6186 14.3867 101.477
3776 6 66.8645 16.5447 101.477
3777 6 65.6186 18.7027 101.477
3778 6 66.8645 20.8607 101.477
3779 6 65.6186 23.0187 101.477
3780 6 66.8645 25.1767 101.477
3781 6 68.1104 1.43867 101.477
3782 6 69.3563 3.59667 101.477
3783 6 68.1104 5.75467 101.477
3784 6 69.3563 7.91267 101.477
3785 6 68.1104 10.0707 101.477
3786 6 69.3563 12.2287 101.477
3787 6 68.1104 14.3867 101.477
3788 6 69.3563 16.5447 101.477
3789 6 68.1104 18.7027 101.477
3790 6 69.3563 20.8607 101.477
3791 6 68.1104 23.0187 101.477
3792 6 69.3563 25.1767 101.477
3793 6 70.6023 1.43867 101.477
3794 6 71.8482 3.59667 101.477
3795 6 70.6023 5.75467 101.477
3796 6 71.8482 7.91267 101.477
3797 6 70.6023 10.0707 101.477
3798 6 71.8482 12.2287 101.477
3799 6 70.6023 14.3867 101.477
3800 6 71.8482 16.5447 101.477
3801 6 70.6023 18.7027 101.477
3802 6 71.8482 20.8607 101.477
3803 6 70.6023 23.0187 101.477
3804 6 71.8482 25.1767 101.477
3805 6 73.0941 1.43867 101.477
3806 6 74.34 3.59667 101.477
3807 6 73.0941 5.75467 101.477
3808 6 74.34 7.91267 101.477
3809 6 73.0941 10.0707 101.477
3810 6 74.34 12.2287 101.477
3811 6 73.0941 14.3867 101.477
3812 6 74.34 16.5447 101.477
3813 6 73.0941 18.7027 101.477
3814 6 74.34 20.8607 101.477
3815 6 73.0941 23.0187 101.477
3816 6 74.34 25.1767 101.477
3817 6 75.5859 1.43867 101.477
3818 6 76.8319 3.59667 101.477
3819 6 75.5859 5.75467 101.477
3820 6 76.8319 7.91267 101.477
3821 6 75.5859 10.0707 101.477
3822 6 76.8319 12.2287 101.477
3823 6 75.5859 14.3867 101.477
3824 6 76.8319 16.5447 101.477
3825 6 75.5859 18.7027 101.477
3826 6 76.8319 20.8607 101.477
3827 6 75.5859 23.0187 101.477
3828 6 76.8319 25.1767 101.477
3829 6 78.0778 1.43867 101.477
3830 6 79.3237 3.59667 101.477
3831 6 78.0778 5.75467 101.477
3832 6 79.3237 7.91267 101.477
3833 6 78.0778 10.0707 101.477
3834 6 79.3237 12.2287 101.477
3835 6 78.0778 14.3867 101.477
3836 6 79.3237 16.5447 101.477
3837 6 78.0778 18.7027 101.477
3838 6 79.3237 20.8607 101.477
3839 6 78.0778 23.0187 101.477
3840 6 79.3237 25.1767 101.477
3841 7 26.7168 15.5793 22.4265
3842 7 40.8072 21.035 18.609
3843 7 55.0075 21.7401 16.5604
3844 7 44.8844 18.8836 19.781
3845 7 33.1978 7.91725 15.9971
3846 7 30.2581 16.9406 20.4542
3847 7 43.3959 17.2074 10.9731
3848 7 35.7773 17.5303 15.5822
3849 7 48.8211 29.6394 14.4637
3850 7 41.5516 29.7461 18.3656
3851 7 34.3623 7.94568 26.4652
3852 7 31.2844 6.90577 24.932
3853 7 39.8337 10.9551 20.6432
3854 7 46.6103 16.235 22.1193
3855 7 35.753 10.3978 16.7557
3856 7 38.6852 14.2604 21.2592
3857 7 38.1984 23.3639 12.47
3858 7 37.6443 19.7863 16.6169
3859 7 42.9417 25.4157 15.1204
3860 7 42.8921 27.4034 7.0412
3861 7 29.2916 16.6633 23.6736
3862 7 22.7855 18.3852 11.0923
3863 7 46.8228 18.0338 24.1453
3864 7 44.7976 4.0824 17.1999
3865 7 42.049 9.33927 27.7764
3866 7 46.1033 7.71633 10.9036
3867 7 31.4698 11.1298 17.0553
3868 7 49.1732 18.6607 19.8325
3869 7 27.8953 22.5408 24.5148
3870 7 52.3753 21.9631 11.5618
3871 7 45.4287 26.1908 15.7048
3872 7 26.4869 13.0395 10.656
3873 7 23.1666 23.1003 18.0523
3874 7 30.8919 9.62845 22.5941
3875 7 47.5723 22.1625 10.9794
3876 7 36.1576 20.4838 13.9273
3877 7 44.6025 8.36789 20.0094
3878 7 54.2114 3.07524 17.4592
3879 7 23.5616 5.57528 17.4408
3880 7 36.8858 29.142 21.5255
3881 7 60.345 27.9291 8.58301
3882 7 30.5312 15.3756 27.4023
3883 7 38.7571 21.0334 22.0565
3884 7 39.209 5.42584 26.9603
3885 7 32.9306 23.483 13.3614
3886 7 56.7326 14.8569 15.3277
3887 7 37.9163 28.0376 18.3119
3888 7 29.7707 26.8037 17.9297
3889 7 45.1648 14.5793 14.5259
3890 7 37.2377 18.3232 19.7783
3891 7 55.4359 7.07853 10.5736
3892 7 46.759 12.7764 19.1433
3893 7 22.6018 14.9549 10.7344
3894 7 22.6802 8.29632 12.9694
3895 7 49.0279 5.84892 23.196
3896 7 40.4561 24.4652 18.588
3897 7 45.2537 18.9717 16.7834
3898 7 40.6637 2.06741 11.2323
3899 7 35.6451 3.51759 21.5996
3900 7 21.3609 7.72104 16.6601
3901 7 54.1234 1.72136 10.5332
3902 7 48.1338 10.3212 17.94
3903 7 49.0165 3.90332 19.1015
3904 7 25.976 23.5308 18.9366
3905 7 43.5463 13.0126 10.7349
3906 7 43.1669 14.1549 18.7448
3907 7 25.2306 21.9005 14.0775
3908 7 38.6674 25.1778 24.2625
3909 7 27.8789 13.3377 16.5926
3910 7 28.4951 24.5141 13.5271
3911 7 43.354 10.1316 22.1046
3912 7 35.3482 19.0636 22.7936
3913 7 38.9335 14.515 26.5382
3914 7 50.1132 14.2493 18.9792
3915 7 25.8382 24.6795 15.1054
3916 7 28.8197 12.8904 22.612
3917 7 56.0954 0.455304 12.2807
3918 7 33.9152 4.32191 16.4778
3919 7 49.3415 1.33903 20.4114
3920 7 38.0558 14.9741 14.5375
3921 7 43.5857 23.1633 12.9049
3922 7 37.8304 10.0852 23.0076
3923 7 47.1115 5.75495 20.1496
3924 7 23.1052 12.4983 18.0507
3925 7 48.4531 19.5951 17.265
3926 7 40.0073 19.695 10.7389
3927 7 48.4675 5.65142 11.1728
3928 7 56.7325 3.78102 11.6187
3929 7 51.3961 11.0639 13.9859
3930 7 35.0235 11.2023 20.8708
3931 7 53.272 11.6255 20.9825
3932 7 29.4405 19.3206 18.9262
3933 7 28.9788 8.66466 24.5543
3934 7 38.4201 28.3479 12.4618
3935 7 33.1656 22.5335 18.9828
3936 7 35.2364 21.7577 23.6086
3937 7 53.3169 23.346 14.7565
3938 7 29.6473 6.46429 21.3658
3939 7 56.953 18.7613 12.5767
3940 7 44.1052 21.4247 26.5503
3941 7 38.5815 10.2903 10.8346
3942 7 31.9291 12.7482 11.8917
3943 7 43.9132 22.6873 17.0203
3944 7 49.3238 14.2385 15.7852
3945 7 50.5009 27.5651 14.8831
3946 7 46.9865 25.2749 11.8295
3947 7 26.3703 2.18815 16.9912
3948 7 40.7403 20.3022 28.5085
3949 7 56.2934 8.6026 18.3985
3950 7 52.2922 12.0308 16.6791
3951 7 29.044 3.5828 22.3132
3952 7 45.4085 4.05641 13.9824
3953 7 47.096 16.1794 19.195
3954 7 29.5429 11.9085 19.7081
3955 7 31.0414 4.44857 15.8962
3956 7 50.8512 24.8159 13.3832
3957 7 49.6022 14.6067 23.9206
3958 7 35.5169 22.8268 11.325
3959 7 28.2683 27.338 24.2069
3960 7 45.7642 3.65294 26.5774
3961 7 31.0476 14.2453 24.7791
3962 7 27.0367 5.20559 12.6895
3963 7 36.4255 3.61407 25.6132
3964 7 50.3716 11.8437 22.8304
3965 7 34.5051 3.02569 13.9649
3966 7 28.4465 26.1174 21.4549
3967 7 49.8202 21.6625 18.5133
3968 7 33.4754 27.2635 10.2762
3969 7 34.3823 15.7911 20.4687
3970 7 42.2163 18.2742 23.3604
3971 7 41.9627 5.19269 26.237
3972 7 27.2597 26.0921 11.5543
3973 7 40.4396 3.92774 22.4278
3974 7 40.6652 26.0172 11.5495
3975 7 39.2411 17.3384 22.2335
3976 7 42.3027 28.7812 21.0049
3977 7 41.7442 18.3762 13.0187
3978 7 42.3614 12.2947 25.334
3979 7 26.8298 20.3721 16.4293
3980 7 34.9007 7.00526 10.9712
3981 7 53.4836 16.3829 10.5361
3982 7 30.8821 27.4551 20.9103
3983 7 40.866 6.80107 18.7884
3984 7 44.2663 11.5442 19.6068
3985 7 24.572 18.9422 15.2686
3986 7 52.903 14.7027 19.3236
3987 7 32.8832 17.526 10.8245
3988 7 43.3547 20.0507 11.12
3989 7 38.8965 19.0083 13.5567
3990 7 47.4611 6.99571 13.5459
3991 7 39.6186 16.4315 16.4893
3992 7 42.1976 22.2585 23.0759
3993 7 45.2805 27.1671 22.7457
3994 7 38.5457 2.83765 13.6142
3995 7 25.1209 15.9663 16.384
3996 7 32.879 9.58041 18.9279
3997 7 43.7501 4.29022 24.0061
3998 7 40.9905 10.0705 23.1768
3999 7 51.5834 2.99924 11.7805
4000 7 35.2953 14.6661 13.8936
4001 7 39.0323 27.6311 9.75206
4002 7 47.7417 15.0151 13.3263
4003 7 33.3774 20.0719 18.1299
4004 7 43.0855 29.5665 10.9399
4005 7 52.9665 27.9877 10.5799
4006 7 32.2475 25.2976 15.7113
4007 7 32.9887 18.5696 20.5913
4008 7 30.2936 22.0224 15.413
4009 7 48.8163 18.2657 14.4756
4010 7 25.9015 16.2717 10.9237
4011 7 45.7639 20.5088 22.0149
4012 7 53.4378 19.7105 14.6201
4013 7 58.4129 9.99074 11.1655
4014 7 48.1688 9.46599 15.0639
4015 7 44.9776 18.6773 26.2427
4016 7 34.8703 9.08983 13.6781
4017 7 48.3897 8.68301 26.3528
4018 7 50.8257 17.6525 23.5371
4019 7 50.3641 4.45044 15.9441
4020 7 41.2347 22.8749 10.855
4021 7 40.1315 18.4637 25.5756
4022 7 36.8752 27.9008 25.5802
4023 7 40.0268 2.68068 25.7521
4024 7 50.1902 20.2934 10.6516
4025 7 43.4133 26.0348 19.5145
4026 7 38.4535 15.8249 10.2918
4027 7 30.8879 2.26034 10.9868
4028 7 58.3858 16.8517 10.6342
4029 7 44.4035 24.0161 23.6778
4030 7 39.4327 7.48074 22.5258
4031 7 54.6034 23.8662 10.3994
4032 7 35.0758 14.0112 18.5935
4033 7 54.7283 22.8321 23.9028
4034 7 23.7372 20.3886 20.7434
4035 7 43.8208 28.2045 13.8183
4036 7 33.1555 10.8777 24.3663
4037 7 44.9161 10.7726 15.5853
4038 7 52.806 0.733042 20.965
4039 7 36.1028 26.5547 13.398
4040 7 31.2611 25.7674 23.2764
4041 7 39.0386 5.90014 16.1521
4042 7 32.3774 28.2512 15.298
4043 7 43.4668 5.37455 20.6428
4044 7 32.041 13.4862 22.0943
4045 7 46.7711 3.29128 23.7415
4046 7 57.2306 25.6095 15.2215
4047 7 35.9973 19.378 28.3772
4048 7 48.0893 0.094011 17.6457
4049 7 40.0295 27.6228 22.0903
4050 7 48.4271 24.9644 19.6057
4051 7 23.7946 11.6153 12.1
4052 7 54.5571 13.5991 11.4554
4053 7 32.4398 0.363613 24.2104
4054 7 49.4099 2.31123 13.5228
4055 7 27.2755 29.3351 10.7288
4056 7 31.9019 1.11489 13.4374
4057 7 47.9247 23.089 16.8624
4058 7 56.6705 24.2665 18.249
4059 7 36.8959 18.6129 10.5965
4060 7 37.7012 9.0566 25.7763
4061 7 22.6982 28.8922 14.103
4062 7 52.4188 4.8903 19.3961
4063 7 27.0124 5.4114 18.8703
4064 7 24.9798 27.2004 21.1558
4065 7 54.3737 8.62785 14.9194
4066 7 31.1313 7.04401 18.353
4067 7 30.9029 23.0456 23.873
4068 7 44.3576 1.20122 27.2294
4069 7 38.0729 1.07987 23.8969
4070 7 51.9527 0.293806 16.1189
4071 7 50.735 7.94177 19.6195
4072 7 25.7625 13.336 13.5496
4073 7 53.4651 16.7334 15.5639
4074 7 41.0505 7.52564 10.6305
4075 7 47.2731 7.46059 17.4871
4076 7 34.7213 0.401509 16.6211
4077 7 29.9024 18.3042 11.5091
4078 7 36.7408 5.83669 14.2677
4079 7 26.049 8.21265 18.3985
4080 7 36.6363 9.12239 19.2625
4081 7 43.9713 14.6946 24.6219
4082 7 23.4126 26.248 15.5213
4083 7 37.9082 8.88922 14.6453
4084 7 50.6668 27.7309 7.63436
4085 7 38.8918 12.4061 13.238
4086 7 31.0753 0.665996 21.3929
4087 7 40.8396 1.25978 14.809
4088 7 41.6576 16.1251 27.1788
4089 7 47.9512 0.694502 11.7573
4090 7 41.0789 17.161 19.7367
4091 7 50.5623 22.0123 15.0559
4092 7 42.7948 11.1247 12.8029
4093 7 25.8341 19.319 19.153
4094 7 41.7568 13.0253 21.861
4095 7 24.1551 10.2507 20.0601
4096 7 34.8704 25.4604 16.9805
4097 7 44.8437 4.71334 10.639
4098 7 31.3933 8.079 10.763
4099 7 34.574 16.7218 27.988
4100 7 38.1017 1.03619 17.384
4101 7 52.3291 19.5913 19.315
4102 7 30.2664 23.4069 20.0511
4103 7 25.2618 4.11727 14.7655
4104 7 43.0058 13.2159 15.9864
4105 7 31.7771 3.13106 19.4385
4106 7 41.9132 20.6474 15.4425
4107 7 32.5074 4.70411 10.683
4108 7 44.2047 16.4051 21.3039
4109 7 28.3215 0.816623 23.0979
4110 7 22.6244 15.3311 14.0024
4111 7 56.6281 29.7587 16.9746
4112 7 40.4464 12.4421 28.9868
4113 7 25.6347 7.25165 15.7632
4114 7 49.3554 22.9786 23.0142
4115 7 55.2399 17.8753 17.4162
4116 7 52.3172 5.14348 14.0078
4117 7 51.0353 8.1653 15.1063
4118 7 56.3405 5.14449 18.686
4119 7 23.1382 5.20431 10.4347
4120 7 34.2971 24.0821 22.0209
4121 7 27.0751 11.0194 20.8203
4122 7 41.103 20.1778 21.6385
4123 7 55.1036 1.59087 22.3317
4124 7 44.4421 1.09143 23.9036
4125 7 34.3329 20.0446 11.2942
4126 7 46.5163 13.3133 10.7556
4127 7 45.7788 15.4815 26.3986
4128 7 54.8494 14.1405 17.3511
4129 7 44.5339 28.7845 17.8191
4130 7 42.0812 28.2437 25.6962
4131 7 46.7468 29.0524 21.243
4132 7 53.7766 13.3637 14.195
4133 7 27.9077 8.89959 14.5075
4134 7 49.0254 16.5916 11.0512
4135 7 31.844 0.884584 27.5697
4136 7 43.1568 6.87766 17.4434
4137 7 28.6062 20.1445 13.4733
4138 7 35.412 7.29315 22.9997
4139 7 24.4036 0.8556 11.0065
4140 7 32.6153 2.87516 22.518
4141 7 48.143 9.69175 22.9476
4142 7 47.8181 21.7287 25.8648
4143 7 39.4038 11.4894 15.9206
4144 7 55.9806 11.3052 13.8404
4145 7 42.1645 3.08733 18.2153
4146 7 41.1699 8.70751 13.377
4147 7 44.3276 19.9134 13.9794
4148 7 41.877 7.77167 25.3728
4149 7 29.9394 12.0367 14.4333
4150 7 32.833 15.9755 16.1444
4151 7 36.8203 25.2474 28.1324
4152 7 52.6011 0.334534 13.1799
4153 7 27.8359 28.7722 19.5352
4154 7 56.5723 12.3265 16.8719
4155 7 34.9036 6.19625 18.8275
4156 7 25.3905 7.84351 10.9341
4157 7 36.2976 13.1823 24.9642
4158 7 26.5292 7.9489 22.6535
4159 7 33.8609 27.0788 23.0106
4160 7 26.9786 3.13893 10.6663
4161 7 39.5591 0.798538 21.0469
4162 7 51.7932 24.9478 10.7199
4163 7 37.4519 26.1788 21.3766
4164 7 32.6212 20.5832 23.1495
4165 7 48.1604 21.1312 13.8076
4166 7 49.1478 10.6915 11.0083
4167 7 30.3958 23.8254 11.0444
4168 7 35.7602 15.2933 11.2879
4169 7 39.0582 14.1981 18.0314
4170 7 33.0683 15.7552 23.4559
4171 7 41.0499 27.9693 14.9987
4172 3 45.3162 26.0951 51.0929
4173 3 49.8924 28.886 86.052
4174 3 60.9204 12.5379 60.5426
4175 3 5.99014 23.9614 15.2918
4176 3 2.79512 18.8748 30.5185
4177 3 31.1399 16.6425 48.2042
4178 3 71.8659 19.6287 35.5784
4179 3 24.4507 6.89322 38.3635
4180 3 0.0535047 1.82831 78.9255
4181 3 69.6998 28.8305 34.7799
4182 3 47.1537 11.8614 43.1633
4183 3 78.7388 8.15195 16.3795
4184 3 8.18368 2.57907 42.4572
4185 3 25.1028 15.605 74.9858
4186 3 39.4701 13.6268 35.0303
4187 3 66.9141 27.4612 62.2319
4188 3 2.7201 2.55181 80.8364
4189 3 76.8081 22.0582 71.8875
4190 3 66.6193 9.8216 13.2788
4191 3 42.2446 13.5872 78.1554
4192 3 69.9797 1.37484 23.3186
4193 3 23.0025 13.454 35.4726
4194 3 56.2375 28.0123 77.7104
4195 3 63.8816 15.7493 60.2721
4196 3 22.8001 5.91276 59.6017
4197 3 13.0786 23.5118 89.0542
4198 3 37.3005 21.6839 41.0477
4199 3 4.03221 10.0326 10.5227
4200 3 52.437 4.61884 85.8648
4201 3 3.05133 8.92234 44.9147
4202 3 48.7768 10.973 85.0313
4203 3 71.7496 0.202285 15.1606
4204 3 60.2718 6.32673 63.1032
4205 3 55.3013 7.95543 36.7417
4206 3 32.8069 7.66372 46.4934
4207 3 70.4522 10.464 82.5517
4208 3 62.0669 24.6754 41.7069
4209 3 60.0684 24.3694 55.7172
4210 3 6.82112 20.1546 33.9334
4211 3 71.8129 10.1402 22.6117
4212 3 30.7084 19.3809 79.1312
4213 3 10.576 19.3695 65.2889
4214 3 40.6624 9.20197 74.5386
4215 3 48.241 23.9548 52.6815
4216 3 65.9864 5.09 18.9712
4217 3 28.201 13.9287 28.9388
4218 3 4.44314 28.9282 83.1912
4219 3 60.3986 20.4416 11.4117
4220 3 22.7531 27.9192 55.9034
4221 3 9.20894 14.3511 70.5308
4222 3 14.4715 18.9338 69.1327
4223 3 71.3137 17.2659 70.6098
4224 3 21.9412 22.9059 69.2196
4225 3 7.99718 0.802546 68.0098
4226 3 35.6293 20.4127 55.3327
4227 3 19.8082 16.832 89.822
4228 3 57.8993 26.8063 88.6592
4229 3 9.70878 8.63169 11.4247
4230 3 24.8322 21.2705 31.1102
4231 3 33.1731 14.7838 35.5559
4232 3 26.0402 20.8038 78.6659
4233 3 43.5183 0.487102 59.5701
4234 3 62.4613 17.7661 85.6172
4235 3 73.1016 10.4834 38.2046
4236 3 14.9102 19.1463 55.9977
4237 3 9.91317 13.3172 39.7451
4238 3 51.1792 11.4025 48.5153
4239 3 79.7243 2.56905 11.4452
4240 3 53.1499 0.170202 32.7358
4241 3 53.0925 28.7413 90.3271
4242 3 60.6063 11.7963 70.5892
4243 3 42.9881 17.5431 87.5391
4244 3 38.1972 18.2555 81.8717
4245 3 77.4614 9.16004 73.2289
4246 3 20.8877 4.62229 20.7825
4247 3 6.47916 3.88553 85.2314
4248 3 54.1972 20.0426 73.1326
4249 3 0.223903 28.0618 31.1913
4250 3 42.1346 7.45916 58.5392
4251 3 6.72214 27.7827 59.7372
4252 3 49.7624 1.94781 62.7903
4253 3 39.346 21.3016 70.8987
4254 3 38.3703 6.87496 69.964
4255 3 41.0939 27.036 74.8608
4256 3 65.3273 26.5284 58.5891
4257 3 5.22015 1.54506 77.788
4258 3 32.5456 6.78251 78.2942
4259 3 23.6018 4.39764 72.6028
4260 3 59.8619 22.5382 88.958
4261 3 8.4653 9.19802 75.6724
4262 3 6.34766 3.4554 39.1138
4263 3 45.0482 20.2574 33.512
4264 3 66.2253 26.5281 68.6177
4265 3 9.41246 22.5826 73.9337
4266 3 29.5415 3.91558 80.9815
4267 3 56.2832 20.2776 48.5529
4268 3 22.4724 10.5943 38.3899
4269 3 79.0529 1.68652 26.8239
4270 3 15.0317 22.7407 15.5377
4271 3 6.42861 23.8723 46.9565
4272 3 10.8827 2.58681 35.7272
4273 3 69.6646 27.4991 58.4314
4274 3 65.5176 12.1919 22.1837
4275 3 67.3184 5.8705 53.2329
4276 3 77.1566 2.79511 90.6223
4277 3 34.5833 25.3624 72.1585
4278 3 74.0241 6.91578 80.5553
4279 3 43.1174 4.96199 41.3953
4280 3 15.8743 18.4811 83.3279
4281 3 39.7452 10.2281 78.7557
4282 3 14.5405 12.4799 75.3662
4283 3 37.0155 11.9571 71.1346
4284 3 24.3635 8.41293 41.5168
4285 3 16.6899 21.354 61.325
4286 3 70.6154 6.79062 44.3439
4287 3 10.0538 7.37675 40.7832
4288 3 3.16496 28.287 37.5631
4289 3 75.4236 7.12196 33.6019
4290 3 59.3887 5.6415 12.3468
4291 3 18.4678 2.77512 39.9161
4292 3 68.1568 13.6919 54.8888
4293 3 48.9647 16.5122 39.5024
4294 3 74.0888 11.428 28.8986
4295 3 15.6633 13.1042 37.3541
4296 3 47.8031 5.74001 34.4019
4297 3 36.7228 28.2138 49.9692
4298 3 73.0665 5.33439 26.7973
4299 3 74.5673 22.4975 55.9967
4300 3 27.8671 24.8493 60.7026
4301 3 4.31111 28.2939 89.7753
4302 3 78.4361 11.6769 36.9632
4303 3 68.2654 21.9388 76.4961
4304 3 35.107 5.64918 67.7169
4305 3 30.4707 19.6928 66.8858
4306 3 60.3041 20.5438 18.177
4307 3 55.7299 2.92883 55.1624
4308 3 3.59334 12.9082 33.5984
4309 3 66.2284 13.3959 41.4627
4310 3 55.8688 12.6694 87.7744
4311 3 17.3524 12.5014 26.9896
4312 3 49.8303 23.4494 39.3032
4313 3 72.1874 9.8681 63.2467
4314 3 77.7055 13.3576 81.5045
4315 3 14.7644 28.0092 50.1259
4316 3 20.2294 22.1218 52.6275
4317 3 4.83871 3.38575 70.6663
4318 3 31.985 2.00902 75.4004
4319 3 69.5916 27.5882 48.7628
4320 3 14.3224 6.09574 49.8511
4321 3 3.99028 12.4829 61.2717
4322 3 12.0015 22.8174 65.4049
4323 3 11.7795 11.5684 54.5813
4324 3 24.9361 18.5021 58.0473
4325 3 69.0092 13.9753 24.0356
4326 3 55.7321 21.04 44.7979
4327 3 66.4879 11.4299 35.0718
4328 3 49.5822 19.2966 43.0113
4329 3 9.02827 18.4977 25.7958
4330 3 72.4423 9.29068 49.5406
4331 3 33.3812 29.1283 86.9879
4332 3 76.9151 7.30115 46.674
4333 3 41.2206 10.9186 56.0456
4334 3 51.5378 24.0409 71.9186
4335 3 10.6925 4.64225 59.5536
4336 3 41.9212 21.3769 36.0948
4337 3 32.0268 12.3954 82.8482
4338 3 62.5877 20.3041 82.5045
4339 3 60.1834 5.10459 25.5876
4340 3 65.6776 19.2599 39.4037
4341 3 69.5132 20.9634 69.7008
4342 3 0.798383 29.7864 54.1746
4343 3 62.6799 27.6038 21.7757
4344 3 8.09316 19.4451 15.5719
4345 3 49.9114 7.53433 43.7104
4346 3 58.2229 6.31892 23.2695
4347 3 29.0976 28.9635 52.6686
4348 3 68.6965 5.15442 12.8608
4349 3 72.7102 2.69472 34.1235
4350 3 24.4304 24.8299 56.6812
4351 3 32.3241 5.15851 33.442
4352 3 57.4407 2.26926 63.7383
4353 3 22.6784 28.084 68.5105
4354 3 54.3149 3.60462 51.4215
4355 3 29.2088 4.5552 71.6132
4356 3 17.3686 4.90512 62.4156
4357 3 31.5379 0.00469786 60.8148
4358 3 10.6299 0.815301 24.3614
4359 3 0.708998 18.9567 66.451
4360 3 46.3398 6.89165 52.9815
4361 3 0.175754 25.2049 75.3199
4362 3 37.6182 4.00095 62.2784
4363 3 14.0344 22.3829 41.5825
4364 3 23.2334 25.4349 86.5341
4365 3 2.99583 15.0548 64.5614
4366 3 31.6156 10.0167 28.5716
4367 3 18.4594 13.9741 43.7234
4368 3 18.8883 0.672976 59.6285
4369 3 16.8911 1.41023 43.8416
4370 3 1.9179 8.38612 86.6146
4371 3 64.9785 18.174 30.0532
4372 3 47.5489 3.42123 36.7505
4373 3 52.9129 17.477 59.9483
4374 3 55.8152 2.32959 88.657
4375 3 42.9377 12.7699 40.9531
4376 3 7.71761 16.098 32.8771
4377 3 23.5196 10.0475 27.0745
4378 3 69.0506 0.98242 78.0204
4379 3 16.2716 4.80906 30.9038
4380 3 20.5995 14.1603 39.6818
4381 3 27.7506 12.8995 71.6429
4382 3 59.3987 4.90428 82.1022
4383 3 0.30993 26.406 51.6948
4384 3 64.5752 2.14304 44.7902
4385 3 69.9388 16.2329 75.9302
4386 3 31.95 28.4025 80.1689
4387 3 58.8185 24.0269 81.7865
4388 3 5.35237 26.8417 75.1994
4389 3 40.027 1.19 33.8855
4390 3 69.9646 11.7396 42.0628
4391 3 55.1179 5.6514 73.4978
4392 3 1.26202 27.4453 13.9237
4393 3 56.3768 23.0061 52.5742
4394 3 7.58355 5.09209 27.2759
4395 3 63.8055 18.628 21.0557
4396 3 77.0474 13.0268 62.8348
4397 3 14.8876 5.67793 44.9746
4398 3 27.9969 23.1703 28.5535
4399 3 19.6646 3.59237 46.4651
4400 3 77.937 15.0531 43.821
4401 3 29.1057 21.6974 76.0479
4402 3 75.7094 20.4054 12.5275
4403 3 9.72728 29.6204 86.1101
4404 3 42.3823 12.3575 35.3028
4405 3 2.86012 11.4541 81.8236
4406 3 42.8655 27.0556 82.3967
4407 3 10.8356 20.3456 42.8866
4408 3 78.4641 8.86211 56.5536
4409 3 41.8467 9.5167 49.6417
4410 3 66.774 1.98178 86.5608
4411 3 40.6935 13.7915 46.6286
4412 3 37.1404 7.93991 77.1674
4413 3 40.7492 1.55036 74.9586
4414 3 53.178 23.9235 58.6695
4415 3 77.849 0.74723 55.9616
4416 3 8.53381 16.3967 21.0112
4417 3 54.1307 28.6299 86.8315
4418 3 44.8815 27.3926 71.6224
4419 3 61.0526 15.851 33.6313
4420 3 38.7671 16.9155 88.3497
4421 3 74.527 28.7912 67.5837
4422 3 35.2347 26.0962 52.3671
4423 3 64.7533 18.8751 43.2173
4424 3 14.2795 22.1434 71.8169
4425 3 13.765 25.9981 58.6922
4426 3 4.8044 22.2783 30.0991
4427 3 8.20916 26.0932 37.2917
4428 3 51.3619 8.42462 86.5585
4429 3 31.075 6.50458 36.8749
4430 3 12.3923 2.2831 89.521
4431 3 68.0463 7.11096 32.0867
4432 3 69.6999 4.12095 83.2024
4433 3 75.2745 25.5007 25.437
4434 3 8.4009 25.0137 21.2723
4435 3 7.8819 22.1149 37.5221
4436 3 23.2029 25.2501 60.2437
4437 3 17.9131 28.831 88.0206
4438 3 7.63598 27.6063 51.5685
4439 3 51.0025 13.7664 60.7231
4440 3 76.5797 6.99339 24.9648
4441 3 73.293 6.4673 53.2895
4442 3 33.1748 20.0439 74.7067
4443 3 4.6471 17.3824 53.4084
4444 3 57.8462 18.5921 32.4907
4445 3 15.9876 2.05888 86.0516
4446 3 63.1134 27.6482 78.7307
4447 3 73.9041 19.1033 80.8896
4448 3 44.6253 17.9589 49.4434
4449 3 59.3479 20.8378 36.2154
4450 3 50.3902 18.5717 52.6976
4451 3 65.8309 1.21679 38.8944
4452 3 60.6749 24.7333 47.1863
4453 3 17.3536 10.8302 83.2008
4454 3 29.7592 2.90677 27.7266
4455 3 47.8971 16.9674 32.3778
4456 3 21.4937 28.963 21.6839
4457 3 59.6221 29.8143 13.8996
4458 3 57.1529 23.6773 72.4082
4459 3 39.3739 3.24733 79.6896
4460 3 9.97076 2.63821 51.4383
4461 3 5.66304 9.76428 67.2664
4462 3 73.2531 4.9689 58.6543
4463 3 60.7321 6.33926 35.7481
4464 3 1.82883 11.8692 40.5238
4465 3 43.4313 15.3797 64.4107
4466 3 55.8891 28.1886 47.6921
4467 3 11.4234 9.21873 24.0784
4468 3 41.2785 17.1934 55.2272
4469 3 27.0475 14.6678 90.2481
4470 3 76.5219 3.46444 85.5878
4471 3 42.4047 28.2618 67.9046
4472 3 71.6718 26.968 44.0075
4473 3 74.2178 5.76883 37.4142
4474 3 59.8351 29.455 27.8765
4475 3 6.18291 27.9125 30.4618
4476 3 30.1173 1.67004 41.7078
4477 3 44.8942 25.408 35.3909
4478 3 59.5165 4.65988 55.6493
4479 3 51.0212 5.78791 47.9961
4480 3 79.1578 0.574993 64.0713
4481 3 50.4501 19.365 46.5592
4482 3 10.0109 27.1457 34.0148
4483 3 3.75389 22.7215 66.9575
4484 3 27.7598 22.4507 67.4844
4485 3 2.34194 19.7727 21.4111
4486 3 60.4145 10.5723 17.8376
4487 3 1.39824 14.759 85.2952
4488 3 63.6397 15.0521 70.8283
4489 3 2.89292 20.8598 50.4755
4490 3 25.3855 10.3324 81.6757
4491 3 5.18678 11.8685 86.5023
4492 3 28.2087 9.51758 41.3928
4493 3 62.9983 15.3882 65.0972
4494 3 28.2788 19.7081 55.2417
4495 3 63.8186 13.4885 27.5228
4496 3 11.3231 18.7239 22.7153
4497 3 66.0818 22.5473 33.2756
4498 3 42.2197 0.289081 40.7733
4499 3 47.6255 8.84135 78.393
4500 3 60.957 4.19695 69.0855
4501 3 26.7564 9.38282 87.4472
4502 3 50.4557 20.1013 61.7463
4503 3 0.900903 5.38844 26.0942
4504 3 31.6444 11.5634 49.4431
4505 3 38.7482 29.9717 67.1704
4506 3 28.5121 28.8155 90.5046
4507 3 17.3577 6.46823 51.2388
4508 3 5.68639 16.8625 68.2475
4509 3 58.5382 4.68127 78.6309
4510 3 44.4979 14.8458 89.5819
4511 3 74.7805 29.4184 88.0019
4512 3 31.6709 9.35398 74.5272
4513 3 2.65523 27.8231 72.9029
4514 3 59.4299 10.0053 40.8744
4515 3 15.1931 7.29247 89.3334
4516 3 38.0384 7.05482 32.838
4517 3 77.6029 8.28652 41.7594
4518 3 32.8524 0.915208 53.3112
4519 3 21.5683 5.05495 65.2196
4520 3 68.5921 12.7694 31.9214
4521 3 14.31 12.2006 49.9096
4522 3 64.4083 28.9733 42.8675
4523 3 74.7916 7.38783 68.8172
4524 3 61.0512 16.8867 58.5706
4525 3 2.19499 11.0319 90.4121
4526 3 11.7441 25.6481 67.9208
4527 3 68.6288 4.78227 50.0571
4528 3 3.80783 7.76247 59.9457
4529 3 54.492 27.6052 42.2042
4530 3 35.6003 7.42591 59.0957
4531 3 33.3196 19.3764 30.0873
4532 3 63.432 2.64502 89.0539
4533 3 43.4964 1.97211 80.0413
4534 3 24.7045 1.42265 39.4223
4535 3 69.6837 28.0677 13.0871
4536 3 78.5538 15.3005 35.5511
4537 3 19.1951 16.59 21.6489
4538 3 6.04272 13.3424 46.0263
4539 3 74.5708 1.39651 25.5948
4540 3 47.4993 14.1199 62.1196
4541 3 39.1932 20.23 57.3422
4542 3 28.9007 29.583 70.876
4543 3 21.7042 5.30963 31.7742
4544 3 22.1268 19.6874 82.9361
4545 3 36.5347 20.9742 65.4738
4546 3 12.6229 10.3444 45.3232
4547 3 30.2764 16.6035 74.1073
4548 3 64.0859 26.6878 85.0924
4549 3 61.5234 11.3709 83.2399
4550 3 66.4921 0.573611 18.2452
4551 3 37.7172 13.7105 61.981
4552 3 72.3122 4.22031 70.3368
4553 3 73.3796 23.9534 44.0827
4554 3 4.76058 7.24327 89.0787
4555 3 0.948141 19.8366 75.8362
4556 3 47.3677 20.2046 65.6248
4557 3 60.4927 25.2604 11.9457
4558 3 25.277 29.8195 59.1995
4559 3 19.4039 21.3954 73.0396
4560 3 44.2345 1.18518 84.1713
4561 3 41.8726 3.8788 84.6307
4562 3 69.3634 20.2695 73.5883
4563 3 17.3192 23.4018 54.4666
4564 3 7.46155 2.35555 33.5449
4565 3 76.2326 28.7682 20.6572
4566 3 69.7 27.4342 26.332
4567 3 15.6263 28.3707 80.553
4568 3 76.7136 0.587745 17.495
4569 3 41.7072 17.6958 82.9761
4570 3 26.3002 3.52855 76.3632
4571 3 0.39518 4.68008 37.0157
4572 3 26.9646 18.503 36.4444
4573 3 3.69963 28.8708 48.3828
4574 3 22.6397 27.7699 80.9097
4575 3 41.0586 5.20195 61.8579
4576 3 8.11238 13.5328 53.5391
4577 3 75.6732 12.1718 24.9767
4578 3 47.1282 28.4838 58.3562
4579 3 63.0461 1.29978 83.5294
4580 3 68.469 15.7122 65.9597
4581 3 15.5337 15.1307 85.8876
4582 3 24.2196 21.0377 38.2709
4583 3 60.1132 2.4008 49.8016
4584 3 64.488 15.6782 82.6649
4585 3 69.6583 20.8045 60.5258
4586 3 53.926 14.3793 66.9601
4587 3 9.01887 8.79865 53.3787
4588 3 35.3899 8.04157 54.4547
4589 3 77.4781 9.25879 13.2409
4590 3 25.4153 2.10994 84.5932
4591 3 8.05287 13.1267 74.6892
4592 3 29.6885 20.3097 34.5365
4593 3 71.0055 8.99544 75.5529
4594 3 76.9381 0.942939 40.1421
4595 3 70.0546 1.6542 74.0177
4596 3 3.00042 12.7628 43.3265
4597 3 30.9276 2.81807 44.7752
4598 3 62.8406 6.59116 79.9201
4599 3 37.8499 16.5404 51.3023
4600 3 3.68794 13.5124 55.467
4601 3 73.6874 24.8155 13.3463
4602 3 43.8849 4.28755 74.7821
4603 3 2.72687 20.4246 39.9911
4604 3 55.6184 13.4477 38.9511
4605 3 48.9221 2.70169 49.1939
4606 3 65.7543 20.9345 53.3768
4607 3 79.7798 24.7116 37.7247
4608 3 69.5208 19.7689 84.1669
4609 3 5.32977 26.6382 17.6452
4610 3 59.0711 7.01618 88.5616
4611 3 64.967 16.1309 50.7078
4612 3 52.2831 22.0575 86.7405
4613 3 44.7174 25.3381 75.1326
4614 3 60.3768 9.18868 66.6065
4615 3 29.4714 27.6555 84.2836
4616 3 63.9339 7.48136 41.9009
4617 3 26.6637 5.663 41.5483
4618 3 79.5028 26.0191 46.8912
4619 3 10.201 24.0365 42.4188
4620 3 53.4502 17.0639 88.1174
4621 3 54.5056 27.8194 55.0022
4622 3 44.0467 20.4912 54.2231
4623 3 61.2564 14.6357 11.9886
4624 3 33.2613 22.5759 52.9518
4625 3 75.7584 16.3818 48.4022
4626 3 11.9459 20.9474 36.5006
4627 3 66.8251 16.2393 45.1041
4628 3 78.9851 8.63856 62.4059
4629 3 62.8021 0.95203 35.888
4630 3 72.8347 19.116 15.2354
4631 3 18.2856 27.0471 37.3823
4632 3 20.6521 7.13144 57.185
4633 3 46.3526 1.12031 75.7944
4634 3 51.9436 20.0636 65.718
4635 3 27.0958 7.90275 53.5782
4636 3 62.4116 0.216603 75.8339
4637 3 24.2977 26.3102 46.7094
4638 3 4.31459 23.2054 60.305
4639 3 54.1784 26.688 72.4209
4640 3 64.0487 27.3102 32.1398
4641 3 1.51486 0.00157112 45.7486
4642 3 19.2715 15.1346 82.2576
4643 3 48.3371 7.40909 73.2807
4644 3 43.3865 26.3329 31.2368
4645 3 67.1015 0.812505 68.7423
4646 3 33.0577 29.6372 49.6026
4647 3 11.0444 23.2749 28.2805
4648 3 69.9609 1.48417 40.3624
4649 3 52.6615 10.0646 52.3151
4650 3 47.0751 10.5188 60.3071
4651 3 55.8328 5.89367 45.0558
4652 3 10.9282 3.18076 28.2038
4653 3 77.2001 28.8184 28.6763
4654 3 69.1947 15.868 52.5049
4655 3 47.874 10.7872 51.1702
4656 3 42.6098 1.41689 64.4973
4657 3 18.6849 8.13642 44.807
4658 3 52.6275 12.093 75.0327
4659 3 49.1993 24.8779 42.9745
4660 3 3.76748 10.7549 36.9605
4661 3 12.0446 20.1682 46.9992
4662 3 26.316 19.834 49.0535
4663 3 38.3791 20.8264 88.6387
4664 3 58.3801 26.9141 52.9061
4665 3 56.406 22.7176 28.532
4666 3 17.7059 15.0259 62.001
4667 3 71.9214 25.1342 89.7345
4668 3 75.6907 20.9778 50.0041
4669 3 7.86164 8.49662 34.3121
4670 3 54.2634 4.00592 67.9542
4671 3 63.7214 18.4888 15.7952
4672 3 62.1672 9.53215 29.2834
4673 3 43.4163 10.6809 80.8733
4674 3 13.1344 13.7595 71.7911
4675 3 63.9051 27.6338 15.4481
4676 3 7.28379 26.0877 68.7597
4677 3 15.1633 10.1955 56.2919
4678 3 11.4795 14.5726 29.1744
4679 3 59.7197 23.5232 22.418
4680 3 69.2241 22.0857 21.967
4681 3 31.9142 19.8081 88.4603
4682 3 46.7715 24.4656 58.8303
4683 3 21.424 11.2952 20.2584
4684 3 32.9119 24.201 76.7049
4685 3 9.4935 11.2405 85.5164
4686 3 22.3722 10.9152 50.4505
4687 3 67.7496 21.9453 64.1437
4688 3 69.6816 19.0401 30.5024
4689 3 6.24232 26.9699 86.1037
4690 3 0.79219 28.2134 25.2118
4691 3 24.1723 21.8394 63.4696
4692 3 17.4792 24.653 65.251
4693 3 55.2233 15.1946 46.4737
4694 3 57.2648 6.4436 31.3092
4695 3 70.8726 20.9771 49.1888
4696 3 10.609 29.3974 43.6043
4697 3 75.8387 2.19366 22.5325
4698 3 22.7365 13.5171 57.578
4699 3 55.7338 4.68662 38.2188
4700 3 3.39717 15.2565 49.5818
4701 3 16.3043 3.00079 77.7876
4702 3 70.2604 1.245 18.954
4703 3 56.3043 2.18307 43.0517
4704 3 44.1919 24.5343 40.7304
4705 3 72.8124 6.88512 10.8707
4706 3 75.6042 15.5245 65.2559
4707 3 52.8908 14.3232 29.3772
4708 3 38.5423 27.5877 88.341
4709 3 64.6752 19.718 47.0372
4710 3 38.594 6.12011 41.3172
4711 3 16.0212 26.4216 83.8541
4712 3 51.7266 8.24373 64.4935
4713 3 23.0271 6.89309 24.3669
4714 3 28.3575 23.2501 83.1551
4715 3 64.6357 24.2474 38.0928
4716 3 75.7072 12.7717 77.0941
4717 3 64.1511 14.7807 38.6283
4718 3 19.2513 19.9834 54.4368
4719 3 61.1821 28.2121 56.725
4720 3 78.9267 3.12815 19.6315
4721 3 14.5334 18.5868 12.3911
4722 3 17.0346 23.6034 24.7928
4723 3 19.7067 21.8592 30.1053
4724 3 63.7269 9.90108 64.8383
4725 3 8.24304 2.81285 18.0699
4726 3 20.0041 14.1266 64.8867
4727 3 54.9073 8.45802 65.7364
4728 3 24.7124 12.9425 39.2323
4729 3 20.4534 15.2983 70.1732
4730 3 9.43592 13.5862 67.0802
4731 3 49.7916 13.0511 35.0543
4732 3 55.8677 21.1959 69.2324
4733 3 55.1774 19.9808 26.2277
4734 3 22.5172 13.1735 80.8295
4735 3 73.1613 19.2181 31.389
4736 3 35.5467 5.04701 74.4246
4737 3 5.69423 16.7637 87.4525
4738 3 0.701998 12.1711 53.0976
4739 3 12.6234 28.2462 16.3799
4740 3 64.9505 4.03724 66.7401
4741 3 9.10558 22.8869 88.045
4742 3 41.5231 27.9601 50.0113
4743 3 73.6431 27.7875 34.9288
4744 3 50.9336 12.6663 54.4081
4745 3 11.115 0.414654 32.1328
4746 3 45.0933 28.2338 44.6895
4747 3 29.6532 18.9816 40.7423
4748 3 59.3527 18.6991 62.3018
4749 3 77.3762 2.577 43.3504
4750 3 74.1642 4.30964 74.0759
4751 3 44.1673 20.716 83.7251
4752 3 76.8254 17.3717 72.772
4753 3 64.0173 3.711 77.0529
4754 3 4.93485 5.46406 53.4042
4755 3 78.6512 13.5578 57.1811
4756 3 11.6625 25.0466 18.9045
4757 3 41.6429 19.3327 67.8088
4758 3 45.5823 12.1809 76.12
4759 3 37.3007 28.0541 45.9436
4760 3 66.1126 3.18236 57.3347
4761 3 70.3798 4.01892 76.3804
4762 3 31.4714 25.4403 36.2197
4763 3 64.0511 4.88101 28.2701
4764 3 75.4509 9.2653 88.6381
4765 3 72.7983 25.3788 30.0023
4766 3 64.068 8.76203 22.3169
4767 3 5.93977 16.2896 15.1199
4768 3 44.0868 26.9758 89.0658
4769 3 27.1785 27.5381 79.5447
4770 3 10.6291 27.8164 70.7381
4771 3 60.5523 10.624 21.9872
4772 3 50.6844 26.1675 28.2068
4773 3 61.0994 24.0574 85.4195
4774 3 15.8501 2.55952 66.9603
4775 3 44.3023 2.05378 45.2886
4776 3 10.6918 14.3644 58.8665
4777 3 27.4372 13.0383 52.1817
4778 3 34.9436 11.9381 67.6128
4779 3 39.5512 20.0232 31.9081
4780 3 5.94647 11.3325 26.6912
4781 3 29.9979 10.2317 86.7273
4782 3 17.2418 10.6279 40.1673
4783 3 62.2596 17.5122 52.4837
4784 3 33.1519 13.5098 71.6678
4785 3 11.3304 21.7975 85.042
4786 3 20.2399 22.3404 19.2039
4787 3 47.282 5.6311 61.6166
4788 3 56.399 18.7594 81.0349
4789 3 24.2456 18.2661 29.0327
4790 3 78.0818 4.49923 77.5639
4791 3 19.1378 17.2642 52.3586
4792 3 24.1662 20.6564 43.9158
4793 3 34.2641 20.2279 34.0999
4794 3 55.6018 18.1646 54.0993
4795 3 0.108807 13.451 15.0207
4796 3 10.4071 15.4774 13.0392
4797 3 6.67658 3.50177 48.864
4798 3 43.4206 6.66564 49.6826
4799 3 63.6712 3.40477 52.6644
4800 3 42.129 10.8468 62.595
4801 3 17.0414 5.46491 36.6282
4802 3 78.8468 16.3077 69.7523
4803 3 73.4818 15.0725 14.1866
4804 3 8.81719 27.4642 47.003
4805 3 8.65736 7.56815 17.3506
4806 3 31.6337 25.8567 90.1216
4807 3 19.7563 27.1202 72.175
4808 3 6.28151 14.3542 37.6766
4809 3 76.8363 16.8131 60.3438
4810 3 3.04124 6.91832 64.9838
4811 3 77.9293 21.8836 32.9501
4812 3 33.7784 26.5033 66.811
4813 3 4.75303 5.0174 15.0237
4814 3 4.93093 23.8793 81.8951
4815 3 37.043 2.53733 49.8897
4816 3 11.772 27.6778 55.8399
4817 3 2.79143 14.7888 12.0108
4818 3 21.5811 8.56469 65.8039
4819 3 9.55389 10.5058 46.7641
4820 3 78.4587 21.4352 21.5249
4821 3 16.5565 7.52408 66.973
4822 3 61.9867 24.7272 52.1793
4823 3 16.081 20.3352 49.4193
4824 3 23.0527 27.0732 28.7283
4825 3 41.2375 0.62716 87.4548
4826 3 11.4114 9.04025 31.6353
4827 3 65.922 24.3073 49.8563
4828 3 72.4368 5.84105 22.0364
4829 3 9.14775 9.36409 57.0402
4830 3 11.0287 12.9463 34.6526
4831 3 52.376 13.5777 85.6832
4832 3 3.9929 28.071 20.6812
4833 3 17.7082 29.2043 26.0274
4834 3 50.5861 17.1213 78.6219
4835 3 46.3537 2.59435 69.3364
4836 3 67.6233 21.3748 47.7826
4837 3 73.6446 13.489 68.5896
4838 3 79.7281 6.03449 34.4808
4839 3 11.9226 27.263 38.5944
4840 3 7.45953 17.439 79.8222
4841 3 66.2276 3.29001 30.9001
4842 3 60.993 24.9948 27.5717
4843 3 42.9639 4.0886 32.3673
4844 3 0.468295 2.2122 68.5117
4845 3 37.7034 17.62 35.0528
4846 3 65.9245 21.9117 80.1277
4847 3 59.4975 24.6044 18.1384
4848 3 4.92423 11.0802 21.24
4849 3 57.1747 7.94317 60.4444
4850 3 67.374 8.03033 77.1342
4851 3 38.6167 1.7356 43.674
4852 3 79.392 26.2833 70.4163
4853 3 29.2297 1.69559 63.673
4854 3 33.0845 25.562 58.2801
4855 3 51.5564 4.87137 61.5712
4856 3 21.0342 4.45116 36.2703
4857 3 66.9963 19.3909 15.7679
4858 3 32.3844 9.34278 40.211
4859 3 78.8019 16.223 38.962
4860 3 58.9883 29.1773 69.1173
4861 3 76.8117 4.29321 64.4025
4862 3 76.6563 27.0291 39.2403
4863 3 61.6113 5.18575 44.6711
4864 3 29.4838 27.8528 42.1771
4865 3 19.4303 23.8409 59.1371
4866 3 38.7305 17.6265 71.2497
4867 3 56.9943 10.328 48.211
4868 3 64.7946 1.851 73.1226
4869 3 16.778 15.7872 34.4865
4870 3 24.4955 17.1249 64.1876
4871 3 31.7915 1.72471 69.0195
4872 3 38.8112 19.0291 61.1311
4873 3 40.5049 10.8061 87.8516
4874 3 78.8106 19.7542 37.062
4875 3 3.01257 26.3329 42.0983
4876 3 79.2381 26.3736 21.7461
4877 3 57.1106 11.219 72.6654
4878 3 8.23857 6.91444 30.8379
4879 3 10.2058 17.0707 49.2629
4880 3 0.683054 13.7552 75.539
4881 3 18.1149 18.4047 31.3067
4882 3 32.7124 7.40559 85.3415
4883 3 15.1868 18.0706 45.31
4884 3 35.3529 13.6525 44.3778
4885 3 69.4152 16.3684 57.7392
4886 3 10.9795 27.5539 75.6273
4887 3 59.9512 10.0508 55.8532
4888 3 2.01526 19.1222 62.2948
4889 3 63.2041 19.0647 63.5844
4890 3 27.4419 12.9305 32.5329
4891 3 50.7889 10.4061 70.261
4892 3 10.9579 22.7654 58.6084
4893 3 9.49204 8.28638 63.1412
4894 3 74.9237 16.4061 22.9308
4895 3 3.15426 22.0069 56.8939
4896 3 51.1134 25.9322 68.1633
4897 3 76.9726 8.90262 52.2024
4898 3 11.7308 2.93744 40.266
4899 3 1.44482 17.6499 16.9313
4900 3 19.4107 13.3397 12.258
4901 3 2.09523 1.30636 59.3011
4902 3 60.3027 17.0022 89.9308
4903 3 22.4036 12.5258 85.6911
4904 3 14.4991 7.24697 39.7921
4905 3 76.9237 17.1857 86.741
4906 3 43.7362 13.3875 49.5467
4907 3 61.5114 8.64198 72.79
4908 3 25.4058 3.85492 48.968
4909 3 60.9838 12.1782 25.6424
4910 3 60.0409 17.2915 74.9246
4911 3 62.5952 22.7225 44.8999
4912 3 60.8134 4.02294 20.3884
4913 3 45.4557 13.5752 28.6962
4914 3 72.8425 16.5594 42.5698
4915 3 8.97989 22.3951 52.4783
4916 3 35.5181 1.35662 57.2278
4917 3 26.5012 13.5307 66.2657
4918 3 15.0116 22.2712 77.4829
4919 3 20.1859 10.6553 69.1584
4920 3 2.49028 22.1744 25.4591
4921 3 57.9916 14.609 75.2844
4922 3 6.62989 2.30836 90.0306
4923 3 50.6064 2.48648 55.8183
4924 3 56.7739 23.0716 38.6839
4925 3 38.39 27.2694 61.5165
4926 3 68.6647 7.01595 65.2279
4927 3 27.5703 8.12749 45.9254
4928 3 56.3236 19.1061 87.6692
4929 3 16.5296 13.6557 70.2012
4930 3 18.4577 13.6119 54.1928
4931 3 79.3593 11.394 28.6112
4932 3 76.7395 9.88029 84.8522
4933 3 19.6725 0.234047 49.9734
4934 3 25.8085 27.8941 49.6708
4935 3 57.0998 26.1631 31.1489
4936 3 27.1716 25.9169 71.4734
4937 3 53.9461 26.4019 80.6585
4938 3 71.839 13.976 63.0233
4939 3 46.9394 5.64147 83.5985
4940 3 62.4698 12.6395 54.234
4941 3 29.9249 1.37511 57.6447
4942 3 17.7597 15.5101 75.8856
4943 3 58.1485 18.4529 21.3793
4944 3 34.5371 13.7096 90.7903
4945 3 48.5882 29.9121 29.6217
4946 3 65.8523 3.76443 60.767
4947 3 53.0597 9.84212 42.6419
4948 4 10.8648 23.2209 76.6577
4949 4 47.0311 22.9596 54.6966
4950 4 47.0838 23.7533 41.9316
4951 4 28.3937 3.80328 41.5804
4952 4 63.5959 9.86177 83.3482
4953 4 53.7269 27.3407 78.2694
4954 4 75.6566 17.4569 63.0891
4955 4 44.2911 3.65777 84.6896
4956 4 2.79139 7.57603 46.9333
4957 4 34.6086 17.5601 60.3992
4958 4 50.702 29.9934 90.235
4959 4 74.147 5.74907 71.4555
4960 4 2.18359 29.0564 29.739
4961 4 15.3533 0.805276 83.6207
4962 4 12.3803 25.6678 73.8086
4963 4 49.6384 16.2276 26.5364
4964 4 43.4323 0.226043 43.0812
4965 4 50.0404 19.2782 91.0917
4966 4 73.6683 8.04114 37.5149
4967 4 42.8558 28.9695 84.0669
4968 4 33.9836 12.3331 80.7087
4969 4 28.791 27.4285 56.2718
4970 4 48.9918 1.15975 54.381
4971 4 12.7773 27.8163 87.1378
4972 4 34.6187 8.93472 85.1475
4973 4 48.4526 12.8953 60.1382
4974 4 43.9041 2.32135 66.5822
4975 4 62.1811 0.2115 78.2485
4976 4 13.0867 16.8221 25.0801
4977 4 65.2271 11.8662 79.3158
4978 4 52.9006 19.7184 86.9592
4979 4 27.035 26.6631 37.3635
4980 4 68.6961 3.57696 86.1286
4981 4 61.0298 9.18963 90.5711
4982 4 65.0124 0.880209 88.1134
4983 4 4.51893 20.9832 17.6351
4984 4 9.64724 10.9838 73.7816
4985 4 6.8072 26.6498 88.5617
4986 4 0.633472 20.4415 16.4153
4987 4 24.1377 18.5205 37.5984
4988 4 50.114 23.413 89.0836
4989 4 64.6853 24.5975 83.8102
4990 4 70.0594 29.3951 27.9976
4991 4 24.96 27.7399 54.0435
4992 4 48.5534 13.7787 50.2745
4993 4 66.1534 20.6142 57.6605
4994 4 31.4866 20.7184 86.0743
4995 4 41.8465 3.44068 45.0882
4996 4 46.9845 19.2958 30.7924
4997 4 60.1926 7.39315 24.3366
4998 4 36.2314 11.9811 61.0937
4999 4 79.2684 5.9102 62.7705
5000 4 34.2765 28.1577 84.8181
5001 4 55.8903 28.4806 73.0007
5002 4 39.5985 4.77093 63.8111
5003 4 26.823 29.0866 61.1759
5004 4 59.1486 6.88442 65.675
5005 4 76.3843 16.6622 69.9523
5006 4 65.2548 6.3129 26.1787
5007 4 74.613 16.4379 82.298
5008 4 55.7763 4.53185 42.8055
5009 4 77.5076 21.7276 30.4424
5010 4 0.154144 12.3288 42.3172
5011 4 2.04907 2.20462 70.5897
5012 4 13.7045 8.37007 71.7366
5013 4 17.0809 18.4949 54.7481
5014 4 47.2528 25.1371 49.3689
5015 4 69.639 6.43798 77.9443
5016 4 59.5961 6.52786 57.3103
5017 4 4.42587 12.9493 64.1314
5018 4 75.4213 26.2391 52.6574
5019 4 54.7541 24.8095 88.1306
5020 4 34.6562 19.0589 88.4322
5021 4 0.592057 15.7478 37.1952
5022 4 16.3958 23.0461 42.3763
5023 4 27.2328 22.5338 52.7065
5024 4 36.415 6.37539 71.8266
5025 4 5.6899 0.947776 20.4447
5026 4 5.08134 2.21776 63.8165
5027 4 16.45 27.4978 58.1092
5028 4 60.0885 8.55145 14.406
5029 4 62.4017 0.674058 44.7195
5030 4 50.4274 26.2953 38.2427
5031 4 8.82131 2.83447 47.6593
5032 4 32.7135 0.0804195 58.3319
5033 4 73.6826 10.4041 89.9699
5034 4 19.5571 14.8136 34.3692
5035 4 31.0378 20.1545 76.5345
5036 4 32.9148 24.1199 30.8335
5037 4 34.2667 28.2754 51.3511
5038 4 10.9655 3.44236 56.0545
5039 4 65.8011 10.3681 24.0088
5040 4 39.7765 16.1086 34.7286
5041 4 52.7033 11.5362 61.0762
5042 4 25.181 4.48505 32.6148
5043 4 42.4031 10.7334 77.9344
5044 4 66.0924 2.51447 20.1951
5045 4 62.3493 25.831 39.1887
5046 4 1.61739 29.4029 57.0472
5047 4 59.4288 22.3717 19.7921
5048 4 2.63766 16.9274 47.0773
5049 4 4.41497 13.3767 48.1014
5050 4 26.8608 11.6184 39.7213
5051 4 42.7844 10.1725 39.1612
5052 4 51.0078 23.4476 57.2425
5053 4 45.2956 23.1246 82.3157
5054 4 7.39574 28.3813 67.0409
5055 4 23.2023 20.6319 29.1901
5056 4 12.9002 20.5243 11.8097
5057 4 30.6925 2.36666 60.2165
5058 4 24.3122 23.3413 85.0947
5059 4 8.69594 7.09802 89.2238
5060 4 62.2464 29.1331 31.1519
5061 4 66.8052 16.2197 48.6832
5062 4 58.4953 22.5095 56.6964
5063 4 66.2749 2.80923 51.8708
5064 4 54.5142 29.4354 30.3548
5065 4 33.5095 28.8696 41.4098
5066 4 5.26107 19.1138 86.4925
5067 4 31.4361 5.00546 70.0294
5068 4 79.5602 28.8998 50.7812
5069 4 60.6882 25.3273 83.2027
5070 4 59.7354 19.7014 33.9964
5071 4 0.360073 4.54132 79.6542
5072 4 51.5607 13.8456 76.3534
5073 4 6.37939 8.59814 26.0682
5074 4 63.6402 5.08468 42.8306
5075 4 53.9683 27.7844 50.7115
5076 4 21.3493 10.5615 52.7674
5077 4 25.4578 8.70823 43.8283
5078 4 10.2632 0.0888087 26.9571
5079 4 65.2571 0.934593 36.09
5080 4 67.3769 28.2418 59.8177
5081 4 2.22141 23.7709 80.7678
5082 4 16.4026 12.0645 54.491
5083 4 18.9916 8.87657 23.9978
5084 4 45.0171 22.8976 34.6268
5085 4 2.42618 4.33013 35.6285
5086 4 16.6877 29.3048 62.9908
5087 4 61.4516 10.8204 46.7267
5088 4 38.3761 21.8376 34.014
5089 4 75.8136 26.3587 66.9183
5090 4 77.2777 22.6535 48.2581
5091 4 0.421917 15.086 19.2393
5092 4 73.9923 24.8972 27.6897
5093 4 28.4644 18.2349 66.427
5094 4 61.3894 14.2449 28.4692
5095 4 69.6421 5.00885 27.3835
5096 4 67.3643 16.5443 76.9655
5097 4 14.8282 26.3031 81.7546
5098 4 18.4412 0.777903 78.4695
5099 4 7.61594 14.8454 55.6927
5100 4 77.7061 11.6977 64.9062
5101 4 43.7949 3.14773 59.9254
5102 4 24.638 14.957 81.1235
5103 4 8.91299 18.8957 21.1443
5104 4 5.54334 13.3303 35.2841
5105 4 62.6198 19.9576 17.5137
5106 4 5.96111 9.52287 37.0378
5107 4 67.2062 26.6013 48.8461
5108 4 64.5973 20.999 44.4526
5109 4 37.3757 25.7713 63.892
5110 4 60.0778 0.0430712 52.0026
5111 4 49.1791 11.3453 41.1334
5112 4 49.8906 13.2197 85.3104
5113 4 75.2164 18.9455 48.6165
5114 4 66.618 29.5343 64.6535
5115 4 73.271 27.8279 69.5211
5116 4 54.8643 0.036186 56.4824
5117 4 44.464 29.0261 38.8185
5118 4 35.3048 1.18114 31.9779
5119 4 38.7623 0.278843 41.5144
5120 4 19.4369 22.203 55.4039
5121 4 5.25262 22.2299 64.7707
5122 4 31.0335 22.8691 35.2863
5123 4 25.2916 13.9212 71.2887
5124 4 73.5843 27.1478 42.2208
5125 4 69.5487 5.06589 47.3331
5126 4 46.2873 6.84841 50.62
5127 4 79.4243 16.9538 72.4153
5128 4 61.9861 26.0321 60.1785
5129 4 62.2542 8.17447 63.8986
5130 4 10.4818 9.16132 44.9885
5131 4 70.0505 29.4321 80.0184
5132 4 6.27309 24.9837 30.6592
5133 4 64.1563 17.4394 38.1824
5134 4 72.3153 16.9394 30.4144
5135 4 37.3586 18.4758 32.6933
5136 4 19.5535 13.3994 15.0211
5137 4 9.26181 17.0705 23.6463
5138 4 8.5326 20.9042 54.8504
5139 4 79.6947 22.352 71.1011
5140 4 50.2002 22.8014 35.6531
5141 4 13.3472 20.2363 44.4301
5142 4 70.1086 7.83883 62.1474
5143 4 23.1368 4.53325 55.381
5144 4 79.3203 6.87316 68.2918
5145 4 30.7976 8.08196 76.9196
5146 4 9.10221 11.337 54.9887
5147 4 14.4466 21.2426 67.8557
5148 4 79.686 6.96558 37.0634
5149 4 26.1002 3.89432 62.7046
5150 4 41.6531 26.0752 29.4056
5151 4 5.1086 8.40932 69.8847
5152 4 49.2256 27.3331 64.5408
5153 4 16.0539 17.6429 78.4969
5154 4 71.5206 29.3035 48.1378
5155 4 38.646 5.85296 77.9722
5156 4 19.2002 13.0391 70.3325
5157 4 29.2929 3.86637 83.9972
5158 4 69.5356 25.4221 38.328
5159 4 53.3388 11.8231 87.3912
5160 4 37.3915 16.8048 69.0188
5161 4 7.25869 8.46925 48.8486
5162 4 65.8318 22.9902 51.9023
5163 4 38.682 10.0295 76.1431
5164 4 22.425 21.2091 48.3443
5165 4 10.709 26.513 36.1911
5166 4 65.0251 2.32522 28.8184
5167 4 12.749 8.85338 55.2748
5168 4 34.6873 8.01083 49.3946
5169 4 69.9322 26.3699 23.6489
5170 4 22.0494 8.05004 50.025
5171 4 15.2261 17.3821 42.0044
5172 4 68.8964 22.321 79.2824
5173 4 56.5573 3.58192 52.5402
5174 4 66.7128 19.6749 41.9163
5175 4 46.724 9.88103 83.2186
5176 4 9.98571 4.57476 17.1658
5177 4 19.7706 19.7452 51.9388
5178 4 0.531109 24.7661 35.1326
5179 4 10.23 9.37401 26.753
5180 4 14.5823 21.239 58.2986
5181 4 70.8341 6.39051 12.5343
5182 4 73.5381 24.2306 83.1093
5183 4 4.66712 24.2042 56.8909
5184 4 9.20701 2.93045 89.7568
5185 4 22.3593 7.63888 39.6813
5186 4 29.752 27.321 79.5013
5187 4 12.861 4.88267 77.802
5188 4 40.3236 15.4148 63.9259
5189 4 8.87384 16.6114 15.4346
5190 4 8.11859 0.217205 83.4282
5191 4 60.963 9.42359 70.3667
5192 4 42.9431 27.0931 73.4381
5193 4 51.9824 6.41823 45.1818
5194 4 66.3834 7.61591 38.0309
5195 4 26.2375 21.297 56.958
5196 4 44.2055 17.4059 51.9766
5197 4 42.6296 3.69055 89.7045
5198 4 20.5996 26.2659 81.8126
5199 4 8.78232 3.31838 39.5772
5200 4 55.9044 8.84538 58.5062
5201 4 54.137 14.4029 48.6134
5202 4 60.6363 16.4344 47.3125
5203 4 10.0296 19.7455 48.8491
5204 4 36.6819 18.5944 56.9554
5205 4 57.5117 28.7897 84.2419
5206 4 14.2864 3.44279 49.8491
5207 4 37.1665 20.0749 70.8205
5208 4 11.9301 21.3433 63.3902
5209 4 54.2462 12.8701 81.1944
5210 4 43.31 18.4062 85.0942
5211 4 33.3139 2.70399 46.6322
5212 4 1.85502 26.2093 38.1079
5213 4 23.2725 0.0202583 57.7793
5214 4 1.57848 12.4537 27.3157
5215 4 27.0147 27.8424 69.5731
5216 4 74.8153 6.56886 22.706
5217 4 71.1053 3.09032 68.2538
5218 4 30.4257 7.91922 45.0906
5219 4 55.1491 29.5649 89.1682
5220 4 15.9155 0.64601 46.0147
5221 4 63.2061 8.65534 75.3082
5222 4 59.2477 24.2773 87.0409
5223 4 22.5174 2.47282 71.0491
5224 4 2.15888 0.488959 79.1492
5225 4 52.1047 4.38954 64.4699
5226 4 26.6222 29.3615 75.8104
5227 4 76.9868 10.8982 56.5531
5228 4 25.0782 14.4553 36.7606
5229 4 70.3764 19.3996 71.2948
5230 4 52.7964 21.5521 43.1085
5231 4 75.0881 0.359165 38.266
5232 4 3.69282 9.64981 61.8633
5233 4 79.1834 7.126 54.4571
5234 4 16.3098 7.26182 48.7007
5235 4 79.0123 2.90686 88.6698
5236 4 69.4046 28.9115 15.9392
5237 4 74.252 5.05357 35.0098
5238 4 26.7822 16.6926 57.4501
5239 4 25.2222 0.290193 50.7829
5240 4 53.4122 21.3956 33.1906
5241 4 11.0141 24.3787 87.0723
5242 4 14.0101 16.4447 19.676
5243 4 15.6693 15.1877 89.0388
5244 4 61.8708 1.37893 18.5147
5245 4 52.7219 29.6611 71.0516
5246 4 75.5276 12.6072 83.6361
5247 4 73.6859 22.2427 12.248
5248 4 51.5871 7.73108 70.5587
5249 4 62.0192 11.432 66.4285
5250 4 28.9097 5.26224 29.0633
5251 4 47.8829 12.9728 89.7808
5252 4 33.112 7.1835 35.4525
5253 4 41.7003 10.9006 44.9084
5254 4 60.9613 27.6913 25.9779
5255 4 72.9974 0.201013 33.5833
5256 4 58.9597 12.7086 84.9075
5257 4 68.972 24.9412 89.9139
5258 4 7.97405 16.4953 74.1673
5259 4 4.99355 16.4954 71.5085
5260 4 41.683 11.9057 48.6787
5261 4 71.8037 20.252 29.3406
5262 4 9.14038 27.4974 44.3817
5263 4 20.2534 10.6748 17.9282
5264 4 38.5228 17.9775 79.3255
5265 4 56.8351 19.3122 61.9514
5266 4 62.8347 26.072 64.3126
5267 4 76.2013 1.83321 57.6466
5268 4 78.0405 16.7723 78.3633
5269 4 58.585 1.57774 23.3169
5270 4 6.47293 16.3328 83.0827
5271 4 45.5006 17.9371 61.7898
5272 4 27.8356 16.3231 27.5242
5273 4 50.4932 11.2963 68.0402
5274 4 16.2881 25.4788 26.8059
5275 4 52.472 24.2538 80.6221
5276 4 60.4316 21.5872 75.4574
5277 4 64.94 13.1939 65.1257
5278 4 60.1803 3.31984 11.5109
5279 4 54.4115 23.2266 50.9533
5280 4 15.9069 5.22598 67.8566
5281 4 6.33056 6.44771 16.7269
5282 4 67.0428 21.4249 73.5341
5283 4 50.6977 10.2026 54.2438
5284 4 17.5902 16.4249 84.0137
5285 4 68.4019 11.5488 86.3167
5286 4 41.8937 16.6381 59.2775
5287 4 56.8605 18.057 46.9889
5288 4 76.1812 14.9335 34.9014
5289 4 55.8091 20.4077 36.864
5290 4 10.4053 16.5306 46.6396
5291 4 53.5251 27.6812 24.7737
5292 4 15.6512 2.00162 41.8165
5293 4 2.6779 14.2135 22.9867
5294 4 26.2823 7.89274 40.1372
5295 4 2.17469 17.567 64.3481
5296 4 51.9982 4.83422 50.4054
5297 4 39.0926 11.7556 89.5766
5298 4 7.38406 24.9516 81.479
5299 4 48.0327 21.9429 59.4098
5300 4 56.3113 12.0919 40.8418
5301 4 28.0974 0.144213 42.325
5302 4 54.7003 9.15736 47.6999
5303 4 1.63703 15.6814 88.7958
5304 4 66.2084 6.4434 29.9398
5305 4 29.2542 17.3099 32.3013
5306 4 64.5091 12.5761 43.5667
5307 4 58.2012 10.0233 50.9886
5308 4 27.9993 25.8755 83.0364
5309 4 52.9742 25.8083 83.3851
5310 4 50.8623 17.2958 44.7284
5311 4 48.3563 6.50979 46.7061
5312 4 5.2688 26.3865 22.2276
5313 4 10.814 12.3361 65.3353
5314 4 30.2196 9.14318 50.2085
5315 4 63.6836 16.1488 62.6634
5316 4 60.1356 4.7062 49.2885
5317 4 34.5856 29.3389 35.8852
5318 4 60.0612 22.3994 13.3493
5319 4 58.3517 14.1942 56.6888
5320 4 20.2146 15.3659 53.9711
5321 4 77.8018 24.3958 25.3028
5322 4 0.8347 12.9117 12.8101
5323 4 55.5087 20.1796 77.0791
5324 4 74.8022 28.2711 13.1225
5325 4 45.51 11.4102 50.2502
5326 4 1.16477 25.0921 29.0453
5327 4 59.7771 26.8715 13.9734
5328 4 78.7327 4.93946 15.5954
5329 4 9.82083 25.5908 69.5451
5330 4 2.97179 5.39298 30.6644
5331 4 18.3487 13.0586 41.2619
5332 4 36.9092 2.60176 88.4129
5333 4 53.2642 21.7586 67.4751
5334 4 63.9698 2.83473 59.0688
5335 4 76.8776 27.823 26.1314
5336 4 46.1309 12.3596 31.0854
5337 4 11.3338 13.7032 87.1948
5338 4 56.9075 22.7487 83.4959
5339 4 63.8337 24.0179 68.6222
5340 4 79.3093 26.042 73.095
5341 4 44.7521 26.3579 54.7328
5342 4 5.8929 29.8539 27.4092
5343 4 64.0841 16.7999 57.9583
5344 4 78.7138 22.987 18.4671
5345 4 12.2988 10.8548 52.1226
5346 4 67.9968 16.5111 28.3919
5347 4 12.479 9.68548 79.2831
5348 4 71.2047 4.09079 72.5663
5349 4 14.6528 9.84059 39.315
5350 4 77.4246 9.24633 24.8531
5351 4 51.0368 11.5328 45.8051
5352 4 22.2544 13.6601 21.7681
5353 4 53.5393 16.0369 57.933
5354 4 57.7918 5.82234 73.6846
5355 4 42.6873 9.20386 60.5049
5356 4 12.9622 21.4196 19.1709
5357 4 28.5314 23.5564 63.6884
5358 4 25.5859 8.98616 51.8817
5359 4 2.86553 25.8097 74.6527
5360 4 71.2986 14.6106 41.5965
5361 4 23.7746 27.8906 35.3417
5362 4 75.6463 5.6419 87.5667
5363 4 77.1444 1.13923 20.2816
5364 4 21.611 11.6421 87.9566
5365 4 16.0363 6.87183 64.4639
5366 4 53.6474 7.15831 25.348
5367 4 65.8742 22.7902 39.9228
5368 4 62.9953 10.9936 27.2837
5369 4 5.08974 15.3744 11.5068
5370 4 24.5476 16.4782 45.5862
5371 4 38.8054 24.5461 86.7183
5372 4 24.4726 8.03729 85.6863
5373 4 38.3271 21.2671 48.2498
5374 4 70.9519 4.94415 39.0648
5375 4 2.70051 12.5963 85.9871
5376 4 2.11414 28.4111 88.5319
5377 4 60.1496 23.9114 79.1202
5378 4 14.2558 16.7745 34.6574
5379 4 69.4468 18.5717 53.878
5380 4 15.8449 20.8844 28.0225
5381 4 78.3079 29.9444 31.2116
5382 4 25.5176 5.82742 71.8456
5383 4 69.879 5.78409 52.6315
5384 4 45.8242 5.0398 35.7757
5385 4 2.87642 19.0113 42.3668
5386 4 74.0552 23.6598 61.6898
5387 4 74.4781 29.4435 19.152
5388 4 72.4893 11.8914 52.0275
5389 4 64.2897 18.8174 51.4954
5390 4 2.83496 18.9654 74.06
5391 4 71.8587 8.45474 19.8232
5392 4 20.5866 26.663 69.3165
5393 4 53.1327 18.0329 53.4666
5394 4 24.4775 22.9923 60.8534
5395 4 59.2882 24.3388 52.943
5396 4 77.6872 25.4098 57.09
5397 4 40.7053 29.6646 69.7248
5398 4 70.1387 11.5175 23.675
5399 4 14.5943 6.94844 33.7841
5400 4 47.9296 26.9578 28.5957
5401 4 20.2203 5.26571 34.0021
5402 4 16.6746 22.9424 85.247
5403 4 27.257 5.33326 45.5083
5404 4 43.7922 14.3162 76.0931
5405 4 22.7756 24.0766 88.5924
5406 4 57.9884 22.1553 44.1504
5407 4 2.20196 25.9792 12.0227
5408 4 64.9683 8.35499 20.0683
5409 4 54.8658 12.3873 31.0025
5410 4 66.3506 14.1554 23.749
5411 4 8.4278 8.081 78.2741
5412 4 69.2738 0.743522 12.8893
5413 4 64.9749 11.5149 54.2038
5414 4 5.39246 20.5826 60.3042
5415 4 51.8067 3.87863 81.8599
5416 4 40.5648 7.60399 85.8686
5417 4 78.4459 22.0883 44.0147
5418 4 5.61032 15.4167 51.4028
5419 4 76.4855 12.6191 42.0181
5420 4 48.9477 14.776 70.6168
5421 4 73.5999 21.3354 75.223
5422 4 5.01116 11.0534 17.6241
5423 4 46.5191 27.1757 67.9877
5424 4 13.2497 16.918 75.1076
5425 4 53.1419 19.6786 61.3477
5426 4 6.45353 1.90041 86.7174
5427 4 65.1963 13.6469 12.9264
5428 4 11.5138 22.0639 41.0905
5429 4 34.9357 3.61327 65.8226
5430 4 78.0893 18.4322 84.6156
5431 4 74.5525 25.2607 89.882
5432 4 43.7898 14.9423 42.224
5433 4 15.1729 21.1421 51.6606
5434 4 79.8113 10.2709 58.302
5435 4 3.12 27.0737 50.8954
5436 4 5.24073 20.1784 28.5111
5437 4 19.6676 5.96189 77.0527
5438 4 58.2877 17.9435 88.6821
5439 4 12.2211 23.0376 25.7022
5440 4 72.4299 0.867223 87.1796
5441 4 36.2412 26.7982 73.6566
5442 4 37.8719 3.69792 42.2685
5443 4 26.6596 20.7833 81.4163
5444 4 32.0406 16.1017 63.632
5445 4 18.3419 21.6219 59.0052
5446 4 18.0695 3.70506 64.5534
5447 4 24.0395 19.5071 79.3134
5448 4 75.3193 2.50875 80.4779
5449 4 79.2469 8.13493 82.0612
5450 4 61.2525 25.6981 21.0232
5451 4 52.3806 25.5935 43.4796
5452 4 39.0159 0.00469893 58.757
5453 4 20.2123 20.5696 41.4477
5454 4 60.4387 18.1293 12.7745
5455 4 65.9499 6.0444 65.2343
5456 4 33.3546 6.44766 74.9487
5457 4 36.4131 7.7021 39.9547
5458 4 11.2746 25.0963 56.8943
5459 4 77.5089 18.8881 14.6318
5460 4 22.5826 11.0635 45.3208
5461 4 17.1019 25.1166 16.7438
5462 4 44.8447 24.0956 60.5913
5463 4 18.1491 3.5233 16.8686
5464 4 4.19656 7.37023 54.8918
5465 4 9.95588 28.6447 73.5322
5466 4 37.3769 17.8986 40.9619
5467 4 57.0445 5.30069 82.9869
5468 4 41.3692 27.1498 88.9225
5469 4 20.4881 26.5855 28.6062
5470 4 71.7618 17.8241 80.2391
5471 4 5.6699 9.738 87.9284
5472 4 32.4816 15.0031 90.5718
5473 4 58.5546 13.1674 65.6288
5474 4 44.5939 1.95294 74.066
5475 4 69.2577 8.00599 67.9388
5476 4 45.645 6.96259 72.4915
5477 4 48.8268 3.59204 77.9642
5478 4 4.80056 18.6597 34.9556
5479 4 19.5556 6.49607 36.9687
5480 4 61.816 26.1354 54.4651
5481 4 24.7417 1.6814 66.2723
5482 4 42.7869 16.7759 90.2148
5483 4 31.0409 20.886 43.1567
5484 4 12.8168 24.1991 49.7246
5485 4 27.4874 2.41263 26.171
5486 4 65.3582 22.5583 47.8711
5487 4 50.3739 10.5898 82.4217
5488 4 75.2877 5.2794 46.3712
5489 4 70.4535 7.11205 32.8905
5490 4 0.992246 9.4996 77.6223
5491 4 62.8251 2.61828 75.2062
5492 4 2.32522 3.59818 66.8534
5493 4 32.1456 11.6252 68.0017
5494 4 78.3655 15.5915 55.7039
5495 4 44.5063 8.61442 53.8673
5496 4 3.57042 10.3679 42.9366
5497 4 72.4261 11.6347 61.2141
5498 4 17.968 15.3423 11.1623
5499 4 40.1198 16.5425 47.6467
5500 4 59.6531 11.9332 79.0487
5501 4 2.42083 8.56233 89.09
5502 4 67.4382 23.984 31.7258
5503 4 55.3982 2.62643 36.8191
5504 4 17.5305 25.4121 20.8229
5505 4 14.549 15.785 70.7389
5506 4 19.5079 27.8144 41.2355
5507 4 65.0493 11.8526 60.6747
5508 4 31.6626 1.25398 79.2064
5509 4 45.4846 15.5029 79.806
5510 4 78.227 15.2867 62.1246
5511 4 23.9868 26.5437 26.5426
5512 4 19.8095 28.546 23.7354
5513 4 78.49 21.1578 35.1048
5514 4 0.72653 5.40624 47.7306
5515 4 31.0037 17.006 44.4901
5516 4 22.6031 10.0948 57.1381
5517 4 4.34569 12.7879 40.9237
5518 4 59.1884 12.5838 72.9256
5519 4 65.5756 24.9141 22.2165
5520 4 32.8802 29.1771 75.692
5521 4 29.6094 7.29552 35.0169
5522 4 3.21832 13.4718 76.4394
5523 4 35.9235 5.67077 53.4986
5524 4 61.846 1.74457 68.1425
5525 4 10.6877 25.9658 40.5745
5526 4 64.9197 20.9087 25.8868
5527 4 44.4216 0.652084 62.7666
5528 4 18.556 4.77814 87.8167
5529 4 35.4126 23.009 54.8246
5530 4 46.5953 8.47576 67.0345
5531 4 2.85965 23.1354 85.7574
5532 4 19.4356 16.2729 63.6526
5533 4 70.1635 22.0256 46.9746
5534 4 72.3121 18.9523 65.8302
5535 4 22.1575 13.2138 38.1078
5536 4 32.0884 19.9329 35.4785
5537 4 4.00361 29.4659 45.6112
5538 4 20.0106 4.93076 58.3935
5539 4 60.8752 18.7104 83.5995
5540 4 61.9379 25.3118 44.1945
5541 4 41.0133 24.7527 76.0403
5542 4 29.4608 22.2954 59.1189
5543 4 72.3822 2.55691 75.0348
5544 4 26.8049 10.2404 79.3737
5545 4 41.3086 3.17565 81.8779
5546 4 68.9083 29.9867 72.3844
5547 4 29.9734 8.74074 88.8508
5548 4 19.7257 9.2011 61.7711
5549 4 17.5785 15.4777 67.4204
5550 4 16.9938 18.9525 90.854
5551 4 63.8434 20.579 30.1308
5552 4 79.561 9.80946 14.5504
5553 4 74.1456 10.3029 79.3402
5554 4 22.2528 25.9913 57.8983
5555 4 26.7509 18.4052 53.3693
5556 4 75.7375 4.59538 76.4485
5557 4 45.4257 12.6521 39.3962
5558 4 77.6074 9.46971 29.345
5559 4 66.4188 5.93974 50.944
5560 4 79.0392 27.0616 43.7184
5561 4 73.7231 7.36816 55.7929
5562 4 6.90268 12.5666 24.5564
5563 4 64.7309 19.4503 84.437
5564 4 71.8111 27.848 89.7364
5565 4 74.3794 13.5541 63.9164
5566 4 10.6587 8.2361 18.9491
5567 4 8.89663 4.57913 32.2967
5568 4 34.6282 1.9598 51.5033
5569 4 37.0668 23.9054 76.1039
5570 4 28.0155 19.4355 47.0899
5571 4 38.2048 8.37295 30.5221
5572 4 40.0453 25.0259 61.0548
5573 4 16.1854 11.1402 59.9521
5574 4 11.2253 14.1698 81.1722
5575 4 63.935 12.0562 38.2329
5576 4 72.3392 1.55652 13.0433
5577 4 72.1809 18.4911 21.0838
5578 4 3.41172 3.51999 77.4592
5579 4 77.1371 1.55613 24.7348
5580 4 53.082 16.01 85.7511
5581 4 40.4821 3.53364 56.9417
5582 4 1.46864 27.1235 20.845
5583 4 7.05651 0.0446588 41.7697
5584 4 79.7695 2.10097 54.185
5585 4 78.313 13.0727 76.4421
5586 4 30.9347 28.8384 48.1489
5587 4 63.0241 11.5032 22.2042
5588 4 33.2548 13.2916 46.2098
5589 4 5.5554 6.19158 58.7954
5590 4 74.2579 2.40494 54.2542
5591 4 57.8829 17.1259 73.5936
5592 4 2.16134 16.5772 29.9726
5593 4 53.2896 3.63746 55.5798
5594 4 76.5059 12.3056 47.1942
5595 4 79.9265 27.3015 67.9419
5596 4 74.7971 3.0774 17.9278
5597 4 30.922 14.1681 49.5881
5598 4 15.0776 19.411 62.5284
5599 4 36.945 2.33686 78.9745
5600 4 20.2776 13.933 80.0372
5601 4 46.6201 0.0322148 45.8972
5602 4 53.0829 11.182 72.4758
5603 4 59.3326 13.832 34.7508
5604 4 77.5655 1.98878 62.8605
5605 4 13.7667 4.2085 38.9659
5606 4 67.5984 8.21034 74.5625
5607 4 15.6009 19.9795 71.1209
5608 4 68.4411 2.55055 75.8561
5609 4 77.3455 17.4186 36.5871
5610 4 66.8267 25.3314 16.7793
5611 4 25.9625 13.939 30.2534
5612 4 11.9838 5.13544 27.0008
5613 4 28.5236 21.2132 70.0521
5614 4 57.7237 5.45495 35.9611
5615 4 41.4216 23.5685 46.0141
5616 4 7.47794 22.116 32.5882
5617 4 74.6554 5.35579 63.9637
5618 4 27.052 20.051 76.2154
5619 4 16.3754 26.2686 75.6513
5620 4 37.8537 12.8137 48.0653
5621 4 73.5141 20.4304 33.7684
5622 4 31.905 4.39311 56.925
5623 4 61.2484 13.2294 18.2068
5624 4 64.0419 7.48945 14.8582
5625 4 42.5682 25.4726 38.9607
5626 4 15.8262 5.07284 90.7432
5627 4 40.4672 11.783 33.7022
5628 4 11.753 8.94162 34.2918
5629 4 59.3008 3.57416 43.8048
5630 4 20.3774 25.2106 64.7635
5631 4 48.0069 5.38354 86.1415
5632 4 62.6586 16.155 41.7542
5633 4 50.2701 1.90779 29.0714
5634 4 33.1705 28.7856 54.9611
5635 4 30.5054 22.582 67.2545
5636 4 21.7855 25.5711 73.1174
5637 4 21.8106 12.9142 61.4902
5638 4 9.19188 0.696078 34.0003
5639 4 74.6108 11.6139 36.4554
5640 4 50.3591 17.52 61.4417
5641 4 10.7074 16.0432 63.4675
5642 4 75.1417 3.87074 41.6141
5643 4 10.0209 0.194179 76.979
5644 4 34.1247 26.1558 69.3964
5645 4 39.9278 19.772 82.7867
5646 4 42.3243 1.81669 51.6437
5647 4 40.748 26.2573 80.7075
5648 4 34.2122 24.1735 50.7778
5649 4 26.8505 20.405 34.9158
5650 4 73.641 11.0985 24.1598
5651 4 7.89889 24.2361 39.0362
5652 4 2.61118 11.242 51.6275
5653 4 7.2303 7.50418 74.3119
5654 4 61.2174 6.26326 38.6491
5655 4 8.04787 25.1463 51.292
5656 4 67.8735 23.0182 61.2218
5657 4 9.91797 8.29209 15.0723
5658 4 40.7009 13.6632 39.4513
5659 4 7.785 1.80532 50.7013
5660 4 75.4635 4.86193 26.0568
5661 4 61.8799 11.4058 57.3917
5662 4 5.55343 28.9793 36.951
5663 4 20.693 29.1993 87.9502
5664 4 12.6865 27.3481 18.8231
5665 4 22.2402 10.7307 67.5781
5666 4 17.2073 6.10251 28.9185
5667 4 22.0884 27.3588 45.4298
5668 4 38.6963 3.89165 48.5438
5669 4 58.7617 1.05229 41.0324
5670 4 56.5139 7.91304 89.1479
5671 4 65.9545 7.69812 86.7868
5672 4 40.8666 7.71203 51.2276
5673 4 1.44052 11.4563 35.2473
5674 4 14.7164 0.297704 67.181
5675 4 78.4976 25.0295 78.822
5676 4 10.9727 12.3747 45.6168
5677 4 70.0477 18.0969 89.5619
5678 4 59.2501 28.2959 63.6664
5679 4 38.8364 2.78403 29.8353
5680 4 57.8872 25.6996 50.5376
5681 4 62.5898 17.6599 23.1617
5682 4 56.9766 4.14537 66.6714
5683 4 22.5521 10.0931 35.5762
5684 4 7.74982 25.9608 16.4052
5685 4 32.2353 3.08287 89.7526
5686 4 53.4307 18.6516 40.0113
5687 4 15.4696 12.5257 72.8636
5688 4 8.91655 9.27727 31.468
5689 4 21.7913 2.03965 19.6152
5690 4 1.05431 0.0337399 42.9404
5691 4 0.11357 19.0951 39.4271
5692 4 11.5671 26.0875 62.8946
5693 4 49.4226 29.6089 41.6128
5694 4 35.5617 17.1067 81.7325
5695 4 63.1059 4.35115 81.5564
5696 4 79.6835 14.3187 51.0472
5697 4 68.8646 12.1569 34.4373
5698 4 7.47957 23.6369 67.6659
5699 4 40.2755 16.15 85.4897
5700 4 54.8185 24.6773 70.9758
5701 4 49.3035 24.9911 70.9322
5702 4 46.9452 28.3833 51.5783
5703 4 44.5004 3.87501 77.264
5704 4 28.5765 26.3188 89.8856
5705 4 44.1435 26.2264 42.9678
5706 4 63.0274 16.7156 73.2435
5707 4 60.2126 6.36906 80.1454
5708 4 66.8196 21.4026 66.4827
5709 4 59.6003 28.5669 74.9559
5710 4 48.2167 19.5478 51.0214
5711 4 14.773 15.3262 49.4881
5712 4 14.5209 6.52532 42.4302
5713 4 63.0083 15.3205 53.4127
5714 4 74.2913 17.22 59.6021
5715 4 29.2989 11.8391 82.7723
5716 4 28.2103 9.03926 85.2397
5717 4 19.026 4.81477 43.988
5718 4 49.5927 14.8794 33.0985
5719 4 49.7624 12.8105 63.2273
5720 4 22.1657 15.8796 88.9002
5721 4 67.2243 29.5783 40.7509
5722 4 48.7725 3.40396 34.477
5723 4 78.2555 27.2982 37.193
5724 1 59.932 20.4996 81.9875
5725 2 59.5703 19.9424 81.2401
5726 2 60.0096 19.9403 82.8129
5727 1 1.88525 7.20658 56.3325
5728 2 1.16265 6.81768 55.761
5729 2 2.66535 7.45683 55.759
5730 1 61.4345 14.1372 78.7361
5731 2 61.9787 13.8807 77.9372
5732 2 60.6607 13.5104 78.8274
5733 1 72.7931 1.78299 80.2841
5734 2 73.7614 1.90468 80.5023
5735 2 72.6263 0.830919 80.0277
5736 1 40.8924 22.8694 43.3048
5737 2 41.8274 22.8653 42.9502
5738 2 40.9098 23.0488 44.2885
5739 1 61.4795 21.9317 32.8362
5740 2 60.9116 21.1999 33.213
5741 2 62.4338 21.6338 32.8112
5742 1 23.7637 16.6437 67.0214
5743 2 23.7253 15.6809 67.289
5744 2 24.2255 17.17 67.7354
5745 1 1.20858 25.9243 79.9476
5746 2 0.213488 25.83 79.9176
5747 2 1.62101 25.0388 80.1612
5748 1 77.65 24.2267 11.8191
5749 2 78.1267 23.7511 12.5585
5750 2 78.2313 24.2453 11.0056
5751 1 78.2825 20.622 12.7885
5752 2 79.1397 20.5119 12.2854
5753 2 78.2031 19.8985 13.4742
5754 1 59.0937 10.1196 46.0796
5755 2 59.1802 10.4395 45.1361
5756 2 59.8387 10.4974 46.6293
5757 1 67.1496 8.84169 28.995
5758 2 67.2155 8.94503 28.0026
5759 2 66.8926 7.90087 29.2159
5760 1 65.0159 10.7603 51.645
5761 2 64.8039 10.9467 52.6043
5762 2 64.1964 10.9005 51.0892
5763 1 15.9147 21.7616 32.7573
5764 2 15.4562 20.8971 32.5511
5765 2 15.2647 22.5152 32.6592
5766 1 40.2785 15.5221 89.9918
5767 2 41.061 16.139 90.076
5768 2 40.5701 14.5855 90.1861
5769 1 75.3189 0.387444 61.8857
5770 2 75.8671 29.5547 61.9635
5771 2 75.9237 1.1745 61.7642
5772 1 77.2942 0.888426 83.9072
5773 2 77.515 0.835916 84.8811
5774 2 77.1967 29.9645 83.5372
5775 1 77.3089 24.3938 38.5376
5776 2 76.7968 24.3651 37.6792
5777 2 76.9742 23.6772 39.1496
5778 1 78.7167 12.7926 70.0681
5779 2 79.3619 13.1062 70.7648
5780 2 79.2217 12.4642 69.2699
5781 1 46.1679 13.6764 87.8545
5782 2 46.8902 14.1819 87.3825
5783 2 46.5294 13.2949 88.7052
5784 1 12.4768 11.2906 73.158
5785 2 11.5251 11.0275 73.3159
5786 2 13.0217 10.4736 72.9697
5787 1 61.2936 19.6466 65.2078
5788 2 61.0105 20.5939 65.3578
5789 2 61.2488 19.1446 66.0715
5790 1 74.4728 24.2608 67.341
5791 2 73.5424 24.6215 67.4053
5792 2 75.1188 25.019 67.2519
5793 1 25.45 6.56437 55.6492
5794 2 24.7145 5.88686 55.6469
5795 2 25.083 7.45564 55.3828
5796 1 76.7557 11.6073 31.6573
5797 2 77.3726 12.2988 31.2814
5798 2 76.6775 10.8455 31.0142
5799 1 8.71386 0.932004 20.2973
5800 2 7.72109 0.881888 20.4064
5801 2 9.07861 0.0143303 20.1397
5802 1 57.3331 24.8482 84.9539
5803 2 57.1895 23.956 84.5259
5804 2 58.209 24.8494 85.4364
5805 1 67.3161 21.4961 38.2185
5806 2 67.7972 22.2688 37.8044
5807 2 66.9356 21.7743 39.1004
5808 1 70.4098 13.2048 44.4398
5809 2 71.1488 13.8665 44.5662
5810 2 70.4079 12.5576 45.202
5811 1 43.4862 29.0495 47.0626
5812 2 42.532 29.2486 46.8391
5813 2 43.8673 29.803 47.5983
5814 1 78.3881 4.50822 45.9349
5815 2 79.118 4.90104 46.4942
5816 2 77.5014 4.72807 46.3416
5817 1 38.7917 25.6499 37.9533
5818 2 38.3653 25.619 37.0493
5819 2 38.8436 26.5986 38.2651
5820 1 68.8186 28.714 18.5282
5821 2 68.8487 28.7054 17.5287
5822 2 68.2213 27.9793 18.85
5823 1 17.8496 0.126673 85.4354
5824 2 18.625 29.4996 85.3615
5825 2 17.7053 0.58327 84.5575
5826 1 37.866 22.2129 56.1932
5827 2 38.8005 22.4829 55.9613
5828 2 37.2313 22.6011 55.5251
5829 1 28.2541 3.22222 47.573
5830 2 28.8582 3.9767 47.8296
5831 2 28.6301 2.36212 47.9177
5832 1 22.9774 0.737579 29.1694
5833 2 23.6387 1.16858 29.7832
5834 2 23.4571 0.348105 28.3831
5835 1 62.1126 22.7668 11.6764
5836 2 61.5099 22.5648 12.4484
5837 2 62.5988 23.6236 11.8483
5838 1 31.8887 7.79909 90.6165
5839 2 31.6732 6.84514 90.4079
5840 2 31.0719 8.36134 90.4871
5841 1 75.3587 15.9469 37.2623
5842 2 76.0593 16.5069 36.8201
5843 2 74.9903 15.2918 36.6027
5844 1 79.0523 26.4235 26.5016
5845 2 78.1658 26.8709 26.3834
5846 2 78.9601 25.4459 26.3128
5847 1 73.1823 15.6374 49.6298
5848 2 73.1534 14.7922 49.0963
5849 2 72.4776 15.6083 50.3388
5850 1 19.819 28.8605 66.0163
5851 2 19.6739 29.6695 66.586
5852 2 20.496 28.2652 66.449
5853 1 73.8759 23.0948 64.2832
5854 2 74.6853 22.7761 64.7765
5855 2 74.1249 23.3115 63.3392
5856 1 39.9257 5.9968 46.9751
5857 2 40.1229 6.86797 47.4247
5858 2 39.7712 5.29189 47.6674
5859 1 35.358 15.1013 77.698
5860 2 35.7082 15.4362 78.5728
5861 2 34.3718 14.9515 77.7691
5862 1 12.981 18.2517 87.8929
5863 2 13.2534 17.8863 88.783
5864 2 13.3731 17.687 87.1666
5865 1 59.0463 11.3475 43.4336
5866 2 60.0288 11.4873 43.311
5867 2 58.6315 12.1869 43.785
5868 1 65.5339 14.121 77.0004
5869 2 65.0788 13.5244 77.6614
5870 2 66.0326 14.8383 77.487
5871 1 13.6434 4.32357 32.1985
5872 2 13.2786 5.21355 32.4721
5873 2 13.577 4.22712 31.2054
5874 1 6.86656 12.8576 40.648
5875 2 5.88223 12.6818 40.6341
5876 2 7.033 13.833 40.5035
5877 1 29.2963 7.73437 47.9667
5878 2 29.6632 8.30104 48.7045
5879 2 29.7537 6.84513 47.9705
5880 1 76.837 11.0486 22.5516
5881 2 77.1866 10.2768 23.0828
5882 2 75.9733 10.791 22.1183
5883 1 38.6248 19.3957 65.6584
5884 2 38.0456 18.6931 66.0718
5885 2 38.9082 20.0493 66.3602
5886 1 78.0161 13.4548 29.5589
5887 2 77.0214 13.5573 29.5453
5888 2 78.4357 14.3145 29.8501
5889 1 20.718 6.74121 63.0147
5890 2 21.6582 7.02459 63.2032
5891 2 20.2614 7.44347 62.4685
5892 1 4.83364 2.46059 67.8522
5893 2 4.03295 2.61635 67.2737
5894 2 5.39507 1.73424 67.4557
5895 1 3.93682 7.43584 73.9317
5896 2 4.51353 8.21187 73.6764
5897 2 3.95002 7.3234 74.9252
5898 1 5.6398 14.3829 76.9239
5899 2 5.62846 15.3334 76.6136
5900 2 4.73681 13.9762 76.7853
5901 1 25.2052 19.0469 73.4971
5902 2 25.6177 19.5021 74.2862
5903 2 25.687 18.1892 73.3175
5904 1 22.9564 15.2737 70.2301
5905 2 23.6153 14.5829 70.5278
5906 2 22.8207 15.942 70.9616
5907 1 72.2487 16.5971 61.6856
5908 2 72.8076 16.652 60.8582
5909 2 72.6956 17.1023 62.4239
5910 1 29.6698 21.1469 29.7292
5911 2 30.2447 21.7497 29.1759
5912 2 29.8182 20.1977 29.4517
5913 1 19.9194 16.6548 12.3719
5914 2 19.2627 16.07 11.8958
5915 2 20.0092 16.3517 13.3206
5916 1 38.1997 28.1769 74.9311
5917 2 38.1042 28.2742 75.9218
5918 2 37.6499 27.4027 74.6177
5919 1 48.1253 13.3927 39.9121
5920 2 47.4364 12.8828 39.397
5921 2 48.5819 12.7789 40.5562
5922 1 35.6174 10.9426 36.5396
5923 2 35.5655 9.97832 36.28
5924 2 36.2649 11.0504 37.294
5925 1 37.2722 2.72584 85.6492
5926 2 38.1683 3.16833 85.6143
5927 2 37.0351 2.52781 86.6002
5928 1 67.6134 27.4161 74.5278
5929 2 68.2003 26.757 74.9981
5930 2 67.9527 27.5606 73.5983
5931 1 65.7757 18.3597 63.1817
5932 2 65.336 17.5696 62.7546
5933 2 65.8399 18.2123 64.1687
5934 1 64.3958 12.9491 30.4685
5935 2 63.4303 13.0084 30.7219
5936 2 64.5716 12.0683 30.029
5937 1 11.1704 15.4544 72.1693
5938 2 11.0781 14.8555 72.9648
5939 2 11.607 16.3106 72.4455
5940 1 66.4272 28.2516 19.9412
5941 2 66.8422 28.8327 20.6414
5942 2 66.9405 27.3963 19.8708
5943 1 23.0879 3.3745 75.1937
5944 2 23.1536 4.2626 75.6486
5945 2 22.2963 2.87647 75.5476
5946 1 46.597 1.25708 82.0181
5947 2 47.2734 1.60071 82.6695
5948 2 47.0009 0.520491 81.4756
5949 1 45.3443 10.3412 57.4999
5950 2 44.6752 10.6108 56.8073
5951 2 46.1347 10.9522 57.4554
5952 1 17.3774 21.4429 15.6114
5953 2 17.4784 21.9204 16.4842
5954 2 18.2524 21.0341 15.3518
5955 1 30.4065 23.0221 27.3132
5956 2 30.2964 23.8929 27.7923
5957 2 31.1253 23.1097 26.6235
5958 1 44.8462 1.14602 41.2422
5959 2 45.7758 0.778894 41.2757
5960 2 44.2807 0.684159 41.9255
5961 1 4.14705 10.6762 54.0052
5962 2 3.88528 9.83036 54.4701
5963 2 3.67144 10.7352 53.1276
5964 1 55.907 2.72669 60.891
5965 2 55.7401 1.78125 61.1708
5966 2 55.8673 2.79112 59.8939
5967 1 20.6731 10.6171 12.0464
5968 2 20.831 10.9275 12.9838
5969 2 21.5131 10.2146 11.6826
5970 1 9.22925 25.0902 47.2831
5971 2 9.39463 24.3138 46.6749
5972 2 9.44492 24.8285 48.2238
5973 1 19.0489 8.49715 39.2457
5974 2 19.7733 9.17926 39.1459
5975 2 19.186 7.76519 38.5783
5976 1 75.5586 2.05548 78.006
5977 2 75.2555 2.89724 77.5592
5978 2 75.3611 2.10802 78.9849
5979 1 16.0325 23.1364 88.9922
5980 2 16.8576 23.6905 89.1021
5981 2 16.2469 22.3228 88.4518
5982 1 8.88693 23.0876 10.6817
5983 2 9.6711 22.7485 10.162
5984 2 8.76841 22.5336 11.5057
5985 1 3.77501 29.3858 67.4176
5986 2 4.04557 29.5382 68.3682
5987 2 4.59074 29.3522 66.8402
5988 1 52.5882 27.7305 33.8941
5989 2 51.8909 27.0179 33.8164
5990 2 53.0476 27.6523 34.7789
5991 1 0.926244 2.36845 61.9406
5992 2 1.63586 3.02217 61.6778
5993 2 0.374335 2.75481 62.6796
5994 1 77.2767 1.19103 34.151
5995 2 78.1898 1.49739 33.8818
5996 2 77.3462 0.605678 34.9587
5997 1 74.4301 4.38844 20.5772
5998 2 74.7933 5.21458 21.0079
5999 2 74.8597 4.26231 19.683
6000 1 66.0165 3.99917 69.0861
6001 2 66.7839 3.81031 69.6989
6002 2 65.1613 3.73461 69.5318
6003 1 3.1179 22.8945 22.5367
6004 2 2.44112 22.9701 21.8044
6005 2 3.91069 22.3823 22.2062
6006 1 22.0157 17.8371 54.7588
6007 2 21.325 17.2464 54.3416
6008 2 22.908 17.6471 54.3494
6009 1 5.71354 19.8056 56.4465
6010 2 6.10577 20.3994 57.149
6011 2 5.73349 18.8571 56.7626
6012 1 17.376 16.2624 90.6715
6013 2 16.7472 15.694 90.141
6014 2 16.9669 17.1626 90.8204
6015 1 32.5426 7.56416 70.5273
6016 2 31.7282 7.68173 71.0956
6017 2 32.7036 6.58931 70.3733
6018 1 62.8604 22.0119 70.4575
6019 2 63.2125 22.8206 69.9862
6020 2 62.3343 22.2958 71.2591
6021 1 4.23863 16.468 85.0946
6022 2 3.94501 17.3333 85.5009
6023 2 4.53894 16.6264 84.154
6024 1 68.0556 17.5445 10.7006
6025 2 68.7441 17.3858 9.99297
6026 2 67.6984 16.6671 11.0209
6027 1 32.1977 16.2385 33.2278
6028 2 33.0216 16.5671 32.766
6029 2 31.4315 16.8445 33.014
6030 1 61.3306 3.76935 83.8225
6031 2 61.928 4.02238 83.0615
6032 2 61.8626 3.74148 84.6688
6033 1 44.8046 1.41016 57.3123
6034 2 45.0776 1.87625 56.4707
6035 2 43.8076 1.33973 57.3459
6036 1 11.2141 24.9609 44.8909
6037 2 12.0849 25.4418 44.7886
6038 2 10.4615 25.6158 44.8217
6039 1 62.743 3.72903 11.6619
6040 2 62.7422 4.6131 11.1946
6041 2 61.8138 3.35968 11.678
6042 1 42.5278 27.8414 78.9988
6043 2 43.3266 27.2817 79.2195
6044 2 41.696 27.3025 79.1325
6045 1 74.5911 18.815 35.8183
6046 2 74.471 19.2609 34.9313
6047 2 75.4688 18.3362 35.8346
6048 1 6.77911 12.3637 56.1225
6049 2 6.94051 13.3308 55.9261
6050 2 7.49229 11.8122 55.6898
6051 1 37.4527 4.59265 51.7486
6052 2 37.752 5.2837 51.0906
6053 2 36.8786 5.02246 52.4455
6054 1 60.6989 13.9303 43.62
6055 2 59.8701 14.2085 43.1346
6056 2 61.5022 14.1894 43.0838
6057 1 1.51532 23.9842 17.7165
6058 2 1.38215 23.7338 16.7576
6059 2 0.836353 23.5148 18.281
6060 1 79.9375 8.56942 28.7969
6061 2 78.9684 8.75711 28.9566
6062 2 0.12387 8.59155 27.8147
6063 1 2.12165 6.45211 80.3499
6064 2 1.17712 6.23112 80.1069
6065 2 2.72622 6.21101 79.5907
6066 1 34.2395 5.78389 90.5823
6067 2 33.733 6.54608 90.9854
6068 2 33.7643 4.92642 90.7796
6069 1 52.8638 28.9694 80.4715
6070 2 51.9627 29.3978 80.538
6071 2 52.9404 28.4882 79.5982
6072 1 13.2118 13.5228 44.2116
6073 2 12.2844 13.149 44.2017
6074 2 13.2695 14.2883 43.5707
6075 1 78.3427 5.99496 80.5997
6076 2 78.8042 6.72377 81.1056
6077 2 79.0072 5.29119 80.3485
6078 1 42.2258 8.25964 88.3934
6079 2 42.5095 7.42984 88.874
6080 2 41.8804 8.01804 87.4866
6081 1 39.5188 26.1139 30.9814
6082 2 40.3839 26.0693 30.4818
6083 2 39.066 26.984 30.7868
6084 1 77.0845 10.7804 49.3041
6085 2 77.0566 11.3779 48.5027
6086 2 77.9278 10.2432 49.2901
6087 1 7.29912 9.88773 69.7805
6088 2 6.66578 9.29949 70.2833
6089 2 8.12517 9.37156 69.5542
6090 1 14.867 0.246182 28.0555
6091 2 14.4275 0.334374 27.1616
6092 2 15.588 0.933636 28.1417
6093 1 17.4919 13.1417 74.4065
6094 2 17.5916 12.4097 75.0803
6095 2 16.6618 12.9899 73.8698
6096 1 12.2926 25.8948 85.2785
6097 2 12.4125 26.8828 85.3757
6098 2 11.8864 25.5245 86.1139
6099 1 5.83562 5.94461 43.6284
6100 2 5.7031 6.75383 44.2007
6101 2 5.42024 5.15067 44.0723
6102 1 33.5377 14.8736 80.7121
6103 2 34.3551 15.1514 81.2168
6104 2 33.5413 13.8808 80.5923
6105 1 53.3176 23.8054 47.822
6106 2 53.4038 23.6155 48.8001
6107 2 52.5588 24.4389 47.6711
6108 1 73.2089 9.5796 81.914
6109 2 73.5456 10.1499 81.1647
6110 2 73.9652 9.35711 82.5293
6111 1 1.03085 28.6718 64.2821
6112 2 0.244954 28.2297 64.7145
6113 2 1.31734 29.4555 64.8332
6114 1 56.7804 13.4997 43.4157
6115 2 56.1179 14.2488 43.4146
6116 2 56.8197 13.0883 42.5051
6117 1 24.6124 29.2852 70.2563
6118 2 24.4267 0.189478 69.8718
6119 2 25.3501 28.849 69.741
6120 1 72.2044 19.7875 38.6213
6121 2 71.7916 20.6903 38.7418
6122 2 72.2214 19.3089 39.4992
6123 1 62.5767 4.1188 30.6457
6124 2 62.8165 3.15709 30.7785
6125 2 62.0074 4.42855 31.4072
6126 1 50.8507 27.0368 24.2531
6127 2 51.7987 27.348 24.3211
6128 2 50.4164 27.4622 23.4591
6129 1 37.6428 5.78286 59.0382
6130 2 38.4097 5.18889 58.795
6131 2 36.8642 5.58215 58.4438
6132 1 79.1678 22.3064 24.4342
6133 2 79.0949 21.4489 24.9435
6134 2 78.5365 22.9786 24.8209
6135 1 65.5105 18.4975 27.4633
6136 2 65.4219 19.4901 27.3801
6137 2 64.9603 18.0532 26.7563
6138 1 1.85673 2.78356 45.4311
6139 2 1.19542 3.3599 45.9112
6140 2 2.76016 2.89756 45.8444
6141 1 72.3138 8.21289 68.7595
6142 2 71.7322 7.92354 69.5198
6143 2 71.7946 8.16598 67.9061
6144 1 11.0373 29.2721 10.8135
6145 2 11.945 29.2052 10.3992
6146 2 10.7695 0.233551 10.876
6147 1 45.2349 28.4959 56.1891
6148 2 44.4992 29.1372 55.9716
6149 2 45.1461 27.6803 55.6173
6150 1 65.4574 24.2222 70.6087
6151 2 64.8433 23.9749 69.8592
6152 2 64.9652 24.1605 71.477
6153 1 79.1245 7.37456 86.835
6154 2 78.8351 6.71411 87.5279
6155 2 78.8722 7.03805 85.9278
6156 1 35.9361 10.0785 48.5401
6157 2 35.3813 9.31999 48.8818
6158 2 36.7959 9.72353 48.1728
6159 1 59.0079 8.94928 84.9705
6160 2 59.4996 9.66999 85.4591
6161 2 59.3376 8.901 84.0276
6162 1 41.9326 13.9558 74.0209
6163 2 41.33 13.2804 74.4459
6164 2 42.582 14.2974 74.7003
6165 1 38.3311 4.00424 33.8155
6166 2 37.4476 3.69581 33.4629
6167 2 38.2023 4.43068 34.7107
6168 1 50.9573 28.7786 27.5254
6169 2 50.418 29.1518 26.7705
6170 2 51.3566 29.5287 28.0525
6171 1 17.0213 5.95309 39.5834
6172 2 16.7889 5.36419 40.3575
6173 2 17.7621 6.5715 39.8457
6174 1 54.3625 0.407149 61.3931
6175 2 54.042 0.258693 60.4575
6176 2 55.0116 29.688 61.6411
6177 1 29.8139 17.1896 71.5418
6178 2 30.0718 16.3312 71.0983
6179 2 29.6163 17.8788 70.8447
6180 1 77.1525 4.41149 50.331
6181 2 77.6038 4.51392 51.2175
6182 2 76.2368 4.0326 50.4649
6183 1 49.7362 0.90556 77.559
6184 2 49.9842 1.83966 77.8158
6185 2 50.1544 0.261577 78.1996
6186 1 73.4209 14.7834 39.0275
6187 2 74.2795 15.2873 38.9331
6188 2 73.4272 13.9957 38.4115
6189 1 5.20547 19.4623 73.1099
6190 2 5.26077 18.4698 73.0008
6191 2 4.27654 19.7168 73.3788
6192 1 74.995 3.35102 30.2304
6193 2 75.2259 4.31269 30.0824
6194 2 74.5962 3.24026 31.1407
6195 1 59.891 29.8889 38.8335
6196 2 59.2832 29.1975 38.4429
6197 2 59.5041 0.226302 39.6916
6198 1 26.7869 8.0412 78.2428
6199 2 27.4394 7.44477 78.7103
6200 2 26.8526 8.96587 78.6178
6201 1 75.1531 9.94386 58.5997
6202 2 74.9257 8.97256 58.5301
6203 2 74.8358 10.4201 57.7796
6204 1 22.2425 25.2622 70.5641
6205 2 22.1163 25.3414 71.5529
6206 2 21.4321 25.614 70.0954
6207 1 74.5781 26.5572 15.2112
6208 2 74.5846 27.0465 14.339
6209 2 75.0714 27.0922 15.8971
6210 1 77.868 23.0348 76.7543
6211 2 77.0566 23.5618 76.5012
6212 2 78.1792 23.3173 77.6617
6213 1 35.5309 2.44811 74.1905
6214 2 35.7305 2.66732 75.1455
6215 2 35.5424 1.45585 74.0668
6216 1 25.7444 18.8442 46.1286
6217 2 25.407 17.9042 46.1803
6218 2 26.6887 18.8779 46.4559
6219 1 75.2287 6.88996 90.3566
6220 2 75.2006 6.03987 89.8307
6221 2 74.3525 7.36419 90.2706
6222 1 8.09722 28.5891 28.1799
6223 2 7.19684 28.8675 27.8455
6224 2 8.80637 29.0928 27.6865
6225 1 3.28535 25.0465 35.2093
6226 2 3.50584 24.7526 34.2793
6227 2 2.29524 25.1546 35.2988
6228 1 36.2166 22.67 90.2355
6229 2 35.4802 22.1277 89.831
6230 2 36.1577 22.621 91.2326
6231 1 41.8089 22.473 68.3602
6232 2 42.7146 22.2449 68.7175
6233 2 41.8983 22.8372 67.4332
6234 1 66.5019 6.68981 14.1397
6235 2 66.308 6.02957 13.4141
6236 2 65.6507 6.93426 14.604
6237 1 52.9869 19.5161 45.2027
6238 2 52.9224 19.9669 44.3123
6239 2 53.5188 18.6742 45.1122
6240 1 25.5936 29.2979 72.6073
6241 2 25.1342 0.156587 72.8346
6242 2 25.1151 28.8544 71.8495
6243 1 31.7323 3.28633 77.5389
6244 2 31.3227 2.4124 77.8006
6245 2 32.384 3.57261 78.2412
6246 1 36.5448 5.48864 87.839
6247 2 35.6044 5.77026 87.6481
6248 2 36.5435 4.77697 88.5415
6249 1 23.3687 27.3269 77.9207
6250 2 23.6109 27.6791 77.0167
6251 2 22.4431 27.6229 78.1567
6252 1 34.2201 16.4963 56.4859
6253 2 35.0941 16.5117 56.9715
6254 2 33.5467 17.0328 56.9945
6255 1 14.5967 27.4246 26.9852
6256 2 15.1276 26.5805 26.9102
6257 2 15.0568 28.0531 27.6124
6258 1 37.5159 19.0296 43.3688
6259 2 38.0241 18.5535 44.0864
6260 2 37.7069 18.6019 42.4853
6261 1 19.6127 4.92215 67.4854
6262 2 19.7024 4.15332 68.1186
6263 2 18.6972 4.9175 67.083
6264 1 1.79272 25.1075 45.6469
6265 2 2.66781 25.341 46.0708
6266 2 1.83782 24.1786 45.2792
6267 1 72.9494 29.138 40.2229
6268 2 73.7153 29.4157 39.6429
6269 2 73.2681 28.4764 40.9016
6270 1 4.9152 3.11114 21.3372
6271 2 5.21269 2.24098 20.9443
6272 2 5.49914 3.34255 22.1153
6273 1 73.4405 28.4333 29.8355
6274 2 72.5778 28.3242 30.3293
6275 2 74.1579 28.7096 30.4749
6276 1 73.6709 19.0512 55.1357
6277 2 73.2641 19.0287 56.0489
6278 2 73.8566 18.1173 54.8304
6279 1 31.3999 23.4414 74.3699
6280 2 31.4207 23.09 73.4339
6281 2 31.0936 24.3933 74.3618
6282 1 14.0989 29.9814 60.3613
6283 2 15.072 29.8976 60.1468
6284 2 13.794 29.1646 60.851
6285 1 28.9874 18.1565 90.7114
6286 2 28.9502 19.1423 90.5479
6287 2 28.0628 17.7772 90.6738
6288 1 23.1213 0.775815 63.7881
6289 2 23.9376 0.820268 64.3639
6290 2 23.3936 0.715794 62.8278
6291 1 28.7852 16.1676 83.625
6292 2 27.9199 16.6506 83.7599
6293 2 29.1962 15.9656 84.514
6294 1 72.0559 9.94059 28.9197
6295 2 72.0268 9.05062 29.3747
6296 2 71.1322 10.3208 28.8717
6297 1 4.3907 11.9353 23.8977
6298 2 3.64567 12.5942 24.0015
6299 2 5.26426 12.3897 24.0721
6300 1 47.2738 28.8696 77.4637
6301 2 48.1209 29.4003 77.4382
6302 2 46.9533 28.7986 78.4083
6303 1 29.219 21.5927 46.1653
6304 2 28.7675 20.7578 46.4802
6305 2 30.1331 21.6491 46.5669
6306 1 8.23043 7.12835 65.1389
6307 2 8.82457 6.32742 65.0647
6308 2 8.14852 7.39471 66.0993
6309 1 36.1106 28.8292 62.4738
6310 2 35.8872 28.961 63.4396
6311 2 35.5259 28.114 62.091
6312 1 64.1426 6.90425 10.6081
6313 2 63.5609 7.04894 9.80764
6314 2 64.0529 7.68195 11.2303
6315 1 13.8053 13.6061 60.0873
6316 2 14.4275 14.3815 59.9796
6317 2 13.2623 13.7275 60.9182
6318 1 72.0018 13.9011 58.7394
6319 2 72.2655 14.7845 58.352
6320 2 72.6327 13.6587 59.4764
6321 1 4.13427 10.7088 39.7486
6322 2 3.66489 10.0544 40.3414
6323 2 4.37878 11.5216 40.2772
6324 1 12.7755 8.92277 67.2997
6325 2 13.1932 8.70283 66.4181
6326 2 13.0836 8.26562 67.9876
6327 1 73.26 22.4722 37.6986
6328 2 74.1139 21.9686 37.8298
6329 2 73.328 23.0347 36.8745
6330 1 9.74187 10.8443 14.6442
6331 2 10.5737 11.2046 14.2219
6332 2 9.8181 9.85148 14.7365
6333 1 31.9154 1.51666 50.9027
6334 2 32.5469 2.29185 50.9185
6335 2 31.0297 1.80073 51.27
6336 1 18.5679 19.5571 62.6003
6337 2 19.0936 19.1356 63.3391
6338 2 17.9057 18.8979 62.2441
6339 1 70.1955 29.0288 50.9637
6340 2 70.3912 28.4956 51.7867
6341 2 71.0105 29.5443 50.6989
6342 1 29.0042 0.221201 61.4852
6343 2 28.1397 29.8461 61.8198
6344 2 28.9103 0.465223 60.52
6345 1 48.5954 11.8351 47.0669
6346 2 49.3944 12.0755 46.5157
6347 2 48.6263 12.333 47.9336
6348 1 23.0586 7.69647 52.2741
6349 2 23.9604 8.12825 52.2932
6350 2 22.6062 7.90765 51.4077
6351 1 4.5546 11.6777 69.2103
6352 2 3.91746 12.2557 69.7201
6353 2 4.80819 10.8879 69.7688
6354 1 75.1052 28.1367 85.6087
6355 2 75.2379 28.3217 84.635
6356 2 75.1846 27.1538 85.7751
6357 1 9.88289 6.01636 47.1885
6358 2 9.57259 5.08562 46.995
6359 2 9.27884 6.67049 46.7332
6360 1 44.2035 21.5544 45.114
6361 2 44.0286 22.362 44.5508
6362 2 44.9613 21.7417 45.739
6363 1 75.1739 26.3853 57.4464
6364 2 76.0529 25.9129 57.3826
6365 2 74.797 26.2656 58.3649
6366 1 66.4109 18.4739 82.6293
6367 2 65.7294 19.0389 83.0945
6368 2 66.9675 17.9959 83.3088
6369 1 55.3805 18.101 38.3956
6370 2 55.4447 18.8653 37.7539
6371 2 54.5743 18.2192 38.9752
6372 1 27.0058 24.9572 42.7348
6373 2 27.8189 25.2159 43.2564
6374 2 27.034 23.9772 42.5379
6375 1 19.8254 5.62934 18.7398
6376 2 19.0076 5.11032 18.4911
6377 2 19.6711 6.60085 18.5599
6378 1 26.3953 15.5327 52.6959
6379 2 25.8326 15.6419 53.5153
6380 2 26.8847 16.3851 52.5116
6381 1 21.6242 5.11625 46.139
6382 2 21.7249 5.96031 45.6123
6383 2 22.0745 5.22099 47.0257
6384 1 21.0275 2.21034 64.8966
6385 2 21.7515 1.6236 64.534
6386 2 20.1429 1.90458 64.5443
6387 1 16.567 10.8536 49.8319
6388 2 17.1058 11.5223 50.3443
6389 2 17.1579 10.1006 49.5426
6390 1 67.3277 9.53667 80.1594
6391 2 68.0697 10.1773 80.3566
6392 2 66.6352 9.99098 79.5991
6393 1 53.0146 1.17649 54.7736
6394 2 53.6499 0.554472 55.2313
6395 2 53.2011 2.11548 55.0626
6396 1 71.4816 22.5469 76.6751
6397 2 71.1896 21.9466 77.4196
6398 2 72.1756 22.0824 76.125
6399 1 79.3393 29.5403 60.3166
6400 2 79.582 0.317682 60.8969
6401 2 78.9774 29.8742 59.4462
6402 1 8.71252 20.267 30.3851
6403 2 8.08318 20.3773 29.6159
6404 2 9.44298 20.9467 30.3183
6405 1 23.7778 21.4558 77.4292
6406 2 23.591 20.5869 77.8875
6407 2 23.3832 22.2049 77.9613
6408 1 62.3926 9.70655 15.5082
6409 2 63.0158 8.95148 15.7121
6410 2 61.6376 9.37251 14.944
6411 1 74.4537 20.121 57.8692
6412 2 74.2234 20.5122 58.7602
6413 2 74.4047 19.1236 57.9203
6414 1 21.9187 7.29514 34.3679
6415 2 21.0701 6.79126 34.2066
6416 2 21.7184 8.12948 34.8815
6417 1 73.208 22.0241 41.0371
6418 2 73.1937 23.0212 40.9631
6419 2 73.8642 21.7515 41.7408
6420 1 72.3091 25.3892 24.5273
6421 2 72.0167 24.5495 24.9849
6422 2 71.5091 25.8674 24.1651
6423 1 17.3851 8.85918 56.9086
6424 2 18.1687 9.48029 56.9198
6425 2 17.4696 8.20238 57.6579
6426 1 1.24346 4.00314 58.1023
6427 2 0.50932 4.58573 58.4511
6428 2 1.56438 4.36045 57.2252
6429 1 75.555 23.4309 14.901
6430 2 76.4281 23.1297 14.5176
6431 2 75.6448 23.5373 15.8913
6432 1 53.8209 6.43596 64.1718
6433 2 54.5612 6.54152 63.5078
6434 2 53.3731 5.55252 64.0341
6435 1 34.5685 11.2185 70.4108
6436 2 34.646 11.126 71.4035
6437 2 33.9879 10.4875 70.0523
6438 1 62.025 22.152 51.0434
6439 2 62.6095 21.537 50.5141
6440 2 62.5111 22.4487 51.8653
6441 1 0.484189 8.14216 25.4204
6442 2 0.396278 9.06849 25.7867
6443 2 1.00275 8.1695 24.5658
6444 1 26.7986 6.79743 35.6997
6445 2 27.7509 6.66259 35.4259
6446 2 26.4413 7.62502 35.2667
6447 1 51.8652 4.47623 32.4398
6448 2 51.5668 4.50419 33.3938
6449 2 51.0758 4.60562 31.8397
6450 1 32.5873 22.7077 87.1891
6451 2 33.5104 22.7951 86.8145
6452 2 32.0359 22.1317 86.5857
6453 1 9.50176 29.0103 49.559
6454 2 10.4811 29.2033 49.6193
6455 2 9.03101 29.7971 49.1598
6456 1 59.0929 5.1451 67.6495
6457 2 59.0287 5.98621 67.1125
6458 2 58.254 4.61258 67.5363
6459 1 7.13079 15.2288 23.2556
6460 2 7.2959 14.3627 23.7274
6461 2 7.90925 15.84 23.3986
6462 1 20.4037 21.2801 46.0165
6463 2 21.2991 21.1446 46.4408
6464 2 20.2661 22.2533 45.8321
6465 1 49.9753 21.8207 51.4936
6466 2 49.1664 21.4175 51.0656
6467 2 50.4439 22.408 50.8336
6468 1 57.1534 7.70168 69.6431
6469 2 58.0583 7.72037 69.2179
6470 2 57.2025 8.12034 70.5499
6471 1 59.1989 22.9406 49.4097
6472 2 58.3324 23.3038 49.7524
6473 2 59.9521 23.3006 49.9602
6474 1 7.03556 4.92327 90.8418
6475 2 7.24216 5.65596 90.1934
6476 2 7.85907 4.37962 91.0039
6477 1 31.3887 17.2959 89.2297
6478 2 31.5702 16.442 89.7173
6479 2 30.4135 17.5102 89.2842
6480 1 34.1002 0.349103 83.4311
6481 2 34.1379 29.5553 84.0381
6482 2 34.7772 0.244126 82.7027
6483 1 12.6329 19.4487 54.5818
6484 2 12.6977 18.4606 54.4422
6485 2 11.8457 19.8054 54.0787
6486 1 65.2165 11.1032 40.2937
6487 2 64.5539 11.1428 39.5458
6488 2 64.7682 10.7585 41.1184
6489 1 75.5781 2.65973 46.0737
6490 2 74.8798 2.10205 46.5224
6491 2 75.2899 3.61728 46.0724
6492 1 25.3853 6.43499 46.8872
6493 2 26.0267 6.00145 46.2543
6494 2 25.8159 6.5309 47.7846
6495 1 37.1926 18.7411 89.7142
6496 2 36.2964 18.5173 89.331
6497 2 37.1492 18.6954 90.7122
6498 1 49.9552 22.0958 46.051
6499 2 50.0522 22.9115 45.4807
6500 2 49.8453 22.3684 47.0068
6501 1 2.02237 25.2618 53.6849
6502 2 2.41468 26.1659 53.8545
6503 2 2.56215 24.5692 54.1633
6504 1 7.02843 26.3073 34.9031
6505 2 6.04231 26.3075 35.0691
6506 2 7.24333 25.6586 34.173
6507 1 73.2867 1.72531 67.4762
6508 2 74.0061 1.47883 68.1255
6509 2 72.4772 2.03267 67.9765
6510 1 53.281 10.5658 49.6734
6511 2 54.022 10.9908 50.1932
6512 2 53.6666 9.95706 48.9801
6513 1 69.9197 11.4794 36.7445
6514 2 69.3595 10.6886 36.9912
6515 2 69.5341 11.9213 35.9345
6516 1 17.2107 22.4139 11.0319
6517 2 16.6797 21.5677 10.9889
6518 2 18.1369 22.2437 10.6956
6519 1 68.6382 16.155 25.6433
6520 2 68.3054 17.0414 25.3213
6521 2 68.6509 16.1469 26.6431
6522 1 55.1787 2.45381 31.5072
6523 2 55.5776 1.99611 32.3018
6524 2 55.1445 1.81618 30.7376
6525 1 32.0647 9.56561 34.8618
6526 2 32.2547 8.64675 35.2076
6527 2 32.6599 9.75787 34.0816
6528 1 38.9842 4.36795 82.162
6529 2 39.9527 4.22112 81.9607
6530 2 38.8535 5.29527 82.5127
6531 1 17.056 23.9713 36.4912
6532 2 16.8584 23.5784 35.5931
6533 2 17.8777 23.5442 36.8685
6534 1 54.8745 1.17831 49.9229
6535 2 55.499 0.398263 49.8837
6536 2 53.9305 0.848895 49.9422
6537 1 79.0926 16.8009 58.8661
6538 2 78.8146 16.2309 58.0929
6539 2 79.3858 17.6965 58.5315
6540 1 8.04358 11.5504 10.9264
6541 2 7.35036 11.783 11.6085
6542 2 7.69086 11.7483 10.0118
6543 1 46.325 3.20932 49.9771
6544 2 45.6436 3.57194 50.6129
6545 2 46.6549 2.32605 50.3103
6546 1 11.3875 12.2522 78.9709
6547 2 11.5558 12.7713 79.8089
6548 2 11.0958 11.3251 79.206
6549 1 10.9967 29.4487 29.5162
6550 2 10.6505 29.5679 28.5857
6551 2 11.5702 28.6305 29.5563
6552 1 74.6283 25.7856 87.0748
6553 2 74.7686 25.8952 88.0588
6554 2 73.7061 25.4377 86.9063
6555 1 54.6718 18.8783 85.1967
6556 2 53.9211 19.1621 85.7933
6557 2 54.3059 18.6077 84.3063
6558 1 75.5462 22.2502 45.4496
6559 2 75.0367 22.135 46.3023
6560 2 76.2401 22.9603 45.5692
6561 1 67.7505 29.6806 38.189
6562 2 68.1366 29.3192 39.0377
6563 2 66.8359 29.3008 38.0505
6564 1 65.9104 10.2334 48.568
6565 2 64.9938 10.3837 48.9385
6566 2 66.3491 9.48068 49.0588
6567 1 79.9367 16.5626 49.0016
6568 2 79.9745 15.6943 49.4963
6569 2 0.759784 16.6639 48.4429
6570 1 51.0339 29.8547 44.2513
6571 2 50.8245 28.8774 44.2814
6572 2 50.3313 0.361653 44.7507
6573 1 48.6185 8.35134 64.7503
6574 2 48.8651 9.26989 64.4412
6575 2 47.7656 8.39247 65.2706
6576 1 64.4282 28.2458 75.0318
6577 2 64.9744 28.8674 75.5933
6578 2 64.5275 27.312 75.3753
6579 1 67.4351 0.52547 21.401
6580 2 67.0332 1.37279 21.0539
6581 2 66.9956 0.277256 22.2643
6582 1 15.2969 11.4536 67.6598
6583 2 14.4827 10.9297 67.9101
6584 2 16.0583 10.8271 67.4932
6585 1 56.4107 29.5486 70.0468
6586 2 56.0885 29.0868 70.8732
6587 2 55.7089 29.4897 69.3369
6588 1 3.3693 20.8496 47.2345
6589 2 2.90935 20.4772 46.4284
6590 2 3.17919 21.8289 47.304
6591 1 9.25634 27.3109 58.3627
6592 2 9.50891 26.4135 58.0008
6593 2 9.94303 27.6081 59.0261
6594 1 44.5128 20.8622 30.1763
6595 2 44.036 21.3842 29.4691
6596 2 45.2729 20.3597 29.7643
6597 1 66.174 7.39166 23.76
6598 2 66.4 8.3618 23.848
6599 2 65.8619 7.04075 24.6429
6600 1 76.8877 13.9333 49.7393
6601 2 76.7953 12.9963 49.4023
6602 2 77.7651 14.0338 50.2083
6603 1 16.5606 27.9983 52.8861
6604 2 17.2185 28.7066 53.1423
6605 2 17.0495 27.1569 52.656
6606 1 33.5931 3.78251 31.6086
6607 2 32.8932 3.14002 31.9207
6608 2 34.2037 3.32287 30.9637
6609 1 40.6 0.659643 79.1896
6610 2 41.1683 0.216346 79.8829
6611 2 39.9137 0.0125534 78.8577
6612 1 23.0393 16.3086 36.7479
6613 2 23.7695 15.6386 36.8816
6614 2 23.3913 17.2264 36.9316
6615 1 53.2558 5.30287 53.1236
6616 2 53.3644 5.37355 54.1152
6617 2 52.4171 4.79988 52.9151
6618 1 17.9117 10.3037 79.1803
6619 2 16.9294 10.4223 79.3249
6620 2 18.1215 9.32935 79.0993
6621 1 14.6909 0.812361 49.1503
6622 2 14.6416 1.80241 49.2821
6623 2 15.2023 0.612418 48.3146
6624 1 2.20946 20.523 71.6185
6625 2 1.51089 21.2381 71.645
6626 2 2.33671 20.1472 72.5364
6627 1 21.4037 26.3916 66.7203
6628 2 20.8933 26.1812 67.5541
6629 2 21.116 25.7738 65.9885
6630 1 6.66441 9.56631 55.0008
6631 2 7.3084 10.2294 54.6193
6632 2 5.79742 9.62064 54.5055
6633 1 61.9768 16.9789 49.953
6634 2 61.0311 17.0666 49.64
6635 2 62.5501 16.6626 49.1972
6636 1 41.9813 20.0838 45.8661
6637 2 41.1654 20.5966 45.5991
6638 2 42.7931 20.5283 45.4871
6639 1 68.4511 4.26466 59.6823
6640 2 68.5583 3.88207 60.6
6641 2 69.0285 3.75929 59.041
6642 1 66.943 20.0084 71.2933
6643 2 66.1847 20.497 70.8617
6644 2 67.1271 20.4061 72.1922
6645 1 3.47034 22.3521 69.7284
6646 2 3.16254 21.4236 69.9363
6647 2 2.88936 23.0108 70.2065
6648 1 44.2989 15.3659 66.7692
6649 2 44.2943 16.0274 67.5191
6650 2 44.8365 14.5654 67.0342
6651 1 44.9679 18.7279 64.3759
6652 2 45.0727 18.4759 63.4139
6653 2 44.351 19.5115 64.4499
6654 1 44.9846 22.3758 78.8219
6655 2 45.0781 22.5019 79.8095
6656 2 44.4419 23.1241 78.4403
6657 1 52.5556 15.7298 43.0868
6658 2 52.0194 16.1643 43.8104
6659 2 52.0333 15.7383 42.234
6660 1 19.0923 16.2855 45.5515
6661 2 18.9649 15.5657 46.2339
6662 2 19.8706 16.8571 45.8112
6663 1 66.6612 5.91791 90.458
6664 2 67.4571 5.38261 90.1752
6665 2 66.5669 6.71522 89.8619
6666 1 66.6148 14.7184 20.8864
6667 2 66.4279 14.7961 21.8658
6668 2 67.5181 15.0989 20.6883
6669 1 19.9932 18.953 10.9411
6670 2 20.0052 18.0008 11.2466
6671 2 19.0489 19.2391 10.7787
6672 1 48.8688 12.3948 69.6591
6673 2 49.5051 12.3974 68.8876
6674 2 48.8035 13.3169 70.0404
6675 1 72.2342 28.0067 13.6296
6676 2 72.0874 27.0178 13.6518
6677 2 73.1773 28.1976 13.357
6678 1 61.1011 8.36536 83.0586
6679 2 61.7994 9.06846 82.9243
6680 2 61.5413 7.49937 83.2958
6681 1 24.1875 18.8087 34.804
6682 2 24.4129 19.7824 34.7727
6683 2 24.495 18.4231 35.6739
6684 1 62.5258 13.8443 36.1854
6685 2 61.9736 13.8137 37.0185
6686 2 62.9366 12.9469 36.0246
6687 1 78.6564 1.74993 47.0376
6688 2 79.2492 2.41557 47.4909
6689 2 77.7096 1.8973 47.324
6690 1 37.9283 16.8277 84.0964
6691 2 37.6702 17.2551 84.9628
6692 2 38.7197 16.2336 84.2405
6693 1 1.79515 5.70082 61.1334
6694 2 1.11245 5.76239 61.8615
6695 2 1.33722 5.71999 60.2446
6696 1 74.559 23.2182 23.3915
6697 2 73.981 23.9722 23.0795
6698 2 74.3373 22.9993 24.3417
6699 1 15.28 11.8097 42.8785
6700 2 15.6233 11.1381 43.5352
6701 2 14.8423 12.5626 43.3699
6702 1 22.6392 17.4815 24.0111
6703 2 22.678 18.224 23.3424
6704 2 23.4261 16.8775 23.8845
6705 1 20.2394 13.4811 23.8118
6706 2 20.9707 13.462 23.13
6707 2 20.0962 12.5597 24.1729
6708 1 61.6653 18.8012 46.4862
6709 2 61.5782 17.8718 46.8448
6710 2 60.7612 19.2255 46.4369
6711 1 41.5361 8.08318 43.6235
6712 2 41.1875 8.81585 44.2081
6713 2 41.0132 7.24711 43.7894
6714 1 32.347 1.15445 37.2464
6715 2 32.0779 0.343846 36.7263
6716 2 33.1823 1.53982 36.8544
6717 1 29.6571 14.5947 31.1015
6718 2 29.8783 15.4665 31.5386
6719 2 29.8056 13.8491 31.7511
6720 1 49.273 16.118 81.8811
6721 2 49.9171 15.3648 81.7481
6722 2 49.694 16.8188 82.4569
6723 1 58.422 13.1203 59.3977
6724 2 57.5871 13.6201 59.6283
6725 2 58.9565 13.6502 58.7393
6726 1 31.2277 14.8542 82.9528
6727 2 30.5202 15.5608 82.9459
6728 2 32.0551 15.2067 82.5157
6729 1 57.7896 11.7389 33.5195
6730 2 58.5258 12.3676 33.77
6731 2 57.0897 12.2336 33.0044
6732 1 63.9489 6.3347 17.8241
6733 2 63.6143 6.632 16.9299
6734 2 63.1727 6.17049 18.4328
6735 1 35.539 15.8903 48.9975
6736 2 34.9165 15.2257 48.5841
6737 2 36.4728 15.7092 48.6889
6738 1 28.4268 4.79642 74.2299
6739 2 28.776 4.71791 75.1637
6740 2 28.2218 5.7546 74.0302
6741 1 31.5928 10.0843 65.5812
6742 2 31.8669 10.2167 64.6286
6743 2 31.9891 10.8084 66.1457
6744 1 75.2791 27.4781 75.2629
6745 2 74.6053 28.1772 75.5024
6746 2 74.808 26.6608 74.9312
6747 1 17.2487 16.7405 80.8736
6748 2 16.9068 15.8064 80.9767
6749 2 16.8297 17.1619 80.0693
6750 1 67.7544 2.86933 67.1983
6751 2 68.5398 3.38392 67.5422
6752 2 67.8077 2.80618 66.2017
6753 1 26.1339 21.5598 46.1128
6754 2 25.9287 20.6813 46.5442
6755 2 26.7396 22.0894 46.7066
6756 1 12.9334 15.4246 56.4352
6757 2 13.8625 15.1165 56.6399
6758 2 12.8815 16.418 56.5374
6759 1 54.2726 24.7677 37.7087
6760 2 54.1866 24.2011 38.5282
6761 2 53.405 24.7685 37.2115
6762 1 29.7575 25.4333 27.9888
6763 2 30.2947 25.7606 28.7662
6764 2 29.4119 26.2151 27.4697
6765 1 1.78604 6.08726 84.8885
6766 2 1.28359 5.43241 84.3239
6767 2 2.1088 6.84152 84.3167
6768 1 12.7646 7.70619 74.5266
6769 2 13.4417 7.76087 73.7928
6770 2 12.0258 7.09025 74.2532
6771 1 15.1941 0.340125 19.5242
6772 2 16.161 0.574593 19.4237
6773 2 14.8769 29.8727 18.699
6774 1 53.3818 13.215 46.1551
6775 2 53.2579 13.6038 47.0681
6776 2 52.5702 12.6873 45.9046
6777 1 59.5096 24.5097 68.3002
6778 2 59.3542 25.4265 68.668
6779 2 60.4859 24.3817 68.1257
6780 1 51.3184 23.5144 41.8185
6781 2 51.8509 24.3049 42.1213
6782 2 51.7256 22.678 42.1854
6783 1 1.66922 18.4144 52.5136
6784 2 1.60659 19.3323 52.1217
6785 2 0.866793 18.2402 53.0843
6786 1 40.7639 3.16552 65.5388
6787 2 41.2046 3.63282 66.3052
6788 2 40.439 3.84224 64.8781
6789 1 27.2464 19.329 40.2467
6790 2 26.4417 18.7371 40.2913
6791 2 27.167 20.052 40.933
6792 1 19.9627 23.8324 80.6964
6793 2 20.1779 24.7779 80.9412
6794 2 19.0196 23.7795 80.3683
6795 1 20.7281 3.40786 16.3014
6796 2 21.3042 3.25978 17.1052
6797 2 19.7691 3.26918 16.5485
6798 1 57.6134 2.80507 45.4627
6799 2 57.5057 3.46544 46.2059
6800 2 58.34 3.11107 44.8476
6801 1 52.7821 3.05665 27.6213
6802 2 52.8775 2.52252 26.7813
6803 2 51.9701 2.75231 28.1194
6804 1 40.079 19.3258 90.7498
6805 2 40.4778 18.4087 90.751
6806 2 40.8033 20.004 90.6262
6807 1 38.601 14.8755 49.3027
6808 2 38.4277 13.9787 48.8956
6809 2 39.0342 15.4707 48.6259
6810 1 19.9236 24.5396 49.343
6811 2 20.8321 24.9574 49.3384
6812 2 20.0068 23.5632 49.5425
6813 1 34.45 22.7686 82.0517
6814 2 34.3097 21.8538 82.4305
6815 2 35.2101 22.7474 81.4022
6816 1 60.9565 20.0842 40.5377
6817 2 61.2998 21.0152 40.6617
6818 2 60.3544 19.8466 41.3
6819 1 56.6742 14.1673 67.9795
6820 2 57.3395 13.7767 67.3433
6821 2 56.6004 15.152 67.8217
6822 1 77.3452 29.5199 36.2744
6823 2 77.8124 28.7514 36.7115
6824 2 76.5771 29.8111 36.8448
6825 1 6.60804 11.7173 52.4583
6826 2 6.03287 11.6732 53.2752
6827 2 6.0367 11.624 51.6429
6828 1 70.3877 6.85688 24.2316
6829 2 71.3452 7.13395 24.3118
6830 2 69.8685 7.22509 25.0028
6831 1 41.9789 15.9089 38.921
6832 2 41.3792 15.3042 39.445
6833 2 42.9291 15.7504 39.1893
6834 1 13.6328 22.8944 28.1932
6835 2 13.1432 23.0487 27.335
6836 2 14.4594 22.361 28.0142
6837 1 43.7549 13.2836 62.7922
6838 2 44.129 12.4135 63.1131
6839 2 44.0435 13.4425 61.848
6840 1 49.256 5.22786 82.3001
6841 2 49.3235 6.10424 82.7769
6842 2 50.1611 4.95549 81.9734
6843 1 29.0505 14.2366 69.5355
6844 2 28.1505 14.2232 69.0998
6845 2 29.6381 14.8959 69.0664
6846 1 23.5845 23.4648 46.8943
6847 2 22.8618 22.8758 47.256
6848 2 24.468 23.0068 46.9924
6849 1 13.6563 20.2231 83.7582
6850 2 14.071 20.9554 83.2181
6851 2 12.9381 19.7794 83.2222
6852 1 78.0801 0.177348 42.6229
6853 2 77.9825 29.5951 43.43
6854 2 79.0504 0.289909 42.4085
6855 1 66.4329 15.418 53.6879
6856 2 66.6419 14.7392 52.984
6857 2 65.8614 15.0005 54.3943
6858 1 35.641 19.8007 73.4782
6859 2 36.2729 20.2846 74.0835
6860 2 36.0565 19.7004 72.5741
6861 1 29.2482 25.5117 34.9741
6862 2 29.8481 24.7456 34.7431
6863 2 29.0162 25.4721 35.946
6864 1 4.15573 5.476 82.4502
6865 2 3.30798 5.80561 82.0347
6866 2 4.07295 4.49888 82.6462
6867 1 19.2942 18.3115 82.5251
6868 2 18.8546 17.7097 83.1919
6869 2 18.6461 18.5308 81.7958
6870 1 74.6144 9.92249 48.017
6871 2 75.512 10.0741 48.4309
6872 2 74.2014 10.8031 47.7848
6873 1 63.5976 9.26948 80.8824
6874 2 63.6615 9.34002 81.8779
6875 2 63.8612 10.141 80.4689
6876 1 59.1651 5.15859 18.2497
6877 2 58.3543 4.97366 17.6942
6878 2 59.9862 5.03426 17.6926
6879 1 3.76355 5.17026 11.9715
6880 2 3.8486 4.47242 11.2603
6881 2 4.67455 5.46595 12.259
6882 1 68.9729 20.8078 24.2962
6883 2 68.6182 21.7176 24.5119
6884 2 68.5657 20.136 24.9149
6885 1 0.547778 14.3698 62.6957
6886 2 79.6277 14.6883 62.4676
6887 2 0.488682 13.4888 63.1652
6888 1 4.4214 13.9107 14.2815
6889 2 5.26936 13.7312 14.7802
6890 2 3.6988 13.3114 14.6259
6891 1 2.29973 29.7243 19.1359
6892 2 2.62132 29.441 18.2324
6893 2 1.79096 28.9744 19.5588
6894 1 24.5663 16.9216 79.3288
6895 2 24.8153 16.3414 80.1043
6896 2 24.5119 17.874 79.6291
6897 1 10.0085 5.7401 28.7937
6898 2 10.4852 5.52204 27.942
6899 2 10.636 6.20739 29.4165
6900 1 5.2362 7.31672 33.793
6901 2 4.47039 6.69585 33.6255
6902 2 5.20391 7.63802 34.7395
6903 1 12.3546 27.1807 23.1113
6904 2 13.0687 27.5201 22.499
6905 2 12.1778 27.8584 23.8251
6906 1 14.9066 22.709 83.0997
6907 2 15.5906 23.0238 83.7578
6908 2 14.3744 23.4899 82.7727
6909 1 74.3316 22.7428 85.8814
6910 2 73.838 23.6101 85.9458
6911 2 74.6049 22.5845 84.9325
6912 1 18.329 0.849889 72.2823
6913 2 17.487 1.38758 72.325
6914 2 18.1467 29.9193 72.5996
6915 1 15.9227 18.944 14.8943
6916 2 16.4163 19.7757 15.1483
6917 2 16.3484 18.1552 15.3377
6918 1 77.1692 22.8132 79.9781
6919 2 77.8231 22.1811 80.3939
6920 2 77.6573 23.6072 79.6158
6921 1 48.5678 2.02597 90.6776
6922 2 49.0397 1.15828 90.5212
6923 2 47.6339 1.84651 90.9866
6924 1 15.3508 17.5676 66.7907
6925 2 15.2797 16.7546 67.3685
6926 2 16.2071 17.5365 66.2753
6927 1 0.513015 14.8248 71.4883
6928 2 1.34779 14.3097 71.6828
6929 2 0.434312 15.5871 72.1308
6930 1 72.6983 21.7485 83.063
6931 2 71.7431 21.9191 83.305
6932 2 73.2271 22.5892 83.1801
6933 1 23.0593 18.7986 89.308
6934 2 22.4801 19.1484 90.0443
6935 2 22.6947 17.9259 88.9832
6936 1 60.4106 7.40153 44.2838
6937 2 60.5944 7.98277 45.0765
6938 2 59.4227 7.31816 44.1534
6939 1 61.3919 27.4293 92.065
6940 2 61.6906 27.8719 91.2195
6941 2 60.8462 26.6211 91.8434
6942 1 43.4393 23.9651 28.4229
6943 2 42.7507 23.3775 27.998
6944 2 43.0785 24.8939 28.5076
6945 1 10.384 3.134 63.1711
6946 2 11.0249 3.34911 63.908
6947 2 10.7038 2.32575 62.6767
6948 1 9.74015 26.1417 73.434
6949 2 10.5917 25.6276 73.537
6950 2 9.9447 27.1194 73.3864
6951 1 32.2642 27.7356 59.3588
6952 2 32.5346 28.5187 58.7988
6953 2 31.277 27.7631 59.5158
6954 1 32.2553 12.4758 40.9875
6955 2 33.2329 12.6332 40.848
6956 2 31.9209 13.0774 41.7129
6957 1 22.0749 2.56295 47.6126
6958 2 22.5194 2.19446 48.429
6959 2 22.0319 1.8546 46.908
6960 1 11.8044 16.6371 81.9582
6961 2 11.6243 15.6985 81.6638
6962 2 11.5987 17.2667 81.2089
6963 1 66.1187 20.5189 76.8379
6964 2 66.032 20.133 77.7564
6965 2 65.5588 19.9902 76.2
6966 1 36.2083 15.9835 45.3493
6967 2 35.2556 15.8506 45.6225
6968 2 36.5371 16.8595 45.7023
6969 1 65.3633 13.4736 81.3404
6970 2 65.3663 12.7503 80.6499
6971 2 64.9539 13.127 82.1844
6972 1 6.16119 14.0284 89.1203
6973 2 6.96354 13.6242 88.6811
6974 2 5.33396 13.7242 88.6479
6975 1 20.6257 15.5955 42.9691
6976 2 20.7044 15.9996 43.8804
6977 2 21.5193 15.2545 42.6773
6978 1 36.0774 18.8707 79.9743
6979 2 36.8912 18.3717 79.6766
6980 2 35.6734 18.4087 80.7638
6981 1 57.526 2.08232 50.5076
6982 2 57.3077 2.60939 51.3289
6983 2 56.6818 1.86065 50.0196
6984 1 68.7421 26.2821 68.7486
6985 2 68.7561 25.3315 69.0585
6986 2 69.6718 26.6503 68.7603
6987 1 65.5594 23.9316 24.6341
6988 2 65.378 24.1371 23.6724
6989 2 65.6248 24.7853 25.1508
6990 1 50.6758 1.97663 37.054
6991 2 50.463 1.39647 37.8402
6992 2 49.8633 2.06886 36.4782
6993 1 34.4873 3.12784 39.0044
6994 2 34.1351 2.20004 38.8813
6995 2 34.8113 3.23951 39.9438
6996 1 53.8745 16.2049 63.3622
6997 2 54.6144 15.6254 63.704
6998 2 53.7979 17.0205 63.9357
6999 1 31.3216 24.9495 40.1144
7000 2 31.388 24.1487 39.5192
7001 2 31.9474 24.8434 40.8871
7002 1 49.3483 16.2905 51.6649
7003 2 48.7909 15.6023 51.2005
7004 2 50.2639 16.3044 51.2629
7005 1 62.2982 1.33349 60.4756
7006 2 62.8234 1.98722 59.9308
7007 2 62.9131 0.84627 61.0956
7008 1 5.65023 6.93525 46.2914
7009 2 4.67595 6.72727 46.2047
7010 2 5.86033 7.15682 47.2436
7011 1 15.7444 6.87223 58.0889
7012 2 14.8816 7.37745 58.103
7013 2 15.9094 6.4693 58.9892
7014 1 17.1434 22.394 29.7981
7015 2 16.6114 23.238 29.7299
7016 2 16.922 21.7972 29.0269
7017 1 8.64198 22.5227 46.3711
7018 2 9.43967 22.3507 46.9491
7019 2 7.90447 21.8974 46.6261
7020 1 59.8585 7.10306 77.7611
7021 2 60.3196 6.93035 78.6315
7022 2 58.9457 7.47258 77.935
7023 1 49.333 19.1685 25.9968
7024 2 49.4709 18.2298 26.3128
7025 2 48.4676 19.5175 26.3564
7026 1 61.5316 15.8025 26.3417
7027 2 61.4416 15.2177 27.1479
7028 2 62.4768 16.1198 26.2641
7029 1 12.1102 5.97912 87.4205
7030 2 11.288 6.25299 86.9214
7031 2 11.848 5.47941 88.246
7032 1 64.4526 25.3186 54.2141
7033 2 65.2559 25.8226 53.8969
7034 2 63.6437 25.9024 54.1442
7035 1 67.3551 25.0177 40.3059
7036 2 67.8531 25.2048 39.4591
7037 2 66.6754 24.3028 40.1418
7038 1 30.7701 8.51223 42.5358
7039 2 31.6909 8.58037 42.9199
7040 2 30.13 8.23426 43.2521
7041 1 18.1623 18.8306 24.4666
7042 2 18.9789 18.4246 24.0564
7043 2 17.4639 18.1251 24.5869
7044 1 44.5873 13.525 73.2436
7045 2 43.5946 13.4394 73.1588
7046 2 44.8058 14.3093 73.8242
7047 1 3.26089 8.81942 76.2616
7048 2 3.71357 8.30825 76.9922
7049 2 2.35269 9.1048 76.5678
7050 1 57.1485 17.0388 76.3304
7051 2 56.9354 17.8206 76.9164
7052 2 56.7861 17.2015 75.4127
7053 1 41.233 6.83012 40.914
7054 2 41.3509 7.43082 41.7047
7055 2 41.8788 7.09242 40.1969
7056 1 59.8968 13.9774 46.2672
7057 2 60.3012 13.3447 45.6067
7058 2 60.4656 14.797 46.335
7059 1 49.9117 18.6806 48.9616
7060 2 49.2759 19.0615 49.633
7061 2 50.8286 18.6367 49.3584
7062 1 58.6883 11.7803 37.611
7063 2 58.5236 11.9294 38.586
7064 2 59.0833 12.6066 37.2096
7065 1 66.8223 2.63027 11.5158
7066 2 66.8603 2.02996 12.3147
7067 2 67.7233 2.6674 11.0835
7068 1 18.8201 14.756 47.6599
7069 2 19.5335 14.1076 47.3945
7070 2 18.8075 14.8487 48.6555
7071 1 58.8287 29.161 87.9693
7072 2 58.4411 29.7928 88.6406
7073 2 58.1485 28.9672 87.2624
7074 1 66.1231 1.0805 61.3305
7075 2 66.9374 0.789927 61.8331
7076 2 65.6248 0.275294 61.0091
7077 1 24.5397 13.8285 64.2555
7078 2 23.8155 14.5018 64.1064
7079 2 24.1393 12.9134 64.3033
7080 1 77.3083 24.0922 29.6288
7081 2 77.1861 24.189 28.641
7082 2 77.4892 23.1339 29.85
7083 1 31.4179 9.50577 83.0376
7084 2 31.5061 8.82921 82.3065
7085 2 30.5852 10.0414 82.8973
7086 1 41.1313 5.85403 69.7414
7087 2 41.8347 5.15914 69.8911
7088 2 41.5039 6.5888 69.1746
7089 1 0.588128 17.2288 41.2912
7090 2 1.41995 17.4651 41.7935
7091 2 0.329258 17.9909 40.6978
7092 1 77.9768 13.2995 26.3509
7093 2 78.9028 13.6144 26.5588
7094 2 77.6102 13.8258 25.5837
7095 1 6.79829 24.6479 11.1211
7096 2 7.5786 24.0575 10.915
7097 2 7.11414 25.5898 11.2359
7098 1 79.0916 19.2932 70.7325
7099 2 78.9715 20.2831 70.8086
7100 2 79.1934 18.8987 71.6457
7101 1 72.2372 27.9771 22.2598
7102 2 72.2238 27.7919 21.2772
7103 2 71.5084 27.4583 22.7068
7104 1 10.8041 15.1874 17.8394
7105 2 10.6953 14.4086 18.4572
7106 2 10.0653 15.1839 17.1655
7107 1 15.8906 4.23547 73.7235
7108 2 15.0716 4.12426 74.2863
7109 2 16.6774 3.84084 74.1981
7110 1 8.33004 25.2791 32.7141
7111 2 7.93519 24.5556 32.1478
7112 2 8.18368 26.1647 32.2733
7113 1 72.6023 29.3354 53.7209
7114 2 73.363 28.7601 53.4205
7115 2 72.5624 0.158181 53.1539
7116 1 27.3951 24.3753 45.6154
7117 2 27.6354 23.4153 45.4715
7118 2 28.1871 24.8664 45.9781
7119 1 72.4318 14.596 54.5825
7120 2 73.1232 15.1309 55.0683
7121 2 72.6193 13.6212 54.703
7122 1 17.1111 16.074 55.5771
7123 2 17.4831 16.0269 56.5042
7124 2 17.0484 17.0302 55.2914
7125 1 9.62289 27.9189 31.5002
7126 2 9.77542 28.5255 30.72
7127 2 10.0235 27.0228 31.3091
7128 1 6.10008 22.5708 41.5712
7129 2 7.08386 22.5257 41.7448
7130 2 5.78391 21.6915 41.2149
7131 1 21.1446 16.4042 58.9162
7132 2 20.3173 16 59.3063
7133 2 20.8993 17.2091 58.3758
7134 1 23.836 11.0165 79.202
7135 2 24.7264 10.5613 79.2061
7136 2 23.1697 10.4412 78.7275
7137 1 18.4815 18.3275 33.9499
7138 2 19.1532 17.5867 33.9594
7139 2 17.9659 18.3209 34.8067
7140 1 55.7334 16.6876 61.3293
7141 2 56.0714 17.6252 61.4107
7142 2 55.1551 16.4722 62.1161
7143 1 58.7514 3.51488 41.2258
7144 2 58.6446 3.57644 42.2181
7145 2 58.7453 2.55401 40.9488
7146 1 4.34063 16.2613 90.0005
7147 2 3.49226 16.4736 89.5155
7148 2 4.59986 15.3127 89.819
7149 1 43.78 10.9358 29.6865
7150 2 42.9325 10.4979 29.9866
7151 2 44.2487 11.3312 30.4764
7152 1 51.7879 29.1244 65.3887
7153 2 51.849 29.8434 66.081
7154 2 51.0073 28.5329 65.5904
7155 1 25.6562 21.1053 54.339
7156 2 25.7624 21.1771 55.3307
7157 2 26.1454 21.8567 53.8962
7158 1 63.4285 16.1203 34.9719
7159 2 62.7644 15.9787 35.706
7160 2 64.2226 15.5315 35.1226
7161 1 9.18621 25.8433 78.8233
7162 2 9.0796 25.8243 79.8174
7163 2 9.76801 26.6146 78.5652
7164 1 57.0244 25.7268 70.6509
7165 2 56.1372 25.3203 70.8689
7166 2 57.0299 26.6861 70.9332
7167 1 20.1721 29.3589 45.9595
7168 2 20.8601 28.6625 45.7556
7169 2 19.8943 29.2825 46.9171
7170 1 44.7384 29.577 53.3885
7171 2 45.7164 29.399 53.2794
7172 2 44.2161 28.8167 53.0022
7173 1 4.39451 11.398 72.1055
7174 2 5.15256 10.7648 72.262
7175 2 3.56366 10.8796 71.903
7176 1 64.7719 15.1453 18.5962
7177 2 64.3421 14.301 18.2761
7178 2 65.0807 15.0252 19.5397
7179 1 17.2753 21.9583 71.6385
7180 2 16.6559 21.3513 71.1406
7181 2 17.2669 22.8639 71.2144
7182 1 68.9271 22.73 18.8035
7183 2 69.7114 23.2212 19.1825
7184 2 68.0994 22.9885 19.3016
7185 1 26.3801 7.82832 58.0379
7186 2 26.3115 7.10812 57.3475
7187 2 27.2689 8.28014 57.961
7188 1 16.6154 5.04393 81.0119
7189 2 16.9773 5.81592 80.4893
7190 2 15.7637 4.7282 80.5936
7191 1 26.4714 13.264 61.3566
7192 2 26.9211 13.3974 60.4734
7193 2 26.0639 12.3513 61.3885
7194 1 21.4288 12.8934 30.1403
7195 2 21.7412 13.7722 30.501
7196 2 20.8394 12.4473 30.8137
7197 1 29.6727 22.2876 32.7435
7198 2 30.1292 22.3169 31.8542
7199 2 30.1014 22.9479 33.3601
7200 1 15.1222 11.5704 21.2528
7201 2 14.4472 11.4534 21.9812
7202 2 14.8611 12.3458 20.6779
7203 1 71.8241 19.3121 41.7796
7204 2 70.9406 19.3395 42.2472
7205 2 72.1293 20.245 41.5887
7206 1 13.7288 18.9918 51.204
7207 2 14.416 19.6985 51.3726
7208 2 13.107 18.9383 51.9854
7209 1 60.2336 16.9914 43.5969
7210 2 60.1452 16.3663 44.3724
7211 2 60.8256 16.5807 42.9035
7212 1 74.8361 18.6137 73.7354
7213 2 74.7871 19.6111 73.7878
7214 2 73.9112 18.2367 73.6852
7215 1 29.3915 0.794042 31.6108
7216 2 29.7755 0.756173 30.6883
7217 2 28.9541 1.6819 31.7536
7218 1 68.7265 16.7862 71.6331
7219 2 67.8596 16.5697 72.082
7220 2 68.708 17.7329 71.3116
7221 1 54.7162 1.56047 69.1173
7222 2 54.0582 1.44386 69.8612
7223 2 55.5715 1.92733 69.4833
7224 1 45.3746 23.3774 51.9636
7225 2 45.1948 23.1666 51.0027
7226 2 44.5356 23.2558 52.494
7227 1 21.2216 15.7861 18.3752
7228 2 21.2125 16.4658 17.6418
7229 2 20.6894 14.9869 18.0956
7230 1 78.1828 0.015189 11.2573
7231 2 77.3457 29.6836 10.822
7232 2 78.7917 29.2433 11.4401
7233 1 57.4289 26.5221 75.651
7234 2 57.7396 27.3163 75.1288
7235 2 58.1292 26.2669 76.3177
7236 1 57.0686 11.5305 61.4138
7237 2 56.1307 11.4218 61.0842
7238 2 57.6539 11.8304 60.6605
7239 1 57.2427 22.7552 25.5871
7240 2 56.8312 23.66 25.4774
7241 2 58.2245 22.8531 25.7498
7242 1 10.964 3.50471 76.6779
7243 2 10.2575 3.43781 77.3823
7244 2 11.6571 4.16694 76.9627
7245 1 0.28701 9.31151 68.2445
7246 2 0.0049291 8.35214 68.2506
7247 2 1.15174 9.40782 68.7374
7248 1 72.058 16.9262 82.6708
7249 2 73.0179 16.6927 82.8259
7250 2 71.9137 17.1158 81.6996
7251 1 68.2451 21.5379 30.169
7252 2 67.4523 21.1242 30.6166
7253 2 68.4144 22.4425 30.5602
7254 1 2.62623 9.76115 70.0152
7255 2 3.12518 8.97321 70.3761
7256 2 3.27413 10.4828 69.7715
7257 1 38.8302 19.9251 77.3368
7258 2 39.5262 20.6348 77.4458
7259 2 38.9344 19.2422 78.0598
7260 1 74.7736 25.7494 60.1672
7261 2 74.8311 25.1042 60.929
7262 2 74.6315 26.6732 60.5228
7263 1 71.7877 22.9809 25.8553
7264 2 72.6265 22.5326 26.1644
7265 2 71.0386 22.3185 25.8489
7266 1 2.95476 14.3091 31.3974
7267 2 2.65798 15.1641 30.9722
7268 2 3.87336 14.0785 31.0764
7269 1 26.9346 10.5234 73.2055
7270 2 26.9019 10.0694 74.0959
7271 2 26.1755 10.202 72.6394
7272 1 2.55392 0.128466 90.4913
7273 2 2.43637 29.8234 89.5462
7274 2 1.77317 0.69314 90.7588
7275 1 6.04372 16.5429 35.1509
7276 2 5.49177 17.3764 35.1765
7277 2 5.46965 15.7712 34.8769
7278 1 44.1104 19.0268 67.1574
7279 2 44.4129 18.2488 66.6067
7280 2 44.4983 18.9555 68.0764
7281 1 63.5301 22.5476 53.1794
7282 2 63.6501 22.8195 54.1342
7283 2 64.2838 22.9113 52.6319
7284 1 56.6561 16.8294 83.1048
7285 2 55.6707 16.6891 83.0076
7286 2 56.8244 17.6908 83.5841
7287 1 9.10528 3.42873 45.2249
7288 2 9.0929 3.27506 46.2129
7289 2 9.3356 4.38393 45.039
7290 1 61.0418 2.68948 52.5268
7291 2 60.3912 3.34198 52.9153
7292 2 60.6301 1.77834 52.5096
7293 1 48.3386 0.854107 26.3242
7294 2 47.3883 0.694585 26.0567
7295 2 48.364 1.26032 27.2377
7296 1 13.3551 24.5051 76.9379
7297 2 12.4534 24.2619 76.5804
7298 2 13.4794 25.4959 76.8828
7299 1 32.5186 4.31949 73.8334
7300 2 32.7532 5.10234 74.4097
7301 2 31.5546 4.37414 73.5733
7302 1 69.6076 9.37771 47.7223
7303 2 69.3615 8.56268 47.1977
7304 2 69.1871 9.3305 48.6283
7305 1 67.4974 23.3971 14.3724
7306 2 66.6981 23.9206 14.0774
7307 2 67.498 23.3233 15.3696
7308 1 47.2977 7.27358 76.1222
7309 2 48.0818 6.67095 75.974
7310 2 46.6841 6.8625 76.7964
7311 1 64.2716 22.9089 31.1602
7312 2 64.0112 21.959 30.9875
7313 2 64.3939 23.3846 30.2891
7314 1 6.91949 18.6445 69.982
7315 2 7.53768 19.3107 70.3992
7316 2 6.92339 17.8026 70.5216
7317 1 3.71833 13.9699 70.5408
7318 2 4.3023 14.7732 70.6577
7319 2 3.79173 13.3842 71.3481
7320 1 79.9193 9.85064 47.4569
7321 2 0.873159 9.89846 47.7533
7322 2 79.555 10.7764 47.3552
7323 1 38.232 16.8529 62.4433
7324 2 38.7966 16.6864 63.2517
7325 2 37.2797 16.6287 62.6499
7326 1 20.8027 21.1624 63.4842
7327 2 20.9251 20.3908 64.1084
7328 2 20.0885 20.9434 62.8195
7329 1 17.2303 17.0475 58.8926
7330 2 18.0929 16.9021 59.3772
7331 2 16.8643 17.9482 59.1267
7332 1 75.4974 11.0982 86.604
7333 2 75.2245 11.865 87.185
7334 2 74.7917 10.9347 85.9146
7335 1 50.1627 10.3919 61.7947
7336 2 50.4952 10.798 60.9435
7337 2 49.8996 11.118 62.4299
7338 1 38.7982 27.7949 78.1253
7339 2 38.2817 27.7515 78.9805
7340 2 39.2418 26.9142 77.9587
7341 1 23.4697 2.15355 53.9284
7342 2 23.815 3.04641 54.2174
7343 2 23.1655 2.20575 52.9773
7344 1 64.831 25.1272 73.4254
7345 2 65.4983 24.6592 74.0048
7346 2 64.9625 26.1159 73.4973
7347 1 78.0461 11.9549 13.4775
7348 2 78.8535 11.512 13.8674
7349 2 78.241 12.2353 12.5376
7350 1 71.7725 1.73797 77.5597
7351 2 72.005 1.79371 76.5887
7352 2 72.5199 2.11945 78.1038
7353 1 26.3737 3.11196 69.7249
7354 2 25.6915 2.56032 69.2451
7355 2 25.9924 4.01471 69.9239
7356 1 20.5192 4.55002 79.6927
7357 2 20.5433 5.00734 78.8037
7358 2 19.6439 4.07866 79.8014
7359 1 46.8157 26.0852 70.5594
7360 2 47.7014 25.6847 70.794
7361 2 46.7419 26.1722 69.5659
7362 1 67.5838 12.1575 59.3474
7363 2 66.6646 12.0207 59.7167
7364 2 68.2612 11.9379 60.0496
7365 1 50.0505 25.6223 58.6945
7366 2 50.4078 26.1913 57.9539
7367 2 50.1635 24.6573 58.4577
7368 1 29.9371 13.3242 85.2064
7369 2 30.6025 12.7808 85.7182
7370 2 29.8518 12.9596 84.2791
7371 1 3.47358 28.8517 42.3421
7372 2 3.81825 29.1892 41.4662
7373 2 2.72077 29.4332 42.6505
7374 1 52.5625 23.9144 69.3881
7375 2 52.9203 23.1672 68.828
7376 2 53.3219 24.468 69.7298
7377 1 35.3695 20.1187 52.2076
7378 2 35.5902 20.762 51.4746
7379 2 34.7699 19.4015 51.8523
7380 1 41.9236 8.64284 80.4693
7381 2 41.887 7.9164 81.1556
7382 2 42.7685 8.55984 79.9408
7383 1 45.0038 8.17404 80.1278
7384 2 44.8965 7.78461 81.0426
7385 2 45.3901 7.48446 79.5152
7386 1 2.24105 8.18662 35.4527
7387 2 2.60784 7.6355 34.7032
7388 2 2.4558 7.74776 36.3252
7389 1 68.4645 2.69782 27.8118
7390 2 67.7216 2.64642 27.1445
7391 2 68.8702 3.61154 27.7892
7392 1 60.6226 16.204 36.5647
7393 2 60.6793 16.8434 37.3315
7394 2 59.7602 15.7002 36.6139
7395 1 27.4221 2.33044 72.1645
7396 2 26.9892 2.40755 71.2664
7397 2 26.8011 2.68183 72.8652
7398 1 65.1036 3.27179 13.6575
7399 2 64.1214 3.44531 13.5852
7400 2 65.492 3.16791 12.7418
7401 1 11.4877 0.193078 18.9356
7402 2 12.035 29.3688 19.0802
7403 2 12.0611 1.00148 19.0686
7404 1 21.1738 11.3222 14.9727
7405 2 20.4442 12.0032 14.9097
7406 2 21.0959 10.8294 15.8394
7407 1 14.6847 8.46247 46.9954
7408 2 15.4841 8.03713 47.4197
7409 2 14.0776 8.81529 47.7074
7410 1 21.9772 1.45507 43.2014
7411 2 22.6962 1.38889 43.8932
7412 2 21.8924 0.580399 42.7242
7413 1 79.458 11.5715 90.5151
7414 2 79.7917 12.5106 90.5974
7415 2 78.4644 11.5794 90.4026
7416 1 8.89753 2.03141 87.386
7417 2 9.25487 2.19605 88.3054
7418 2 7.92355 2.25676 87.3617
7419 1 2.82692 18.0569 49.7064
7420 2 2.08341 18.48 50.2243
7421 2 2.50519 17.8282 48.7876
7422 1 29.4921 16.5128 68.1783
7423 2 28.7932 16.9178 67.5887
7424 2 30.3105 16.316 67.6383
7425 1 6.87029 9.62757 23.3324
7426 2 6.49713 10.1402 24.1056
7427 2 7.79887 9.32634 23.5491
7428 1 56.5545 18.7132 59.1946
7429 2 56.609 18.938 60.1674
7430 2 55.6166 18.8456 58.8739
7431 1 10.3737 9.04814 36.521
7432 2 10.6005 8.15517 36.9098
7433 2 10.9491 9.21933 35.7213
7434 1 53.4669 9.58403 85.8001
7435 2 53.5639 10.3755 86.4035
7436 2 53.8884 9.78532 84.9159
7437 1 49.0946 10.8902 57.8637
7438 2 49.5636 10.4397 57.104
7439 2 49.2052 11.8808 57.7834
7440 1 35.678 9.5233 87.8302
7441 2 35.6679 9.26198 86.865
7442 2 36.4495 9.0807 88.2873
7443 1 50.7432 11.1155 86.736
7444 2 51.6328 11.1994 87.1851
7445 2 50.5948 11.905 86.1404
7446 1 49.6323 25.2611 45.5675
7447 2 48.9822 25.1008 46.3103
7448 2 49.8076 26.242 45.4838
7449 1 73.2696 3.40315 64.7493
7450 2 73.5365 3.02416 65.6354
7451 2 73.7579 4.26178 64.5933
7452 1 34.5244 21.0673 58.323
7453 2 34.0801 20.4039 57.7209
7454 2 35.0534 20.583 59.0198
7455 1 29.9361 21.7853 40.9466
7456 2 30.5908 21.8911 40.1982
7457 2 30.43 21.6283 41.8018
7458 1 74.3423 16.6181 32.4681
7459 2 73.4882 16.5079 31.9599
7460 2 74.2304 16.2514 33.3917
7461 1 33.0906 20.0735 56.0795
7462 2 32.7134 19.3678 56.6793
7463 2 32.3549 20.676 55.77
7464 1 4.89921 24.9408 32.8835
7465 2 5.32721 24.8394 31.9854
7466 2 5.15208 25.8254 33.2754
7467 1 40.8717 29.2079 35.6069
7468 2 41.0377 28.8192 36.5132
7469 2 39.9007 29.1263 35.3821
7470 1 49.9438 5.872 52.3228
7471 2 50.0542 6.77012 51.8971
7472 2 50.5033 5.20131 51.8358
7473 1 69.604 14.8351 14.2856
7474 2 69.9353 15.7213 14.6094
7475 2 70.3689 14.1933 14.2304
7476 1 13.4583 15.323 22.1143
7477 2 14.3138 15.16 22.6059
7478 2 13.6417 15.8725 21.2992
7479 1 13.3551 0.106972 89.0907
7480 2 13.6221 29.5233 89.8575
7481 2 13.9056 29.8759 88.2885
7482 1 15.3267 21.7628 74.3582
7483 2 15.0774 20.8313 74.6233
7484 2 16.2404 21.7604 73.9518
7485 1 43.9782 29.7371 78.1134
7486 2 44.9259 29.4509 78.2546
7487 2 43.3616 29.0187 78.4354
7488 1 28.6363 10.9845 55.8448
7489 2 28.612 11.8755 55.3914
7490 2 28.8889 10.2799 55.1817
7491 1 12.7246 16.8508 53.722
7492 2 12.8463 16.1959 52.9761
7493 2 11.7674 16.8522 54.0115
7494 1 49.3333 1.10682 45.5085
7495 2 48.8768 1.54324 46.2838
7496 2 48.6916 1.02717 44.7457
7497 1 73.9676 10.0255 19.1673
7498 2 73.2755 9.42775 19.5718
7499 2 74.1511 10.7893 19.7861
7500 1 53.8306 28.6345 74.7421
7501 2 54.4739 28.5469 73.9816
7502 2 53.6906 29.6025 74.9506
7503 1 69.0827 9.71895 19.5536
7504 2 69.7798 9.28833 20.1269
7505 2 68.2618 9.88977 20.0986
7506 1 37.5073 6.26541 49.0922
7507 2 37.6075 5.405 48.5925
7508 2 36.537 6.44628 49.2532
7509 1 52.3208 22.6723 30.9596
7510 2 51.3865 22.6157 31.3114
7511 2 52.9503 22.8585 31.7139
7512 1 12.901 24.9756 35.362
7513 2 13.5819 25.2291 36.0491
7514 2 11.9846 25.1611 35.7167
7515 1 59.0628 10.8756 15.6273
7516 2 59.4924 9.99509 15.427
7517 2 58.6093 11.2199 14.8053
7518 1 38.1365 27.4172 80.5148
7519 2 39.0836 27.1038 80.4465
7520 2 38.115 28.3241 80.9355
7521 1 72.5825 13.4474 46.8662
7522 2 73.0669 12.7852 46.2946
7523 2 72.7233 14.3681 46.5022
7524 1 73.5015 23.278 33.0379
7525 2 73.1382 22.3528 33.1476
7526 2 73.8184 23.4024 32.0976
7527 1 18.7073 11.5888 58.7154
7528 2 17.8361 11.3668 59.1531
7529 2 19.3763 10.8752 58.9233
7530 1 0.689418 25.0781 42.6172
7531 2 0.302937 25.8571 43.111
7532 2 0.105056 24.2772 42.7482
7533 1 39.7201 22.3367 74.6471
7534 2 39.8903 23.3203 74.7068
7535 2 39.4549 21.9891 75.5464
7536 1 24.2957 4.94721 40.8468
7537 2 23.9145 4.48882 41.6497
7538 2 23.6018 5.54282 40.4423
7539 1 46.4747 29.0756 28.1962
7540 2 45.7217 28.6158 28.6669
7541 2 47.1362 28.395 27.8813
7542 1 20.0513 28.8647 26.9512
7543 2 20.6762 29.2329 26.2628
7544 2 20.508 28.1347 27.4596
7545 1 63.2088 26.2735 25.5316
7546 2 63.9425 26.3337 26.2084
7547 2 62.4162 26.7923 25.8522
7548 1 37.7422 1.52718 90.8375
7549 2 38.2894 2.21737 91.3109
7550 2 37.3829 1.91225 89.9874
7551 1 63.4427 27.697 37.4082
7552 2 62.7221 27.4353 36.7661
7553 2 63.2706 27.2682 38.2951
7554 1 10.1254 8.72499 86.7319
7555 2 10.5976 9.59741 86.8581
7556 2 9.89921 8.33612 87.6249
7557 1 59.4131 19.1453 70.5577
7558 2 59.7891 19.8785 69.991
7559 2 59.5596 19.3615 71.5229
7560 1 22.9274 21.5521 71.3163
7561 2 23.7345 21.3881 71.8835
7562 2 22.5638 20.6784 70.9932
7563 1 17.4426 10.4011 25.4715
7564 2 16.4653 10.4807 25.2755
7565 2 17.8581 9.75011 24.8362
7566 1 30.2357 18.8637 51.6745
7567 2 29.5548 19.4143 51.1917
7568 2 29.7738 18.156 52.2093
7569 1 14.0688 7.2302 68.9701
7570 2 14.6778 6.44752 68.8416
7571 2 14.1585 7.57223 69.9055
7572 1 7.91122 21.2934 61.0781
7573 2 7.02348 20.8359 61.0267
7574 2 7.78153 22.2821 61.0029
7575 1 6.00671 12.9176 30.1658
7576 2 5.6209 11.998 30.2392
7577 2 5.26548 13.5865 30.1097
7578 1 14.3301 11.0183 37.0281
7579 2 14.7347 10.158 36.7179
7580 2 13.9066 10.8835 37.924
7581 1 66.6992 18.0356 52.0254
7582 2 66.8375 17.8205 52.9921
7583 2 65.808 18.4732 51.9055
7584 1 14.5644 29.1018 37.5474
7585 2 14.3681 29.6711 38.3457
7586 2 15.3011 28.4623 37.767
7587 1 4.04207 29.3218 63.5161
7588 2 3.30254 28.7896 63.9283
7589 2 4.26574 0.0959763 64.1082
7590 1 9.1605 24.45 63.2863
7591 2 10.0114 24.9627 63.1715
7592 2 9.10188 23.74 62.5846
7593 1 69.0642 12.6747 21.428
7594 2 68.7619 12.194 20.605
7595 2 69.2444 12.0114 22.1543
7596 1 25.3904 5.70619 86.7156
7597 2 25.2044 6.60892 86.3276
7598 2 25.7866 5.81059 87.6278
7599 1 7.28356 12.6109 21.6574
7600 2 7.19917 13.1111 22.5192
7601 2 7.81409 11.7765 21.8068
7602 1 30.6693 29.3998 55.4447
7603 2 30.3673 28.8158 56.1982
7604 2 31.6552 29.2942 55.3156
7605 1 29.5695 6.53482 52.0926
7606 2 29.8272 7.20449 51.3961
7607 2 30.3281 6.41013 52.732
7608 1 60.5451 3.77378 62.4576
7609 2 61.1157 4.03025 61.6774
7610 2 60.9639 3.00303 62.9377
7611 1 56.5892 21.7459 54.9305
7612 2 57.2368 22.0611 55.6241
7613 2 55.6603 21.7865 55.2987
7614 1 5.53288 6.16001 25.2015
7615 2 5.73628 7.10217 25.4679
7616 2 6.3322 5.76062 24.7525
7617 1 9.55069 29.5176 56.2898
7618 2 9.03815 28.856 56.8371
7619 2 8.91238 0.129668 55.823
7620 1 20.9531 24.9153 33.6943
7621 2 21.6177 24.3925 33.1604
7622 2 21.304 25.8385 33.8513
7623 1 22.6908 23.3706 21.8632
7624 2 22.4604 24.3079 22.1246
7625 2 23.6167 23.1559 22.174
7626 1 67.927 7.80875 49.4945
7627 2 67.2973 7.41177 50.1622
7628 2 67.8202 7.34149 48.6168
7629 1 8.35766 5.38884 24.6395
7630 2 8.70389 4.72591 23.9757
7631 2 8.20448 6.26646 24.1853
7632 1 38.8954 13.7247 58.1616
7633 2 39.816 13.9601 57.8502
7634 2 38.6591 14.2841 58.9561
7635 1 6.52546 14.6737 43.5078
7636 2 7.40608 14.8042 43.9633
7637 2 5.86842 15.3431 43.8545
7638 1 22.8411 26.5776 31.6341
7639 2 23.3725 25.9282 31.0901
7640 2 23.4627 27.1829 32.1313
7641 1 79.9446 13.9179 87.6406
7642 2 0.730718 14.4575 87.942
7643 2 79.1366 14.1836 88.1666
7644 1 31.7203 12.6858 29.9718
7645 2 31.3408 13.5516 29.6457
7646 2 32.5632 12.8618 30.4803
7647 1 29.2292 24.3641 68.7677
7648 2 29.8175 23.8256 68.1645
7649 2 29.1937 23.9338 69.6697
7650 1 69.4129 6.48037 75.4197
7651 2 69.3511 6.53937 76.4161
7652 2 68.6569 6.98943 75.0082
7653 1 62.2626 2.29042 46.6101
7654 2 62.4086 1.67368 45.8365
7655 2 61.7476 1.81466 47.3231
7656 1 40.2977 25.9935 34.0785
7657 2 41.1042 26.3669 33.6202
7658 2 39.4727 26.3973 33.683
7659 1 13.3904 11.3872 34.3206
7660 2 12.9515 10.4888 34.3047
7661 2 13.9328 11.4785 35.1558
7662 1 39.6332 5.6974 29.7172
7663 2 38.8359 6.30031 29.6883
7664 2 39.335 4.74634 29.6361
7665 1 64.9528 19.7457 65.6953
7666 2 65.7262 20.334 65.9318
7667 2 64.106 20.276 65.7361
7668 1 37.0085 11.4074 45.9307
7669 2 36.591 10.8506 46.6488
7670 2 37.6067 12.0928 46.3458
7671 1 46.8879 21.7684 46.1529
7672 2 47.6341 21.4206 45.5853
7673 2 46.8146 21.2151 46.9827
7674 1 72.1901 7.78921 77.5344
7675 2 71.481 7.18603 77.8995
7676 2 73.0701 7.31438 77.5462
7677 1 52.9823 13.6856 57.5453
7678 2 52.6511 13.7424 56.6034
7679 2 53.313 14.5831 57.837
7680 1 59.1232 10.2872 64.256
7681 2 58.6593 11.0904 64.6298
7682 2 60.1123 10.3993 64.3512
7683 1 34.5309 12.6669 48.5517
7684 2 33.9858 12.6838 47.7135
7685 2 35.3413 12.0982 48.411
7686 1 47.7662 16.9065 79.4899
7687 2 46.7881 16.6988 79.485
7688 2 48.1876 16.5077 80.3044
7689 1 29.2543 16.4929 64.4585
7690 2 30.2384 16.6583 64.3941
7691 2 28.8372 17.1879 65.0442
7692 1 44.9444 8.47783 45.6721
7693 2 44.3447 9.15687 45.2487
7694 2 45.0544 8.68965 46.6432
7695 1 75.5729 3.15792 88.4925
7696 2 75.2112 3.94527 87.9933
7697 2 74.9367 2.39069 88.4111
7698 1 72.2939 19.7049 84.7571
7699 2 72.6996 20.3625 84.1223
7700 2 73.0054 19.3374 85.3561
7701 1 21.3851 25.6797 76.2333
7702 2 21.3484 24.9725 75.5272
7703 2 21.9125 25.3444 77.0139
7704 1 52.8145 19.2013 31.3291
7705 2 52.3508 18.6194 31.9972
7706 2 53.1512 20.0265 31.7826
7707 1 13.9326 23.8511 68.1699
7708 2 14.7165 24.0942 67.5987
7709 2 13.8866 22.8569 68.2671
7710 1 71.2606 10.9077 46.1373
7711 2 71.8081 11.5723 46.6458
7712 2 70.729 10.3538 46.7781
7713 1 74.3285 28.1936 51.2383
7714 2 74.9188 27.8691 51.9774
7715 2 74.2821 29.1922 51.2629
7716 1 51.1366 6.17143 66.3143
7717 2 51.3089 5.53124 65.5657
7718 2 50.1509 6.3002 66.4225
7719 1 1.05971 20.9196 41.9889
7720 2 1.87281 20.4119 42.2737
7721 2 0.256291 20.5523 42.4575
7722 1 1.95178 3.49834 55.4424
7723 2 1.37029 2.81204 55.0055
7724 2 1.56965 4.40874 55.2838
7725 1 55.4603 3.1587 82.2841
7726 2 55.9689 3.92328 82.6801
7727 2 54.6696 3.5088 81.7818
7728 1 50.3722 10.8851 65.1716
7729 2 50.0044 11.2871 66.0102
7730 2 50.3576 11.5674 64.4407
7731 1 32.1331 14.7459 87.9247
7732 2 32.2282 14.57 88.9046
7733 2 32.2621 15.7215 87.7472
7734 1 69.9059 22.2371 83.7295
7735 2 69.8723 23.2176 83.9229
7736 2 69.6709 22.0783 82.7705
7737 1 26.2711 23.203 70.0439
7738 2 25.6906 23.1673 70.8573
7739 2 27.0041 22.5279 70.1276
7740 1 7.71351 23.4383 24.9363
7741 2 7.82998 24.1799 25.597
7742 2 8.5367 22.8707 24.9238
7743 1 51.5028 26.0787 64.3035
7744 2 52.2882 26.5237 63.8732
7745 2 50.7235 26.7053 64.3037
7746 1 21.6537 9.02859 43.8483
7747 2 21.9179 8.2118 44.3612
7748 2 21.7531 9.83493 44.4313
7749 1 39.2664 20.2346 40.3595
7750 2 39.7072 20.5347 39.5136
7751 2 39.0943 19.2505 40.3147
7752 1 40.0129 12.9634 82.8078
7753 2 39.0595 12.6861 82.9269
7754 2 40.5443 12.6814 83.6066
7755 1 33.885 21.442 48.5768
7756 2 34.0299 22.4006 48.8221
7757 2 33.7752 20.898 49.4087
7758 1 22.6383 26.1825 53.9181
7759 2 22.5651 25.2239 54.1933
7760 2 23.6005 26.4548 53.9112
7761 1 55.5322 10.9684 43.7247
7762 2 55.6045 11.9651 43.6885
7763 2 55.7264 10.6537 44.6538
7764 1 63.7691 8.95763 12.4844
7765 2 63.5034 8.35366 13.2358
7766 2 63.1762 9.76285 12.4783
7767 1 49.8646 28.1136 49.7776
7768 2 48.9756 28.0045 49.3329
7769 2 49.7374 28.5231 50.681
7770 1 37.9269 10.304 86.41
7771 2 36.9721 10.2146 86.6935
7772 2 38.1635 9.55239 85.7943
7773 1 74.0796 17.154 40.1206
7774 2 74.9475 16.8592 39.721
7775 2 73.3979 16.4311 40.0074
7776 1 70.3583 25.2917 83.499
7777 2 71.3338 25.0717 83.4987
7778 2 70.2387 26.2767 83.3745
7779 1 56.6251 23.5105 67.7873
7780 2 56.6871 24.471 68.0586
7781 2 55.6665 23.267 67.6397
7782 1 20.7772 28.5241 78.498
7783 2 20.3145 28.7382 77.6377
7784 2 21.0878 29.3713 78.9291
7785 1 56.803 8.73658 21.4327
7786 2 56.1642 7.9783 21.5627
7787 2 56.3078 9.60338 21.4911
7788 1 52.0967 27.1934 45.7708
7789 2 51.9883 26.6715 44.9247
7790 2 51.2045 27.3098 46.2072
7791 1 72.1201 10.9892 12.164
7792 2 72.4061 10.1988 12.7058
7793 2 71.2233 10.8094 11.7599
7794 1 69.5097 10.9335 10.8626
7795 2 68.8133 11.5793 11.1756
7796 2 69.331 10.0328 11.2587
7797 1 50.4434 17.531 29.5184
7798 2 50.9225 16.8514 30.074
7799 2 50.4786 17.2599 28.5565
7800 1 13.5491 1.08927 15.672
7801 2 13.4273 1.87157 16.2829
7802 2 14.465 1.11845 15.2716
7803 1 34.595 23.4918 68.8152
7804 2 34.8066 24.2822 69.39
7805 2 35.1396 23.5334 67.9775
7806 1 51.4205 16.9552 39.393
7807 2 51.9695 16.158 39.1421
7808 2 52.0087 17.646 39.8135
7809 1 76.1285 16.8023 51.9368
7810 2 75.8705 15.8552 51.7463
7811 2 75.7353 17.0854 52.8116
7812 1 16.3713 16.0126 13.4369
7813 2 17.1251 15.8338 14.0692
7814 2 16.5759 15.6002 12.5491
7815 1 74.3295 0.58484 11.8875
7816 2 74.4621 29.6189 12.1097
7817 2 73.4738 0.905801 12.2933
7818 1 28.218 11.8362 88.0308
7819 2 27.3685 12.3607 88.0883
7820 2 28.7838 12.0293 88.8324
7821 1 78.3739 10.7506 54.3609
7822 2 78.0764 11.1416 53.4899
7823 2 77.669 10.9043 55.0533
7824 1 39.2403 11.5436 49.664
7825 2 38.665 12.0311 49.0073
7826 2 40.199 11.6228 49.3906
7827 1 44.9655 23.7528 43.5855
7828 2 45.8837 23.6628 43.1997
7829 2 44.6521 24.6969 43.4834
7830 1 72.3145 16.2466 76.8572
7831 2 73.0562 16.8642 77.1188
7832 2 72.2773 15.48 77.4983
7833 1 19.8962 19.4219 87.5624
7834 2 19.5451 19.8696 88.3848
7835 2 20.4224 20.0798 87.0236
7836 1 68.9699 23.0839 74.0294
7837 2 68.9869 23.8081 73.34
7838 2 68.2743 22.4081 73.7858
7839 1 11.5273 4.92592 73.9121
7840 2 11.5043 4.3484 74.7281
7841 2 12.4775 5.10071 73.6541
7842 1 32.216 14.4862 74.2515
7843 2 32.8256 14.789 74.9841
7844 2 31.5487 13.8387 74.6196
7845 1 13.1442 18.3891 16.1321
7846 2 14.0014 18.8285 15.8633
7847 2 12.8731 18.7137 17.0383
7848 1 19.3796 16.6812 49.5538
7849 2 18.6519 16.6971 48.868
7850 2 20.0228 17.4256 49.3747
7851 1 59.5533 20.6699 54.9147
7852 2 59.1773 21.101 55.735
7853 2 59.7788 19.716 55.1131
7854 1 37.2056 7.79057 42.6954
7855 2 36.7674 7.74861 41.7975
7856 2 37.6203 8.69167 42.8221
7857 1 75.7993 23.7925 17.6493
7858 2 75.2593 23.8748 18.487
7859 2 76.7697 23.7319 17.8829
7860 1 55.3039 15.741 43.3388
7861 2 54.3215 15.8902 43.4518
7862 2 55.8065 16.4917 43.7676
7863 1 26.7198 29.2509 81.5512
7864 2 26.9879 28.967 82.4719
7865 2 25.8317 29.709 81.589
7866 1 66.7588 26.4862 53.6946
7867 2 67.6427 26.0504 53.8643
7868 2 66.8981 27.335 53.1846
7869 1 77.7898 24.9569 54.675
7870 2 76.829 25.1404 54.467
7871 2 77.9325 25.0083 55.6634
7872 1 16.0816 17.3409 10.5624
7873 2 16.7517 16.7505 11.0121
7874 2 15.5264 16.7965 9.93371
7875 1 53.9657 13.4086 62.048
7876 2 53.6975 14.328 61.7604
7877 2 53.3797 12.7344 61.5984
7878 1 26.3425 23.0708 64.9775
7879 2 25.8254 23.9221 64.8888
7880 2 27.1261 23.0906 64.3565
7881 1 76.4391 5.16664 43.5059
7882 2 76.272 4.81035 44.4252
7883 2 75.7731 4.77555 42.8707
7884 1 67.9428 17.2049 17.6905
7885 2 68.8322 17.0337 17.2668
7886 2 68.0753 17.6571 18.5726
7887 1 0.782293 22.2062 12.9149
7888 2 1.02663 22.8441 12.1846
7889 2 79.8355 22.3661 13.1942
7890 1 9.33562 3.41504 53.9725
7891 2 9.59993 4.37063 54.1028
7892 2 9.61677 2.87982 54.769
7893 1 23.1188 11.1997 54.8378
7894 2 22.897 10.9923 55.7905
7895 2 22.3572 10.9253 54.2508
7896 1 66.8714 26.7867 25.6551
7897 2 65.8811 26.8834 25.5554
7898 2 67.2828 26.6281 24.7576
7899 1 60.769 20.8148 90.5267
7900 2 61.4704 21.2609 91.0825
7901 2 61.184 20.0748 89.9974
7902 1 3.51281 1.87383 47.4871
7903 2 3.31928 2.78352 47.8545
7904 2 4.39906 1.88303 47.024
7905 1 68.548 28.086 82.2697
7906 2 69.1554 28.2217 83.0525
7907 2 69.0488 28.2687 81.4237
7908 1 64.2002 29.2246 55.3442
7909 2 63.6565 29.1232 54.5111
7910 2 63.8933 0.033075 55.8463
7911 1 67.5797 2.55551 73.3707
7912 2 67.7735 1.61745 73.0835
7913 2 67.854 2.67535 74.3248
7914 1 26.5792 15.2706 38.9689
7915 2 25.9051 14.9107 38.3238
7916 2 27.1847 14.5319 39.265
7917 1 25.9178 19.7309 69.3721
7918 2 25.4449 20.6106 69.3216
7919 2 26.8917 19.885 69.5385
7920 1 38.0282 11.6582 33.5914
7921 2 37.7751 10.7369 33.8866
7922 2 39.0246 11.7353 33.5572
7923 1 44.3918 13.4623 58.2215
7924 2 45.3336 13.2648 57.9494
7925 2 44.3853 14.2203 58.8737
7926 1 14.8171 20.6622 17.4089
7927 2 14.1397 20.9234 18.0966
7928 2 15.5107 20.0774 17.8295
7929 1 47.7263 10.8538 71.4769
7930 2 48.2544 10.0412 71.7236
7931 2 48.0729 11.2281 70.6168
7932 1 38.3466 12.7775 40.5708
7933 2 39.1536 12.2011 40.4421
7934 2 38.2403 12.9899 41.5422
7935 1 38.9503 18.5454 45.5937
7936 2 39.2659 19.4665 45.8214
7937 2 39.6559 17.8809 45.8399
7938 1 63.3861 18.2397 75.6419
7939 2 63.9927 18.7568 75.038
7940 2 63.1487 17.3695 75.2103
7941 1 20.4711 28.3028 51.9222
7942 2 19.7004 27.888 52.4059
7943 2 21.2905 28.2494 52.4928
7944 1 50.676 12.3594 50.9608
7945 2 49.8183 12.6778 50.5571
7946 2 51.2248 13.1468 51.2416
7947 1 26.1612 16.7387 72.426
7948 2 26.5355 17.0834 71.5651
7949 2 26.0107 15.7528 72.353
7950 1 18.1612 13.1232 49.9846
7951 2 19.0627 12.6979 49.9033
7952 2 18.1358 13.6966 50.8035
7953 1 42.8972 5.45833 78.4131
7954 2 43.3089 4.67538 77.9468
7955 2 43.0712 5.39042 79.3955
7956 1 52.4173 19.6698 75.3495
7957 2 51.5661 20.1017 75.0512
7958 2 52.501 19.7492 76.3428
7959 1 37.6682 14.3597 53.1716
7960 2 37.0797 14.268 53.9748
7961 2 37.7524 13.4729 52.7171
7962 1 25.0826 22.6497 22.8606
7963 2 25.0264 23.3408 23.5811
7964 2 25.7567 21.9564 23.1156
7965 1 56.4837 20.7531 51.4252
7966 2 55.7061 20.1302 51.3395
7967 2 57.3094 20.2289 51.6331
7968 1 11.7306 22.6206 34.5721
7969 2 12.1473 22.0881 33.8353
7970 2 12.3054 23.4128 34.7771
7971 1 0.781429 10.8561 85.5456
7972 2 1.53589 11.511 85.5885
7973 2 0.201365 10.9625 86.3532
7974 1 11.7642 19.9581 72.5765
7975 2 12.4944 19.2765 72.6242
7976 2 10.9227 19.5721 72.9545
7977 1 14.275 25.3988 87.2822
7978 2 13.9864 24.6858 86.6433
7979 2 13.7034 26.2098 87.1571
7980 1 68.9696 1.85977 81.3461
7981 2 69.8609 1.91459 80.8959
7982 2 68.7854 0.911945 81.6062
7983 1 40.1757 6.76027 56.9093
7984 2 39.7994 6.10352 56.2558
7985 2 39.4351 7.14126 57.4629
7986 1 1.87746 2.03433 25.3566
7987 2 2.03038 1.43341 26.1412
7988 2 2.66769 2.63561 25.2383
7989 1 5.58347 15.3613 40.2822
7990 2 4.96137 15.9692 39.7888
7991 2 5.07708 14.8699 40.9909
7992 1 5.28577 24.7991 24.3576
7993 2 5.49549 25.5341 23.7127
7994 2 6.13712 24.3831 24.6772
7995 1 43.4441 10.1711 51.3946
7996 2 43.7692 9.47264 52.0322
7997 2 44.192 10.7986 51.1779
7998 1 31.8312 5.84029 53.458
7999 2 32.4172 5.3259 52.832
8000 2 32.2809 5.91782 54.3478
8001 1 40.9192 18.0201 37.2969
8002 2 41.2992 18.2762 36.4081
8003 2 41.6588 17.9406 37.9652
8004 1 30.3579 23.1413 61.3705
8005 2 30.0909 22.4633 60.6856
8006 2 29.7963 23.0264 62.1899
8007 1 43.7395 24.5682 84.2276
8008 2 44.2825 23.9993 83.6099
8009 2 44.3467 25.1678 84.7488
8010 1 34.7077 8.12195 62.0916
8011 2 35.2338 8.90774 62.4169
8012 2 33.7406 8.25552 62.3082
8013 1 26.8603 0.357883 66.8972
8014 2 27.0782 29.9475 66.0117
8015 2 25.9782 0.82543 66.84
8016 1 75.1136 14.8792 84.598
8017 2 75.0968 15.6139 83.9197
8018 2 75.2544 14.0031 84.137
8019 1 49.9606 21.5292 64.6265
8020 2 50.0975 22.3402 65.1954
8021 2 49.3961 21.7679 63.8363
8022 1 78.2177 5.56424 88.8208
8023 2 77.3269 5.45559 88.3796
8024 2 78.7409 4.71701 88.7286
8025 1 69.0844 10.3198 17.0812
8026 2 68.1969 10.1732 16.6443
8027 2 69.0267 10.0653 18.0466
8028 1 52.9459 6.91866 59.9036
8029 2 53.6361 6.81009 60.619
8030 2 52.9379 7.86803 59.5895
8031 1 57.8819 9.93594 90.1764
8032 2 57.3253 9.12175 90.0111
8033 2 58.8194 9.6611 90.39
8034 1 24.4797 25.3626 49.0102
8035 2 24.8937 24.4524 48.996
8036 2 23.7366 25.3803 49.6792
8037 1 44.4614 28.1104 86.4401
8038 2 44.1279 28.1344 85.4977
8039 2 44.4038 29.0262 86.8375
8040 1 15.9558 16.4222 30.8393
8041 2 15.8646 16.7526 29.8999
8042 2 16.7649 15.8389 30.9105
8043 1 51.9804 26.0085 31.6681
8044 2 51.5647 25.7089 32.5268
8045 2 52.9751 25.9304 31.7343
8046 1 5.39166 2.80866 82.1642
8047 2 5.57172 1.86667 81.881
8048 2 5.34615 3.39664 81.3567
8049 1 48.6093 1.6396 40.152
8050 2 47.8789 1.49048 39.4855
8051 2 49.0085 0.760181 40.4114
8052 1 54.9779 15.8176 79.3896
8053 2 55.5434 15.723 78.5704
8054 2 54.5498 14.9393 79.6024
8055 1 8.33764 11.1919 27.7611
8056 2 9.04248 10.5531 27.4525
8057 2 8.18067 11.0673 28.7408
8058 1 12.7811 16.4631 45.57
8059 2 12.0287 16.7338 46.1706
8060 2 13.4189 15.8823 46.0759
8061 1 12.8723 2.49697 71.8239
8062 2 11.9433 2.51338 71.4544
8063 2 13.1839 3.43358 71.9843
8064 1 63.4352 22.1071 40.1511
8065 2 63.0172 22.6863 40.8509
8066 2 64.3948 22.3636 40.0357
8067 1 78.6525 22.3195 15.772
8068 2 78.5199 22.5687 16.7313
8069 2 79.1803 21.4719 15.7176
8070 1 63.4907 23.5572 63.7606
8071 2 63.3776 23.0107 64.5904
8072 2 63.0176 24.4314 63.8702
8073 1 72.8064 16.731 73.5619
8074 2 72.3182 15.9004 73.294
8075 2 73.7267 16.4915 73.8713
8076 1 68.0966 12.4528 43.509
8077 2 67.4108 12.246 44.2068
8078 2 68.9499 12.7284 43.9517
8079 1 14.3854 7.40963 60.8089
8080 2 14.0135 6.92359 61.5998
8081 2 15.2013 7.91834 61.0837
8082 1 51.286 20.5689 34.7039
8083 2 50.9172 21.4642 34.9534
8084 2 52.0776 20.6897 34.1049
8085 1 29.0484 1.2975 77.522
8086 2 29.8806 1.09406 78.0378
8087 2 28.3181 0.678012 77.8098
8088 1 28.6861 13.0509 49.675
8089 2 28.4569 13.2456 48.7213
8090 2 29.6553 13.2415 49.8305
8091 1 3.90647 19.9099 58.479
8092 2 4.16825 19.0998 57.9544
8093 2 4.62395 20.1239 59.1418
8094 1 27.4012 18.9573 83.6481
8095 2 26.9323 19.8398 83.684
8096 2 27.8155 18.8364 82.746
8097 1 54.3491 5.15638 31.5589
8098 2 54.9271 4.34765 31.6681
8099 2 53.4157 4.94013 31.8453
8100 1 15.2941 13.0648 40.4463
8101 2 15.5532 12.6216 41.3045
8102 2 15.7982 13.9229 40.3488
8103 1 61.2989 22.4863 57.637
8104 2 60.4541 22.998 57.7936
8105 2 61.0772 21.5752 57.2894
8106 1 43.9718 22.1124 40.2679
8107 2 44.0761 21.317 40.865
8108 2 43.8945 21.8085 39.3183
8109 1 60.5791 22.8632 30.3489
8110 2 60.8008 22.7582 31.3184
8111 2 60.504 21.9608 29.9245
8112 1 74.1369 29.8953 76.2775
8113 2 73.4284 29.5825 76.9101
8114 2 74.5886 0.703194 76.656
8115 1 46.4011 22.568 49.2102
8116 2 45.5911 22.6926 48.6372
8117 2 46.5456 23.3869 49.7656
8118 1 53.0437 11.8172 66.8315
8119 2 52.1993 11.5587 67.3007
8120 2 52.9886 11.5433 65.8713
8121 1 25.834 12.9547 75.7966
8122 2 25.2054 13.1569 76.5476
8123 2 25.8568 11.9677 75.6376
8124 1 66.0202 25.2874 89.6679
8125 2 66.9341 24.9223 89.4904
8126 2 65.619 24.8146 90.4524
8127 1 38.5633 2.19013 39.7172
8128 2 38.61 1.45308 40.3915
8129 2 38.5073 3.07018 40.1888
8130 1 4.18319 19.3796 69.9265
8131 2 4.99235 19.1708 70.4757
8132 2 3.36652 19.3215 70.5006
8133 1 69.8867 27.6007 72.9622
8134 2 69.5314 28.5205 72.796
8135 2 70.6964 27.6566 73.5463
8136 1 23.0377 4.81131 80.9184
8137 2 22.1258 4.70616 80.5218
8138 2 22.9814 4.72001 81.9126
8139 1 67.4525 8.89129 52.201
8140 2 66.5047 9.05843 51.9296
8141 2 68.06 9.48474 51.6731
8142 1 36.3397 1.98825 45.7756
8143 2 35.8388 1.955 46.6404
8144 2 37.0765 2.66096 45.8428
8145 1 20.6296 10.3232 74.6855
8146 2 20.3774 9.35566 74.7041
8147 2 20.1784 10.7998 75.4399
8148 1 49.9939 17.3872 84.2024
8149 2 50.2554 18.0591 84.8953
8150 2 50.5284 16.5517 84.3299
8151 1 30.289 21.4424 55.7721
8152 2 30.4531 22.3369 55.3561
8153 2 29.9781 21.5652 56.7145
8154 1 53.5492 6.98263 21.4155
8155 2 53.2871 6.01759 21.4148
8156 2 53.0547 7.46288 20.6911
8157 1 77.3429 27.941 73.2966
8158 2 77.9831 27.1902 73.4593
8159 2 76.6588 27.9597 74.0258
8160 1 46.2762 18.6721 45.6975
8161 2 45.4069 18.6104 45.2071
8162 2 46.1017 18.8749 46.661
8163 1 41.4614 20.659 51.6678
8164 2 42.1231 20.4939 50.9364
8165 2 41.7401 21.4621 52.1944
8166 1 7.94218 19.6061 23.8242
8167 2 7.09144 19.1535 24.0914
8168 2 8.17875 19.3453 22.8882
8169 1 57.502 25.9364 23.4709
8170 2 57.5575 26.8648 23.8384
8171 2 56.5919 25.5618 23.6477
8172 1 32.8491 1.50979 62.8886
8173 2 33.0398 2.13614 62.1328
8174 2 33.0776 1.95373 63.7551
8175 1 50.6806 18.7026 36.8475
8176 2 50.6946 19.5823 36.3722
8177 2 51.3296 18.7243 37.608
8178 1 44.8934 4.76088 70.626
8179 2 44.6873 5.1446 69.7258
8180 2 44.8156 5.47718 71.3194
8181 1 19.6417 2.00669 37.1662
8182 2 18.7299 1.6342 37.3389
8183 2 20.2087 1.30981 36.7271
8184 1 50.7775 16.8446 55.4023
8185 2 51.5967 17.2107 54.9608
8186 2 50.5758 17.3769 56.2245
8187 1 76.9308 22.3982 54.026
8188 2 77.3005 23.2172 54.4649
8189 2 77.674 21.7556 53.8398
8190 1 9.65203 24.7433 66.3206
8191 2 8.95961 24.2748 66.8693
8192 2 9.24325 25.0539 65.4624
8193 1 57.6338 20.8819 64.1215
8194 2 57.3677 20.1573 63.4858
8195 2 57.2912 21.7602 63.7881
8196 1 73.0079 3.47635 47.5113
8197 2 72.1182 3.87311 47.7373
8198 2 73.509 4.10102 46.9125
8199 1 76.6152 13.2171 37.4301
8200 2 76.4623 14.2017 37.3451
8201 2 75.9604 12.7273 36.8544
8202 1 61.7278 28.9331 19.2216
8203 2 61.0664 28.7587 19.9511
8204 2 61.8903 29.917 19.1473
8205 1 22.4007 22.3462 27.4768
8206 2 22.655 21.7392 28.2297
8207 2 22.7138 21.9539 26.612
8208 1 69.958 10.9732 77.0325
8209 2 69.7024 11.3084 77.9393
8210 2 69.153 10.9701 76.4392
8211 1 46.1186 4.77526 44.9851
8212 2 45.4473 5.39576 44.5797
8213 2 46.4793 5.17792 45.8264
8214 1 14.5331 9.85646 74.9832
8215 2 13.671 9.42006 74.7256
8216 2 14.5365 10.0325 75.9675
8217 1 66.2705 26.4532 78.6795
8218 2 65.9473 26.3853 79.6234
8219 2 67.2563 26.6209 78.676
8220 1 20.9954 20.752 24.802
8221 2 21.2218 20.2356 25.6278
8222 2 20.3011 20.2572 24.2793
8223 1 51.7111 27.9586 87.9334
8224 2 51.124 28.4778 88.5545
8225 2 52.0327 27.1307 88.3929
8226 1 33.9554 16.2403 43.4574
8227 2 34.2846 17.1205 43.1155
8228 2 32.9565 16.2529 43.5026
8229 1 4.56098 0.637684 24.8797
8230 2 3.69996 0.137267 24.9704
8231 2 5.32053 0.0457566 25.1493
8232 1 1.54651 22.3398 64.7275
8233 2 0.989098 21.6204 64.3132
8234 2 1.3222 22.4175 65.6989
8235 1 30.4229 9.71391 68.3732
8236 2 31.066 10.4746 68.2854
8237 2 29.5781 9.93377 67.8853
8238 1 2.73273 15.6537 17.8469
8239 2 3.3537 14.8973 17.6412
8240 2 2.02103 15.3392 18.4751
8241 1 26.8002 15.9672 65.8599
8242 2 27.4104 16.6919 66.1799
8243 2 27.241 15.4645 65.1162
8244 1 25.4003 6.50801 62.8564
8245 2 25.5412 7.07853 62.0473
8246 2 25.6653 5.56605 62.6503
8247 1 15.7971 16.5832 72.9447
8248 2 15.3578 16.1304 72.1688
8249 2 15.2271 16.4764 73.7593
8250 1 51.7733 24.8401 36.4446
8251 2 51.2041 25.5117 36.919
8252 2 51.2081 24.066 36.1597
8253 1 47.1017 26.5705 53.2806
8254 2 46.8551 27.3369 52.6874
8255 2 46.5455 26.5994 54.1111
8256 1 66.9425 6.25468 21.1441
8257 2 67.6986 6.86052 20.8966
8258 2 66.5278 6.57071 21.9975
8259 1 77.8153 17.2729 65.8909
8260 2 77.1642 17.5783 66.5857
8261 2 77.598 17.7072 65.0167
8262 1 29.4642 10.9502 43.1586
8263 2 30.1066 10.4737 43.7588
8264 2 28.6114 11.1214 43.6519
8265 1 54.4437 8.53575 27.5228
8266 2 54.3391 7.91458 26.7461
8267 2 54.6381 9.45788 27.1883
8268 1 44.8665 2.23841 48.1078
8269 2 45.5144 2.68936 48.7217
8270 2 43.9423 2.31898 48.4811
8271 1 48.6226 8.08082 82.7723
8272 2 49.4356 8.64185 82.9281
8273 2 47.812 8.6661 82.7555
8274 1 1.69957 1.45715 65.1182
8275 2 2.01441 2.01074 65.8891
8276 2 2.32548 1.57315 64.3469
8277 1 60.4087 9.64616 36.0397
8278 2 59.7611 10.3263 36.3833
8279 2 61.0964 9.45689 36.7405
8280 1 54.5375 8.17136 34.2009
8281 2 54.4126 7.19147 34.0453
8282 2 54.4284 8.6626 33.3367
8283 1 28.2768 22.5991 88.1376
8284 2 27.7848 23.3751 88.5324
8285 2 27.6888 21.7903 88.1505
8286 1 26.5755 19.2608 30.4043
8287 2 26.9338 20.0807 30.8509
8288 2 27.1782 18.4863 30.5963
8289 1 0.936643 6.78086 31.458
8290 2 0.485724 7.42816 30.8434
8291 2 1.5789 6.21868 30.937
8292 1 35.1845 17.0189 36.3535
8293 2 34.7583 16.1734 36.675
8294 2 35.6559 17.4649 37.1144
8295 1 5.20409 16.9616 58.0008
8296 2 5.42123 17.1187 58.9642
8297 2 4.35247 16.4421 57.9315
8298 1 38.3218 1.82327 57.2806
8299 2 38.4773 0.943028 57.7289
8300 2 39.1978 2.28383 57.1375
8301 1 58.1983 4.46243 75.7628
8302 2 58.0208 4.86722 74.8658
8303 2 59.1181 4.71249 76.0652
8304 1 29.8111 23.257 43.8036
8305 2 30.4522 22.6914 43.2848
8306 2 29.8351 22.99 44.7669
8307 1 6.49115 20.1129 21.3271
8308 2 5.90347 19.6281 21.9749
8309 2 7.35397 19.6178 21.2248
8310 1 33.3272 16.1589 46.084
8311 2 33.1794 15.1898 45.8865
8312 2 32.7307 16.7123 45.5026
8313 1 13.8097 4.99622 29.3214
8314 2 13.6391 4.94907 28.3372
8315 2 13.3108 5.77119 29.7094
8316 1 12.9505 22.8609 22.9842
8317 2 13.5007 22.1232 22.5928
8318 2 12.9275 22.7674 23.9796
8319 1 40.8137 5.31122 49.406
8320 2 39.8999 4.91733 49.3071
8321 2 40.7841 6.0598 50.0684
8322 1 7.90094 10.9928 48.7161
8323 2 7.19336 11.5426 49.16
8324 2 7.68597 10.0222 48.8246
8325 1 32.4509 26.2031 64.7225
8326 2 31.5588 25.9163 64.3733
8327 2 33.0424 25.4031 64.8229
8328 1 67.159 16.3334 56.2771
8329 2 66.4617 15.7211 56.6498
8330 2 67.0113 16.448 55.2947
8331 1 55.9981 6.68907 67.6189
8332 2 56.4358 6.97311 68.4719
8333 2 56.5431 5.96978 67.188
8334 1 11.2243 0.0570837 35.4049
8335 2 10.6355 0.423529 34.6845
8336 2 11.4047 29.0895 35.228
8337 1 76.1327 5.48713 39.2436
8338 2 76.9101 4.95247 39.5749
8339 2 75.688 5.94212 40.0152
8340 1 72.142 15.8313 34.8938
8341 2 71.8607 16.1573 35.7964
8342 2 72.6991 15.0071 34.9959
8343 1 1.11543 27.552 61.6448
8344 2 0.165477 27.578 61.3335
8345 2 1.2283 28.17 62.4228
8346 1 32.8745 6.53171 55.7589
8347 2 32.6891 7.35113 56.3013
8348 2 32.7114 5.71838 56.3174
8349 1 17.7813 15.9972 27.1126
8350 2 18.7803 15.9839 27.1564
8351 2 17.4819 15.6439 26.2263
8352 1 15.6447 1.74675 72.4493
8353 2 15.7097 2.72877 72.6266
8354 2 14.8668 1.36831 72.9509
8355 1 57.9327 15.8351 54.195
8356 2 57.381 15.0248 54.3929
8357 2 58.7066 15.8738 54.8271
8358 1 2.62492 25.3117 61.5391
8359 2 2.08985 26.1564 61.5229
8360 2 3.50515 25.4832 61.9816
8361 1 10.149 1.28228 72.4286
8362 2 9.4919 1.73907 73.0282
8363 2 10.5107 0.47066 72.8874
8364 1 17.0601 1.93189 27.4542
8365 2 16.3452 1.58377 26.8478
8366 2 17.3379 2.84401 27.1527
8367 1 33.0575 7.59692 29.5089
8368 2 32.4333 6.89479 29.1662
8369 2 33.9887 7.23303 29.5311
8370 1 10.2018 6.89354 76.7032
8371 2 9.53988 7.17335 77.3986
8372 2 10.0716 5.92532 76.4896
8373 1 42.8466 1.70736 76.9658
8374 2 43.5245 2.44202 76.938
8375 2 43.2923 0.852412 77.2311
8376 1 67.1013 1.9908 90.8349
8377 2 67.6309 1.16006 90.6634
8378 2 66.9132 2.45121 89.9674
8379 1 20.6296 0.503125 10.6657
8380 2 19.6808 0.582367 10.9715
8381 2 21.227 0.98926 11.3034
8382 1 50.2721 21.1408 58.2232
8383 2 49.3137 21.1753 58.5064
8384 2 50.5713 22.0544 57.9478
8385 1 6.20595 29.0206 16.7157
8386 2 6.39312 28.8197 15.7542
8387 2 6.38414 29.9882 16.8948
8388 1 11.9822 12.1993 38.9084
8389 2 12.9041 12.3176 39.2773
8390 2 11.639 11.2926 39.1535
8391 1 7.15352 0.0942926 11.6744
8392 2 7.37033 29.1202 11.6101
8393 2 8.00126 0.624632 11.6824
8394 1 35.7657 13.9652 35.9972
8395 2 36.7411 13.9519 36.2174
8396 2 35.5262 13.1345 35.4947
8397 1 44.0853 24.7444 71.0123
8398 2 43.2263 24.6769 71.5199
8399 2 44.8178 24.3116 71.5378
8400 1 65.2766 10.3471 74.9364
8401 2 64.4247 10.091 75.3933
8402 2 65.6949 9.53431 74.5311
8403 1 8.5367 22.2903 57.2945
8404 2 7.8135 22.8941 56.9592
8405 2 8.97062 21.8284 56.521
8406 1 52.5519 24.945 50.6259
8407 2 53.1101 24.1163 50.6654
8408 2 53.1472 25.7445 50.5464
8409 1 74.3879 15.6838 56.2354
8410 2 75.1195 16.2911 55.9256
8411 2 74.771 14.7877 56.4594
8412 1 68.1285 29.5961 66.7963
8413 2 67.4832 29.5186 66.0364
8414 2 68.6112 28.7282 66.9136
8415 1 19.9439 15.1386 56.6657
8416 2 20.3828 15.7636 57.3113
8417 2 20.2053 15.3855 55.7326
8418 1 10.1246 22.8766 38.9967
8419 2 9.42086 23.5846 39.0551
8420 2 10.652 22.8601 39.8462
8421 1 4.71619 29.6469 70.2199
8422 2 5.04294 28.8646 70.7503
8423 2 4.07435 0.179161 70.7719
8424 1 19.5295 12.0576 62.7021
8425 2 19.0955 11.4604 62.0276
8426 2 20.4631 12.2664 62.4107
8427 1 14.7372 27.564 34.7128
8428 2 15.0974 26.6343 34.7901
8429 2 14.8197 28.0278 35.5948
8430 1 32.2123 17.4556 36.2829
8431 2 32.2656 18.3252 35.7921
8432 2 32.2543 17.6255 37.2675
8433 1 13.684 7.24596 78.8996
8434 2 13.1488 6.46241 78.5842
8435 2 13.0861 8.04202 78.9935
8436 1 71.2738 12.6288 49.2768
8437 2 71.8298 12.9054 48.493
8438 2 71.872 12.3504 50.0282
8439 1 15.408 12.8311 33.5554
8440 2 16.2092 12.49 33.0637
8441 2 14.6958 12.1291 33.5599
8442 1 14.148 7.67734 22.9367
8443 2 15.1147 7.47873 22.7754
8444 2 13.6119 7.39072 22.1427
8445 1 1.16257 29.8341 67.649
8446 2 2.06979 29.4946 67.4006
8447 2 0.463892 29.2355 67.2571
8448 1 66.4847 29.999 57.8012
8449 2 66.7077 29.4647 58.6166
8450 2 65.6914 29.5956 57.3451
8451 1 75.4326 9.83952 54.4979
8452 2 75.8429 9.29152 55.2268
8453 2 75.0164 10.6593 54.8912
8454 1 78.1641 0.862313 67.1737
8455 2 77.8589 0.373023 67.9906
8456 2 77.5402 0.668523 66.4166
8457 1 26.6287 29.7915 78.3634
8458 2 26.6673 29.6785 77.3706
8459 2 25.6839 29.6874 78.6743
8460 1 46.1147 24.9308 72.9801
8461 2 46.3427 23.9856 72.7465
8462 2 46.3629 25.5312 72.22
8463 1 58.2904 2.2251 79.5984
8464 2 58.2255 1.24883 79.3918
8465 2 57.9089 2.39979 80.5061
8466 1 77.5004 10.4706 68.597
8467 2 77.5715 10.9158 67.7044
8468 2 78.2982 9.8855 68.7422
8469 1 70.1947 21.5282 51.6643
8470 2 70.5338 20.8439 52.3098
8471 2 70.6789 22.3912 51.8084
8472 1 15.1571 28.609 24.026
8473 2 14.3748 28.0068 24.1855
8474 2 15.4098 28.5781 23.059
8475 1 4.86393 25.6963 12.5725
8476 2 5.4466 25.1309 11.9887
8477 2 3.90365 25.5168 12.3589
8478 1 32.3702 20.8427 68.7485
8479 2 33.0684 21.4857 69.0633
8480 2 31.5761 21.3502 68.4141
8481 1 28.6052 4.26658 62.8843
8482 2 28.8804 4.19736 61.9254
8483 2 27.6085 4.32356 62.9418
8484 1 54.3334 21.1232 29.9733
8485 2 54.0165 20.1805 29.8688
8486 2 53.5466 21.7273 30.0997
8487 1 59.8455 17.8293 15.1895
8488 2 60.1298 17.661 14.2457
8489 2 59.7977 16.961 15.6831
8490 1 23.7979 1.0638 82.6078
8491 2 23.455 0.193689 82.9619
8492 2 23.1102 1.77573 82.75
8493 1 69.028 26.3572 15.5278
8494 2 69.2286 27.3287 15.6536
8495 2 68.1591 26.1361 15.9706
8496 1 56.5937 17.6319 30.2029
8497 2 56.9234 16.6959 30.0801
8498 2 55.8093 17.7904 29.6033
8499 1 77.8436 6.48224 58.7027
8500 2 77.1556 6.82222 59.3439
8501 2 77.6939 5.50707 58.5394
8502 1 69.2041 15.3901 20.9078
8503 2 70.056 15.8523 21.1543
8504 2 69.1948 14.4733 21.307
8505 1 33.7063 11.3089 85.2583
8506 2 34.3253 11.8627 84.7014
8507 2 33.9392 10.342 85.1542
8508 1 63.8484 17.2132 66.5218
8509 2 63.6095 17.3525 67.4828
8510 2 64.8435 17.2087 66.423
8511 1 38.8968 27.6114 68.49
8512 2 39.573 27.9782 69.1288
8513 2 37.9771 27.8304 68.816
8514 1 54.3029 4.62379 62.3124
8515 2 54.441 4.3153 63.2536
8516 2 54.884 4.09001 61.6981
8517 1 57.3631 8.01722 63.996
8518 2 58.0884 7.55909 64.5098
8519 2 57.5359 9.00209 63.9815
8520 1 18.8146 29.7383 43.6564
8521 2 19.3126 29.5189 42.8175
8522 2 19.4202 29.622 44.4437
8523 1 56.4454 21.6331 60.6955
8524 2 56.408 20.7742 61.2063
8525 2 56.1388 22.3831 61.2815
8526 1 1.18212 19.2439 68.9241
8527 2 0.534788 19.4654 69.6534
8528 2 2.02376 18.8813 69.3242
8529 1 41.6855 18.2745 34.6259
8530 2 41.8454 18.246 33.6392
8531 2 40.7686 17.9287 34.8251
8532 1 73.1781 25.2465 74.1449
8533 2 72.8661 25.5896 73.2589
8534 2 72.7572 24.3575 74.3251
8535 1 27.6906 1.25257 35.3792
8536 2 27.0039 0.866701 34.7632
8537 2 28.1865 0.511394 35.8317
8538 1 1.92671 29.5753 70.8915
8539 2 1.65177 0.529187 71.0116
8540 2 1.68376 29.2719 69.9701
8541 1 21.3223 3.87252 50.4653
8542 2 20.9705 3.83818 51.4007
8543 2 22.0076 3.15502 50.3403
8544 1 64.9343 22.4299 86.1866
8545 2 65.7358 21.8319 86.1834
8546 2 64.7583 22.7563 85.2579
8547 1 3.46481 14.1168 67.125
8548 2 2.98592 14.5565 67.8848
8549 2 3.00761 13.2575 66.8954
8550 1 23.74 27.3612 43.3723
8551 2 24.6504 27.5294 43.7503
8552 2 23.1289 27.0509 44.1005
8553 1 32.4337 13.4228 54.4132
8554 2 32.347 13.4662 53.4179
8555 2 32.3121 14.3375 54.7986
8556 1 61.0808 15.6334 60.9031
8557 2 61.1636 16.1886 61.7306
8558 2 60.2248 15.1173 60.9322
8559 1 3.84428 13.5916 52.6904
8560 2 4.29887 14.144 51.9917
8561 2 3.2318 12.9352 52.25
8562 1 6.49455 28.4066 81.4343
8563 2 6.96017 27.5902 81.776
8564 2 7.11188 29.1912 81.4922
8565 1 57.6441 13.4911 70.5664
8566 2 58.426 14.1036 70.682
8567 2 57.2904 13.5742 69.6348
8568 1 15.9151 1.28927 51.9346
8569 2 16.7024 0.787275 52.2925
8570 2 15.142 0.664108 51.8271
8571 1 29.7472 18.5166 85.6176
8572 2 30.2513 19.3791 85.6622
8573 2 29.0887 18.5538 84.866
8574 1 10.5598 5.40116 38.5713
8575 2 9.93255 4.62373 38.6182
8576 2 11.4455 5.0943 38.2229
8577 1 36.1549 14.0881 67.7949
8578 2 37.1256 14.2161 67.9981
8579 2 35.6999 14.9782 67.7675
8580 1 67.8885 3.35628 25.0977
8581 2 68.5265 2.60115 25.2486
8582 2 68.389 4.222 25.1053
8583 1 26.0303 3.48746 43.7849
8584 2 26.6786 3.09121 43.1348
8585 2 26.5248 4.04813 44.449
8586 1 35.0419 5.44749 82.0345
8587 2 35.1406 4.49352 81.7513
8588 2 34.9798 5.49452 83.0315
8589 1 75.5455 0.557253 73.691
8590 2 75.2498 0.00946622 74.4736
8591 2 76.4995 0.829573 73.8161
8592 1 25.7997 7.09078 49.8093
8593 2 26.3659 7.51426 50.5164
8594 2 24.8361 7.16193 50.0669
8595 1 35.3175 0.448447 54.8604
8596 2 34.672 29.6905 54.9548
8597 2 35.2126 0.86505 53.9574
8598 1 44.9568 22.1816 56.4327
8599 2 44.719 23.1311 56.6373
8600 2 45.7928 22.158 55.8846
8601 1 58.731 12.9554 40.5444
8602 2 57.8248 12.5389 40.6167
8603 2 58.7351 13.8306 41.0281
8604 1 19.0721 28.3394 29.8356
8605 2 19.6211 27.5763 29.4947
8606 2 19.2904 29.1654 29.3159
8607 1 63.4127 10.0621 24.7041
8608 2 64.2744 10.3947 24.3208
8609 2 63.3425 10.3445 25.6608
8610 1 23.1223 10.575 73.1861
8611 2 23.8099 9.89777 72.924
8612 2 22.2103 10.1731 73.1038
8613 1 16.674 4.91879 59.7518
8614 2 17.6494 4.72169 59.653
8615 2 16.2074 4.7343 58.8868
8616 1 66.663 29.4193 84.6101
8617 2 67.069 29.1513 85.4838
8618 2 66.5131 28.6055 84.0486
8619 1 23.3606 4.1928 67.5816
8620 2 23.8047 4.48048 68.4302
8621 2 24.0282 3.73442 66.9949
8622 1 6.25142 25.1704 49.1463
8623 2 7.05733 25.0528 49.7265
8624 2 5.52525 25.6151 49.6707
8625 1 1.46825 23.7241 10.8085
8626 2 1.66058 23.5541 9.84201
8627 2 2.04527 24.472 11.1366
8628 1 47.122 14.6644 56.2704
8629 2 47.5642 15.5572 56.3559
8630 2 46.1389 14.7907 56.1377
8631 1 19.8988 13.9522 20.6618
8632 2 20.8136 13.9131 21.0638
8633 2 19.9536 13.736 19.6869
8634 1 28.4212 22.0902 78.7722
8635 2 27.8314 21.8668 79.5481
8636 2 29.2703 22.4997 79.106
8637 1 35.1793 14.1582 88.3117
8638 2 35.8047 13.3783 88.2866
8639 2 34.2471 13.8439 88.1326
8640 1 6.04321 28.7406 57.4018
8641 2 6.30982 28.6971 56.4389
8642 2 5.21471 29.2931 57.4936
8643 1 32.1713 3.47603 26.63
8644 2 32.7217 4.30589 26.7212
8645 2 32.7624 2.67345 26.7099
8646 1 1.224 8.49154 19.5078
8647 2 1.53609 8.49381 20.4578
8648 2 1.65537 9.24621 19.0134
8649 1 2.23491 19.5215 18.6408
8650 2 3.14718 19.7472 18.2991
8651 2 1.54625 19.8475 17.9932
8652 1 6.23108 23.8399 69.9516
8653 2 6.79792 23.5293 69.1886
8654 2 5.78614 23.0527 70.3785
8655 1 43.6162 18.8668 37.9216
8656 2 43.9323 17.9615 37.6379
8657 2 43.6271 18.926 38.9198
8658 1 49.8776 6.92954 32.1372
8659 2 49.5619 5.99536 31.9709
8660 2 50.5368 6.92974 32.8892
8661 1 74.4351 23.4967 80.7404
8662 2 74.3319 23.9085 81.6459
8663 2 75.3991 23.5124 80.475
8664 1 5.92612 27.9904 78.5235
8665 2 6.27169 28.1804 79.4425
8666 2 5.55675 27.0616 78.4917
8667 1 68.3038 12.3879 80.7036
8668 2 68.3295 13.0209 81.4774
8669 2 69.2336 12.2301 80.3711
8670 1 10.383 24.5606 84.0687
8671 2 9.97899 25.1154 83.3414
8672 2 11.1301 25.0675 84.4986
8673 1 32.7248 26.2965 42.9751
8674 2 33.3575 25.6322 42.5772
8675 2 33.038 27.2226 42.7649
8676 1 66.161 12.0498 63.1303
8677 2 65.7192 12.3382 62.2807
8678 2 65.7388 12.5236 63.903
8679 1 67.8617 28.3857 52.3958
8680 2 68.5517 28.8794 52.9251
8681 2 68.1226 28.3809 51.4304
8682 1 56.2707 17.684 50.2798
8683 2 55.3188 17.9902 50.2714
8684 2 56.5086 17.3103 49.3833
8685 1 13.0269 14.6053 34.8212
8686 2 13.5038 15.4525 35.0552
8687 2 13.6965 13.8844 34.6422
8688 1 70.8878 23.8919 71.1349
8689 2 70.1144 24.5092 71.2792
8690 2 71.2695 23.6234 72.0194
8691 1 58.5178 6.01739 85.1111
8692 2 58.0093 5.88736 84.2599
8693 2 58.1413 6.79914 85.6082
8694 1 22.7913 22.5449 36.5093
8695 2 23.09 22.7004 35.5677
8696 2 22.6402 23.4244 36.9606
8697 1 4.52525 7.92041 31.0583
8698 2 4.46383 7.86247 32.0548
8699 2 3.98243 7.18775 30.6478
8700 1 11.5067 19.4918 30.499
8701 2 10.7598 19.5473 31.1615
8702 2 11.3167 20.1029 29.7305
8703 1 21.5194 14.4267 83.6537
8704 2 22.5158 14.4933 83.6012
8705 2 21.1748 15.0963 84.3117
8706 1 56.6116 27.9569 86.4736
8707 2 56.1242 27.0837 86.4716
8708 2 57.0556 28.0928 85.5879
8709 1 14.2867 4.56427 86.3744
8710 2 13.4518 5.0811 86.5636
8711 2 15.0148 4.87139 86.9872
8712 1 7.76197 20.4742 27.8552
8713 2 6.81411 20.2295 28.0594
8714 2 7.77786 21.2091 27.1772
8715 1 14.4979 16.6445 82.1437
8716 2 13.5431 16.491 81.8891
8717 2 15.0822 16.5085 81.3437
8718 1 5.303 21.5427 87.3769
8719 2 5.58751 20.6299 87.0838
8720 2 4.38403 21.7324 87.0312
8721 1 77.0375 22.5756 57.3026
8722 2 77.383 23.499 57.4695
8723 2 76.5465 22.2521 58.1115
8724 1 77.1984 12.078 58.6715
8725 2 77.0739 11.417 57.9316
8726 2 76.3767 12.6415 58.7569
8727 1 35.0542 18.4478 49.7151
8728 2 35.6629 19.0935 49.2539
8729 2 35.336 17.5127 49.5005
8730 1 29.1386 15.3904 43.5596
8731 2 29.7625 16.136 43.7938
8732 2 29.6656 14.5622 43.3688
8733 1 70.2425 16.0083 18.379
8734 2 69.7482 16.0353 19.2478
8735 2 70.3266 15.0601 18.0726
8736 1 2.26353 26.1343 67.4381
8737 2 1.4021 26.6335 67.5316
8738 2 2.6664 26.3295 66.5438
8739 1 1.56238 6.05463 66.9816
8740 2 1.81988 5.09357 67.0819
8741 2 0.85102 6.28031 67.6472
8742 1 48.427 3.79434 28.7148
8743 2 48.8397 2.88464 28.7616
8744 2 49.1478 4.48755 28.7129
8745 1 13.5518 26.0126 15.3256
8746 2 13.2941 25.5691 16.1841
8747 2 14.4007 25.6095 14.9839
8748 1 43.7963 24.9353 46.0178
8749 2 44.0728 24.6192 45.1102
8750 2 42.8243 24.7448 46.1553
8751 1 18.281 18.108 77.0614
8752 2 19.0322 18.3137 77.6886
8753 2 17.4997 17.7603 77.5797
8754 1 11.1405 21.7922 82.1514
8755 2 11.6635 22.6405 82.2332
8756 2 10.9601 21.6035 81.186
8757 1 30.5961 21.1473 83.4151
8758 2 30.8351 21.0979 84.3848
8759 2 31.2437 20.601 82.8839
8760 1 68.2129 13.0136 69.9416
8761 2 68.9135 12.5175 70.4546
8762 2 67.3125 12.8133 70.3278
8763 1 54.6177 1.3027 72.0861
8764 2 55.232 0.72031 72.6186
8765 2 53.8953 0.742513 71.6809
8766 1 61.5848 27.1964 47.5392
8767 2 61.4148 28.1126 47.902
8768 2 62.3783 26.7978 47.999
8769 1 18.9787 24.3035 72.6064
8770 2 18.4181 23.8081 73.27
8771 2 19.946 24.1717 72.8227
8772 1 61.3428 1.67696 64.1038
8773 2 62.1386 1.17098 64.4364
8774 2 60.5077 1.25151 64.4527
8775 1 32.4629 10.1231 37.3376
8776 2 33.3841 10.1447 36.9492
8777 2 31.7994 9.94127 36.6119
8778 1 6.66615 1.45623 60.0663
8779 2 7.01786 2.38231 60.203
8780 2 5.73397 1.39762 60.4235
8781 1 46.9495 18.3826 86.0134
8782 2 47.8096 18.6077 86.4712
8783 2 46.1851 18.5647 86.6318
8784 1 53.0775 25.505 66.2224
8785 2 53.4044 26.4053 65.9349
8786 2 52.2713 25.2562 65.6856
8787 1 40.8967 10.5248 36.7026
8788 2 41.3133 10.7897 37.5722
8789 2 39.9703 10.1856 36.8664
8790 1 14.8687 25.3769 24.1552
8791 2 14.89 26.0949 24.8509
8792 2 14.2308 24.6597 24.4359
8793 1 6.86439 17.3355 26.8043
8794 2 6.80207 16.3937 26.4739
8795 2 6.65966 17.3597 27.7828
8796 1 66.413 19.395 44.874
8797 2 66.9451 19.2889 44.0339
8798 2 65.8131 20.1906 44.7904
8799 1 17.1024 5.13201 42.1528
8800 2 17.8538 4.9963 42.7985
8801 2 16.441 5.7737 42.5411
8802 1 25.3263 12.6038 54.0534
8803 2 24.7077 11.8194 54.0973
8804 2 25.5254 12.9236 54.9797
8805 1 48.3828 15.3561 36.7847
8806 2 49.3807 15.4076 36.7462
8807 2 48.0084 16.2674 36.9562
8808 1 74.125 12.8183 12.2529
8809 2 73.2279 12.3795 12.2024
8810 2 74.6625 12.395 12.9823
8811 1 35.5996 24.8832 32.4203
8812 2 34.7499 24.7627 31.9069
8813 2 36.2068 25.5004 31.9199
8814 1 9.21021 24.1954 18.6951
8815 2 9.91531 23.5815 18.3402
8816 2 8.50877 24.3366 17.9965
8817 1 79.2761 22.9335 84.1371
8818 2 79.4803 22.8095 83.1661
8819 2 78.7083 23.7479 84.2569
8820 1 13.9529 6.19487 63.3587
8821 2 14.7429 6.36206 63.9486
8822 2 13.15 6.65399 63.7387
8823 1 8.30484 10.4643 61.5479
8824 2 8.87265 11.2697 61.7181
8825 2 7.44403 10.5514 62.0493
8826 1 48.4182 9.68688 68.6382
8827 2 47.796 9.19476 68.0294
8828 2 49.1275 10.1378 68.0962
8829 1 10.0758 16.7935 30.4667
8830 2 9.76704 16.7502 29.5166
8831 2 10.7462 17.5287 30.5662
8832 1 6.78255 28.6699 21.5674
8833 2 6.14494 27.9191 21.7397
8834 2 6.29602 29.4269 21.1313
8835 1 79.7914 22.5493 56.8955
8836 2 78.8345 22.6332 56.6174
8837 2 0.240419 23.4394 56.8178
8838 1 59.4184 12.4372 55.0293
8839 2 58.8862 12.6069 54.1998
8840 2 59.0516 12.9878 55.7791
8841 1 79.8857 19.8449 63.9876
8842 2 79.6056 18.8898 63.8902
8843 2 79.0883 20.4047 64.2129
8844 1 62.9737 22.5995 16.3397
8845 2 63.1461 21.8888 17.0217
8846 2 62.773 23.4634 16.8018
8847 1 6.99514 17.1619 76.8202
8848 2 6.19944 17.7658 76.7731
8849 2 7.26629 16.8951 75.8954
8850 1 53.5522 28.1822 63.3353
8851 2 53.1284 28.9084 63.8767
8852 2 53.5859 28.4588 62.3749
8853 1 14.5337 17.4051 58.0977
8854 2 14.0097 17.5778 58.9317
8855 2 15.4914 17.2405 58.3339
8856 1 19.8309 3.75141 85.8375
8857 2 19.6339 4.04385 86.7733
8858 2 19.9109 2.75502 85.8096
8859 1 47.2215 24.2966 88.541
8860 2 48.1001 23.8303 88.4383
8861 2 46.6672 24.1473 87.7222
8862 1 54.8033 19.1501 70.6311
8863 2 55.6474 18.7263 70.9594
8864 2 54.1716 18.4391 70.3221
8865 1 74.428 1.62553 85.4377
8866 2 74.4324 0.840175 84.8186
8867 2 73.6729 1.53389 86.0869
8868 1 14.8099 22.1889 54.1145
8869 2 13.9597 22.0117 54.6104
8870 2 14.8617 21.5883 53.3166
8871 1 67.7861 4.09176 80.3613
8872 2 68.5795 4.63336 80.6391
8873 2 67.9889 3.11949 80.4776
8874 1 65.466 24.4649 11.6273
8875 2 65.6903 23.4997 11.762
8876 2 65.284 24.6327 10.6584
8877 1 62.035 4.59019 54.4133
8878 2 62.6594 4.52488 55.1918
8879 2 62.0353 5.52702 54.0635
8880 1 11.7378 24.2704 71.3408
8881 2 10.7443 24.3636 71.4067
8882 2 12.1718 24.8109 72.0616
8883 1 13.4416 15.9903 64.2805
8884 2 13.4453 16.8937 64.7092
8885 2 12.5492 15.8241 63.8609
8886 1 7.64177 4.17411 64.3385
8887 2 6.88647 3.53379 64.1988
8888 2 8.30296 4.07706 63.5946
8889 1 66.8454 0.901256 47.6236
8890 2 67.6463 1.26328 47.1465
8891 2 66.4077 1.6345 48.1439
8892 1 60.0188 22.8426 66.071
8893 2 59.4332 23.0425 65.2855
8894 2 59.6461 23.2864 66.886
8895 1 60.4414 7.54301 21.4963
8896 2 61.1556 6.96375 21.1034
8897 2 60.4058 7.40336 22.4859
8898 1 40.1668 14.5978 61.2772
8899 2 40.234 14.9709 62.2026
8900 2 41.0712 14.5996 60.8506
8901 1 38.2129 22.9779 26.5389
8902 2 37.6312 23.4594 25.8833
8903 2 37.6702 22.294 27.0265
8904 1 26.5924 8.08124 61.045
8905 2 27.2981 7.41946 60.7921
8906 2 26.1901 8.47222 60.2171
8907 1 37.8886 23.7302 84.3827
8908 2 38.1395 23.7847 85.3492
8909 2 37.3647 24.543 84.128
8910 1 22.0954 19.6701 73.6923
8911 2 21.57 19.5261 74.5308
8912 2 22.927 19.1155 73.7206
8913 1 70.9367 10.9187 90.4015
8914 2 70.5373 11.81 90.6161
8915 2 71.9186 11.0226 90.2436
8916 1 47.7404 11.8284 66.549
8917 2 47.6154 11.024 67.1298
8918 2 48.1608 12.5625 67.0823
8919 1 60.7403 11.1991 88.8313
8920 2 60.7663 10.3729 89.3942
8921 2 61.356 11.8855 89.2182
8922 1 50.0158 18.7822 67.0897
8923 2 50.6069 18.0236 67.3639
8924 2 49.067 18.4686 67.0515
8925 1 8.54817 13.6364 80.7926
8926 2 9.52603 13.8415 80.8345
8927 2 8.36137 13.0651 79.9933
8928 1 32.1771 26.7687 56.124
8929 2 31.2232 26.8208 55.8284
8930 2 32.6775 27.5618 55.7767
8931 1 9.13634 3.59434 68.1107
8932 2 9.22873 3.57866 69.1063
8933 2 8.1762 3.73154 67.8672
8934 1 9.36532 20.3114 79.7507
8935 2 8.3837 20.2188 79.9176
8936 2 9.51261 20.7828 78.8812
8937 1 6.95795 12.4761 71.5434
8938 2 6.78213 11.4919 71.5212
8939 2 6.27726 12.9233 72.1237
8940 1 17.0871 24.6753 67.8548
8941 2 17.9799 25.0295 68.133
8942 2 16.4321 24.8 68.6
8943 1 78.1306 6.20961 65.7711
8944 2 78.8692 6.42335 65.1318
8945 2 78.34 6.60343 66.6661
8946 1 29.0269 6.39901 82.2961
8947 2 28.4692 7.224 82.3876
8948 2 28.9152 5.82924 83.1103
8949 1 5.47988 11.2156 12.7732
8950 2 5.06444 11.9719 13.2787
8951 2 5.80178 10.5214 13.417
8952 1 14.9875 25.2295 53.3538
8953 2 14.4141 24.5856 53.8604
8954 2 15.2767 25.9684 53.9624
8955 1 52.4527 2.52412 40.1472
8956 2 52.6628 2.87194 41.0609
8957 2 52.0402 3.25241 39.6
8958 1 59.193 19.0163 47.1066
8959 2 59.7137 18.1708 47.2249
8960 2 58.2166 18.8038 47.0677
8961 1 38.1379 7.65753 37.7837
8962 2 37.4489 7.38402 38.4548
8963 2 39.018 7.78294 38.2416
8964 1 3.8053 6.32797 77.3
8965 2 3.37991 5.42456 77.3539
8966 2 4.79501 6.22497 77.2007
8967 1 71.6219 28.0806 60.1121
8968 2 71.2699 28.797 60.7144
8969 2 72.5969 28.2316 59.9489
8970 1 38.0125 13.9222 64.748
8971 2 37.678 14.02 65.6852
8972 2 38.7132 14.6132 64.5703
8973 1 51.7308 19.8438 41.5794
8974 2 52.4678 19.273 41.2173
8975 2 52.122 20.6009 42.1027
8976 1 45.8985 29.7579 88.6756
8977 2 45.8238 0.526932 89.3104
8978 2 46.6631 29.1738 88.9482
8979 1 76.1599 17.7039 79.9312
8980 2 76.726 17.2553 79.2397
8981 2 75.8886 17.0361 80.6243
8982 1 36.4422 4.74584 77.3225
8983 2 36.5149 3.8391 77.7379
8984 2 37.336 5.19389 77.3416
8985 1 50.3502 23.0369 74.3272
8986 2 50.4402 23.9833 74.6374
8987 2 50.768 22.4249 74.9987
8988 1 52.2747 9.43277 29.4419
8989 2 52.5627 8.94284 28.6191
8990 2 51.2948 9.29487 29.5862
8991 1 18.8928 8.36292 18.686
8992 2 19.3539 9.19359 18.3739
8993 2 17.9648 8.33718 18.3143
8994 1 12.109 5.86496 34.724
8995 2 12.4959 6.72934 34.4029
8996 2 12.6216 5.5459 35.5211
8997 1 26.6615 21.7894 37.1339
8998 2 27.0751 22.6714 36.9083
8999 2 26.6459 21.2103 36.3187
9000 1 2.84125 26.6633 18.5772
9001 2 2.21989 26.7289 19.3579
9002 2 2.32267 26.7688 17.7287
9003 1 30.1823 17.7517 55.8181
9004 2 31.0361 17.4838 55.3718
9005 2 30.3212 17.7905 56.8076
9006 1 60.0357 12.053 28.1642
9007 2 59.7468 11.4415 28.9008
9008 2 60.5558 12.8157 28.5488
9009 1 67.005 24.9258 62.6456
9010 2 66.6972 24.8362 63.5928
9011 2 67.0344 24.0224 62.2178
9012 1 54.1828 19.2598 51.0364
9013 2 53.8948 18.9684 51.9486
9014 2 53.544 19.9461 50.6886
9015 1 60.1777 22.0112 45.6673
9016 2 59.3734 21.8885 45.0859
9017 2 59.9699 21.6982 46.5941
9018 1 57.6254 13.6848 78.282
9019 2 58.2024 12.9616 78.6614
9020 2 56.6639 13.466 78.4484
9021 1 71.3925 10.0774 86.8407
9022 2 70.7573 10.699 86.3821
9023 2 71.4234 10.2929 87.8167
9024 1 22.0821 22.5096 59.1125
9025 2 22.9806 22.3352 59.5151
9026 2 21.9373 21.8914 58.3399
9027 1 19.2794 19.5346 66.6812
9028 2 19.6127 20.0659 67.4601
9029 2 18.2799 19.5083 66.6988
9030 1 45.1925 16.0641 36.9538
9031 2 45.9829 16.355 36.4147
9032 2 45.3743 16.2232 37.9242
9033 1 11.9385 8.58631 61.0868
9034 2 12.9007 8.32287 61.0167
9035 2 11.8626 9.43478 61.6105
9036 1 35.5732 29.1052 76.1498
9037 2 35.8743 28.1723 76.3477
9038 2 34.5938 29.1034 75.9475
9039 1 32.3228 17.9479 39.16
9040 2 33.1331 18.1963 39.6907
9041 2 31.9154 17.1185 39.5421
9042 1 12.4194 4.81408 69.2829
9043 2 12.7366 4.55744 70.1959
9044 2 12.8379 5.68236 69.0165
9045 1 2.26723 15.7429 58.027
9046 2 1.81348 16.602 58.2638
9047 2 1.6602 14.9764 58.2369
9048 1 70.7757 24.329 21.7445
9049 2 71.7717 24.3864 21.6753
9050 2 70.4673 24.8408 22.5464
9051 1 32.1076 18.5774 42.1162
9052 2 31.6157 19.3796 42.4546
9053 2 32.7917 18.2973 42.7897
9054 1 13.0449 21.5035 90.6469
9055 2 13.8859 21.1279 90.2574
9056 2 12.3125 20.8265 90.5741
9057 1 31.5765 13.3479 63.1758
9058 2 30.8489 13.3686 63.8615
9059 2 31.7798 14.2804 62.8773
9060 1 16.174 8.70506 41.9189
9061 2 16.0309 7.71606 41.9561
9062 2 15.2919 9.1661 41.8226
9063 1 23.2587 25.4455 37.3003
9064 2 23.6333 26.2653 36.8671
9065 2 23.7615 25.2548 38.1434
9066 1 19.0213 8.05288 34.3341
9067 2 18.9242 7.11952 33.9885
9068 2 18.8905 8.05655 35.3255
9069 1 6.2188 21.1981 45.8928
9070 2 5.46896 20.6151 45.5799
9071 2 7.05227 20.6521 45.9779
9072 1 9.95045 0.520438 40.9345
9073 2 9.11155 0.11726 41.3002
9074 2 10.3854 29.8738 40.3079
9075 1 13.658 25.0532 42.146
9076 2 14.543 25.4228 41.8631
9077 2 13.5477 25.1708 43.1329
9078 1 78.585 18.4893 90.8995
9079 2 77.928 19.2057 90.6647
9080 2 79.3158 18.8781 91.4606
9081 1 31.9816 28.1993 36.6489
9082 2 32.3603 28.0033 37.5534
9083 2 32.7205 28.459 36.0272
9084 1 7.28014 8.97413 90.3576
9085 2 6.60996 9.42677 89.7694
9086 2 7.81984 8.33096 89.8144
9087 1 13.5878 4.43361 19.3905
9088 2 13.2289 5.33999 19.6133
9089 2 13.9134 3.98953 20.2252
9090 1 0.276579 21.0646 73.4229
9091 2 79.9493 21.4443 72.5576
9092 2 0.280652 21.7808 74.1208
9093 1 48.8141 4.33882 31.9785
9094 2 48.7728 3.80428 32.8227
9095 2 48.4675 3.78901 31.2185
9096 1 15.4273 12.4207 84.3547
9097 2 14.786 12.5239 83.5945
9098 2 15.2658 11.5454 84.8106
9099 1 50.3303 21.4989 71.3476
9100 2 49.4533 21.355 71.8059
9101 2 50.614 20.6523 70.8973
9102 1 34.9667 0.625195 88.6426
9103 2 35.7044 1.27664 88.4657
9104 2 34.4562 0.911773 89.4533
9105 1 77.8355 25.4343 51.9882
9106 2 76.9111 25.8137 52.0275
9107 2 78.0568 25.0042 52.8634
9108 1 58.4274 1.98056 89.3945
9109 2 59.0011 1.87463 88.5823
9110 2 58.9505 2.43567 90.115
9111 1 61.5214 5.23595 16.9143
9112 2 61.5334 5.5491 15.9647
9113 2 62.0701 4.40411 16.9979
9114 1 78.0311 6.06217 48.4405
9115 2 77.7828 5.23278 48.9409
9116 2 79.0198 6.20183 48.4965
9117 1 30.4978 25.8545 73.8262
9118 2 29.7025 26.4607 73.8348
9119 2 31.2358 26.2652 74.3617
9120 1 65.6322 6.50141 48.4198
9121 2 65.6632 5.976 49.2701
9122 2 65.299 7.4248 48.6105
9123 1 7.69787 3.73632 15.4096
9124 2 8.69205 3.63459 15.4451
9125 2 7.43931 4.62111 15.7973
9126 1 68.1144 6.10893 61.6818
9127 2 68.2036 5.93972 60.7003
9128 2 68.9571 6.52214 62.0269
9129 1 67.4412 17.6713 34.7787
9130 2 66.8563 16.9211 35.0869
9131 2 67.6572 18.2656 35.5534
9132 1 46.082 14.4025 64.544
9133 2 45.7064 14.3643 65.47
9134 2 47.0097 14.7744 64.5757
9135 1 11.9151 26.0358 30.8397
9136 2 12.3432 25.3021 31.3673
9137 2 12.2792 26.0328 29.9083
9138 1 5.42188 25.6593 59.0269
9139 2 6.35696 25.3139 58.9471
9140 2 4.85722 25.2629 58.303
9141 1 72.0721 0.889615 50.5258
9142 2 72.3146 1.84419 50.6988
9143 2 72.5307 0.574577 49.6948
9144 1 42.1035 10.9345 67.1069
9145 2 42.5795 11.7967 67.2802
9146 2 41.7708 10.9212 66.1639
9147 1 40.6943 29.1206 76.7005
9148 2 41.4063 29.2193 77.3956
9149 2 40.0499 28.4096 76.982
9150 1 1.58098 7.72641 63.01
9151 2 1.08126 7.02909 62.4961
9152 2 1.78233 8.50146 62.411
9153 1 37.4546 23.517 47.3014
9154 2 37.8439 22.7512 47.8133
9155 2 37.4153 23.2828 46.33
9156 1 75.5857 12.7716 55.3315
9157 2 74.6552 12.42 55.4338
9158 2 76.2197 12.19 55.8411
9159 1 48.1274 16.0262 64.5393
9160 2 47.991 16.421 63.6307
9161 2 49.0065 16.3302 64.9063
9162 1 19.6333 5.18337 60.8582
9163 2 19.7852 5.24923 59.872
9164 2 20.4507 5.49473 61.3428
9165 1 4.29904 16.7554 77.8402
9166 2 3.35336 16.5205 77.6155
9167 2 4.69236 16.0393 78.4168
9168 1 35.6703 2.5327 63.4973
9169 2 34.9247 1.94091 63.1909
9170 2 35.5339 2.76982 64.4591
9171 1 55.2078 0.132115 41.3626
9172 2 54.2563 29.9096 41.1502
9173 2 55.8065 29.733 40.6681
9174 1 34.9652 22.6649 85.6252
9175 2 35.7101 22.0065 85.7336
9176 2 35.3038 23.5859 85.818
9177 1 76.4533 28.188 55.2519
9178 2 75.6087 28.5681 55.629
9179 2 76.6658 27.3263 55.7126
9180 1 57.0186 14.4608 50.5785
9181 2 56.5981 15.2924 50.9413
9182 2 57.7912 14.7062 49.9929
9183 1 65.0805 27.986 66.5596
9184 2 65.1963 28.7055 65.8749
9185 2 64.3329 28.2305 67.177
9186 1 45.3237 2.7915 90.6256
9187 2 45.6662 3.68093 90.9283
9188 2 44.3261 2.77754 90.6942
9189 1 25.3421 27.5243 67.5706
9190 2 25.7449 28.3547 67.1856
9191 2 25.7094 27.37 68.4879
9192 1 59.5373 8.08976 34.0359
9193 2 58.5957 8.27068 33.7518
9194 2 59.7248 8.5693 34.8932
9195 1 67.3712 20.9852 50.8727
9196 2 67.1165 21.9395 51.0289
9197 2 68.3202 20.8431 51.1542
9198 1 58.8804 8.25046 74.4503
9199 2 58.582 7.3849 74.0481
9200 2 59.4896 8.06704 75.2218
9201 1 77.45 26.9447 68.6941
9202 2 76.8037 26.6329 67.9976
9203 2 78.3541 27.0592 68.2825
9204 1 72.2447 7.01327 14.8497
9205 2 72.0274 6.77353 13.9035
9206 2 72.4 6.17842 15.3778
9207 1 73.7554 5.15878 85.8169
9208 2 74.345 5.36183 86.5986
9209 2 73.0088 5.82307 85.7811
9210 1 36.2521 27.118 92.3744
9211 2 37.1502 26.6912 92.2684
9212 2 36.2247 27.6277 93.2343
9213 1 20.7431 0.571243 74.8502
9214 2 21.0901 0.602534 73.9129
9215 2 20.4784 1.49146 75.1385
9216 1 13.6863 5.30018 71.7982
9217 2 14.6308 5.11743 72.0712
9218 2 13.5238 6.28688 71.8
9219 1 13.5586 26.4996 10.9589
9220 2 14.4706 26.3317 11.3331
9221 2 13.5613 26.3111 9.97687
9222 1 16.2735 8.07897 30.3674
9223 2 17.1447 8.56814 30.4076
9224 2 16.3393 7.33496 29.7025
9225 1 54.484 13.0166 26.9344
9226 2 54.2903 12.4721 27.7505
9227 2 53.6343 13.179 26.4327
9228 1 69.4678 19.247 19.1911
9229 2 68.744 19.3082 19.8783
9230 2 70.2856 19.7154 19.5257
9231 1 48.1073 25.4403 83.7316
9232 2 49.0195 25.8155 83.8967
9233 2 48.1029 24.4652 83.9534
9234 1 66.4403 24.5855 46.4552
9235 2 66.3683 24.5138 45.4604
9236 2 65.8527 23.8983 46.8824
9237 1 69.2498 5.66914 71.1892
9238 2 69.6928 6.56227 71.2674
9239 2 69.7259 5.00898 71.7702
9240 1 9.98938 21.7569 24.6451
9241 2 10.656 22.3565 25.0881
9242 2 10.2843 21.5647 23.7091
9243 1 35.6999 22.628 33.9193
9244 2 35.7146 23.5212 33.4699
9245 2 36.5504 22.1409 33.7208
9246 1 7.67879 25.2533 44.2439
9247 2 8.14073 26.1383 44.3013
9248 2 7.75573 24.8969 43.3127
9249 1 52.0906 12.9234 33.7095
9250 2 52.4234 12.3452 32.9646
9251 2 52.273 13.8827 33.4939
9252 1 71.0895 1.8239 54.4843
9253 2 71.9119 2.32638 54.7513
9254 2 71.286 0.843436 54.4759
9255 1 61.9722 20.4976 14.5377
9256 2 62.0627 20.8166 15.4812
9257 2 61.1218 20.8497 14.1469
9258 1 70.236 24.7516 45.7537
9259 2 69.448 25.3563 45.8694
9260 2 69.956 23.805 45.9131
9261 1 42.6381 1.33167 54.1697
9262 2 43.3499 0.647069 54.0131
9263 2 42.3727 1.74223 53.2973
9264 1 59.8258 15.1888 22.9281
9265 2 60.1372 16.0694 22.5711
9266 2 59.2882 14.7171 22.2292
9267 1 71.9886 16.1238 27.593
9268 2 72.6246 16.6827 27.0608
9269 2 71.6883 16.6356 28.3979
9270 1 30.8554 24.0905 78.3891
9271 2 31.1565 24.3165 79.3155
9272 2 30.1905 24.7702 78.0796
9273 1 28.4828 17.2296 34.7926
9274 2 28.4523 17.0651 33.8067
9275 2 29.333 16.8588 35.1663
9276 1 53.9511 29.6149 46.655
9277 2 53.1574 29.2262 46.1871
9278 2 53.6472 0.314878 47.3013
9279 1 14.179 22.8997 79.8527
9280 2 13.3375 23.4187 79.7025
9281 2 13.9981 22.1475 80.4862
9282 1 60.4979 4.20233 58.7791
9283 2 61.3467 4.50938 59.2095
9284 2 60.196 4.88466 58.1133
9285 1 3.72058 0.788871 56.3718
9286 2 3.49622 1.71757 56.0765
9287 2 2.87661 0.275746 56.528
9288 1 18.6839 15.9982 38.8274
9289 2 18.0159 16.2117 39.5403
9290 2 19.4912 16.577 38.943
9291 1 24.8754 4.81143 51.9945
9292 2 24.0055 5.11705 52.3816
9293 2 25.2878 5.55725 51.4714
9294 1 75.2453 6.72809 41.5711
9295 2 75.1458 5.76563 41.3186
9296 2 75.1767 6.82088 42.5644
9297 1 6.76588 0.030333 76.4514
9298 2 6.50221 29.1623 76.8721
9299 2 7.71613 0.238141 76.6834
9300 1 41.2389 22.7983 57.3672
9301 2 41.7554 22.2677 58.0393
9302 2 40.7739 23.5553 57.8262
9303 1 73.2375 17.4543 67.8472
9304 2 74.2192 17.2718 67.9004
9305 2 73.054 18.0698 67.0807
9306 1 35.6805 6.97621 30.149
9307 2 36.4716 7.4324 30.5564
9308 2 35.6052 6.04885 30.5155
9309 1 21.0807 19.4572 30.2863
9310 2 21.0726 19.4053 31.285
9311 2 21.9698 19.7946 29.9772
9312 1 32.5907 10.3414 60.2231
9313 2 33.5211 10.2273 59.8747
9314 2 32.0245 10.7789 59.5244
9315 1 20.779 17.0149 39.8999
9316 2 21.6792 17.3852 40.1293
9317 2 20.1922 17.0398 40.7092
9318 1 66.0156 1.7962 82.9864
9319 2 66.5831 2.60634 83.1334
9320 2 66.0485 1.21427 83.799
9321 1 56.8807 9.73435 26.3038
9322 2 56.9299 10.6719 25.9595
9323 2 56.9791 9.73907 27.2989
9324 1 17.5565 22.5212 77.6923
9325 2 17.7138 23.2316 77.0063
9326 2 18.4298 22.1078 77.9503
9327 1 65.5662 15.9346 73.0514
9328 2 64.6178 16.2331 73.1588
9329 2 66.1776 16.6154 73.4546
9330 1 33.4251 3.04937 60.5851
9331 2 33.2575 3.7621 61.2662
9332 2 32.5538 2.74363 60.2012
9333 1 73.5833 27.6814 48.6624
9334 2 73.9497 27.7954 49.5859
9335 2 72.706 28.156 48.591
9336 1 70.012 3.37627 52.4129
9337 2 70.0653 4.37389 52.4568
9338 2 69.9108 3.00696 53.3367
9339 1 60.4889 3.41519 23.0584
9340 2 61.3727 2.96521 23.1865
9341 2 59.7533 2.75788 23.2223
9342 1 7.85905 7.72436 67.9261
9343 2 7.12132 7.30654 68.4564
9344 2 8.74133 7.44709 68.3065
9345 1 67.2283 13.855 18.2982
9346 2 66.707 13.5595 17.4975
9347 2 66.5995 14.1869 19.0014
9348 1 53.0988 20.7604 36.9968
9349 2 52.2674 20.8733 36.4526
9350 2 53.7027 20.1006 36.5498
9351 1 8.14821 13.5512 77.5164
9352 2 7.30442 13.8427 77.0658
9353 2 8.0521 13.6591 78.5059
9354 1 23.9459 6.22916 21.9355
9355 2 24.0025 5.24039 21.7971
9356 2 23.5007 6.6513 21.1458
9357 1 11.7177 17.8681 37.0228
9358 2 12.7055 17.8372 36.87
9359 2 11.2679 18.2555 36.2181
9360 1 73.0257 6.13266 32.6652
9361 2 72.1196 6.45065 32.3861
9362 2 73.0696 6.08551 33.6631
9363 1 15.361 8.78945 35.6056
9364 2 16.1121 8.94008 34.9628
9365 2 14.8572 7.96662 35.3426
9366 1 17.3268 18.6628 28.5562
9367 2 16.8914 17.8251 28.2265
9368 2 16.7188 19.4402 28.3947
9369 1 7.20344 29.9027 73.4915
9370 2 7.12151 0.493282 74.2943
9371 2 8.16921 29.7134 73.3142
9372 1 70.5528 1.52431 85.3352
9373 2 71.2299 1.26528 86.0241
9374 2 69.9859 2.26845 85.6885
9375 1 20.2909 16.7277 36.289
9376 2 20.4557 16.0744 35.55
9377 2 21.163 16.9924 36.7004
9378 1 40.549 0.453958 49.766
9379 2 40.8086 1.08829 49.0378
9380 2 40.6701 0.898018 50.6537
9381 1 29.1531 16.7448 53.3719
9382 2 28.3149 17.2641 53.2056
9383 2 29.2393 16.5554 54.35
9384 1 79.2203 16.3404 29.6887
9385 2 78.6841 17.1674 29.8575
9386 2 0.190284 16.5371 29.8319
9387 1 72.4977 25.8965 54.6825
9388 2 72.8771 25.698 53.7789
9389 2 72.173 25.0484 55.1013
9390 1 59.3833 9.9383 24.5837
9391 2 58.4275 9.90942 24.8763
9392 2 59.7214 9.00576 24.457
9393 1 52.4415 14.3201 50.7107
9394 2 51.9468 15.0701 50.2716
9395 2 53.2666 14.1123 50.1852
9396 1 2.57154 26.8839 26.981
9397 2 3.50921 27.2106 26.8626
9398 2 2.18051 27.2862 27.8088
9399 1 72.2144 3.53171 10.9039
9400 2 72.0764 3.40266 9.92195
9401 2 72.5064 2.66848 11.3158
9402 1 40.148 8.6426 34.0085
9403 2 40.7557 7.92847 34.3559
9404 2 40.2723 9.47664 34.546
9405 1 48.6222 7.96312 85.9413
9406 2 48.3615 8.55948 86.7005
9407 2 48.1948 7.06682 86.0596
9408 1 25.2868 8.6508 72.173
9409 2 24.9868 7.71752 72.3703
9410 2 25.0708 8.8766 71.2231
9411 1 28.3591 13.9784 74.0193
9412 2 28.1634 13.5086 74.8801
9413 2 27.826 14.8231 73.9719
9414 1 73.3305 4.5924 39.5897
9415 2 73.4226 4.22 40.5132
9416 2 72.3918 4.90751 39.4495
9417 1 21.9106 13.9795 50.1634
9418 2 22.5762 14.0139 50.9089
9419 2 21.188 14.6502 50.3305
9420 1 60.103 29.6959 16.6942
9421 2 60.4488 0.369349 17.3475
9422 2 60.5071 28.8026 16.8909
9423 1 74.1361 12.7905 18.433
9424 2 73.6943 13.0006 19.3051
9425 2 73.8658 11.8752 18.1343
9426 1 70.2595 25.3083 18.3486
9427 2 70.2986 25.7456 17.4502
9428 2 71.041 24.6933 18.4542
9429 1 50.2928 19.0523 86.3123
9430 2 50.2231 20.0119 86.585
9431 2 51.2218 18.724 86.4827
9432 1 6.75885 14.3119 26.741
9433 2 7.14623 13.6846 26.0654
9434 2 5.78594 14.1139 26.8603
9435 1 13.7189 21.277 87.4433
9436 2 14.4185 21.1539 86.7394
9437 2 13.1383 20.4637 87.482
9438 1 20.3584 17.2518 31.802
9439 2 20.8329 17.6938 31.0408
9440 2 21.0293 16.9162 32.4632
9441 1 75.1896 13.9633 52.7821
9442 2 75.8398 13.8428 53.5322
9443 2 74.2737 13.7066 53.0905
9444 1 71.5433 28.1031 56.4131
9445 2 71.1386 29.017 56.3815
9446 2 72.3393 28.0699 55.8088
9447 1 2.03897 11.1896 59.1306
9448 2 1.68021 12.0877 59.385
9449 2 1.30492 10.6371 58.7358
9450 1 33.9238 7.58564 39.416
9451 2 33.526 6.9517 40.0792
9452 2 34.9156 7.61831 39.5397
9453 1 60.3795 18.3742 25.7246
9454 2 59.9921 17.6412 25.1654
9455 2 61.3615 18.4436 25.5493
9456 1 64.7957 25.2047 14.974
9457 2 64.1677 24.4484 15.1571
9458 2 65.5822 25.1411 15.5883
9459 1 21.491 21.1249 17.0348
9460 2 21.2523 21.7234 16.27
9461 2 21.7425 20.2222 16.6857
9462 1 0.0965595 11.9897 31.5206
9463 2 79.4919 12.6854 31.1327
9464 2 0.739265 11.6787 30.8205
9465 1 63.3407 11.1334 34.5797
9466 2 62.6385 10.7805 33.9614
9467 2 63.2357 10.7102 35.4796
9468 1 40.9994 22.2643 33.5512
9469 2 41.1581 23.2509 33.515
9470 2 40.1096 22.0849 33.9709
9471 1 75.204 20.2517 29.7931
9472 2 75.4246 19.3232 29.4944
9473 2 76.0151 20.8305 29.7085
9474 1 58.9023 17.0564 81.8753
9475 2 58.1262 16.5881 82.2977
9476 2 59.436 17.5212 82.5818
9477 1 53.7348 6.79304 79.7444
9478 2 54.3005 7.58866 79.5275
9479 2 53.4126 6.86067 80.6887
9480 1 34.467 25.5589 40.8471
9481 2 34.2868 26.446 41.2722
9482 2 35.3676 25.5743 40.4127
9483 1 43.5727 12.1624 46.8013
9484 2 43.0693 11.7692 46.0319
9485 2 42.971 12.2219 47.5978
9486 1 57.338 7.96392 82.4287
9487 2 57.1927 6.97531 82.468
9488 2 56.7511 8.41405 83.1017
9489 1 65.0188 22.2377 55.7268
9490 2 64.3905 22.8917 56.1482
9491 2 65.6412 21.878 56.422
9492 1 12.3187 13.6205 67.345
9493 2 12.102 13.1636 66.4823
9494 2 13.182 13.2648 67.7029
9495 1 46.8506 9.98883 29.8414
9496 2 46.0608 9.37588 29.8215
9497 2 46.6201 10.8129 30.3589
9498 1 63.2799 20.162 54.8238
9499 2 63.5043 19.6869 55.6746
9500 2 63.5711 21.1165 54.8882
9501 1 30.0444 26.5758 70.6971
9502 2 30.8339 26.4195 71.2906
9503 2 29.9654 25.824 70.0425
9504 1 7.63601 26.6884 18.9181
9505 2 7.93882 26.5001 17.9839
9506 2 8.35265 27.186 19.4069
9507 1 24.5856 0.110501 23.1042
9508 2 24.9829 29.2938 22.6857
9509 2 25.3081 0.645689 23.542
9510 1 78.3738 12.3568 40.0707
9511 2 78.8131 12.9253 40.7662
9512 2 77.5474 11.9425 40.452
9513 1 74.2962 12.717 49.1435
9514 2 73.9048 12.051 49.7785
9515 2 74.8716 13.3605 49.6482
9516 1 78.9388 28.7459 46.4005
9517 2 78.4326 29.6061 46.4633
9518 2 78.6118 28.2234 45.6131
9519 1 38.2805 28.8352 35.4944
9520 2 37.6437 28.1391 35.826
9521 2 37.8754 29.7416 35.614
9522 1 60.3595 15.4096 65.5444
9523 2 60.0372 14.7458 66.2194
9524 2 59.9923 15.1748 64.6444
9525 1 71.1493 28.7521 62.9508
9526 2 70.4551 28.2173 63.4326
9527 2 71.7287 29.2227 63.6163
9528 1 76.4684 8.18532 39.0862
9529 2 76.4514 7.29795 38.6254
9530 2 75.538 8.54666 39.148
9531 1 34.5423 13.3087 39.8484
9532 2 35.1039 12.977 39.0905
9533 2 35.0712 13.9567 40.3965
9534 1 0.940117 19.3899 58.4111
9535 2 1.88811 19.0948 58.5302
9536 2 0.808606 20.2762 58.8552
9537 1 12.3934 9.77755 42.1458
9538 2 13.2189 10.3215 42.2963
9539 2 12.5309 8.85576 42.5083
9540 1 22.0846 15.6954 45.7444
9541 2 21.8047 15.3969 46.6569
9542 2 23.0235 16.0377 45.7791
9543 1 3.71106 23.4161 42.1594
9544 2 4.26111 23.4456 41.3248
9545 2 2.9687 22.7557 42.0462
9546 1 64.3245 17.8535 32.7313
9547 2 64.9434 18.6356 32.6585
9548 2 64.0678 17.7196 33.6885
9549 1 58.0634 21.7025 70.8285
9550 2 58.5918 21.0238 71.3386
9551 2 58.6821 22.3911 70.4503
9552 1 35.6518 23.2724 42.6014
9553 2 35.6567 24.2537 42.7937
9554 2 36.2325 22.7998 43.2642
9555 1 56.9348 22.508 35.434
9556 2 56.5274 23.3459 35.0708
9557 2 56.2591 22.0219 35.9881
9558 1 52.3057 13.7328 25.4841
9559 2 52.4651 13.8712 24.5066
9560 2 51.3246 13.78 25.6718
9561 1 51.7989 28.8561 77.6485
9562 2 51.9247 29.6016 76.9939
9563 2 52.6796 28.4175 77.8274
9564 1 7.54868 8.05959 28.4745
9565 2 8.47632 8.43082 28.5153
9566 2 7.036 8.52225 27.7513
9567 1 22.3948 21.2875 80.5328
9568 2 23.0917 21.6877 81.128
9569 2 22.8106 20.5796 79.9618
9570 1 66.9132 8.75909 88.9951
9571 2 66.7569 8.3117 88.1145
9572 2 66.4494 9.64496 89.0059
9573 1 55.9853 15.7511 37.5054
9574 2 56.2251 16.4657 38.1625
9575 2 55.331 16.1142 36.842
9576 1 75.5957 29.6938 30.9324
9577 2 75.3575 0.654465 31.0754
9578 2 76.5529 29.547 31.1817
9579 1 69.7966 22.6722 16.1825
9580 2 69.4792 22.7524 17.1274
9581 2 69.6183 23.5281 15.6971
9582 1 58.4049 10.7406 57.8066
9583 2 57.5776 10.2485 58.0777
9584 2 58.3393 11.6927 58.1052
9585 1 72.1042 24.343 86.9946
9586 2 71.5059 25.0484 86.6146
9587 2 71.6699 23.4479 86.8941
9588 1 75.8255 25.9839 30.9132
9589 2 76.3837 25.3175 30.4188
9590 2 76.4162 26.6924 31.2994
9591 1 72.5612 28.6453 80.2094
9592 2 71.6476 29.0336 80.0886
9593 2 72.4978 27.8055 80.7487
9594 1 47.2025 7.8853 44.3159
9595 2 46.2812 8.09683 44.6424
9596 2 47.7998 7.70475 45.0973
9597 1 51.5291 7.73815 34.7424
9598 2 51.0044 8.53833 34.4518
9599 2 52.4658 7.81152 34.4001
9600 1 65.4803 5.32103 87.5547
9601 2 66.2599 4.79382 87.8927
9602 2 65.7873 6.23321 87.2833
9603 1 12.9538 18.6634 42.0633
9604 2 13.0096 19.271 42.8556
9605 2 13.8618 18.2973 41.8594
9606 1 56.4506 6.30926 40.4829
9607 2 56.3405 5.37247 40.815
9608 2 57.3305 6.67093 40.7911
9609 1 65.4386 27.3788 41.1511
9610 2 66.0701 28.0205 40.7158
9611 2 65.0858 26.7417 40.4658
9612 1 38.2732 6.1794 85.2292
9613 2 37.9626 5.95916 86.1538
9614 2 39.1757 6.60784 85.2739
9615 1 42.6136 11.731 84.84
9616 2 42.6687 11.2536 85.7169
9617 2 43.2867 11.3465 84.2083
9618 1 65.5905 9.93443 32.9211
9619 2 64.7708 9.84695 33.4871
9620 2 65.3284 9.96003 31.9564
9621 1 43.8697 8.30077 64.0772
9622 2 44.1386 7.71598 64.8425
9623 2 43.6811 7.73423 63.275
9624 1 76.004 7.57703 50.0965
9625 2 76.6548 6.8196 50.0437
9626 2 75.0828 7.23892 49.9043
9627 1 9.38248 11.3027 24.9081
9628 2 8.47354 11.6992 24.7793
9629 2 9.3333 10.5697 25.5865
9630 1 54.3347 10.3736 40.3775
9631 2 53.6911 11.0934 40.1171
9632 2 55.1317 10.7836 40.821
9633 1 75.424 25.9571 82.6459
9634 2 74.6689 25.3018 82.6681
9635 2 76.2592 25.5144 82.9725
9636 1 69.8354 1.29014 48.1978
9637 2 69.6791 1.80377 49.0414
9638 2 70.3629 0.465623 48.4024
9639 1 70.3772 13.566 26.5736
9640 2 71.0994 12.8754 26.5362
9641 2 70.7337 14.3985 26.9978
9642 1 70.2572 6.51724 20.5659
9643 2 70.857 7.26862 20.2908
9644 2 69.5475 6.3867 19.8735
9645 1 57.7387 3.05096 86.4002
9646 2 57.5148 2.51519 85.5861
9647 2 57.4099 3.9881 86.2833
9648 1 68.323 14.8861 33.2708
9649 2 68.8286 15.3454 32.5404
9650 2 68.9649 14.5485 33.9593
9651 1 14.7061 25.1879 21.5969
9652 2 14.5729 25.0785 22.5819
9653 2 15.6804 25.3029 21.403
9654 1 74.6823 4.13499 50.1415
9655 2 74.1263 4.0308 50.9661
9656 2 74.2936 3.58106 49.4052
9657 1 44.8275 25.5845 38.0083
9658 2 43.9122 25.4437 38.3855
9659 2 45.2813 26.3259 38.5027
9660 1 70.5091 22.7337 13.4759
9661 2 69.5463 22.54 13.2877
9662 2 71.0764 22.3346 12.7555
9663 1 71.8305 2.0286 21.4248
9664 2 71.9004 2.68289 20.6718
9665 2 72.6824 1.50971 21.4956
9666 1 1.57834 12.2179 56.4585
9667 2 1.66251 12.3904 57.4399
9668 2 1.32153 11.2631 56.3087
9669 1 76.9784 27.0454 11.5689
9670 2 76.2901 27.3609 12.2221
9671 2 77.0723 26.0522 11.6373
9672 1 63.3192 12.7843 20.0299
9673 2 63.1867 12.2533 20.8669
9674 2 62.4293 13.0512 19.6601
9675 1 9.74093 16.8598 54.883
9676 2 10.144 17.0126 55.7853
9677 2 8.76893 16.6475 54.9837
9678 1 7.92961 23.1856 76.5341
9679 2 8.92167 23.0624 76.5592
9680 2 7.49889 22.5541 77.1788
9681 1 70.6817 14.0557 90.6706
9682 2 69.9349 14.6995 90.504
9683 2 71.4708 14.5483 91.0375
9684 1 32.4917 17.9622 68.5651
9685 2 31.6693 18.0864 69.1204
9686 2 33.2182 18.558 68.9075
9687 1 48.2749 9.42837 49.0158
9688 2 47.3761 9.0078 48.8922
9689 2 48.8052 9.33524 48.1731
9690 1 46.6774 26.6444 31.9983
9691 2 46.2005 26.0754 31.3284
9692 2 47.513 26.1815 32.2942
9693 1 77.2031 17.3002 33.3287
9694 2 76.2661 16.9538 33.3738
9695 2 77.5208 17.5231 34.2504
9696 1 56.342 9.70592 84.354
9697 2 57.3398 9.68119 84.293
9698 2 56.0074 10.5761 83.9923
9699 1 5.32161 19.0196 79.7355
9700 2 5.67394 18.8123 80.6481
9701 2 5.05752 19.983 79.6911
9702 1 38.1299 29.7185 51.8069
9703 2 38.9199 29.8779 51.2149
9704 2 38.2529 0.21314 52.6672
9705 1 79.7259 8.11144 73.4326
9706 2 0.669915 7.97293 73.7321
9707 2 79.5898 7.67118 72.5452
9708 1 68.7674 9.89976 24.966
9709 2 67.8374 10.1372 24.6853
9710 2 69.3816 10.6625 24.7637
9711 1 25.2034 27.4441 86.1063
9712 2 24.6564 27.9333 86.7857
9713 2 25.9142 26.9146 86.5693
9714 1 17.9122 0.91299 11.3591
9715 2 17.2992 0.12313 11.341
9716 2 17.4344 1.6968 11.7556
9717 1 25.45 26.4913 61.118
9718 2 25.5307 25.8642 61.8927
9719 2 25.9612 27.3285 61.3122
9720 1 19.1153 27.5963 54.5811
9721 2 19.6714 27.1979 55.3106
9722 2 18.6045 28.3774 54.9402
9723 1 13.6604 12.0582 14.7826
9724 2 14.6056 11.84 15.0255
9725 2 13.1673 11.2142 14.5714
9726 1 25.5901 10.659 61.9269
9727 2 24.6978 10.6341 62.3778
9728 2 25.8161 9.74705 61.5846
9729 1 17.6643 11.7653 47.2211
9730 2 17.3694 12.2436 48.0483
9731 2 18.4899 12.2 46.8611
9732 1 56.4563 28.7759 50.3489
9733 2 55.6926 28.1553 50.5267
9734 2 57.2772 28.2435 50.1421
9735 1 69.5346 19.8844 16.3913
9736 2 69.4635 20.8555 16.1634
9737 2 69.4292 19.7652 17.3786
9738 1 78.3998 19.3275 24.8922
9739 2 77.6469 19.7565 25.3914
9740 2 78.2713 18.3359 24.8829
9741 1 25.2606 2.08498 34.1952
9742 2 25.2837 2.95959 33.7109
9743 2 25.9878 2.06453 34.8813
9744 1 66.8911 14.8533 35.8707
9745 2 67.3067 14.6753 34.9788
9746 2 66.7178 13.9857 36.3369
9747 1 39.2885 12.6208 80.0279
9748 2 39.2059 13.5969 79.8265
9749 2 39.4768 12.4963 81.0021
9750 1 12.2792 28.1727 13.103
9751 2 13.0864 27.5824 13.1061
9752 2 12.0762 28.4547 12.1653
9753 1 78.1663 25.2802 63.967
9754 2 77.2973 25.7721 64.0216
9755 2 78.2946 24.7371 64.7968
9756 1 34.6203 16.6479 67.5297
9757 2 35.3728 17.001 68.0856
9758 2 33.7727 17.1157 67.7802
9759 1 63.1274 15.8186 21.1465
9760 2 63.1473 14.8332 21.3156
9761 2 62.7912 16.29 21.9619
9762 1 37.3589 23.7699 81.4657
9763 2 36.8867 24.6514 81.4635
9764 2 37.5718 23.5082 82.4071
9765 1 38.7014 2.92111 60.4038
9766 2 38.5593 1.97258 60.6869
9767 2 39.4168 2.95717 59.7061
9768 1 6.31966 0.283441 54.6614
9769 2 5.50023 0.406192 54.1015
9770 2 6.30138 0.928904 55.425
9771 1 47.9219 28.5243 80.4664
9772 2 48.5083 29.3343 80.4695
9773 2 48.487 27.704 80.3788
9774 1 36.3079 18.9328 67.8325
9775 2 36.0038 19.5649 68.5452
9776 2 36.9581 18.28 68.2212
9777 1 65.2532 16.0128 10.9341
9778 2 64.8138 15.2971 11.477
9779 2 64.6146 16.3434 10.2393
9780 1 76.5268 1.47958 27.9503
9781 2 76.2294 1.55551 28.902
9782 2 76.5077 2.38303 27.522
9783 1 52.9626 10.7249 82.8291
9784 2 53.2822 11.2569 82.0451
9785 2 51.9778 10.5707 82.7482
9786 1 62.8135 9.77771 55.3286
9787 2 62.7641 9.75618 56.3271
9788 2 63.6437 10.2583 55.0462
9789 1 56.7937 29.9833 59.2764
9790 2 57.6601 0.382859 58.9768
9791 2 56.0417 0.39167 58.7589
9792 1 23.3285 13.3 47.127
9793 2 24.194 13.5875 47.537
9794 2 23.3714 12.3255 46.9068
9795 1 68.7371 2.81658 14.4639
9796 2 68.9719 2.08646 13.8222
9797 2 69.5305 3.02579 15.0356
9798 1 22.975 2.26195 78.1993
9799 2 22.5492 3.08791 78.5687
9800 2 22.4033 1.89113 77.4673
9801 1 77.7358 4.04384 61.4248
9802 2 77.8032 3.18957 61.9402
9803 2 78.3731 4.71391 61.8054
9804 1 41.174 17.4887 52.6908
9805 2 40.936 16.5596 52.4075
9806 2 42.0395 17.7551 52.2666
9807 1 77.7696 14.7586 46.7788
9808 2 77.0449 14.0992 46.5788
9809 2 78.5872 14.2722 47.0866
9810 1 70.1857 5.20602 66.9782
9811 2 70.5682 4.42713 67.4753
9812 2 70.1501 6.00203 67.5825
9813 1 4.63061 26.7365 68.9537
9814 2 4.04133 26.0234 68.5739
9815 2 4.41824 27.6113 68.5183
9816 1 4.67008 3.954 79.7474
9817 2 4.16133 3.92169 78.8871
9818 2 5.55603 4.39185 79.5945
9819 1 38.9439 2.97396 69.467
9820 2 39.7699 3.10565 70.015
9821 2 38.2351 2.54813 70.0294
9822 1 16.6637 26.7654 18.7059
9823 2 16.8986 26.3804 19.5984
9824 2 16.9395 26.1292 17.9854
9825 1 17.003 8.98526 69.5256
9826 2 16.5201 9.42061 70.2854
9827 2 16.9066 7.99231 69.5946
9828 1 57.4824 4.85405 33.3296
9829 2 57.5904 5.39211 34.1656
9830 2 56.5157 4.82358 33.0754
9831 1 72.2828 11.6228 69.644
9832 2 72.5525 10.6626 69.7167
9833 2 71.5136 11.8003 70.2578
9834 1 47.7692 3.71565 71.3781
9835 2 46.9264 4.24281 71.4869
9836 2 48.472 4.08113 71.9884
9837 1 66.7412 24.7347 59.6699
9838 2 67.0962 24.2844 60.4891
9839 2 66.0297 24.1653 59.2583
9840 1 26.9693 14.3836 58.9691
9841 2 27.0625 15.3465 58.7159
9842 2 27.876 13.967 59.0351
9843 1 7.99725 14.8524 58.2807
9844 2 7.89284 14.8426 57.2862
9845 2 7.10305 14.7289 58.711
9846 1 52.013 2.705 45.4814
9847 2 51.7461 3.6671 45.5374
9848 2 51.2151 2.15103 45.244
9849 1 34.8462 12.2352 55.9251
9850 2 34.6079 12.1414 56.8918
9851 2 34.089 12.6677 55.4356
9852 1 10.1224 16.6186 60.9995
9853 2 9.90468 17.5824 60.8457
9854 2 10.326 16.4733 61.9677
9855 1 29.7859 18.6243 81.6563
9856 2 29.4616 17.8763 82.2353
9857 2 30.5563 19.0806 82.1015
9858 1 47.9643 18.3623 28.6627
9859 2 48.9312 18.1388 28.5394
9860 2 47.8183 18.7115 29.5883
9861 1 12.7074 7.26911 37.4236
9862 2 13.0621 7.84817 36.6895
9863 2 12.3775 7.84441 38.172
9864 1 55.1591 9.55289 80.1771
9865 2 56.0183 9.74184 80.6527
9866 2 54.7011 10.4152 79.961
9867 1 10.0714 12.2363 71.4877
9868 2 10.7388 11.5395 71.2248
9869 2 9.49337 11.8834 72.2234
9870 1 14.763 26.7693 60.9806
9871 2 15.6636 27.1959 61.0642
9872 2 14.6721 26.0458 61.6649
9873 1 16.5714 10.2456 44.7964
9874 2 16.0027 10.9323 45.2491
9875 2 16.9262 9.60508 45.4775
9876 1 76.1833 11.5786 79.8113
9877 2 76.8052 11.0604 80.3983
9878 2 75.3205 11.0816 79.7189
9879 1 72.4341 16.4837 57.9771
9880 2 72.9333 16.5271 57.1117
9881 2 73.0691 16.6294 58.7358
9882 1 20.4054 16.0719 85.5735
9883 2 19.4506 16.3568 85.4891
9884 2 20.5274 15.5636 86.426
9885 1 23.6602 12.0225 89.6186
9886 2 23.0543 11.8456 88.843
9887 2 23.3048 12.7909 90.1507
9888 1 10.8209 15.5789 69.0607
9889 2 11.1818 16.4796 69.3028
9890 2 11.3019 15.2326 68.2553
9891 1 78.9841 18.2054 88.0815
9892 2 78.959 18.0926 89.0748
9893 2 79.2745 19.136 87.8589
9894 1 75.2632 23.9243 76.1526
9895 2 74.7589 23.061 76.1337
9896 2 74.6181 24.6879 76.1231
9897 1 73.3507 1.04411 17.4188
9898 2 73.9243 1.82356 17.6705
9899 2 73.6684 0.227161 17.9
9900 1 71.1988 17.3958 51.999
9901 2 72.19 17.3602 51.8711
9902 2 70.9492 18.2637 52.4285
9903 1 74.3393 0.170246 22.2176
9904 2 74.1223 29.8136 21.3089
9905 2 74.1576 29.4662 22.9041
9906 1 47.2 1.15284 59.0523
9907 2 46.5735 1.61955 58.428
9908 2 48.1287 1.19229 58.6836
9909 1 68.8494 18.0163 80.3017
9910 2 69.7856 17.9769 79.9526
9911 2 68.3589 17.1868 80.0347
9912 1 15.2926 15.2829 79.78
9913 2 15.2495 16.148 79.2804
9914 2 14.3651 14.9647 79.9762
9915 1 77.7839 27.2351 15.4278
9916 2 78.4579 26.4977 15.4724
9917 2 77.7311 27.5824 14.4916
9918 1 33.3333 14.754 69.3783
9919 2 32.6556 14.7017 68.6448
9920 2 34.251 14.6652 68.9912
9921 1 37.9651 5.22809 36.2488
9922 2 37.8526 6.18202 36.5269
9923 2 37.4811 4.6342 36.8915
9924 1 1.65302 11.3817 22.2402
9925 2 1.60575 12.0343 22.9964
9926 2 1.54328 11.8677 21.3732
9927 1 7.45175 25.3448 27.1122
9928 2 6.83953 25.5207 27.8831
9929 2 8.08082 26.1146 27.0038
9930 1 10.6633 17.6032 74.0054
9931 2 10.1894 16.7437 74.1965
9932 2 11.5708 17.584 74.4251
9933 1 8.04463 16.3907 38.3547
9934 2 8.04502 16.0394 39.2909
9935 2 8.94493 16.7696 38.1404
9936 1 30.1051 21.5596 64.7615
9937 2 30.4457 21.9255 65.6276
9938 2 29.2749 22.0498 64.496
9939 1 14.3705 13.5214 19.3936
9940 2 13.9499 14.1986 19.9974
9941 2 14.0966 13.7016 18.4488
9942 1 6.36859 1.9365 57.0022
9943 2 5.42723 1.6435 57.1695
9944 2 6.73359 2.37145 57.8253
9945 1 48.1344 14.762 46.0134
9946 2 47.6081 15.4699 46.4843
9947 2 47.5698 13.9438 45.9046
9948 1 27.0904 20.9658 27.5328
9949 2 27.1227 20.6767 28.4895
9950 2 27.4669 20.2429 26.9533
9951 1 46.7176 24.4246 62.4143
9952 2 46.5856 25.413 62.4902
9953 2 45.9263 24.0168 61.9586
9954 1 11.6136 12.3734 23.7017
9955 2 10.9531 11.7945 24.1797
9956 2 11.1461 13.1752 23.3293
9957 1 19.5502 1.62299 31.7708
9958 2 19.9188 1.50598 30.8486
9959 2 19.551 0.742226 32.2443
9960 1 26.3543 25.1576 27.7701
9961 2 26.7549 25.9505 28.2292
9962 2 25.4127 25.3661 27.5055
9963 1 53.794 13.8046 72.6653
9964 2 53.506 12.8628 72.492
9965 2 54.3798 14.1169 71.9174
9966 1 78.9536 14.7419 67.6033
9967 2 78.1634 14.1317 67.6603
9968 2 78.8393 15.3638 66.8286
9969 1 24.0093 21.7617 74.7174
9970 2 23.4361 20.9674 74.5161
9971 2 23.9915 21.9451 75.7003
9972 1 4.59096 22.9309 26.8022
9973 2 5.57951 23.0031 26.6698
9974 2 4.21508 23.8348 27.0063
9975 1 46.7093 28.0052 48.8388
9976 2 47.1216 27.1169 48.6362
9977 2 46.7183 28.1593 49.8268
9978 1 77.964 17.4971 19.2811
9979 2 77.9943 16.5844 18.8737
9980 2 78.4486 18.1421 18.6902
9981 1 5.78603 3.73103 73.7277
9982 2 5.74164 3.07508 74.4812
9983 2 5.07951 4.428 73.8505
9984 1 24.1706 10.8659 42.1998
9985 2 23.73 11.489 42.8461
9986 2 24.8137 10.2775 42.6899
9987 1 53.5951 6.36979 76.9135
9988 2 53.6887 6.33604 77.9085
9989 2 54.4527 6.08088 76.488
9990 1 21.1837 27.8312 33.7583
9991 2 21.8911 28.2356 34.338
9992 2 21.5501 27.683 32.8397
9993 1 61.1079 21.5602 78.0721
9994 2 60.5741 21.3182 77.2618
9995 2 60.7614 22.4162 78.456
9996 1 12.1185 25.8415 27.8646
9997 2 13.1102 25.9523 27.7995
9998 2 11.7378 25.7029 26.9503
9999 1 11.3505 9.27587 70.6316
10000 2 12.1475 9.00583 71.1718
10001 2 11.1021 8.53318 70.0097
10002 1 18.7855 20.8503 32.4421
10003 2 17.8557 21.2162 32.4827
10004 2 19.1243 20.6975 33.3705
10005 1 79.0475 2.45147 39.2564
10006 2 79.8993 2.00688 38.9792
10007 2 79.2559 3.31939 39.7073
10008 1 11.8075 9.44573 64.0809
10009 2 12.6936 9.83549 64.332
10010 2 11.1172 9.73163 64.7455
10011 1 25.5317 4.98444 60.1713
10012 2 26.22 4.92946 59.4479
10013 2 25.8497 4.4785 60.9731
10014 1 49.0127 8.16728 70.7576
10015 2 49.9172 7.80124 70.5389
10016 2 48.5973 8.54556 69.9303
10017 1 21.2619 5.73164 90.8218
10018 2 21.6749 6.61269 90.5911
10019 2 20.3909 5.6354 90.3401
10020 1 2.88965 5.64485 45.322
10021 2 2.11588 5.06583 45.5789
10022 2 2.82211 6.52185 45.7977
10023 1 13.9654 28.8002 57.7251
10024 2 14.8796 28.4163 57.5958
10025 2 13.9493 29.3486 58.5612
10026 1 57.5856 22.0416 47.071
10027 2 57.548 22.6387 46.2697
10028 2 57.4994 22.5922 47.9013
10029 1 40.6834 2.36248 36.5133
10030 2 40.1434 1.83088 37.1658
10031 2 41.6463 2.34201 36.7825
10032 1 56.7595 12.9199 35.9172
10033 2 57.6635 12.9011 35.4901
10034 2 56.0803 12.5633 35.2757
10035 1 29.9043 11.0122 58.1233
10036 2 29.8135 11.8419 58.6741
10037 2 29.3469 11.0977 57.2975
10038 1 59.9762 25.3654 40.3457
10039 2 59.7621 26.044 41.0483
10040 2 60.8051 25.6403 39.8584
10041 1 19.1566 22.7185 40.3189
10042 2 19.2837 23.5483 40.8624
10043 2 19.514 21.9321 40.8227
10044 1 4.48774 3.11259 32.0207
10045 2 4.0283 3.8163 31.4787
10046 2 3.87406 2.33259 32.1431
10047 1 38.6693 29.7141 86.5212
10048 2 38.4964 28.838 86.0711
10049 2 38.1667 0.437129 86.0473
10050 1 19.859 4.39102 28.6571
10051 2 19.0105 4.86316 28.4182
10052 2 20.1811 3.8654 27.8697
10053 1 4.16883 26.1764 15.1366
10054 2 3.2544 25.7905 15.0144
10055 2 4.58541 26.3363 14.2417
10056 1 53.0223 10.7088 63.9474
10057 2 52.2183 11.2753 64.128
10058 2 53.3645 10.8992 63.0273
10059 1 43.2256 24.8698 80.5147
10060 2 42.4119 24.2906 80.5638
10061 2 43.9209 24.5219 81.1437
10062 1 60.9496 29.4898 67.6116
10063 2 61.3903 0.387384 67.6206
10064 2 61.6474 28.7754 67.6647
10065 1 55.1155 29.1458 35.2309
10066 2 55.6239 28.5004 35.8009
10067 2 54.2776 29.4194 35.7032
10068 1 20.4017 21.9617 49.5286
10069 2 19.713 21.2747 49.2965
10070 2 21.2969 21.6601 49.2007
10071 1 77.3106 22.5592 60.4892
10072 2 76.5092 22.2594 61.0068
10073 2 77.3963 23.5534 60.5536
10074 1 69.4424 25.949 61.1761
10075 2 68.6896 25.3241 61.3834
10076 2 70.162 25.8432 61.8624
10077 1 25.8894 9.12849 37.9111
10078 2 26.0053 10.1067 38.0833
10079 2 26.1203 8.61485 38.7374
10080 1 18.7872 3.88837 53.0038
10081 2 17.8566 4.2481 53.0717
10082 2 19.2709 4.05093 53.8638
10083 1 58.3992 2.31375 55.095
10084 2 58.3603 1.35281 54.821
10085 2 58.2519 2.89481 54.2946
10086 1 12.4344 2.31713 33.4478
10087 2 13.1801 1.83627 33.909
10088 2 12.773 3.18378 33.0813
10089 1 55.2602 4.71068 49.0711
10090 2 55.7594 5.52873 49.3569
10091 2 55.4016 4.55872 48.0929
10092 1 2.08494 9.4404 13.2257
10093 2 2.59031 10.3006 13.1575
10094 2 1.18789 9.61221 13.6329
10095 1 9.97291 14.783 83.596
10096 2 10.2894 14.4875 82.6946
10097 2 9.05465 15.1709 83.5162
10098 1 7.44599 17.226 50.1076
10099 2 6.72272 16.5425 50.0092
10100 2 7.13914 17.9493 50.7263
10101 1 48.8472 29.7901 36.0807
10102 2 48.1695 29.4593 36.7375
10103 2 49.7622 29.5224 36.3825
10104 1 41.0741 26.9933 46.9955
10105 2 41.9104 26.4863 46.7866
10106 2 41.0186 27.801 46.4085
10107 1 12.3998 29.5904 47.716
10108 2 11.5587 0.110858 47.8632
10109 2 13.1849 0.208798 47.7513
10110 1 71.7912 2.01897 57.7717
10111 2 72.5281 2.12419 58.4395
10112 2 72.0367 1.30689 57.1139
10113 1 65.71 9.5377 71.0965
10114 2 65.8563 8.6561 71.5452
10115 2 66.1791 10.2555 71.6109
10116 1 56.0903 25.077 82.271
10117 2 56.3084 25.6517 83.0598
10118 2 56.2371 24.1165 82.5076
10119 1 43.4127 26.1779 48.9481
10120 2 42.981 25.3082 48.709
10121 2 44.299 26.2471 48.4902
10122 1 64.7687 10.0255 29.803
10123 2 64.8003 9.85774 28.8177
10124 2 65.5978 9.66397 30.2295
10125 1 43.655 6.27869 53.1458
10126 2 42.9951 5.94594 53.8195
10127 2 43.8423 7.2467 53.3127
10128 1 20.4944 21.8199 21.8303
10129 2 19.9187 22.2888 22.5002
10130 2 21.3788 22.2824 21.7691
10131 1 1.52289 18.7921 36.9231
10132 2 1.08431 17.9552 36.5958
10133 2 2.38935 18.9246 36.4417
10134 1 32.2083 7.40159 49.2156
10135 2 31.6916 8.11044 49.6957
10136 2 33.1854 7.5274 49.3871
10137 1 0.664634 0.55868 38.3407
10138 2 0.0872139 29.8619 38.7663
10139 2 1.4673 0.722183 38.9143
10140 1 33.5533 27.5571 30.8162
10141 2 33.8222 27.4425 31.7725
10142 2 34.1887 28.1828 30.3639
10143 1 7.90476 22.6022 22.1986
10144 2 7.59586 21.6789 21.9703
10145 2 8.00438 22.6847 23.1902
10146 1 15.2142 28.6906 44.5176
10147 2 15.9577 28.4063 43.9123
10148 2 15.4699 29.537 44.9848
10149 1 63.3022 14.3729 50.9636
10150 2 62.9293 14.6033 51.8624
10151 2 62.6908 13.7286 50.5043
10152 1 71.0221 29.9237 10.9858
10153 2 70.4687 0.24479 11.7543
10154 2 71.9478 29.7194 11.304
10155 1 75.5826 22.7898 69.5193
10156 2 75.0077 23.5743 69.7516
10157 2 75.4026 22.5125 68.5755
10158 1 54.1934 18.0841 28.701
10159 2 53.5881 18.3029 29.4664
10160 2 53.6465 17.9172 27.8807
10161 1 10.0158 20.7321 90.666
10162 2 9.07637 20.4214 90.5214
10163 2 10.65 19.9932 90.4387
10164 1 69.0838 8.85704 85.6371
10165 2 68.8619 8.31227 86.4458
10166 2 68.8427 9.81325 85.8029
10167 1 59.9336 12.6379 20.624
10168 2 60.3204 12.9356 19.7512
10169 2 58.9354 12.6403 20.5644
10170 1 61.1166 29.1208 82.8887
10171 2 61.5467 29.1581 81.9867
10172 2 60.2634 28.6025 82.8299
10173 1 62.6976 7.34966 54.1596
10174 2 62.5138 7.67169 53.2309
10175 2 62.7058 8.1284 54.7869
10176 1 11.9092 8.49958 52.6796
10177 2 12.3119 9.23054 52.1286
10178 2 12.3675 8.46052 53.5676
10179 1 56.575 5.15209 80.4878
10180 2 56.6735 5.11926 81.4824
10181 2 56.5176 6.10494 80.1898
10182 1 14.2461 9.69527 24.7893
10183 2 14.2067 8.97647 24.0952
10184 2 13.7084 9.41921 25.5859
10185 1 66.9207 7.57356 55.8224
10186 2 67.8941 7.46659 55.6197
10187 2 66.7856 8.3863 56.3892
10188 1 41.4548 14.3207 57.6786
10189 2 42.3189 13.8288 57.5722
10190 2 41.632 15.2259 58.065
10191 1 12.8163 18.7598 77.3004
10192 2 12.7682 19.6837 76.9208
10193 2 12.936 18.1003 76.5583
10194 1 36.6261 16.4275 65.3078
10195 2 36.3947 16.6778 64.3676
10196 2 35.9781 16.8578 65.9363
10197 1 44.6333 19.6415 73.4078
10198 2 44.9106 19.1986 74.2604
10199 2 43.9545 20.3488 73.6051
10200 1 79.0887 24.4951 66.4553
10201 2 79.3775 25.4456 66.3404
10202 2 78.9297 24.3099 67.425
10203 1 17.7192 24.7182 61.0534
10204 2 17.5364 25.6323 60.6914
10205 2 18.1472 24.7957 61.9538
10206 1 58.9275 2.54529 73.9607
10207 2 57.9624 2.79705 73.8881
10208 2 59.2439 2.70409 74.8959
10209 1 25.6523 20.6845 66.8454
10210 2 24.9222 21.3367 66.6413
10211 2 25.3093 19.9859 67.4733
10212 1 38.5557 7.55032 73.2608
10213 2 38.9436 6.76125 72.7845
10214 2 37.5878 7.63904 73.0254
10215 1 6.66834 29.8393 89.7853
10216 2 6.63164 28.9356 89.3587
10217 2 7.58792 0.00199309 90.143
10218 1 13.9273 25.323 64.8248
10219 2 14.3651 26.2109 64.9662
10220 2 13.2499 25.3981 64.093
10221 1 47.3119 25.8329 40.1899
10222 2 48.1713 26.3093 40.3757
10223 2 47.1981 25.0839 40.8426
10224 1 6.29204 18.0482 29.318
10225 2 5.75782 18.7652 28.8703
10226 2 7.07687 18.4582 29.7827
10227 1 62.6261 4.26793 49.8447
10228 2 63.0753 5.0433 50.2886
10229 2 61.634 4.38045 49.9013
10230 1 62.7324 12.6957 81.1145
10231 2 63.717 12.5249 81.0753
10232 2 62.4036 12.9602 80.2079
10233 1 8.63864 17.4708 17.9143
10234 2 7.74837 17.2574 18.3166
10235 2 8.72682 17.005 17.0338
10236 1 75.0422 20.8219 42.7195
10237 2 74.9782 20.6301 43.6989
10238 2 75.4991 20.0604 42.2599
10239 1 78.2497 17.733 63.265
10240 2 78.1921 16.825 62.8501
10241 2 77.3518 18.1721 63.2319
10242 1 29.5317 4.69641 34.2341
10243 2 29.4358 5.66256 34.4736
10244 2 29.4591 4.13918 35.0613
10245 1 4.03662 11.2598 75.0258
10246 2 3.68067 10.3583 75.272
10247 2 3.79635 11.919 75.7383
10248 1 77.62 10.1692 10.748
10249 2 77.5247 11.1646 10.7357
10250 2 78.4639 9.90939 10.2786
10251 1 25.85 2.94653 46.6051
10252 2 26.8186 2.80064 46.8063
10253 2 25.7303 3.84044 46.1731
10254 1 48.1544 3.92247 63.3514
10255 2 47.5401 3.30722 63.8454
10256 2 48.5202 4.60608 63.9829
10257 1 22.5899 3.3299 88.3914
10258 2 21.6919 3.24489 88.8231
10259 2 22.9647 4.23812 88.5777
10260 1 33.3285 9.28262 55.853
10261 2 32.8219 9.09533 55.0115
10262 2 33.1365 10.2157 56.1571
10263 1 58.8158 10.7725 30.2011
10264 2 58.2077 11.3922 30.6973
10265 2 58.2785 10.0351 29.7917
10266 1 69.6631 2.78352 45.8593
10267 2 69.5969 3.54671 46.5021
10268 2 69.6881 1.92194 46.3663
10269 1 23.3274 28.9352 26.4441
10270 2 23.706 28.0128 26.3665
10271 2 23.8296 29.5535 25.8395
10272 1 50.8629 4.25872 57.9592
10273 2 50.7624 5.09186 57.4154
10274 2 51.8261 4.12825 58.1943
10275 1 62.396 16.3027 17.2728
10276 2 63.1363 16.3467 17.9437
10277 2 61.9041 15.4381 17.3754
10278 1 60.9114 27.2268 30.1797
10279 2 61.7226 26.649 30.269
10280 2 61.0311 28.0561 30.7255
10281 1 45.9995 11.2568 35.3527
10282 2 46.1924 11.3635 36.3281
10283 2 45.306 10.5477 35.2257
10284 1 21.2453 18.2636 15.1545
10285 2 20.7115 17.455 15.402
10286 2 21.4065 18.2673 14.1676
10287 1 43.0051 21.0312 32.4833
10288 2 43.0949 21.1099 31.4904
10289 2 42.2743 21.6354 32.8008
10290 1 68.6218 11.9401 83.7895
10291 2 68.5752 11.7798 84.7755
10292 2 67.8521 11.4857 83.3412
10293 1 70.9211 3.62821 16.5404
10294 2 71.8193 3.36781 16.8946
10295 2 71.036 4.1905 15.7215
10296 1 18.069 28.1762 82.8238
10297 2 18.2278 28.9863 82.2593
10298 2 18.8457 27.5523 82.7373
10299 1 14.1361 3.75513 47.0182
10300 2 14.4639 3.52345 47.9341
10301 2 13.5339 3.02915 46.6861
10302 1 59.1967 2.39795 32.8519
10303 2 59.3253 3.10797 33.5442
10304 2 58.2314 2.35452 32.5944
10305 1 26.7986 28.1582 83.9361
10306 2 26.0014 28.1341 84.5394
10307 2 27.0145 27.2305 83.6317
10308 1 63.593 1.88201 69.9897
10309 2 62.9229 1.89863 69.2476
10310 2 63.1409 1.61648 70.8412
10311 1 59.7843 7.9686 60.4303
10312 2 60.5167 8.55057 60.7836
10313 2 60.179 7.13896 60.0354
10314 1 77.7666 0.599776 89.374
10315 2 78.2842 29.7497 89.4707
10316 2 78.3315 1.28326 88.9117
10317 1 72.2129 4.58819 43.9373
10318 2 73.0203 4.72292 44.5117
10319 2 72.1752 3.63628 43.6333
10320 1 31.3437 26.4565 29.8995
10321 2 32.0987 25.8017 29.9365
10322 2 31.6677 27.3557 30.1938
10323 1 63.6621 20.9982 74.6676
10324 2 63.6442 21.7133 75.3663
10325 2 62.8348 21.0572 74.1089
10326 1 24.4829 3.15718 37.5256
10327 2 25.2516 2.79066 37.0013
10328 2 24.2085 4.03913 37.1424
10329 1 29.6911 22.2854 51.618
10330 2 28.9567 22.451 52.2762
10331 2 30.4743 21.8782 52.088
10332 1 41.9733 21.5637 82.6929
10333 2 41.3122 20.9093 83.0598
10334 2 41.5611 22.4744 82.6659
10335 1 11.1875 12.9439 20.8001
10336 2 11.6186 12.9229 19.8981
10337 2 11.7595 13.4683 21.4308
10338 1 62.1273 5.12258 66.4817
10339 2 62.6313 5.88509 66.0761
10340 2 61.1753 5.392 66.627
10341 1 45.5798 8.71157 48.909
10342 2 45.4298 9.54834 49.4356
10343 2 45.8735 7.97926 49.5233
10344 1 46.2165 13.9993 48.4876
10345 2 46.3275 13.0233 48.6746
10346 2 46.4595 14.5247 49.3031
10347 1 5.81135 10.5198 63.4424
10348 2 5.35512 11.3913 63.6222
10349 2 5.16884 9.89145 63.0038
10350 1 22.6668 24.8049 41.5671
10351 2 22.8608 25.7857 41.5827
10352 2 22.5311 24.4771 42.5021
10353 1 63.9309 7.02478 89.2841
10354 2 64.0112 7.82719 89.8755
10355 2 64.6051 7.08452 88.5479
10356 1 59.4157 13.8556 10.6004
10357 2 59.2409 14.1174 9.65126
10358 2 58.7066 13.2205 10.9069
10359 1 62.53 29.6925 41.2951
10360 2 61.9845 0.48749 41.5605
10361 2 61.9716 28.866 41.3671
10362 1 13.4571 2.74519 82.1969
10363 2 13.1766 2.49567 83.1237
10364 2 14.0717 2.04446 81.8346
10365 1 45.7373 14.002 82.2994
10366 2 46.6526 13.9075 82.6909
10367 2 45.7808 14.5827 81.4864
10368 1 23.2826 7.19283 27.3972
10369 2 22.5755 6.52329 27.6245
10370 2 24.1849 6.78132 27.5258
10371 1 35.0784 28.6649 58.7483
10372 2 34.2217 29.1685 58.8605
10373 2 35.1483 27.9638 59.4579
10374 1 46.9818 6.12755 68.5683
10375 2 47.2062 6.99309 68.1205
10376 2 47.7783 5.79833 69.0754
10377 1 55.8784 24.0283 58.5098
10378 2 55.9758 23.0436 58.6546
10379 2 56.5406 24.5159 59.0787
10380 1 76.3491 22.5207 88.3456
10381 2 75.7872 22.8473 89.1057
10382 2 75.8882 22.7199 87.4808
10383 1 35.086 13.1712 58.9165
10384 2 35.5222 14.0561 58.753
10385 2 35.41 12.7952 59.7846
10386 1 66.813 9.93463 21.0807
10387 2 67.5775 9.43531 21.4885
10388 2 66.0081 9.34217 21.0467
10389 1 11.4928 18.9493 25.217
10390 2 12.1772 19.6784 25.2066
10391 2 11.9391 18.0708 25.0465
10392 1 71.2022 8.33052 39.033
10393 2 71.0603 7.77878 39.8549
10394 2 71.6681 7.78135 38.3392
10395 1 9.885 27.6873 15.5196
10396 2 9.59037 28.0145 14.6218
10397 2 9.1618 27.1275 15.9242
10398 1 17.8162 16.0273 41.7253
10399 2 18.3915 16.6632 42.2397
10400 2 16.8723 16.3575 41.7249
10401 1 35.6533 8.31505 45.7178
10402 2 35.6868 8.4203 46.7117
10403 2 36.3312 7.63809 45.4312
10404 1 42.737 27.888 34.0633
10405 2 41.9265 28.3661 34.4019
10406 2 43.5156 28.0901 34.6574
10407 1 17.6887 21.8658 67.8232
10408 2 17.1415 22.6617 68.0823
10409 2 17.1611 21.0317 67.9847
10410 1 32.9366 22.6237 33.644
10411 2 32.2685 22.6022 34.3878
10412 2 33.8478 22.7932 34.0193
10413 1 74.1258 29.1334 59.3735
10414 2 74.7539 29.5948 60.0001
10415 2 74.2277 29.518 58.4561
10416 1 21.453 4.68957 23.7496
10417 2 21.9553 3.90144 24.1053
10418 2 20.8264 5.0297 24.4509
10419 1 14.6967 12.0617 52.6322
10420 2 15.403 12.1179 53.3378
10421 2 14.0523 11.3327 52.863
10422 1 51.6338 17.3523 90.8884
10423 2 51.3091 16.6626 90.2411
10424 2 50.9312 18.0537 91.0084
10425 1 55.2301 25.7846 25.2774
10426 2 54.6025 26.5274 25.044
10427 2 54.8669 25.2739 26.0567
10428 1 18.6033 19.7345 49.6253
10429 2 18.7068 19.3081 50.5239
10430 2 19.0253 19.153 48.9298
10431 1 46.8302 28.2969 39.0367
10432 2 45.8376 28.4184 39.0384
10433 2 47.0466 27.3216 39.081
10434 1 77.2935 15.6612 21.7418
10435 2 77.6855 16.4221 21.2248
10436 2 77.9674 14.926 21.8154
10437 1 54.9013 19.5602 66.3987
10438 2 54.2974 20.3099 66.6695
10439 2 55.6457 19.9188 65.8354
10440 1 9.73564 13.5598 42.3611
10441 2 9.922 13.9523 43.2618
10442 2 9.77307 12.5621 42.4181
10443 1 60.0221 19.1099 76.8006
10444 2 60.7279 19.8138 76.7216
10445 2 60.3851 18.3294 77.3096
10446 1 58.3061 17.3048 52.0621
10447 2 57.3862 17.5891 51.7919
10448 2 58.2466 16.6799 52.8405
10449 1 5.20486 7.97587 39.2533
10450 2 4.64026 8.50755 38.622
10451 2 4.64305 7.66041 40.0181
10452 1 27.8184 9.86854 90.1791
10453 2 28.6438 9.75983 89.6251
10454 2 27.7857 9.14927 90.8731
10455 1 31.9954 8.82136 53.3321
10456 2 32.3716 7.89983 53.2361
10457 2 32.3181 9.39341 52.5781
10458 1 56.1675 28.3225 61.51
10459 2 56.6672 28.8028 60.7892
10460 2 56.7094 28.3262 62.3505
10461 1 57.6214 5.4318 50.0024
10462 2 57.4445 4.8115 50.7665
10463 2 58.6052 5.47423 49.8284
10464 1 16.7014 3.59424 56.9635
10465 2 17.4848 4.08628 56.5838
10466 2 15.8581 4.07697 56.727
10467 1 29.4073 5.20768 76.6877
10468 2 29.9356 6.01854 76.9396
10469 2 29.8249 4.39705 77.0982
10470 1 70.6084 15.614 38.6619
10471 2 70.1475 14.7671 38.9274
10472 2 71.5794 15.5514 38.8927
10473 1 42.3915 5.5712 30.2971
10474 2 42.3366 6.56919 30.3287
10475 2 41.4918 5.19473 30.0761
10476 1 51.6057 3.24864 48.1168
10477 2 52.1753 2.45242 47.9128
10478 2 51.6799 3.47141 49.0888
10479 1 36.082 0.237299 64.9291
10480 2 37.0397 0.385219 64.6821
10481 2 35.7924 0.941442 65.5774
10482 1 56.4068 3.87375 69.7021
10483 2 56.8175 3.11524 70.2081
10484 2 57.0661 4.22792 69.039
10485 1 19.7977 7.91103 52.2261
10486 2 20.7969 7.92491 52.1898
10487 2 19.4665 8.76778 52.6215
10488 1 28.8625 23.5831 54.6993
10489 2 28.3904 24.3562 55.1229
10490 2 28.1977 23.0057 54.2253
10491 1 65.6192 13.4877 15.9705
10492 2 64.6296 13.4507 16.1097
10493 2 65.8133 13.7292 15.0198
10494 1 3.27759 9.33275 25.121
10495 2 2.38915 9.76803 25.2667
10496 2 3.84573 9.91962 24.5441
10497 1 25.0451 27.0559 74.2118
10498 2 24.6052 26.726 73.3766
10499 2 25.4442 27.9575 74.0446
10500 1 39.3509 8.25952 49.0014
10501 2 39.994 8.26495 49.7671
10502 2 38.8387 7.40068 49.0024
10503 1 53.904 24.1771 34.0784
10504 2 53.2807 24.5142 34.784
10505 2 53.6772 23.2282 33.8591
10506 1 71.8053 23.5663 52.9182
10507 2 72.4506 22.9326 53.3448
10508 2 72.3095 24.3073 52.4748
10509 1 68.9837 6.06534 55.4056
10510 2 68.9587 5.19519 55.8977
10511 2 69.6864 6.0264 54.6952
10512 1 40.1873 22.5917 54.8814
10513 2 40.057 23.4895 54.4608
10514 2 40.8002 22.6774 55.6669
10515 1 4.98997 27.4062 28.0245
10516 2 5.35414 28.3084 27.7935
10517 2 4.35855 27.4891 28.7955
10518 1 69.0474 26.8585 78.5317
10519 2 69.2403 27.7143 79.0116
10520 2 69.8294 26.2418 78.6224
10521 1 39.6904 4.94175 39.166
10522 2 40.4407 5.55378 38.9161
10523 2 39.4907 4.32952 38.401
10524 1 6.37571 8.88176 43.1558
10525 2 5.96959 9.12408 42.2747
10526 2 6.89186 8.03041 43.0621
10527 1 75.855 23.1028 20.8266
10528 2 75.4291 23.1711 21.7288
10529 2 75.7644 22.1673 20.4852
10530 1 11.6184 14.1594 31.6616
10531 2 12.2031 14.6259 32.3254
10532 2 12.1322 13.42 31.2266
10533 1 47.1536 23.2129 38.2859
10534 2 47.1568 22.2655 37.966
10535 2 46.3127 23.6632 37.9857
10536 1 50.7148 23.2713 54.3764
10537 2 50.7897 24.1253 53.8616
10538 2 50.8426 23.4571 55.3506
10539 1 54.9252 13.257 64.5737
10540 2 54.6701 13.319 63.6088
10541 2 54.4906 12.4545 64.9824
10542 1 78.9454 4.28337 68.5954
10543 2 79.2212 5.2371 68.4757
10544 2 77.9497 4.23146 68.672
10545 1 68.8415 25.2076 72.2913
10546 2 69.1917 26.1103 72.541
10547 2 67.8582 25.1704 72.4696
10548 1 54.5266 22.4695 72.4783
10549 2 54.5143 22.7902 73.4255
10550 2 54.6768 23.2455 71.8657
10551 1 64.9043 3.56233 24.7582
10552 2 65.6176 2.87624 24.9014
10553 2 65.2639 4.46846 24.981
10554 1 69.1698 0.0817037 42.474
10555 2 68.3716 0.0371139 41.8732
10556 2 69.0523 29.4407 43.2325
10557 1 62.1274 23.8425 76.3116
10558 2 61.9334 22.8693 76.4354
10559 2 61.2795 24.3263 76.0945
10560 1 37.8413 21.0686 84.357
10561 2 38.6833 20.6758 83.9871
10562 2 37.7928 22.0384 84.1178
10563 1 0.779357 21.6576 20.4373
10564 2 0.574255 22.6129 20.6503
10565 2 0.443096 21.4409 19.5208
10566 1 69.2662 11.3852 39.4495
10567 2 69.1973 10.4049 39.6349
10568 2 70.0547 11.5582 38.8593
10569 1 63.0892 0.729513 49.3744
10570 2 63.9417 0.381918 49.7647
10571 2 62.9518 1.67673 49.6641
10572 1 24.6307 24.5165 72.4422
10573 2 23.9172 24.3667 71.7577
10574 2 24.2134 24.5909 73.3479
10575 1 30.782 15.8804 76.7106
10576 2 31.2695 15.6668 77.5572
10577 2 30.3309 16.7683 76.8007
10578 1 36.8721 3.61308 38.0021
10579 2 35.9421 3.30279 38.199
10580 2 37.5199 3.10728 38.5719
10581 1 29.3139 8.26148 32.2969
10582 2 28.7435 7.46986 32.0779
10583 2 29.6329 8.19122 33.242
10584 1 66.2986 23.9912 75.6478
10585 2 66.6337 24.0888 76.5849
10586 2 65.9354 23.0685 75.5182
10587 1 54.6118 18.1757 56.591
10588 2 55.1603 18.8306 57.1107
10589 2 54.6826 17.2721 57.0136
10590 1 12.5469 9.06408 14.644
10591 2 11.6496 8.6525 14.8037
10592 2 13.1262 8.92231 15.4467
10593 1 33.7679 25.9079 79.0107
10594 2 33.7643 26.6575 78.3488
10595 2 34.6329 25.4104 78.9461
10596 1 19.7931 21.2994 14.2084
10597 2 20.4197 20.5229 14.2747
10598 2 19.785 21.6419 13.2689
10599 1 63.7579 29.7329 17.5205
10600 2 63.9136 28.8571 17.9773
10601 2 63.0891 0.265291 18.0394
10602 1 70.7739 16.583 86.6696
10603 2 71.044 17.1252 85.8739
10604 2 69.9113 16.1152 86.4769
10605 1 48.0351 17.467 59.0621
10606 2 47.1374 17.6482 58.6604
10607 2 48.5817 18.3042 59.048
10608 1 38.668 15.5444 45.4342
10609 2 37.7131 15.8064 45.294
10610 2 39.0269 16.0124 46.2418
10611 1 73.1014 24.6946 41.4023
10612 2 73.3987 25.5087 41.9012
10613 2 72.105 24.6221 41.4463
10614 1 5.35 19.6974 10.4854
10615 2 5.61299 20.5632 10.9112
10616 2 4.89116 19.8796 9.61574
10617 1 63.879 3.46721 35.6717
10618 2 63.7906 3.25754 36.6455
10619 2 64.723 3.06307 35.3191
10620 1 0.731603 12.5497 80.5954
10621 2 0.288956 12.3026 79.7334
10622 2 0.838807 13.5428 80.6423
10623 1 26.6009 24.8622 67.4935
10624 2 27.4028 24.9444 68.0852
10625 2 26.1609 25.7556 67.4024
10626 1 17.142 16.3681 19.8056
10627 2 17.3343 15.4252 19.5335
10628 2 16.2254 16.6234 19.498
10629 1 13.7026 3.85963 75.5398
10630 2 13.4871 4.1971 76.4561
10631 2 13.5444 2.87293 75.5022
10632 1 1.13798 26.8394 86.667
10633 2 1.40144 27.3283 87.4986
10634 2 1.08439 25.8595 86.8592
10635 1 61.4821 14.5454 75.7383
10636 2 60.7658 13.8681 75.906
10637 2 62.3545 14.0788 75.5924
10638 1 8.42744 0.817728 62.0861
10639 2 7.58908 0.945733 61.5562
10640 2 8.98082 1.64941 62.0405
10641 1 52.6802 16.3641 46.7991
10642 2 52.348 16.8391 45.9842
10643 2 51.9017 16.0389 47.3359
10644 1 10.7128 28.0969 78.3102
10645 2 10.5952 28.9503 77.8023
10646 2 11.6881 27.9184 78.4407
10647 1 77.1138 10.4163 18.1704
10648 2 76.1589 10.3062 17.8947
10649 2 77.1869 11.1672 18.8267
10650 1 37.0453 29.1738 89.7822
10651 2 36.1003 29.2548 89.4653
10652 2 37.2537 29.9278 90.4052
10653 1 5.38278 20.415 67.4073
10654 2 5.01078 20.3679 68.3343
10655 2 6.34477 20.6851 67.4475
10656 1 74.8865 15.2937 10.6309
10657 2 74.5691 14.3456 10.6177
10658 2 75.0198 15.6137 9.69293
10659 1 69.7404 8.21276 89.7054
10660 2 68.7704 7.97563 89.6529
10661 2 69.8348 9.18125 89.9359
10662 1 37.4335 9.16447 34.487
10663 2 37.0731 8.63692 35.2563
10664 2 38.4251 9.0454 34.4366
10665 1 57.1159 8.2408 28.6224
10666 2 56.1278 8.39369 28.6072
10667 2 57.3321 7.40752 28.1136
10668 1 19.607 0.28326 40.0618
10669 2 19.369 29.5137 40.6543
10670 2 20.5956 0.294671 39.9113
10671 1 25.3434 15.6097 28.1958
10672 2 26.132 16.1431 27.8899
10673 2 25.5463 15.193 29.0819
10674 1 62.1825 8.79573 51.7347
10675 2 62.212 8.14033 50.98
10676 2 61.2975 9.26146 51.7372
10677 1 3.66791 19.8055 76.4869
10678 2 3.46917 19.3817 75.6032
10679 2 4.14992 19.1511 77.0695
10680 1 40.6844 27.1089 66.1915
10681 2 40.5059 27.0546 65.2091
10682 2 39.8279 26.9874 66.6932
10683 1 17.4762 0.648631 38.3876
10684 2 16.6557 0.594864 38.9568
10685 2 18.2644 0.318626 38.9071
10686 1 41.5694 24.753 90.4713
10687 2 42.3126 24.5217 91.0991
10688 2 41.7668 25.628 90.0291
10689 1 51.4286 15.909 74.7335
10690 2 51.754 15.385 75.5206
10691 2 52.2116 16.2607 74.2205
10692 1 19.3071 10.7948 66.5665
10693 2 19.3118 10.0656 65.8822
10694 2 18.6334 11.488 66.3104
10695 1 56.8523 5.05212 64.2424
10696 2 57.0127 4.85416 65.2094
10697 2 57.2649 5.93278 64.0095
10698 1 75.3584 18.6525 18.3891
10699 2 74.9961 18.1016 17.6372
10700 2 76.2712 18.3249 18.6327
10701 1 73.7372 23.8985 58.0225
10702 2 73.9341 24.2756 58.9275
10703 2 73.5757 24.6457 57.3779
10704 1 8.8224 13.3939 61.5228
10705 2 9.7521 13.0257 61.5131
10706 2 8.80051 14.2294 62.0719
10707 1 64.5982 27.2596 48.4089
10708 2 65.5218 26.8828 48.3381
10709 2 64.5983 28.2053 48.084
10710 1 76.7379 20.9709 27.4007
10711 2 77.2099 20.7779 28.2608
10712 2 77.0834 21.8266 27.0155
10713 1 79.5108 1.51878 57.9061
10714 2 0.0558318 1.23987 57.1155
10715 2 79.4417 2.51615 57.9282
10716 1 4.66228 0.194368 80.1621
10717 2 3.73887 0.0467538 79.8078
10718 2 5.15843 29.3262 80.1715
10719 1 13.0466 28.0355 71.9847
10720 2 12.978 29.0177 72.1597
10721 2 13.7762 27.6468 72.5473
10722 1 31.3184 7.39364 65.304
10723 2 30.6173 7.35142 66.0159
10724 2 31.6842 8.3228 65.2512
10725 1 21.9727 14.4528 33.1121
10726 2 22.348 15.3774 33.1771
10727 2 21.0288 14.4522 33.4423
10728 1 22.4612 18.4953 26.5733
10729 2 22.7459 18.3375 25.6278
10730 2 21.4653 18.4318 26.6366
10731 1 33.0769 24.4533 45.4702
10732 2 33.2527 23.4798 45.3241
10733 2 32.385 24.7682 44.8204
10734 1 54.6149 26.5786 46.1567
10735 2 53.7413 27.0246 45.9622
10736 2 54.6922 25.7446 45.6105
10737 1 20.1636 3.40034 41.9189
10738 2 20.4034 2.50658 42.2979
10739 2 20.0473 4.05781 42.6633
10740 1 52.1868 25.0175 25.9365
10741 2 51.3227 24.8437 25.4641
10742 2 52.7171 25.6927 25.4238
10743 1 19.2802 8.35714 59.3252
10744 2 19.5112 8.75437 60.2134
10745 2 18.6061 7.62924 59.4508
10746 1 0.896523 12.9728 49.4948
10747 2 1.29463 12.207 50
10748 2 0.262743 13.4696 50.0876
10749 1 70.5523 4.89025 80.0002
10750 2 71.5384 4.72496 79.9858
10751 2 70.3087 5.51806 79.261
10752 1 23.0093 29.8541 19.2594
10753 2 24.0006 29.7525 19.3428
10754 2 22.7441 0.777085 19.5382
10755 1 51.5373 26.6491 71.5951
10756 2 51.6816 27.601 71.3247
10757 2 50.6899 26.3111 71.1857
10758 1 67.3827 24.714 83.1271
10759 2 67.0744 24.5178 82.1963
10760 2 68.2587 25.1951 83.0937
10761 1 69.8072 13.2856 18.3861
10762 2 70.1451 12.9115 17.5224
10763 2 68.8119 13.3735 18.3444
10764 1 12.0607 27.4073 42.3689
10765 2 11.2533 27.1741 41.8271
10766 2 12.5208 26.5683 42.6595
10767 1 22.8253 19.033 63.46
10768 2 22.6328 19.8155 62.8679
10769 2 21.9952 18.7782 63.956
10770 1 29.4315 13.534 58.9306
10771 2 29.8297 13.3448 59.8282
10772 2 29.9546 14.2571 58.4796
10773 1 59.1191 14.2233 25.8743
10774 2 59.2176 14.3696 26.8586
10775 2 59.5654 14.9693 25.3801
10776 1 1.94683 9.42872 41.2155
10777 2 1.12064 9.12692 41.6913
10778 2 2.58944 9.81604 41.8766
10779 1 19.9285 28.1632 85.5372
10780 2 19.5296 27.2501 85.4521
10781 2 20.2371 28.3058 86.4776
10782 1 46.9912 20.3271 54.2959
10783 2 47.0102 21.3175 54.4325
10784 2 47.0578 20.124 53.319
10785 1 57.8905 24.639 60.1517
10786 2 58.3412 25.4637 60.4934
10787 2 58.3059 23.8331 60.5735
10788 1 79.7499 20.8594 86.6715
10789 2 79.2528 20.1427 86.1825
10790 2 0.406479 21.2911 86.053
10791 1 1.16725 15.2327 43.9975
10792 2 1.20432 15.664 44.899
10793 2 1.86967 15.6316 43.408
10794 1 71.1257 18.5943 74.7629
10795 2 71.6924 17.9723 74.2224
10796 2 71.5082 18.679 75.6829
10797 1 69.3178 3.19718 61.8659
10798 2 68.7991 2.52957 62.4
10799 2 69.7045 3.88626 62.4788
10800 1 55.8687 0.673933 66.9588
10801 2 55.3127 0.562689 67.7826
10802 2 56.7595 1.05462 67.2068
10803 1 20.1609 21.7116 11.169
10804 2 21.0549 22.1133 10.9705
10805 2 20.2463 20.7165 11.2188
10806 1 74.4071 18.1625 11.3869
10807 2 73.5285 18.3957 11.8035
10808 2 74.4798 17.1692 11.2961
10809 1 19.5628 10.4063 49.6327
10810 2 20.2592 9.69078 49.6872
10811 2 19.4343 10.6743 48.6778
10812 1 59.5024 23.0852 41.8145
10813 2 59.428 23.9778 41.37
10814 2 58.8709 23.0448 42.5888
10815 1 35.0624 15.9614 75.2145
10816 2 35.9258 15.7387 74.7617
10817 2 34.9949 15.4519 76.0723
10818 1 6.40634 13.7887 68.8828
10819 2 6.8139 13.0911 69.472
10820 2 5.41686 13.651 68.8385
10821 1 73.5218 14.1108 25.3181
10822 2 72.7709 13.4828 25.1133
10823 2 73.1805 14.8681 25.8748
10824 1 66.4761 27.184 86.5592
10825 2 67.0999 27.5971 87.2228
10826 2 66.7891 26.2605 86.3375
10827 1 57.0573 15.1421 65.3688
10828 2 57.8241 14.5018 65.4139
10829 2 56.2554 14.676 64.995
10830 1 21.0044 2.17636 13.8299
10831 2 20.8588 2.87285 14.5325
10832 2 21.4024 1.35959 14.2476
10833 1 50.0953 9.98355 33.9203
10834 2 50.6609 9.91001 33.0989
10835 2 49.336 10.6108 33.7471
10836 1 24.3072 14.3477 77.9491
10837 2 24.3555 13.5017 78.4802
10838 2 24.26 15.1294 78.571
10839 1 29.3418 23.4083 85.8654
10840 2 28.5938 23.261 86.5126
10841 2 30.0933 22.7833 86.0766
10842 1 25.3838 17.1621 69.4172
10843 2 25.4685 18.157 69.4718
10844 2 24.4466 16.8946 69.6409
10845 1 63.9601 25.9341 76.7849
10846 2 63.4308 25.1491 76.463
10847 2 64.9316 25.6978 76.7992
10848 1 41.9757 21.0604 60.3349
10849 2 42.806 21.1378 60.8867
10850 2 41.2623 21.6444 60.7223
10851 1 62.3704 25.8777 67.3104
10852 2 62.7577 25.1111 67.8226
10853 2 62.6694 25.8269 66.3575
10854 1 33.0664 1.90302 41.8842
10855 2 33.3372 0.947434 41.7678
10856 2 33.8676 2.49184 41.7771
10857 1 5.38006 18.9912 47.7578
10858 2 4.67476 19.6505 47.4974
10859 2 4.95609 18.2192 48.2314
10860 1 54.852 23.2506 80.0739
10861 2 54.0423 23.7821 80.3228
10862 2 54.6809 22.281 80.2488
10863 1 57.1843 8.9759 32.1629
10864 2 56.1855 9.01688 32.1887
10865 2 57.5607 9.87443 32.3887
10866 1 74.5658 13.169 61.4771
10867 2 73.894 12.5051 61.1485
10868 2 74.5128 13.2314 62.4737
10869 1 13.8233 22.9788 30.9633
10870 2 13.6819 22.4885 30.1033
10871 2 14.2789 23.8498 30.7794
10872 1 13.7254 15.4193 17.301
10873 2 13.933 15.7575 18.2188
10874 2 12.7587 15.5761 17.0987
10875 1 78.8074 0.139969 71.544
10876 2 79.4098 0.831503 71.9427
10877 2 78.3476 29.6366 72.2756
10878 1 17.9794 26.239 50.937
10879 2 18.6793 25.9492 50.2842
10880 2 17.0877 25.8928 50.6454
10881 1 68.8117 7.90395 14.9656
10882 2 67.9961 7.33205 14.8772
10883 2 69.0732 7.96495 15.9288
10884 1 12.2008 22.7085 73.9096
10885 2 12.9073 22.5376 74.5963
10886 2 12.1068 23.6937 73.7661
10887 1 15.9661 20.1477 35.1851
10888 2 15.8784 21.0381 34.7385
10889 2 16.7914 20.1378 35.7497
10890 1 13.4017 19.6174 27.8061
10891 2 13.3095 18.674 28.1247
10892 2 14.3363 19.934 27.968
10893 1 15.7226 8.65909 82.5838
10894 2 16.3279 7.89493 82.8069
10895 2 15.8548 8.921 81.6278
10896 1 41.2457 3.98561 59.339
10897 2 42.1484 3.59461 59.5182
10898 2 40.951 3.73501 58.4168
10899 1 58.3494 18.5469 18.475
10900 2 58.6465 17.6116 18.2829
10901 2 57.7716 18.8734 17.727
10902 1 27.731 4.68636 66.2797
10903 2 28.546 4.45372 66.8105
10904 2 27.3692 3.86132 65.8457
10905 1 53.166 26.4961 59.3034
10906 2 52.5691 27.2737 59.5011
10907 2 53.4561 26.0719 60.1612
10908 1 17.6609 10.8214 86.3364
10909 2 18.4728 10.3024 86.6035
10910 2 17.05 10.9127 87.1229
10911 1 13.0801 20.7768 39.2993
10912 2 13.9765 21.0788 39.6236
10913 2 12.371 21.1117 39.9198
10914 1 63.0595 26.0743 70.3126
10915 2 63.5061 25.4515 69.6702
10916 2 63.747 26.6608 70.7408
10917 1 28.869 10.3024 65.1262
10918 2 29.716 10.8321 65.0809
10919 2 29.086 9.34008 65.2901
10920 1 73.0784 3.78557 52.0986
10921 2 73.356 3.4009 52.9789
10922 2 72.1336 3.52276 51.9031
10923 1 73.4972 1.84399 90.2075
10924 2 72.8231 1.10572 90.1833
10925 2 73.0754 2.69119 89.8845
10926 1 34.7814 11.1848 73.2503
10927 2 35.6389 10.6911 73.3954
10928 2 34.6508 11.8493 73.9861
10929 1 40.9716 8.88831 54.4499
10930 2 41.8088 8.41861 54.7299
10931 2 40.9684 8.99976 53.4561
10932 1 65.9557 6.33201 58.668
10933 2 65.2478 6.59438 59.3238
10934 2 65.9821 6.99752 57.9221
10935 1 51.3898 1.67671 88.2341
10936 2 51.0854 1.03918 88.9418
10937 2 51.3336 2.61256 88.582
10938 1 59.869 8.85314 27.9602
10939 2 58.9005 8.6369 28.0837
10940 2 60.0242 9.16367 27.0224
10941 1 74.6922 6.42432 83.219
10942 2 74.9673 6.47386 84.1792
10943 2 74.151 5.5968 83.0696
10944 1 17.0805 20.3822 21.8011
10945 2 16.1891 19.9876 21.5782
10946 2 17.0009 21.3777 21.8526
10947 1 4.92387 27.6715 61.5062
10948 2 4.80934 27.8591 62.4818
10949 2 4.0319 27.6973 61.0549
10950 1 71.9181 6.95396 57.9269
10951 2 70.9791 7.29181 57.8631
10952 2 72.4645 7.34622 57.187
10953 1 8.33937 19.7081 46.532
10954 2 8.90983 20.0395 47.2835
10955 2 8.6949 18.8326 46.2047
10956 1 53.8106 7.71911 39.6375
10957 2 53.6988 8.64387 40.0012
10958 2 54.6191 7.29567 40.0462
10959 1 19.7936 23.0022 24.4136
10960 2 20.3925 22.2487 24.685
10961 2 20.1612 23.8632 24.765
10962 1 56.0327 25.4575 28.5356
10963 2 55.363 25.771 29.2088
10964 2 56.2819 26.217 27.9347
10965 1 68.6745 1.27381 16.8345
10966 2 69.0526 0.397818 16.535
10967 2 68.474 1.84084 16.0355
10968 1 0.482599 14.7575 27.3609
10969 2 0.102558 15.1199 28.2119
10970 2 1.06938 13.9739 27.565
10971 1 56.6993 24.2006 43.0788
10972 2 57.1909 23.4076 43.4387
10973 2 55.7145 24.0489 43.1635
10974 1 17.7996 9.12691 47.2008
10975 2 17.3657 8.64407 47.9614
10976 2 17.6784 10.1125 47.3191
10977 1 29.7077 28.7494 28.884
10978 2 30.1394 27.8496 28.8203
10979 2 29.3563 28.8857 29.8103
10980 1 62.4686 6.78815 57.7268
10981 2 62.6223 7.74637 57.968
10982 2 61.4907 6.63202 57.5882
10983 1 41.4824 15.3544 68.2127
10984 2 42.0694 15.2908 67.4056
10985 2 41.8199 14.7334 68.92
10986 1 28.3667 13.789 26.0885
10987 2 28.3199 14.6824 26.5352
10988 2 27.4474 13.5028 25.8184
10989 1 20.4205 21.619 82.5284
10990 2 19.7251 22.287 82.7934
10991 2 20.76 21.8365 81.6133
10992 1 12.9266 20.3667 60.2327
10993 2 13.6909 20.6726 59.665
10994 2 13.2793 19.8863 61.0357
10995 1 77.0411 17.3984 82.4628
10996 2 76.0861 17.1086 82.3981
10997 2 77.2131 17.7788 83.3715
10998 1 14.1517 11.4408 65.1474
10999 2 13.775 12.3495 64.9673
11000 2 14.5423 11.4183 66.0677
11001 1 73.3066 0.0895715 63.8956
11002 2 74.0861 0.00286477 63.2752
11003 2 73.1719 1.05256 64.129
11004 1 59.6851 7.42324 54.8543
11005 2 59.6562 7.14145 55.8134
11006 2 58.9515 8.0794 54.6774
11007 1 79.7718 10.6091 25.875
11008 2 79.0005 10.3309 25.3026
11009 2 0.254021 11.3686 25.4384
11010 1 11.9853 7.42031 10.8355
11011 2 12.5642 7.89185 10.1702
11012 2 12.5485 6.81339 11.3963
11013 1 71.5937 3.55392 31.5667
11014 2 71.7778 4.42631 32.0195
11015 2 70.6199 3.49084 31.348
11016 1 70.2787 8.61908 30.726
11017 2 70.2926 8.03686 31.539
11018 2 70.1282 9.56922 30.9991
11019 1 6.38054 22.9122 51.6379
11020 2 6.94602 23.6829 51.3444
11021 2 5.50406 23.2525 51.9785
11022 1 61.4793 18.8656 60.8171
11023 2 61.3067 19.8217 60.5804
11024 2 62.45 18.6609 60.6908
11025 1 66.1008 8.53315 65.5601
11026 2 66.083 7.5549 65.3534
11027 2 66.5173 8.67664 66.4578
11028 1 8.53141 2.64676 26.9445
11029 2 9.06006 1.82866 27.1709
11030 2 7.91288 2.4444 26.1852
11031 1 71.4023 14.1206 70.9321
11032 2 70.5598 13.6018 71.0769
11033 2 72.0526 13.9109 71.6622
11034 1 21.0827 9.15332 71.5085
11035 2 20.232 9.59431 71.7946
11036 2 20.8767 8.26206 71.1046
11037 1 61.6615 9.55548 61.6579
11038 2 61.8987 9.00167 62.456
11039 2 62.4834 10.0049 61.3079
11040 1 43.3503 28.7437 64.7278
11041 2 43.6466 27.8274 64.9975
11042 2 43.9201 29.0697 63.9735
11043 1 13.3236 4.23019 36.3818
11044 2 13.5569 3.95015 37.313
11045 2 14.0639 3.9725 35.7609
11046 1 77.9885 25.3405 84.0258
11047 2 77.9244 25.2424 85.019
11048 2 78.8301 25.8277 83.7926
11049 1 47.701 19.345 76.8796
11050 2 47.1713 18.5329 77.1244
11051 2 48.6725 19.1109 76.8434
11052 1 77.6352 7.87706 35.0599
11053 2 77.9724 8.48017 34.337
11054 2 77.0005 8.38121 35.6455
11055 1 70.1031 5.42254 36.5471
11056 2 70.2997 5.34165 37.5242
11057 2 70.9278 5.7176 36.0644
11058 1 20.7889 16.8251 74.3087
11059 2 21.2021 16.5595 75.1797
11060 2 20.384 16.0212 73.873
11061 1 2.03456 24.4569 56.4138
11062 2 2.96669 24.7712 56.5935
11063 2 1.41359 25.2407 56.4089
11064 1 23.0792 16.6775 42.9572
11065 2 23.7467 16.6436 43.7011
11066 2 22.5049 17.4895 43.0615
11067 1 19.64 15.935 15.0967
11068 2 19.7288 14.967 14.862
11069 2 18.882 16.0544 15.7379
11070 1 41.8235 27.2589 70.5636
11071 2 41.8956 27.4147 71.5487
11072 2 41.6635 28.13 70.0992
11073 1 62.4108 23.4763 26.0891
11074 2 63.0873 23.5604 25.3574
11075 2 62.2007 22.5102 26.2393
11076 1 16.3829 15.5959 44.4237
11077 2 16.7133 16.2899 45.0633
11078 2 15.9669 16.0433 43.632
11079 1 56.3569 12.8042 85.2516
11080 2 56.0694 13.2273 84.3924
11081 2 57.3225 12.5512 85.1918
11082 1 10.1693 4.49981 22.1719
11083 2 11.1028 4.39785 21.8281
11084 2 9.65176 3.66506 21.9838
11085 1 16.6961 20.7614 81.9698
11086 2 16.0938 21.544 81.8121
11087 2 17.617 21.0873 82.1836
11088 1 43.9123 0.152587 72.0865
11089 2 43.8812 0.921874 71.4484
11090 2 43.8082 0.490915 73.0218
11091 1 61.3409 2.03079 41.2628
11092 2 60.4078 1.79212 40.9938
11093 2 61.3518 2.95531 41.6438
11094 1 44.1752 23.0692 47.8123
11095 2 43.5498 22.4551 47.3309
11096 2 44.4618 23.803 47.1963
11097 1 32.3989 25.237 33.4485
11098 2 32.7846 24.3864 33.8061
11099 2 32.7996 25.4345 32.5539
11100 1 66.9548 5.1947 39.052
11101 2 65.987 5.03687 39.2476
11102 2 67.0896 6.14877 38.7844
11103 1 63.0512 9.78339 18.538
11104 2 63.1587 10.6858 18.9552
11105 2 63.7849 9.18113 18.8526
11106 1 56.9426 9.94045 36.1057
11107 2 56.658 10.4399 35.2875
11108 2 57.4941 10.5391 36.6866
11109 1 62.3625 27.4878 13.2683
11110 2 62.4271 28.4517 13.0103
11111 2 61.4212 27.2754 13.5308
11112 1 19.609 7.88794 74.8152
11113 2 18.9167 8.50639 75.1871
11114 2 19.4431 6.96098 75.1517
11115 1 22.4612 0.507658 49.6216
11116 2 22.6112 29.6323 50.0813
11117 2 23.2252 1.12235 49.8177
11118 1 56.5729 29.3851 64.5674
11119 2 57.5143 29.0778 64.4282
11120 2 56.4886 29.8015 65.4726
11121 1 38.356 11.6721 56.0227
11122 2 38.4741 12.5985 55.6653
11123 2 38.4773 11.0111 55.2822
11124 1 34.5471 9.81866 58.3942
11125 2 35.3908 10.3008 58.1583
11126 2 34.1442 9.42755 57.5668
11127 1 15.1852 24.685 46.35
11128 2 15.9236 24.7508 45.6789
11129 2 15.5529 24.3529 47.2186
11130 1 30.2328 12.0586 61.2317
11131 2 30.7063 12.6144 61.9149
11132 2 30.6433 11.1472 61.2007
11133 1 24.2336 10.5173 85.0615
11134 2 23.7176 10.5115 84.205
11135 2 24.326 9.58134 85.4013
11136 1 59.8671 3.74338 35.647
11137 2 60.4323 3.92615 36.4514
11138 2 58.9577 4.13683 35.7822
11139 1 77.8994 25.4009 34.7201
11140 2 78.8535 25.1408 34.5718
11141 2 77.8588 26.1698 35.3583
11142 1 19.7636 21.0809 78.6723
11143 2 19.3469 20.6815 79.4889
11144 2 20.6678 21.4412 78.9018
11145 1 62.0547 18.5572 71.4829
11146 2 62.5869 18.2433 72.2692
11147 2 61.0984 18.6718 71.752
11148 1 50.6538 9.17879 72.7454
11149 2 50.7439 8.69098 71.8771
11150 2 51.5429 9.21426 73.2017
11151 1 39.4379 2.55979 51.3168
11152 2 38.9909 3.26267 51.8701
11153 2 40.4276 2.70203 51.3332
11154 1 61.025 22.9225 73.0055
11155 2 60.6327 23.7921 72.7056
11156 2 60.6233 22.6607 73.8831
11157 1 29.9754 26.0012 44.2332
11158 2 30.8846 26.2679 43.9134
11159 2 29.8514 25.0175 44.1025
11160 1 11.3581 23.4733 79.1632
11161 2 10.8923 23.1303 78.3475
11162 2 11.4868 24.4617 79.0827
11163 1 7.35087 1.075 37.0601
11164 2 7.74567 1.0101 36.1436
11165 2 7.03272 0.172575 37.3506
11166 1 78.5667 7.55528 78.0786
11167 2 78.5839 7.09976 78.9686
11168 2 79.4272 7.38295 77.5992
11169 1 18.4732 29.2569 74.812
11170 2 19.4195 29.5224 74.9967
11171 2 17.9563 29.2484 75.6679
11172 1 50.4065 25.2039 33.9233
11173 2 50.653 24.4797 34.5673
11174 2 50.0837 26.0039 34.4291
11175 1 35.4185 15.2907 83.7382
11176 2 35.4595 15.6089 84.6853
11177 2 35.7883 15.996 83.1333
11178 1 78.2487 14.3315 17.4172
11179 2 78.6742 14.9495 18.0782
11180 2 78.2965 13.3931 17.7595
11181 1 79.707 16.1755 84.0017
11182 2 79.5522 16.1102 83.0159
11183 2 79.3834 17.0622 84.3319
11184 1 53.5566 23.8566 53.1761
11185 2 53.7664 23.4862 52.2713
11186 2 53.4036 23.1044 53.817
11187 1 75.0432 3.77249 61.7115
11188 2 74.9499 4.43615 62.4537
11189 2 76.013 3.60873 61.5307
11190 1 38.1036 26.7262 51.7359
11191 2 38.8491 26.2659 51.2537
11192 2 38.4134 27.624 52.049
11193 1 52.9509 4.07609 74.4839
11194 2 53.7168 3.51068 74.79
11195 2 52.1844 3.9703 75.1174
11196 1 54.745 4.55856 24.6209
11197 2 54.1684 5.35003 24.8238
11198 2 54.3724 3.74951 25.0755
11199 1 59.0007 25.925 43.1816
11200 2 59.6891 26.2812 43.8136
11201 2 58.2841 25.457 43.6986
11202 1 6.75201 4.50025 67.5362
11203 2 6.58891 4.8083 66.5989
11204 2 5.9218 4.07485 67.8965
11205 1 10.6036 5.90452 63.2638
11206 2 10.9496 5.95583 64.2007
11207 2 10.359 4.95874 63.0502
11208 1 43.074 5.03359 81.1418
11209 2 42.491 4.26111 81.3935
11210 2 43.0493 5.72041 81.8682
11211 1 63.5942 15.3285 85.0163
11212 2 64.2606 14.9653 85.6675
11213 2 62.7807 14.7469 85.0128
11214 1 6.90151 6.47338 79.9446
11215 2 7.68049 7.05359 79.7068
11216 2 6.1283 6.69321 79.3498
11217 1 73.458 12.9464 89.585
11218 2 72.5802 13.3882 89.3996
11219 2 73.3011 12.0038 89.8797
11220 1 68.2077 7.32063 46.8678
11221 2 67.6296 7.04357 46.1003
11222 2 68.894 6.61408 47.0402
11223 1 65.2006 27.4485 17.5693
11224 2 65.7378 26.8327 16.993
11225 2 65.6752 27.5908 18.4379
11226 1 50.6614 25.6626 81.8106
11227 2 51.1828 25.0947 81.1737
11228 2 51.1971 25.8085 82.6423
11229 1 57.0379 6.33377 58.1885
11230 2 57.9858 6.43496 57.8863
11231 2 56.5351 7.17654 57.9965
11232 1 1.07477 12.7561 24.6846
11233 2 1.47621 12.5297 25.5721
11234 2 1.67137 13.398 24.203
11235 1 72.7786 8.16505 60.8588
11236 2 72.2061 7.43028 61.2226
11237 2 72.2233 8.9862 60.7272
11238 1 10.3579 16.3809 88.7291
11239 2 10.5893 15.41 88.7906
11240 2 10.5132 16.702 87.7949
11241 1 26.4032 10.1514 25.529
11242 2 26.4036 9.16917 25.3414
11243 2 26.0644 10.6437 24.7272
11244 1 66.3405 27.1558 37.1397
11245 2 67.2305 27.3431 37.5554
11246 2 65.6297 27.656 37.6341
11247 1 6.41972 24.5684 65.5281
11248 2 6.16959 23.768 64.9834
11249 2 6.83271 24.2702 66.3886
11250 1 59.787 26.308 33.767
11251 2 60.2306 27.107 33.3608
11252 2 59.8749 26.3481 34.7624
11253 1 12.0648 14.1341 14.6214
11254 2 12.5081 13.4195 14.0803
11255 2 12.657 14.389 15.3858
11256 1 76.3272 20.7045 84.8682
11257 2 76.936 19.9232 85.0056
11258 2 76.6165 21.4599 85.4563
11259 1 68.5847 0.922822 63.4743
11260 2 67.6943 0.596335 63.7915
11261 2 69.2391 0.892927 64.2299
11262 1 68.059 19.6622 62.3174
11263 2 68.6783 18.9919 62.7261
11264 2 67.1312 19.5101 62.6583
11265 1 26.8676 10.2747 47.179
11266 2 26.8982 11.0315 46.5261
11267 2 27.7305 10.2338 47.6826
11268 1 9.33882 8.19666 50.2165
11269 2 8.61479 8.40644 49.5594
11270 2 9.77391 9.04596 50.5155
11271 1 76.5192 0.484845 64.9013
11272 2 76.7837 29.8654 64.1621
11273 2 76.3188 1.38863 64.5231
11274 1 76.1013 11.4282 90.2875
11275 2 75.3834 10.738 90.3776
11276 2 75.686 12.3364 90.2356
11277 1 79.6627 7.46351 46.3505
11278 2 0.317341 6.85995 46.8056
11279 2 79.8859 8.41558 46.5596
11280 1 54.2203 1.32777 84.1458
11281 2 54.6699 1.88839 83.4505
11282 2 54.2986 0.362284 83.8974
11283 1 78.3647 9.09145 65.3242
11284 2 78.85 9.19687 66.1921
11285 2 77.78 9.88797 65.1704
11286 1 38.8819 27.4202 55.1825
11287 2 38.1425 27.7542 55.7671
11288 2 39.7574 27.7616 55.5246
11289 1 6.83667 24.1332 89.1585
11290 2 6.82265 25.1055 88.9253
11291 2 5.89984 23.8074 89.2859
11292 1 12.9189 7.33772 25.6414
11293 2 12.1968 6.64891 25.7051
11294 2 13.4738 7.16464 24.8277
11295 1 50.3788 8.51561 59.0955
11296 2 50.6355 7.59422 58.8037
11297 2 50.3622 9.12404 58.3021
11298 1 69.5175 17.4242 82.96
11299 2 70.4946 17.2232 82.89
11300 2 69.175 17.7275 82.0708
11301 1 52.6371 23.7542 77.7781
11302 2 53.5771 23.4671 77.9625
11303 2 52.3999 24.5215 78.374
11304 1 11.0477 19.611 86.3308
11305 2 11.8087 19.1912 86.8254
11306 2 10.7115 18.976 85.6352
11307 1 10.3177 13.2108 11.4451
11308 2 9.68189 12.4398 11.4796
11309 2 11.184 12.9109 11.0457
11310 1 43.9504 10.8 55.2579
11311 2 44.063 10.0765 54.5768
11312 2 43.9441 11.6896 54.8013
11313 1 60.245 12.6313 68.0997
11314 2 59.4622 13.1581 67.7684
11315 2 60.8301 12.3826 67.3278
11316 1 2.10795 18.2174 80.1803
11317 2 1.74029 18.3542 79.2605
11318 2 3.10724 18.2321 80.1454
11319 1 2.21557 19.4803 45.0223
11320 2 1.59699 18.7555 45.3257
11321 2 2.60272 19.2374 44.1328
11322 1 32.5301 4.8553 80.3667
11323 2 32.2148 4.67586 81.2986
11324 2 33.2953 4.24865 80.1511
11325 1 34.43 9.97674 78.2987
11326 2 35.182 10.406 78.7989
11327 2 33.6806 9.7773 78.93
11328 1 42.1578 27.9301 42.7219
11329 2 42.5555 28.799 43.0166
11330 2 42.7872 27.1843 42.9402
11331 1 28.7878 8.72738 58.6867
11332 2 28.9783 8.64339 59.6648
11333 2 29.0023 9.65596 58.3839
11334 1 52.6498 12.7582 42.4523
11335 2 51.7435 12.6439 42.8592
11336 2 53.1327 13.5001 42.9174
11337 1 78.4043 17.09 27.0661
11338 2 78.8694 16.9095 27.9327
11339 2 79.0834 17.2702 26.3545
11340 1 70.576 18.0457 34.0291
11341 2 69.6017 17.8732 34.1738
11342 2 71.0237 17.2016 33.734
11343 1 27.1938 15.1325 78.4287
11344 2 27.2146 14.153 78.2284
11345 2 26.2564 15.4099 78.639
11346 1 5.34874 18.3532 44.0918
11347 2 4.60262 18.8973 43.708
11348 2 5.02549 17.8721 44.9067
11349 1 14.1296 18.6331 90.7185
11350 2 14.1645 17.8631 91.3556
11351 2 15.0601 18.9255 90.4976
11352 1 46.8872 12.815 58.1074
11353 2 47.0695 13.6412 57.5742
11354 2 47.5267 12.7657 58.8746
11355 1 74.6744 8.35032 44.764
11356 2 75.187 8.67845 43.9705
11357 2 74.698 9.0424 45.4854
11358 1 44.4388 5.65037 58.8931
11359 2 44.4762 4.67941 59.1294
11360 2 44.7803 5.78023 57.9622
11361 1 6.92861 10.0363 85.6432
11362 2 6.66407 9.49563 84.8447
11363 2 6.40035 9.73742 86.438
11364 1 67.762 16.4207 60.153
11365 2 67.1572 15.7674 59.6976
11366 2 67.3298 17.3224 60.1654
11367 1 31.6894 11.446 56.1316
11368 2 30.8823 11.0853 56.5989
11369 2 31.4148 11.861 55.2642
11370 1 8.687 8.29716 24.9546
11371 2 9.29747 8.39678 25.7404
11372 2 7.74254 8.45177 25.2446
11373 1 41.8198 24.6006 72.8834
11374 2 41.1692 24.549 73.6411
11375 2 42.0064 25.5594 72.6691
11376 1 24.4863 5.2441 35.4829
11377 2 25.3647 5.71364 35.3935
11378 2 23.9867 5.30429 34.6188
11379 1 26.2566 19.5695 64.6535
11380 2 27.2312 19.3541 64.5926
11381 2 26.0534 19.9419 65.5591
11382 1 52.7126 21.1896 50.1213
11383 2 53.4294 21.7932 50.4703
11384 2 51.8521 21.388 50.5905
11385 1 23.1535 9.84024 24.3265
11386 2 23.4116 10.7055 23.8966
11387 2 22.1818 9.86172 24.5618
11388 1 24.1086 29.5933 76.4316
11389 2 23.3985 29.2324 75.827
11390 2 25.0006 29.5042 75.9885
11391 1 63.447 18.6404 40.9863
11392 2 63.517 17.6504 40.8647
11393 2 62.4882 18.9172 40.9218
11394 1 5.85249 8.27607 83.8827
11395 2 5.88104 8.91818 83.1166
11396 2 6.13798 7.37038 83.5693
11397 1 8.14946 14.0888 34.7951
11398 2 7.22937 13.9028 35.1399
11399 2 8.18186 13.901 33.8134
11400 1 76.0393 22.5165 39.7348
11401 2 75.1802 22.0972 39.4415
11402 2 76.2144 22.2837 40.6914
11403 1 29.9258 13.4495 79.9117
11404 2 29.6864 13.0846 80.8114
11405 2 29.157 13.9774 79.5507
11406 1 52.249 20.8387 90.6593
11407 2 51.9156 21.6941 90.2629
11408 2 51.4755 20.3085 91.0068
11409 1 47.7492 8.33255 58.8229
11410 2 48.6714 8.23503 59.1972
11411 2 47.7987 8.76752 57.9238
11412 1 45.3415 15.4711 40.0241
11413 2 45.6907 14.6008 39.6768
11414 2 44.8193 15.3104 40.8616
11415 1 43.5099 2.28963 87.2299
11416 2 43.3037 2.81467 88.0556
11417 2 43.7161 2.91688 86.4789
11418 1 78.5217 21.1044 51.6771
11419 2 78.7587 21.087 50.7057
11420 2 77.7939 20.4419 51.8545
11421 1 10.1414 11.1966 33.0045
11422 2 10.3889 10.5306 33.7082
11423 2 9.6277 10.7392 32.2786
11424 1 10.5804 18.4393 70.7909
11425 2 10.1939 17.7404 71.3926
11426 2 10.9348 19.1947 71.342
11427 1 0.871375 20.5584 78.4773
11428 2 0.0350571 20.9488 78.8622
11429 2 1.64328 20.7657 79.0783
11430 1 5.86811 14.9447 80.1773
11431 2 5.49407 14.0173 80.1654
11432 2 6.70763 14.9585 80.7205
11433 1 47.7127 10.3148 74.0692
11434 2 47.0588 10.1147 73.3396
11435 2 48.4801 10.8358 73.6954
11436 1 53.2727 17.0774 69.9003
11437 2 53.4587 16.0973 69.8313
11438 2 52.3559 17.2172 70.2744
11439 1 53.0434 27.401 29.5227
11440 2 52.4928 27.2354 30.3409
11441 2 53.2665 28.3739 29.4623
11442 1 29.9143 18.9604 69.6296
11443 2 29.3466 18.4317 68.9986
11444 2 29.4363 19.8013 69.8833
11445 1 11.1692 15.2229 23.6241
11446 2 10.7066 16.0679 23.8926
11447 2 11.9635 15.4432 23.058
11448 1 64.6666 0.906635 67.0102
11449 2 63.7122 1.20384 67.0373
11450 2 65.0143 0.986949 66.076
11451 1 12.5323 28.0143 32.632
11452 2 13.2826 27.8793 33.2792
11453 2 12.5934 27.3317 31.9038
11454 1 32.1367 26.7575 76.3486
11455 2 31.5217 26.9541 77.1123
11456 2 32.5809 27.603 76.0522
11457 1 48.3246 19.0245 74.2872
11458 2 48.2879 19.9272 74.7159
11459 2 48.4431 18.3252 74.9922
11460 1 3.17806 22.7589 32.9923
11461 2 2.32505 22.81 33.5116
11462 2 3.72781 23.5744 33.1732
11463 1 69.2413 23.9402 65.094
11464 2 69.9157 23.7863 64.372
11465 2 69.6504 24.4932 65.8199
11466 1 23.3552 25.7502 82.5632
11467 2 23.623 25.0029 83.1713
11468 2 22.3622 25.7443 82.4451
11469 1 63.4222 21.4817 37.0687
11470 2 64.0879 21.6504 37.7956
11471 2 62.7463 20.8155 37.3838
11472 1 42.6897 20.0511 49.3266
11473 2 42.8965 20.9852 49.0356
11474 2 42.0823 19.6208 48.6589
11475 1 38.4628 25.1763 73.6992
11476 2 38.0945 24.8277 74.5611
11477 2 37.8202 25.8322 73.3032
11478 1 60.3807 14.5015 51.6212
11479 2 60.0753 15.428 51.8412
11480 2 60.541 14.4283 50.6368
11481 1 38.7594 1.03766 54.4232
11482 2 39.6049 1.41714 54.7989
11483 2 38.1572 0.760014 55.1717
11484 1 59.1683 27.5718 82.8222
11485 2 58.5459 28.0001 83.4772
11486 2 59.3744 26.6393 83.1189
11487 1 34.2808 28.7872 33.0653
11488 2 34.6128 28.6883 34.0034
11489 2 34.5991 29.6573 32.6891
11490 1 73.8745 10.2786 76.6597
11491 2 74.0748 10.4351 77.6268
11492 2 73.4086 9.40014 76.5537
11493 1 60.7988 25.9797 37.1369
11494 2 61.4016 25.7007 37.8844
11495 2 60.1878 26.7049 37.4543
11496 1 22.0115 18.7491 85.2728
11497 2 22.389 19.1706 86.0973
11498 2 21.5589 17.8908 85.5145
11499 1 15.0664 12.1402 45.9377
11500 2 14.5356 12.9618 45.7299
11501 2 15.9275 12.4012 46.374
11502 1 63.8605 5.92751 51.5535
11503 2 64.8496 6.07148 51.5851
11504 2 63.4238 6.71007 51.1097
11505 1 44.4724 19.4114 69.9792
11506 2 44.9263 19.4294 70.87
11507 2 44.5957 20.2934 69.5244
11508 1 38.2076 22.6076 58.8485
11509 2 37.5573 22.5478 58.0912
11510 2 38.7418 23.4486 58.7635
11511 1 24.0687 7.85815 67.3157
11512 2 25.0006 7.50831 67.2203
11513 2 24.0798 8.68851 67.8728
11514 1 37.5831 27.7732 58.9351
11515 2 36.6328 28.0823 58.9699
11516 2 38.1836 28.5582 58.7832
11517 1 53.0056 18.9555 83.1297
11518 2 52.8279 18.1863 82.516
11519 2 52.1852 19.523 83.1991
11520 1 58.2455 16.2015 58.4046
11521 2 57.361 16.4994 58.7637
11522 2 58.1405 15.3159 57.9523
11523 1 45.8982 25.8241 85.6187
11524 2 46.6931 26.0705 85.0643
11525 2 45.7867 26.4902 86.3561
11526 1 69.4709 23.4322 33.5102
11527 2 68.8778 23.7251 32.7603
11528 2 70.3477 23.909 33.4474
11529 1 52.3817 14.5841 36.1655
11530 2 51.9403 14.1865 36.9699
11531 2 52.7265 13.8518 35.5783
11532 1 4.94543 10.8506 50.4771
11533 2 3.96929 10.8846 50.6916
11534 2 5.07254 10.4669 49.5624
11535 1 10.952 22.1943 17.984
11536 2 10.5165 21.3301 17.732
11537 2 11.6432 22.0267 18.687
11538 1 66.5201 18.9663 54.9528
11539 2 67.487 18.8209 55.1622
11540 2 66.0349 19.2321 55.7858
11541 1 40.5784 29.5717 46.4493
11542 2 40.3411 29.6343 45.4799
11543 2 40.7179 0.490572 46.8183
11544 1 56.8856 19.6472 83.6459
11545 2 56.1356 19.5478 84.2998
11546 2 57.4156 20.4656 83.8685
11547 1 68.0513 2.58744 36.3742
11548 2 67.3262 1.89908 36.3936
11549 2 68.2153 2.92513 37.301
11550 1 13.8038 13.482 81.9254
11551 2 13.5863 12.5075 81.8708
11552 2 12.983 14.0183 81.729
11553 1 79.3093 7.91137 39.8139
11554 2 79.8232 8.73529 39.5751
11555 2 78.9302 7.50261 38.9837
11556 1 1.35742 20.5273 89.818
11557 2 1.69343 20.402 88.8845
11558 2 0.647787 21.2318 89.8251
11559 1 12.9184 13.9755 40.9164
11560 2 13.759 13.456 40.7626
11561 2 13.1489 14.904 41.2074
11562 1 29.842 12.7512 90.1551
11563 2 29.8807 12.2423 91.015
11564 2 30.7152 13.2141 90.0022
11565 1 46.3935 14.7782 51.4861
11566 2 47.0929 14.3302 50.9292
11567 2 46.7068 14.8331 52.4341
11568 1 23.8231 0.254585 79.9095
11569 2 23.9697 0.802545 80.733
11570 2 23.5052 0.845603 79.1681
11571 1 10.9432 21.1136 22.1424
11572 2 11.5301 21.8653 21.8414
11573 2 10.5213 20.6806 21.3458
11574 1 41.8102 17.0915 73.515
11575 2 41.216 16.383 73.8959
11576 2 42.021 17.7657 74.2228
11577 1 36.4284 11.7439 88.7847
11578 2 35.9519 10.889 88.5795
11579 2 37.4006 11.5577 88.9271
11580 1 60.501 1.04911 30.1104
11581 2 60.6603 0.20784 30.627
11582 2 60.0649 1.72649 30.7029
11583 1 21.494 9.43508 30.1646
11584 2 21.4594 10.1773 30.8338
11585 2 22.155 8.74698 30.4638
11586 1 18.4866 12.7551 81.4338
11587 2 17.6495 12.4706 80.9664
11588 2 18.9763 13.4174 80.8667
11589 1 62.2631 19.5125 28.5836
11590 2 62.6297 18.5859 28.4994
11591 2 62.8534 20.0511 29.1847
11592 1 13.7491 19.1652 35.4552
11593 2 13.7439 18.1739 35.324
11594 2 14.6748 19.5155 35.3127
11595 1 36.6684 24.7612 50.0275
11596 2 35.7372 24.4898 50.271
11597 2 36.8532 24.5044 49.0789
11598 1 43.05 15.6386 33.0227
11599 2 42.6786 15.8829 33.9185
11600 2 43.6877 14.8749 33.1232
11601 1 11.2609 24.8573 21.6735
11602 2 11.8292 24.1389 22.0748
11603 2 11.6412 25.7523 21.9067
11604 1 12.0697 7.44127 43.2561
11605 2 11.5552 7.46518 44.1132
11606 2 12.8677 6.84822 43.3628
11607 1 75.5729 19.3926 64.7965
11608 2 74.6647 19.3663 65.2142
11609 2 75.64 18.6788 64.0994
11610 1 67.5552 22.7168 56.946
11611 2 67.8555 22.4269 56.0373
11612 2 67.2867 21.9151 57.4799
11613 1 23.4269 2.97104 31.332
11614 2 24.1851 3.54393 31.6433
11615 2 23.1322 2.3738 32.078
11616 1 49.1516 8.91738 52.6699
11617 2 49.3765 8.06866 53.1485
11618 2 49.5678 9.6904 53.1487
11619 1 35.862 27.5047 54.5081
11620 2 34.9221 27.7455 54.75
11621 2 36.2314 28.1914 53.8819
11622 1 46.5188 8.42366 32.419
11623 2 45.9053 8.16376 31.6732
11624 2 47.2588 8.99184 32.0591
11625 1 69.7887 25.9907 86.6711
11626 2 70.1189 26.9031 86.4291
11627 2 69.6254 25.946 87.6567
11628 1 14.3989 5.77131 15.8503
11629 2 13.6446 5.12579 15.9702
11630 2 14.1667 6.6401 16.2877
11631 1 23.6333 14.4233 73.1765
11632 2 22.8876 13.7844 73.3655
11633 2 24.2645 14.0135 72.518
11634 1 25.5226 29.297 37.3594
11635 2 26.0253 28.44 37.4729
11636 2 24.9591 29.2463 36.5349
11637 1 11.1928 26.2251 89.0412
11638 2 11.7599 27.0024 88.7688
11639 2 11.1834 25.546 88.3072
11640 1 28.9734 1.08543 68.593
11641 2 28.3163 0.624641 67.9964
11642 2 28.7647 2.06285 68.6266
11643 1 50.958 6.67148 55.6705
11644 2 50.7612 7.57564 56.0497
11645 2 51.9295 6.61034 55.4415
11646 1 27.6178 26.3352 74.1621
11647 2 26.6213 26.3922 74.1
11648 2 27.9308 26.8375 74.9682
11649 1 13.0497 5.34546 12.9171
11650 2 13.3902 4.73077 12.2055
11651 2 12.485 4.82944 13.5611
11652 1 59.1586 0.736372 43.672
11653 2 59.4912 1.56487 44.1225
11654 2 59.0582 0.907343 42.6919
11655 1 32.211 14.322 51.8446
11656 2 31.6759 14.1384 51.02
11657 2 31.9267 15.1961 52.2386
11658 1 0.482244 2.76067 21.7392
11659 2 1.17123 3.47589 21.8565
11660 2 0.794028 1.92128 22.1844
11661 1 5.85948 0.855266 65.9851
11662 2 5.58152 1.17876 65.0806
11663 2 6.24889 29.9376 65.9057
11664 1 27.0846 8.85713 67.4051
11665 2 27.0152 9.14429 66.4497
11666 2 27.0906 7.85831 67.4533
11667 1 29.2794 12.363 76.53
11668 2 29.412 11.7603 77.3168
11669 2 28.3013 12.5152 76.3878
11670 1 66.1934 1.86423 15.684
11671 2 66.1646 2.36783 14.8206
11672 2 66.2706 0.885034 15.4964
11673 1 41.5897 19.1208 76.1248
11674 2 41.6959 19.2287 77.1133
11675 2 42.0543 19.8718 75.6557
11676 1 26.8518 25.6463 55.6609
11677 2 27.7496 25.9857 55.9412
11678 2 26.5129 26.1931 54.8953
11679 1 26.9525 21.9389 61.1086
11680 2 27.0252 21.6179 60.1643
11681 2 26.1062 22.4601 61.2192
11682 1 71.6871 13.1052 14.7682
11683 2 71.96 12.6241 15.6014
11684 2 71.6376 12.4559 14.0094
11685 1 3.61553 13.9474 87.9364
11686 2 3.31753 13.3942 87.1585
11687 2 2.88703 14.583 88.192
11688 1 27.4262 5.83556 31.8659
11689 2 26.6897 5.32708 32.312
11690 2 28.193 5.22018 31.6831
11691 1 79.247 11.2524 87.4287
11692 2 79.2199 12.252 87.4223
11693 2 79.0302 10.9189 88.3462
11694 1 62.0581 26.4707 81.0459
11695 2 62.5254 25.6175 80.8141
11696 2 61.3856 26.2975 81.7654
11697 1 52.1002 28.3281 54.0659
11698 2 52.6359 28.9291 53.4727
11699 2 51.1779 28.2274 53.6928
11700 1 2.16145 10.9736 29.4924
11701 2 2.27651 11.4582 28.6252
11702 2 3.02308 10.989 29.9997
11703 1 4.05833 26.516 81.896
11704 2 4.18731 26.785 80.9416
11705 2 3.31935 25.8449 81.9562
11706 1 57.8915 15.7372 45.5904
11707 2 58.5951 15.0993 45.9035
11708 2 58.0112 16.6173 46.05
11709 1 5.12353 5.08346 56.1153
11710 2 5.19958 5.05965 57.1121
11711 2 4.43296 5.75618 55.8496
11712 1 35.186 1.74799 76.8342
11713 2 35.6579 2.14666 77.6206
11714 2 35.8223 1.17272 76.3202
11715 1 50.5492 22.1413 77.3842
11716 2 49.8197 22.1395 78.0682
11717 2 51.1959 22.8762 77.5885
11718 1 43.428 24.7348 77.3245
11719 2 42.603 24.7524 76.7596
11720 2 43.1802 24.8878 78.2812
11721 1 2.01152 1.77621 31.625
11722 2 2.12088 1.62801 32.6079
11723 2 1.48036 1.02569 31.2318
11724 1 35.2323 7.1985 33.3662
11725 2 34.4611 7.11452 33.9973
11726 2 35.6408 6.29797 33.2174
11727 1 74.6883 0.731064 52.2318
11728 2 75.5334 1.05614 51.8074
11729 2 74.4792 1.29349 53.0317
11730 1 24.4053 28.9334 40.0871
11731 2 23.5871 28.6751 40.6008
11732 2 24.3233 28.609 39.1447
11733 1 2.00614 15.53 68.8953
11734 2 1.38107 14.7671 69.06
11735 2 1.86756 16.2314 69.5945
11736 1 8.87217 0.548973 90.8809
11737 2 9.30893 1.42205 90.6642
11738 2 9.43372 29.7993 90.5307
11739 1 50.8047 6.86813 78.3336
11740 2 50.9184 7.38133 77.4829
11741 2 51.4861 6.13744 78.3757
11742 1 33.517 27.0159 73.8575
11743 2 33.2001 27.3862 74.7307
11744 2 34.5153 26.9577 73.8629
11745 1 38.9926 14.9796 71.9779
11746 2 39.8285 14.8972 72.5206
11747 2 38.1978 14.9568 72.5844
11748 1 45.2165 7.20778 29.598
11749 2 44.9021 7.41406 28.6714
11750 2 44.5203 6.67085 30.0744
11751 1 76.0723 13.2777 67.1687
11752 2 76.1307 12.6766 67.9658
11753 2 75.8169 12.741 66.3645
11754 1 69.7379 3.16422 11.5566
11755 2 70.6418 3.28118 11.1451
11756 2 69.7055 2.294 12.0482
11757 1 55.553 21.557 85.7877
11758 2 55.8505 22.2838 85.1687
11759 2 55.2705 20.7597 85.2543
11760 1 29.5832 16.2149 40.8585
11761 2 29.715 15.2688 40.5626
11762 2 29.7149 16.2761 41.8478
11763 1 38.3831 10.5218 28.552
11764 2 38.6037 9.97851 29.362
11765 2 37.8677 9.96056 27.9044
11766 1 61.0534 26.7587 76.3153
11767 2 60.6359 26.7653 77.2239
11768 2 60.6502 27.4846 75.758
11769 1 16.0136 23.8141 48.688
11770 2 15.0814 23.4862 48.8416
11771 2 16.3033 24.3714 49.4661
11772 1 77.5476 12.2764 19.9976
11773 2 78.5188 12.0412 20.0365
11774 2 77.0843 11.9145 20.8064
11775 1 72.1023 11.4395 26.473
11776 2 72.451 11.488 25.5371
11777 2 71.4335 10.6993 26.5417
11778 1 25.9226 11.4099 70.2147
11779 2 25.1496 12.0177 70.3965
11780 2 25.5924 10.5711 69.7818
11781 1 16.63 12.6738 12.2609
11782 2 16.0706 11.8805 12.0205
11783 2 16.6446 12.7824 13.2549
11784 1 21.5037 22.3348 32.3547
11785 2 20.7495 22.9828 32.4614
11786 2 21.7256 21.9326 33.243
11787 1 1.06716 18.8953 82.9312
11788 2 1.37258 18.8078 81.983
11789 2 0.369969 18.2043 83.122
11790 1 26.6153 11.8239 36.3231
11791 2 27.1799 12.6448 36.2371
11792 2 27.0877 11.1527 36.8942
11793 1 12.8439 29.1372 83.2982
11794 2 13.7432 29.5679 83.2222
11795 2 12.132 29.8246 83.1542
11796 1 3.05886 15.6389 34.8543
11797 2 2.71654 16.4745 34.4247
11798 2 2.28817 15.0526 35.1039
11799 1 23.2984 26.2073 90.9208
11800 2 22.6622 25.908 91.6319
11801 2 23.5441 25.4283 90.3439
11802 1 55.1239 17.7662 45.1736
11803 2 55.3252 18.3396 44.3795
11804 2 55.7974 17.9425 45.8915
11805 1 16.0309 17.0951 87.4476
11806 2 16.6629 17.8295 87.6951
11807 2 15.9827 16.4312 88.1939
11808 1 48.2828 12.2643 54.5938
11809 2 48.029 12.9084 55.3153
11810 2 47.6172 11.5186 54.5634
11811 1 72.9999 1.4919 27.8057
11812 2 72.3022 2.0487 28.2563
11813 2 73.3731 0.83262 28.4584
11814 1 44.6188 28.416 35.8223
11815 2 45.587 28.1672 35.85
11816 2 44.2657 28.4856 36.7553
11817 1 22.3235 23.4083 55.5511
11818 2 21.3287 23.464 55.6371
11819 2 22.5594 22.7742 54.8147
11820 1 56.5287 11.0519 64.1275
11821 2 56.6136 12.0199 64.3637
11822 2 56.6328 10.9396 63.1393
11823 1 48.6525 21.4745 90.3494
11824 2 49.0819 22.1884 89.7963
11825 2 49.3248 20.7639 90.5569
11826 1 1.76295 2.12807 83.3215
11827 2 2.01446 1.47943 84.0399
11828 2 1.38917 2.95727 83.7371
11829 1 3.9967 13.2658 26.7857
11830 2 3.83686 14.2516 26.735
11831 2 3.16287 12.8084 27.0947
11832 1 4.97511 16.703 31.5002
11833 2 5.16892 17.3065 30.7267
11834 2 3.99371 16.5149 31.5384
11835 1 19.8818 14.003 67.988
11836 2 19.7801 13.5509 68.8741
11837 2 19.039 14.4929 67.765
11838 1 37.24 21.2347 75.4179
11839 2 37.1553 22.2232 75.543
11840 2 37.7163 20.8389 76.203
11841 1 60.8785 29.27 49.5625
11842 2 61.7928 29.6655 49.4757
11843 2 60.4912 29.5175 50.4506
11844 1 56.7969 8.66439 54.2438
11845 2 56.4273 8.38094 53.3589
11846 2 56.1414 9.26457 54.7021
11847 1 63.8485 1.37232 56.8463
11848 2 63.1384 1.68772 56.2168
11849 2 63.8784 1.97487 57.6439
11850 1 10.0549 26.0889 54.2803
11851 2 10.4495 25.312 54.7711
11852 2 9.07253 25.9442 54.1621
11853 1 57.4033 3.72343 28.9575
11854 2 56.4255 3.80478 29.1504
11855 2 57.6531 4.35954 28.2275
11856 1 72.4108 26.1512 38.7573
11857 2 72.8118 25.4768 39.3773
11858 2 71.4657 25.896 38.5534
11859 1 75.5161 2.91473 32.9777
11860 2 75.9792 3.59687 32.4119
11861 2 76.1921 2.28593 33.362
11862 1 40.3368 9.86195 83.0145
11863 2 40.9063 10.0461 83.8156
11864 2 40.0558 8.90224 83.0187
11865 1 30.4194 1.78914 86.0918
11866 2 30.1924 2.43825 85.3657
11867 2 31.3706 1.49721 85.9925
11868 1 9.33457 9.33798 42.4261
11869 2 8.44331 9.19907 42.8578
11870 2 10.053 9.28346 43.1196
11871 1 58.3949 16.3726 48.9779
11872 2 58.499 17.1002 49.6561
11873 2 59.042 16.5193 48.2297
11874 1 28.8286 19.4549 88.0335
11875 2 28.3274 18.6883 88.4348
11876 2 28.9339 19.3062 87.0502
11877 1 0.00836984 0.0526944 33.3391
11878 2 79.3368 0.23945 32.622
11879 2 79.7123 29.2623 33.8754
11880 1 1.08158 22.931 67.2329
11881 2 0.649512 23.1452 68.1089
11882 2 1.1466 23.7625 66.6812
11883 1 15.1925 7.20562 76.2498
11884 2 14.9992 7.5045 75.3153
11885 2 14.3487 6.88105 76.6772
11886 1 46.0049 2.80912 30.8728
11887 2 46.41 3.68641 30.6155
11888 2 45.5052 2.43131 30.0933
11889 1 20.0413 13.0724 52.2287
11890 2 20.2933 13.8414 52.8162
11891 2 20.6525 12.3015 52.4083
11892 1 7.99619 15.4056 11.5789
11893 2 7.00106 15.4695 11.5037
11894 2 8.30848 14.5552 11.1554
11895 1 70.1837 13.5902 53.2736
11896 2 70.9495 14.0613 53.7114
11897 2 70.5295 12.8237 52.7323
11898 1 76.8865 9.14503 60.9412
11899 2 76.8854 9.79601 60.1821
11900 2 76.0398 8.61321 60.9255
11901 1 5.56383 20.9113 36.5169
11902 2 5.20672 21.5481 37.2003
11903 2 4.81416 20.3594 36.1517
11904 1 17.1734 5.17202 76.5513
11905 2 16.619 5.92737 76.2019
11906 2 18.1072 5.49108 76.7134
11907 1 61.2906 19.9759 52.6988
11908 2 62.273 20.081 52.5439
11909 2 61.0471 20.3804 53.5803
11910 1 29.3489 17.4677 59.0452
11911 2 29.5871 18.4179 59.246
11912 2 28.42 17.4275 58.6772
11913 1 47.2072 15.4712 72.7026
11914 2 47.8628 15.1775 72.007
11915 2 47.3117 14.9041 73.5196
11916 1 75.3243 11.017 39.9792
11917 2 75.6077 11.6796 40.6725
11918 2 75.7184 11.2699 39.0956
11919 1 35.7489 10.5481 53.6931
11920 2 35.5163 11.2158 54.4003
11921 2 35.7943 11.0054 52.8049
11922 1 29.058 26.7617 32.2152
11923 2 29.8606 27.3359 32.0535
11924 2 29.3144 25.9847 32.7901
11925 1 48.0516 13.8154 80.4229
11926 2 48.1044 14.6167 81.0188
11927 2 48.5105 13.0428 80.8617
11928 1 17.7889 5.91175 83.2551
11929 2 17.3878 5.3497 83.9784
11930 2 17.4144 5.63373 82.3705
11931 1 16.6648 19.5793 41.1596
11932 2 17.0773 20.0013 41.9669
11933 2 16.1471 18.7692 41.4348
11934 1 66.0009 13.4719 48.6645
11935 2 66.1253 14.4596 48.5693
11936 2 65.08 13.2217 48.3655
11937 1 28.7009 18.9691 26.0771
11938 2 28.5383 18.0783 26.5014
11939 2 28.4856 18.9181 25.1019
11940 1 52.0989 24.0802 85.1423
11941 2 52.3068 24.7594 85.8462
11942 2 52.285 24.4681 84.2396
11943 1 29.6952 23.1859 71.0616
11944 2 29.3639 22.2999 70.7373
11945 2 30.0836 23.0819 71.9772
11946 1 76.2672 28.5117 82.8954
11947 2 76.1197 28.9088 81.9896
11948 2 75.9648 27.5585 82.8948
11949 1 25.3023 1.88805 74.6823
11950 2 25.3741 0.905999 74.8567
11951 2 24.3409 2.16193 74.7093
11952 1 4.07683 16.8327 38.4321
11953 2 4.18072 17.1252 37.4815
11954 2 3.11508 16.8987 38.6979
11955 1 10.3408 16.7056 66.1197
11956 2 10.2776 16.428 65.1611
11957 2 11.2796 16.5819 66.4414
11958 1 55.2164 26.0837 52.837
11959 2 55.3105 26.5991 51.9853
11960 2 54.4667 25.4278 52.7485
11961 1 73.7668 17.9321 51.3513
11962 2 74.5503 17.418 51.0024
11963 2 73.3208 18.4132 50.5965
11964 1 1.67826 15.768 51.66
11965 2 1.5067 16.7079 51.955
11966 2 0.810498 15.3268 51.431
11967 1 5.12119 23.9956 62.7379
11968 2 5.24584 23.2463 63.3882
11969 2 5.92085 24.5955 62.7633
11970 1 54.1124 17.9913 24.9099
11971 2 53.5687 17.3702 25.4744
11972 2 54.229 17.5973 23.9982
11973 1 62.6126 23.9018 79.6432
11974 2 61.6958 24.0874 79.2898
11975 2 63.0401 23.1804 79.0984
11976 1 75.2196 13.9602 81.2104
11977 2 75.0614 14.8277 81.682
11978 2 75.0496 13.2024 81.8404
11979 1 60.2082 1.04397 70.7129
11980 2 60.9252 0.745476 70.083
11981 2 60.6258 1.46842 71.5163
11982 1 41.9812 15.7518 71.0559
11983 2 41.9921 16.2736 71.9089
11984 2 41.7105 16.3507 70.3023
11985 1 73.9497 22.7953 30.0606
11986 2 74.8771 22.5976 30.3782
11987 2 73.5737 21.9876 29.6066
11988 1 40.6415 16.5596 81.0671
11989 2 40.6301 17.3579 80.4649
11990 2 40.0346 15.8555 80.6986
11991 1 55.6295 26.7178 36.3695
11992 2 55.7912 25.7685 36.639
11993 2 54.7764 27.0401 36.7798
11994 1 20.0218 23.4158 67.2079
11995 2 19.1303 22.9747 67.3105
11996 2 20.0819 23.8399 66.3043
11997 1 57.5822 25.57 63.0241
11998 2 57.5719 26.5394 62.7788
11999 2 58.4161 25.3647 63.5363
12000 1 48.535 22.3358 62.0383
12001 2 47.9938 23.1268 62.3235
12002 2 48.3247 22.1138 61.0862
12003 1 9.71859 5.02909 35.5727
12004 2 8.92641 5.33654 35.0456
12005 2 10.51 5.59712 35.347
12006 1 47.1639 21.2065 28.8516
12007 2 47.0691 20.6731 29.6921
12008 2 47.9012 20.8234 28.2951
12009 1 18.8331 10.6111 42.6363
12010 2 19.7594 10.3818 42.3375
12011 2 18.6543 11.5783 42.4556
12012 1 27.3026 16.3619 61.1138
12013 2 26.735 15.6018 61.43
12014 2 28.1732 16.008 60.772
12015 1 45.3366 13.1472 54.2758
12016 2 44.4827 13.5243 54.6344
12017 2 46.052 13.8447 54.3162
12018 1 75.0303 11.832 73.7205
12019 2 75.0327 11.305 74.5703
12020 2 75.9339 12.2349 73.5755
12021 1 31.2811 12.6989 69.9662
12022 2 31.8222 12.2147 69.2786
12023 2 30.4434 13.0478 69.5461
12024 1 24.4512 15.701 58.7157
12025 2 25.3267 15.7215 58.2328
12026 2 24.5035 15.05 59.4731
12027 1 51.7067 24.9407 87.7782
12028 2 51.0616 24.4724 88.382
12029 2 52.6396 24.7878 88.1042
12030 1 1.06098 9.56484 33.5258
12031 2 0.936477 10.4679 33.9368
12032 2 1.47997 8.94957 34.1935
12033 1 67.0431 17.1493 31.2919
12034 2 67.5449 16.6874 30.5605
12035 2 66.8424 16.4963 32.0222
12036 1 79.4654 18.6693 21.419
12037 2 79.4895 18.1104 20.5901
12038 2 0.020836 18.2364 22.1291
12039 1 1.6309 5.62669 42.94
12040 2 2.04103 5.79844 43.8357
12041 2 0.634342 5.6483 43.02
12042 1 39.4984 26.2774 49.1816
12043 2 38.8194 25.6708 48.7681
12044 2 40.0775 26.6668 48.4654
12045 1 72.6235 19.9043 12.7965
12046 2 71.763 19.7934 12.2991
12047 2 73.0176 20.7988 12.5854
12048 1 55.1364 5.43574 85.7182
12049 2 55.6647 6.26584 85.8968
12050 2 55.1908 5.2088 84.7458
12051 1 62.8872 12.6696 16.3977
12052 2 62.3454 12.9263 17.198
12053 2 63.007 11.677 16.3807
12054 1 46.0769 12.2274 45.4656
12055 2 45.15 12.2766 45.8378
12056 2 46.7086 11.9321 46.1824
12057 1 78.0604 5.35233 31.0824
12058 2 78.9938 5.09525 31.3326
12059 2 78.0197 6.33717 30.9138
12060 1 78.4701 9.13876 32.677
12061 2 78.1803 9.57243 31.8238
12062 2 79.4477 8.93339 32.6313
12063 1 42.3079 4.71388 66.9223
12064 2 42.9949 5.43681 66.8487
12065 2 42.7491 3.86244 67.2059
12066 1 55.1541 12.4151 49.9769
12067 2 55.9776 12.9263 50.2228
12068 2 54.6537 12.9106 49.2669
12069 1 78.9671 16.4074 24.1137
12070 2 78.9471 15.6298 23.4852
12071 2 79.8177 16.3895 24.6391
12072 1 49.6092 13.0992 82.6771
12073 2 49.8764 12.1506 82.5075
12074 2 49.9135 13.3732 83.5895
12075 1 28.4515 27.1784 49.8165
12076 2 29.2684 27.2078 49.2405
12077 2 28.3246 26.2509 50.1679
12078 1 53.5876 15.4926 55.0661
12079 2 53.629 15.6187 56.0573
12080 2 53.6693 16.3805 54.6135
12081 1 45.398 4.48465 66.0709
12082 2 44.8722 5.33395 66.1178
12083 2 44.8664 3.74071 66.4758
12084 1 50.6597 16.5221 71.0732
12085 2 49.9386 15.888 70.7942
12086 2 50.8034 16.4501 72.0602
12087 1 69.9498 20.3441 77.8223
12088 2 70.0349 21.1188 78.4488
12089 2 70.7367 19.7372 77.9339
12090 1 38.4168 2.72654 73.9257
12091 2 37.6818 2.64676 73.2524
12092 2 38.5407 3.68788 74.1716
12093 1 32.6482 6.13607 67.9651
12094 2 32.1417 5.71204 68.7158
12095 2 32.0063 6.45019 67.2655
12096 1 15.7181 3.95494 83.9843
12097 2 15.8655 4.09027 83.0045
12098 2 14.7399 4.00832 84.1847
12099 1 34.4317 17.259 31.2974
12100 2 34.5159 17.9877 31.9771
12101 2 35.3251 16.8338 31.1523
12102 1 8.59326 21.7593 65
12103 2 8.69617 22.5752 65.5688
12104 2 7.65 21.6971 64.6738
12105 1 15.4691 7.56332 11.0485
12106 2 15.9424 7.13975 11.8209
12107 2 15.87 7.2371 10.1925
12108 1 41.5114 6.46242 83.5519
12109 2 41.1812 6.74557 84.4523
12110 2 41.0297 6.97777 82.8431
12111 1 60.3528 21.2782 68.989
12112 2 61.1989 21.7632 69.2102
12113 2 59.7836 21.8524 68.4006
12114 1 65.0173 7.603 84.2719
12115 2 64.547 8.48529 84.2907
12116 2 65.5185 7.47425 85.1277
12117 1 63.6685 24.901 87.3722
12118 2 64.3274 24.2524 86.9912
12119 2 64.0827 25.3816 88.1452
12120 1 50.2976 1.80301 42.3017
12121 2 49.8345 0.942435 42.0898
12122 2 50.9252 2.03557 41.5587
12123 1 63.2419 20.4514 49.4573
12124 2 63.8266 19.9512 50.0959
12125 2 62.2956 20.1455 49.5621
12126 1 5.0175 21.5202 23.8842
12127 2 5.56867 21.1458 23.1385
12128 2 5.21854 22.4939 23.9909
12129 1 62.8714 15.55 90.3467
12130 2 62.8604 14.7292 89.7756
12131 2 63.2719 15.3314 91.2366
12132 1 4.97815 23.307 38.9657
12133 2 5.53268 23.7335 38.2512
12134 2 5.01612 23.8649 39.7947
12135 1 72.5388 16.0998 90.8554
12136 2 73.3964 16.6072 90.9394
12137 2 71.8019 16.7293 90.609
12138 1 70.9369 28.0413 84.1835
12139 2 70.8182 28.1527 85.1701
12140 2 71.5089 28.7819 83.8308
12141 1 26.4061 22.0755 84.4292
12142 2 26.4824 21.2834 85.0348
12143 2 25.5572 22.5657 84.6269
12144 1 57.1895 23.9793 88.6625
12145 2 56.2809 24.1503 88.2814
12146 2 57.8634 23.9643 87.9239
12147 1 35.9378 15.2825 70.7165
12148 2 36.0554 15.7983 71.5651
12149 2 36.7097 15.4634 70.1069
12150 1 49.4107 9.24919 76.3933
12151 2 50.2601 9.70652 76.6568
12152 2 48.9164 9.81737 75.7354
12153 1 14.6098 19.5356 20.9774
12154 2 14.2897 18.6392 20.6707
12155 2 14.225 20.2463 20.3885
12156 1 67.8586 19.0229 25.9679
12157 2 66.9382 19.2949 26.2488
12158 2 68.2194 18.3508 26.6145
12159 1 60.324 2.17993 81.7901
12160 2 60.3688 2.24963 82.7866
12161 2 61.1454 1.72146 81.4507
12162 1 22.0231 8.17806 90.6947
12163 2 21.194 8.47704 90.2222
12164 2 22.7444 8.85845 90.565
12165 1 50.2108 2.12722 75.0211
12166 2 49.7218 2.98514 75.179
12167 2 50.2717 1.6157 75.8782
12168 1 42.9794 8.31616 68.7693
12169 2 43.8295 8.36293 69.2939
12170 2 42.8228 9.19035 68.3096
12171 1 72.1574 22.1771 79.6749
12172 2 71.5812 22.2203 80.491
12173 2 73.0256 22.6395 79.855
12174 1 42.1458 29.9313 81.6085
12175 2 41.285 29.5453 81.2767
12176 2 42.5512 29.3125 82.2813
12177 1 45.2642 10.5624 68.1967
12178 2 45.5963 9.77788 67.6731
12179 2 45.6427 10.53 69.1217
12180 1 59.3433 29.868 34.3333
12181 2 58.9815 0.635815 33.8046
12182 2 58.8929 29.8362 35.2256
12183 1 41.5611 0.581579 67.4746
12184 2 42.3307 1.20581 67.3403
12185 2 41.2646 0.618509 68.4289
12186 1 17.6504 13.4895 65.6714
12187 2 16.824 13.3342 65.1301
12188 2 17.4766 14.2061 66.3468
12189 1 35.0669 0.249992 39.4389
12190 2 35.8517 29.9719 39.9927
12191 2 35.1755 29.9011 38.508
12192 1 69.5626 6.67144 41.5709
12193 2 70.1498 6.11891 40.9794
12194 2 68.6094 6.56461 41.2879
12195 1 23.1187 8.24042 61.6532
12196 2 23.5737 7.7678 62.4079
12197 2 23.1297 9.22599 61.8222
12198 1 69.2174 8.47653 12.4204
12199 2 69.0517 8.52495 13.4054
12200 2 69.9417 7.81202 12.2365
12201 1 58.1653 16.3202 34.0922
12202 2 58.3352 17.0999 34.6948
12203 2 58.467 15.4794 34.5418
12204 1 78.4096 19.5101 74.1617
12205 2 79.1993 20.0626 73.8949
12206 2 78.3211 19.5144 75.1577
12207 1 76.198 19.5978 52.4096
12208 2 76.4457 18.631 52.3472
12209 2 75.3596 19.6931 52.9464
12210 1 32.8104 23.9085 84.0563
12211 2 33.2121 23.3733 84.7994
12212 2 33.315 23.7357 83.2105
12213 1 62.6565 7.76063 33.5127
12214 2 61.8007 8.00248 33.9699
12215 2 63.3018 7.39649 34.1842
12216 1 46.5045 7.74422 39.4528
12217 2 45.5226 7.66967 39.2785
12218 2 46.6538 8.05078 40.3928
12219 1 70.5173 11.9042 56.2008
12220 2 71.2647 11.5318 56.751
12221 2 70.0493 11.1588 55.7261
12222 1 57.1147 5.39682 26.6689
12223 2 56.1394 5.58728 26.7815
12224 2 57.2508 4.81933 25.8639
12225 1 1.21562 24.3421 70.3014
12226 2 1.9907 24.6728 70.8398
12227 2 0.861488 23.5005 70.7092
12228 1 70.1132 1.9156 34.744
12229 2 69.5863 1.59169 33.9582
12230 2 69.543 2.51833 35.3021
12231 1 40.2164 29.905 62.9542
12232 2 39.7161 29.6861 62.1164
12233 2 40.8005 29.133 63.2049
12234 1 65.9328 2.00617 64.215
12235 2 66.1447 1.03809 64.3489
12236 2 65.1719 2.09503 63.5724
12237 1 68.1389 18.6047 75.4637
12238 2 67.3089 18.987 75.0577
12239 2 67.8898 17.9543 76.1814
12240 1 65.3235 3.05855 49.2744
12241 2 64.3784 3.36171 49.1522
12242 2 65.5711 3.12059 50.2413
12243 1 19.8987 9.60064 56.0497
12244 2 19.6229 9.98486 55.1686
12245 2 20.8203 9.91534 56.2767
12246 1 71.4019 11.4643 17.2114
12247 2 71.9466 11.0231 17.9247
12248 2 70.4851 11.0653 17.1974
12249 1 49.7201 25.9408 48.5476
12250 2 50.1503 26.6965 49.0413
12251 2 48.8323 25.736 48.9596
12252 1 0.89048 3.42137 27.7645
12253 2 1.84823 3.13428 27.7816
12254 2 0.341991 2.78504 28.3069
12255 1 69.0462 0.452859 25.7611
12256 2 68.2675 29.8273 25.7139
12257 2 69.3759 0.504051 26.7038
12258 1 33.6125 5.28624 87.7343
12259 2 33.6242 5.43613 88.723
12260 2 32.9226 4.59804 87.5097
12261 1 56.4598 21.081 32.5447
12262 2 55.461 21.0948 32.5916
12263 2 56.8385 21.2349 33.4573
12264 1 10.4171 16.8635 43.1242
12265 2 11.04 16.1606 43.4676
12266 2 10.8329 17.3225 42.339
12267 1 44.5298 6.97537 66.443
12268 2 44.0546 7.37757 67.2257
12269 2 45.5168 7.08457 66.5603
12270 1 30.6455 4.93824 48.4878
12271 2 30.4064 4.43844 49.3203
12272 2 31.6376 4.9233 48.3634
12273 1 53.723 12.4144 53.52
12274 2 54.3605 11.9504 54.1351
12275 2 53.8784 13.4014 53.5617
12276 1 50.0964 15.852 59.3785
12277 2 49.5511 16.2135 58.6223
12278 2 49.9797 16.4354 60.1823
12279 1 73.1834 29.0154 72.0239
12280 2 73.326 28.5434 71.1539
12281 2 74.0688 29.2584 72.4202
12282 1 5.35504 3.53986 41.4082
12283 2 4.66214 3.00847 41.8955
12284 2 5.05448 4.49071 41.3337
12285 1 64.0202 29.6585 63.265
12286 2 64.5844 29.1815 62.5911
12287 2 63.5741 28.9895 63.8596
12288 1 32.1463 21.6562 31.1226
12289 2 31.9946 22.5886 30.7946
12290 2 32.8476 21.6636 31.8354
12291 1 2.16927 17.7262 32.8791
12292 2 1.31957 17.7397 32.352
12293 2 2.33852 18.6344 33.2619
12294 1 47.3912 7.84768 35.8511
12295 2 46.8607 7.32801 36.5208
12296 2 47.0998 8.80417 35.8648
12297 1 71.9667 23.1372 18.425
12298 2 71.9525 22.6887 17.5313
12299 2 72.145 22.4573 19.1363
12300 1 73.6466 17.4982 47.0967
12301 2 72.7571 17.943 47.2008
12302 2 74.2867 17.8717 47.768
12303 1 68.0957 27.5112 64.6789
12304 2 67.5571 26.6772 64.5584
12305 2 67.4892 28.3059 64.655
12306 1 3.3255 5.74776 33.3753
12307 2 3.14361 5.00376 34.0183
12308 2 3.07423 5.45886 32.4515
12309 1 78.663 25.4333 17.9143
12310 2 78.65 24.441 18.0375
12311 2 79.5425 25.7096 17.5269
12312 1 49.9605 19.7149 78.514
12313 2 49.1291 20.1156 78.8989
12314 2 50.5065 20.432 78.0809
12315 1 43.3127 7.02113 61.794
12316 2 43.6057 6.27117 61.2009
12317 2 42.8492 7.71764 61.2463
12318 1 4.10425 6.7579 86.5327
12319 2 4.56519 7.48706 86.0269
12320 2 4.38923 5.87004 86.1715
12321 1 37.5628 20.3515 35.9772
12322 2 37.4587 20.8163 36.8565
12323 2 37.8337 21.0147 35.2796
12324 1 75.8257 25.8543 72.3947
12325 2 76.3752 26.6469 72.6588
12326 2 76.1633 25.0415 72.8695
12327 1 37.8799 23.3001 65.68
12328 2 37.9271 23.9937 64.9612
12329 2 37.9531 23.7415 66.5743
12330 1 62.4353 13.6044 88.3979
12331 2 62.6695 14.4299 87.8844
12332 2 62.2848 12.8477 87.7617
12333 1 75.0173 11.5161 33.6697
12334 2 75.8321 11.1391 33.2294
12335 2 75.0362 11.3008 34.6461
12336 1 59.9448 7.94337 31.0347
12337 2 60.6025 7.20774 31.1971
12338 2 59.9608 8.58082 31.805
12339 1 54.4605 29.7182 52.6083
12340 2 54.4211 29.0366 51.8776
12341 2 54.0611 0.576285 52.2856
12342 1 73.23 15.9832 87.9114
12343 2 72.4283 15.8627 87.3259
12344 2 72.9789 15.8009 88.862
12345 1 43.0083 22.6965 53.3169
12346 2 42.5827 22.7407 54.2207
12347 2 42.5137 23.2942 52.686
12348 1 5.18338 19.7998 40.702
12349 2 5.32548 18.9107 40.2669
12350 2 4.96158 19.6666 41.6679
12351 1 27.0417 21.3164 32.5455
12352 2 27.9435 21.6151 32.2332
12353 2 27.0986 21.0281 33.5013
12354 1 57.63 0.251232 20.9894
12355 2 58.1085 0.717734 21.7333
12356 2 56.6747 0.106133 21.2467
12357 1 46.5078 17.1014 43.4577
12358 2 46.3091 16.1237 43.5257
12359 2 46.5587 17.4958 44.3753
12360 1 26.9731 24.9769 78.2336
12361 2 26.1942 25.0246 77.6083
12362 2 26.9223 24.1317 78.7655
12363 1 46.964 21.1258 68.2241
12364 2 47.5489 20.5569 68.8023
12365 2 47.2198 22.0862 68.3337
12366 1 70.1017 14.7597 68.3894
12367 2 70.6426 14.8518 69.2254
12368 2 69.3693 14.0953 68.5377
12369 1 2.53203 19.8875 28.1885
12370 2 3.51146 20.0859 28.1517
12371 2 2.01606 20.711 27.9526
12372 1 30.3344 0.896292 39.0693
12373 2 30.3364 29.8964 39.0538
12374 2 30.9771 1.24152 38.3853
12375 1 75.0588 26.4616 79.2441
12376 2 75.1502 25.9215 80.0807
12377 2 74.8056 25.861 78.4857
12378 1 68.0137 6.63684 26.0206
12379 2 68.5798 6.01383 26.5605
12380 2 67.0622 6.33061 26.0476
12381 1 50.0469 1.15261 80.502
12382 2 49.5571 1.80741 79.9264
12383 2 50.4267 1.62622 81.2967
12384 1 59.027 2.01647 19.675
12385 2 59.861 1.97963 19.1244
12386 2 58.7386 1.08717 19.9056
12387 1 16.9149 19.6367 11.6652
12388 2 17.5692 19.3556 12.3671
12389 2 16.6866 18.852 11.0889
12390 1 3.83741 9.23532 79.7303
12391 2 3.98466 10.089 79.2308
12392 2 3.69552 8.48891 79.0801
12393 1 60.1988 10.8477 86.2177
12394 2 60.2442 10.8232 87.2164
12395 2 59.5414 11.5445 85.9309
12396 1 35.7159 7.65593 69.2778
12397 2 35.6254 7.37197 70.2324
12398 2 35.0432 8.36802 69.0768
12399 1 63.2148 23.7169 21.646
12400 2 63.989 24.3196 21.8393
12401 2 62.4112 24.2682 21.4217
12402 1 8.56598 18.6412 42.6205
12403 2 8.80234 17.684 42.7877
12404 2 7.78415 18.6877 41.9988
12405 1 78.2543 25.8861 60.5358
12406 2 77.7408 25.9067 59.6779
12407 2 78.6826 24.9893 60.6465
12408 1 11.9957 9.50439 48.1672
12409 2 11.5142 8.67608 48.4537
12410 2 12.0489 10.1417 48.9359
12411 1 53.2702 1.31626 35.5129
12412 2 53.8514 2.02524 35.9122
12413 2 52.3781 1.32296 35.9647
12414 1 2.63894 24.8797 64.6427
12415 2 3.42489 24.5259 64.1357
12416 2 1.79804 24.6668 64.1451
12417 1 54.7818 17.8255 33.3305
12418 2 54.2699 17.9144 34.1849
12419 2 54.4724 18.5216 32.6826
12420 1 9.07627 27.1155 12.4377
12421 2 9.77322 26.4047 12.5328
12422 2 9.48943 27.9369 12.0446
12423 1 47.2003 27.274 43.2704
12424 2 46.3244 26.8653 43.0143
12425 2 47.6682 27.6014 42.4495
12426 1 29.0248 29.7116 86.2806
12427 2 29.4225 0.62788 86.2333
12428 2 28.0825 29.7738 86.6095
12429 1 29.954 1.6552 53.2852
12430 2 29.0266 1.75638 52.9249
12431 2 29.9105 1.42312 54.257
12432 1 11.9897 5.3212 45.5667
12433 2 11.3067 5.62699 46.23
12434 2 11.8616 4.34688 45.3815
12435 1 57.606 29.7659 25.4579
12436 2 57.5823 0.748674 25.2745
12437 2 56.6791 29.4386 25.6415
12438 1 53.1374 23.4393 61.235
12439 2 52.8879 23.0033 62.0996
12440 2 53.5849 24.3143 61.4198
12441 1 60.2405 25.4543 72.1696
12442 2 59.6422 26.1705 72.5289
12443 2 61.1585 25.5648 72.5505
12444 1 23.515 14.4581 87.0157
12445 2 22.8532 14.7664 87.6991
12446 2 24.1216 15.2155 86.7738
12447 1 28.207 4.76054 53.6392
12448 2 28.8505 5.43186 53.2714
12449 2 28.2419 4.77817 54.6385
12450 1 38.6188 10.6158 62.3767
12451 2 38.3492 10.9645 61.4791
12452 2 37.8042 10.4848 62.9418
12453 1 61.2263 6.57428 90.2697
12454 2 61.2573 7.54517 90.5072
12455 2 62.1138 6.2918 89.9055
12456 1 44.1109 11.38 60.4473
12457 2 43.6057 10.518 60.4051
12458 2 44.0144 11.8658 59.5786
12459 1 52.6913 6.9761 42.2581
12460 2 52.8143 6.92693 43.2493
12461 2 52.7154 6.0535 41.873
12462 1 37.3893 13.1332 31.4269
12463 2 37.4456 12.3005 31.9777
12464 2 38.1603 13.7309 31.6466
12465 1 66.3998 20.8544 20.3282
12466 2 65.8007 21.3168 20.9817
12467 2 67.081 20.3155 20.8239
12468 1 39.6127 21.5864 45.9338
12469 2 39.1483 21.4202 46.8037
12470 2 40.302 22.3006 46.0552
12471 1 27.645 1.42003 39.5994
12472 2 28.0355 0.642985 40.0931
12473 2 27.9172 2.27107 40.0485
12474 1 71.2792 21.2732 87.5722
12475 2 71.5941 21.3666 86.6277
12476 2 71.8915 20.6577 88.0685
12477 1 20.1448 4.89797 38.9606
12478 2 20.2658 5.51204 39.7405
12479 2 20.077 5.43582 38.1203
12480 1 68.0546 15.3271 12.3
12481 2 68.5313 15.123 13.1551
12482 2 67.2903 14.6926 12.1848
12483 1 38.1116 1.72056 35.5716
12484 2 37.3259 2.29485 35.3416
12485 2 38.8428 2.2906 35.9462
12486 1 19.3675 18.9741 74.6133
12487 2 19.899 18.1294 74.5491
12488 2 18.8985 19.0065 75.496
12489 1 13.3968 3.11376 59.3905
12490 2 13.8208 2.73619 60.2137
12491 2 12.6816 2.49303 59.0692
12492 1 65.811 29.3101 77.5612
12493 2 65.717 28.3153 77.5994
12494 2 66.1201 29.6501 78.4493
12495 1 31.4682 0.181956 84.1672
12496 2 30.8143 0.00443694 83.4317
12497 2 32.3361 0.486861 83.7751
12498 1 22.3468 15.8781 63.3895
12499 2 21.3855 15.7156 63.1671
12500 2 22.866 16.0126 62.5455
12501 1 38.3623 11.6552 59.6531
12502 2 38.4195 12.1991 58.8159
12503 2 37.4112 11.3927 59.8157
12504 1 11.0956 19.482 58.0159
12505 2 11.9575 19.4422 58.5214
12506 2 11.2 20.0864 57.2261
12507 1 18.2901 6.3092 90.4001
12508 2 17.4611 5.99752 90.8645
12509 2 18.2554 6.03773 89.4383
12510 1 43.4809 14.7477 55.579
12511 2 42.4889 14.7837 55.458
12512 2 43.8875 15.6019 55.2549
12513 1 14.4596 19.8897 79.2162
12514 2 14.233 19.5163 78.3166
12515 2 15.343 19.5282 79.5143
12516 1 20.0087 29.1161 15.5896
12517 2 19.8296 28.568 16.4067
12518 2 19.9794 0.0871547 15.8266
12519 1 63.5144 8.23282 45.1447
12520 2 64.1688 7.51014 45.3672
12521 2 62.7265 8.1691 45.7572
12522 1 49.1287 7.80407 40.6838
12523 2 49.5825 8.60826 41.0676
12524 2 48.2336 8.06669 40.3234
12525 1 21.3262 15.4184 77.1265
12526 2 21.0068 16.0241 77.8553
12527 2 21.5821 14.5339 77.5164
12528 1 23.9563 7.26893 78.6586
12529 2 24.8256 7.73331 78.4891
12530 2 24.1291 6.39012 79.1034
12531 1 47.3523 0.389652 43.2616
12532 2 48.2847 0.0819968 43.0722
12533 2 47.0547 0.0273779 44.1449
12534 1 43.3864 11.0293 88.006
12535 2 43.3659 10.0487 88.2009
12536 2 43.3271 11.5408 88.8632
12537 1 31.6899 24.9157 49.4805
12538 2 32.5596 24.6055 49.8644
12539 2 31.7714 25.8723 49.2007
12540 1 45.9746 14.4956 43.6447
12541 2 45.5185 14.554 42.7567
12542 2 45.4355 13.9193 44.259
12543 1 22.7058 16.5256 48.8134
12544 2 22.5293 16.1894 49.7386
12545 2 23.185 15.822 48.2889
12546 1 79.87 28.6889 84.7305
12547 2 0.365226 28.764 83.865
12548 2 0.0158271 27.7795 85.1201
12549 1 12.6708 17.3975 60.3526
12550 2 11.6949 17.2674 60.5281
12551 2 13.1515 17.5245 61.2202
12552 1 77.6297 24.0006 73.3369
12553 2 77.4605 23.6209 74.2464
12554 2 78.1514 24.8495 73.4219
12555 1 63.7804 29.6406 29.0076
12556 2 64.2874 0.501665 28.969
12557 2 63.1958 29.6342 29.8189
12558 1 42.7019 25.3841 64.4624
12559 2 42.1248 26.1376 64.7773
12560 2 42.8525 24.7426 65.2146
12561 1 79.7214 14.6832 78.2749
12562 2 79.0922 13.9108 78.361
12563 2 79.1986 15.5326 78.2028
12564 1 17.4422 29.7479 54.7858
12565 2 17.4363 29.4804 55.7493
12566 2 16.8887 0.571926 54.6653
12567 1 20.312 2.67312 90.1393
12568 2 19.8657 3.56802 90.1373
12569 2 19.7698 2.03152 90.6819
12570 1 26.6424 27.3614 47.2559
12571 2 26.6055 28.3531 47.3792
12572 2 26.7292 27.1496 46.2825
12573 1 61.6626 11.9319 51.8321
12574 2 61.1777 11.1862 52.2889
12575 2 61.1277 12.7734 51.9083
12576 1 17.0751 1.20188 22.5278
12577 2 17.0296 0.395825 21.9377
12578 2 17.7829 1.06776 23.2213
12579 1 4.51507 7.32446 22.6522
12580 2 4.95471 7.29544 23.5499
12581 2 5.11809 7.78445 22.0004
12582 1 34.3575 3.88143 58.1108
12583 2 34.678 3.75466 59.0496
12584 2 33.3646 3.76675 58.0793
12585 1 14.3513 23.0491 62.8895
12586 2 14.4105 23.4371 63.8092
12587 2 13.5496 22.4544 62.8296
12588 1 33.5261 14.7979 65.4171
12589 2 34.1655 15.4644 65.8005
12590 2 32.9261 15.2522 64.7586
12591 1 1.25124 4.7872 10.8999
12592 2 2.13405 4.75563 11.3686
12593 2 1.31607 5.39365 10.1074
12594 1 28.6883 29.2594 36.879
12595 2 28.3968 29.423 37.8215
12596 2 29.3134 28.4792 36.8542
12597 1 63.6046 0.573148 22.432
12598 2 62.7448 0.668381 22.9337
12599 2 63.5291 1.03804 21.5499
12600 1 69.1617 15.0994 50.1504
12601 2 68.4142 15.0063 49.4927
12602 2 69.9669 14.6132 49.8109
12603 1 22.5941 21.9286 65.5754
12604 2 21.751 22.4303 65.3818
12605 2 23.2461 22.5353 66.0301
12606 1 18.5636 10.0841 53.5953
12607 2 17.7806 10.6724 53.393
12608 2 19.4039 10.5298 53.2866
12609 1 29.832 8.19875 29.1181
12610 2 29.6047 7.22507 29.1362
12611 2 29.4738 8.63993 29.941
12612 1 25.4956 0.30307 42.269
12613 2 25.2694 29.5124 41.7
12614 2 26.4499 0.560517 42.1178
12615 1 40.6965 3.53997 41.2027
12616 2 40.5321 3.8894 40.2803
12617 2 39.8738 3.07972 41.5363
12618 1 31.8441 19.3915 45.1522
12619 2 31.4534 18.4816 45.0127
12620 2 31.5682 19.9914 44.4013
12621 1 68.9949 13.7104 57.9249
12622 2 68.33 13.2962 58.5465
12623 2 69.8619 13.216 57.9868
12624 1 8.39069 28.0095 41.8267
12625 2 7.71612 28.7438 41.9022
12626 2 8.69955 27.7454 42.7404
12627 1 6.71265 6.5763 76.6683
12628 2 7.00628 6.88219 75.7626
12629 2 7.21569 7.08099 77.3699
12630 1 14.4056 25.3076 32.7487
12631 2 15.001 26.0538 33.0465
12632 2 13.9185 24.9345 33.5383
12633 1 71.664 19.5214 59.2699
12634 2 72.3645 20.1461 58.9249
12635 2 72.0727 18.6253 59.4433
12636 1 22.8845 19.656 67.9695
12637 2 23.0767 19.8668 67.011
12638 2 22.4074 18.7792 68.0287
12639 1 13.6225 26.4354 69.1808
12640 2 14.1577 27.2147 68.855
12641 2 13.4095 26.5593 70.15
12642 1 76.8672 17.88 43.3247
12643 2 77.5283 18.4533 42.8407
12644 2 76.5829 17.1262 42.7323
12645 1 17.5925 10.9308 20.5743
12646 2 17.6655 10.6261 19.6247
12647 2 16.6579 10.7867 20.8997
12648 1 9.64082 27.8181 68.2705
12649 2 9.81734 26.8346 68.311
12650 2 8.72363 27.9773 67.9053
12651 1 76.7175 7.1948 20.7771
12652 2 76.2223 6.65836 21.4604
12653 2 76.6844 8.16293 21.0253
12654 1 63.6117 5.26407 23.3181
12655 2 63.3982 5.93365 24.0295
12656 2 63.9086 4.40911 23.7434
12657 1 49.0271 14.7834 67.1747
12658 2 48.5894 15.2275 66.3928
12659 2 48.3621 14.6794 67.9142
12660 1 71.8127 22.4865 73.779
12661 2 72.5971 21.8958 73.9682
12662 2 71.3289 22.6816 74.6322
12663 1 54.9156 4.07988 78.7723
12664 2 55.6592 4.32 79.3963
12665 2 54.1375 4.68763 78.9314
12666 1 32.2385 25.4528 87.161
12667 2 31.4651 25.9899 86.8243
12668 2 32.6209 24.9128 86.4112
12669 1 20.0357 2.27037 61.3927
12670 2 19.1619 2.2182 61.8762
12671 2 20.2522 3.227 61.1978
12672 1 19.74 14.4746 72.4853
12673 2 19.3414 14.0294 71.6835
12674 2 19.5606 13.9203 73.298
12675 1 17.4548 18.261 44.0981
12676 2 18.0038 18.884 44.6555
12677 2 17.835 18.2175 43.1743
12678 1 48.0558 10.4356 87.7208
12679 2 48.8904 10.9815 87.6475
12680 2 47.5646 10.6879 88.5545
12681 1 35.4831 4.34992 34.2177
12682 2 35.1922 4.72305 35.0987
12683 2 35.2675 3.37412 34.1815
12684 1 34.2444 19.176 77.5824
12685 2 34.8443 19.0766 78.3763
12686 2 33.8296 18.2923 77.3654
12687 1 14.548 1.68879 39.2808
12688 2 14.3951 2.64422 39.0283
12689 2 14.8163 1.6371 40.2428
12690 1 73.1528 20.97 51.236
12691 2 72.338 20.4794 51.5448
12692 2 73.5271 21.5046 51.9936
12693 1 75.8467 17.7571 67.3033
12694 2 75.9659 17.8216 68.2941
12695 2 75.7972 18.6764 66.913
12696 1 45.5719 22.3262 65.1396
12697 2 45.1142 22.872 64.4378
12698 2 46.3573 22.8323 65.4959
12699 1 49.293 19.2325 39.6733
12700 2 48.5585 19.4739 39.039
12701 2 50.1036 19.7814 39.469
12702 1 65.8479 19.0017 22.706
12703 2 65.9898 18.2725 23.3753
12704 2 66.1761 19.8681 23.0823
12705 1 47.2026 2.49765 53.2055
12706 2 46.7046 1.91489 52.5633
12707 2 47.9204 1.96376 53.6523
12708 1 49.8998 7.77643 37.4004
12709 2 49.6352 7.0407 38.0239
12710 2 49.8621 7.44435 36.4579
12711 1 37.0091 23.0556 87.7743
12712 2 37.6982 23.6651 87.3821
12713 2 36.8497 23.3038 88.7298
12714 1 29.2583 15.83 88.1189
12715 2 29.5525 16.5925 87.5427
12716 2 29.6132 14.9732 87.7448
12717 1 39.4891 19.6936 73.5633
12718 2 39.725 19.136 74.3592
12719 2 39.1533 20.5848 73.8684
12720 1 72.0753 28.2371 77.2666
12721 2 72.2683 27.2697 77.1025
12722 2 71.965 28.3931 78.2482
12723 1 23.1522 0.825127 72.9444
12724 2 22.5326 0.0440695 72.8666
12725 2 22.8592 1.54674 72.3171
12726 1 70.7836 27.2846 70.2459
12727 2 70.6101 27.6236 71.1706
12728 2 71.6739 27.614 69.9317
12729 1 28.6977 10.6217 34.6873
12730 2 29.0524 9.74776 35.0196
12731 2 27.883 10.4607 34.1302
12732 1 44.4476 19.8384 42.8535
12733 2 44.5225 20.5865 43.5128
12734 2 44.1268 19.014 43.3199
12735 1 13.9552 20.0211 24.5731
12736 2 14.0874 19.0723 24.86
12737 2 14.627 20.6042 25.0299
12738 1 56.0733 12.3286 46.2318
12739 2 55.1309 12.604 46.0417
12740 2 56.6916 12.8 45.603
12741 1 41.0315 28.5617 56.3289
12742 2 41.735 27.854 56.3951
12743 2 41.4628 29.4636 56.3517
12744 1 20.9691 13.073 44.4682
12745 2 21.4763 12.2117 44.497
12746 2 21.6008 13.8365 44.603
12747 1 16.3757 19.5694 59.1207
12748 2 15.6795 20.2397 58.8637
12749 2 17.2452 19.8097 58.6892
12750 1 60.7816 3.80753 90.8587
12751 2 60.5778 4.75086 90.5967
12752 2 61.7716 3.68903 90.9343
12753 1 33.3171 9.87224 50.6447
12754 2 34.0315 10.3369 51.1679
12755 2 33.7317 9.17188 50.0636
12756 1 9.98596 10.5288 51.4826
12757 2 10.9059 10.4247 51.8605
12758 2 9.73832 11.4976 51.4702
12759 1 0.60079 21.5539 61.5168
12760 2 79.9865 22.2429 61.9014
12761 2 1.51997 21.6817 61.8893
12762 1 43.4951 14.6403 52.3534
12763 2 44.4921 14.7057 52.3123
12764 2 43.0921 15.512 52.0744
12765 1 16.2963 27.847 31.0316
12766 2 17.0515 27.5498 30.4472
12767 2 16.3651 28.832 31.1899
12768 1 57.8051 26.6764 66.994
12769 2 58.4379 27.0673 66.3256
12770 2 57.6257 25.72 66.7637
12771 1 62.4161 4.51774 87.7436
12772 2 63.1945 5.10446 87.9669
12773 2 61.6203 5.08554 87.5329
12774 1 29.3487 19.9098 37.7281
12775 2 28.8558 20.7116 38.0661
12776 2 30.2515 20.1876 37.3997
12777 1 9.20775 14.1253 48.277
12778 2 9.18752 13.7098 47.3676
12779 2 8.42421 13.803 48.8082
12780 1 47.599 11.7615 33.0241
12781 2 46.8935 12.1147 32.4096
12782 2 47.177 11.4662 33.8813
12783 1 52.4531 21.4888 81.0681
12784 2 52.9953 21.2795 81.8819
12785 2 52.097 22.4209 81.1355
12786 1 75.0307 6.89882 60.6767
12787 2 75.2555 6.37341 61.4973
12788 2 74.1413 7.33992 60.7966
12789 1 66.2729 19.5643 79.3411
12790 2 67.2221 19.2752 79.4657
12791 2 65.74 18.8059 78.9659
12792 1 55.1617 16.7058 66.2712
12793 2 55.0069 17.6902 66.3547
12794 2 56.1337 16.5336 66.1116
12795 1 68.0097 4.4065 34.0525
12796 2 68.2912 4.33127 35.0091
12797 2 67.2099 5.00311 33.9863
12798 1 24.7909 24.9767 24.2007
12799 2 24.8453 25.7989 23.6342
12800 2 24.2704 25.1776 25.0306
12801 1 76.1651 20.2484 81.8253
12802 2 76.5577 19.3736 81.5414
12803 2 76.4252 20.439 82.7719
12804 1 48.3686 21.4513 79.7697
12805 2 47.8919 21.1612 80.5995
12806 2 48.6044 22.4204 79.8422
12807 1 35.7182 26.1335 57.4647
12808 2 35.9207 26.9408 56.9103
12809 2 36.1436 25.3291 57.0499
12810 1 26.4523 15.3605 44.0363
12811 2 27.4029 15.6509 44.1461
12812 2 25.8723 15.8715 44.6707
12813 1 3.02418 15.0271 41.5849
12814 2 2.11451 15.4421 41.5676
12815 2 3.01917 14.1901 41.0378
12816 1 37.9488 0.536228 61.4418
12817 2 38.2863 0.197615 60.5635
12818 2 37.0801 0.0909975 61.6591
12819 1 1.47597 17.6165 26.8947
12820 2 1.69862 18.1924 27.6813
12821 2 1.86099 16.7036 27.0304
12822 1 56.4475 1.27256 38.7204
12823 2 56.3725 1.83922 39.5409
12824 2 56.235 1.82416 37.9138
12825 1 23.3344 28.0703 51.4474
12826 2 23.8334 28.9347 51.509
12827 2 23.128 27.7382 52.3678
12828 1 59.5402 15.8363 70.9161
12829 2 60.5184 15.9744 71.0712
12830 2 59.0666 16.7153 70.9717
12831 1 30.5141 4.87289 90.7484
12832 2 31.3361 4.31386 90.8572
12833 2 29.9168 4.45748 90.0623
12834 1 44.075 15.1434 86.9416
12835 2 43.5449 14.8177 86.1587
12836 2 44.8893 14.5737 87.053
12837 1 47.8637 16.7459 61.959
12838 2 47.0926 17.3467 61.7483
12839 2 48.6982 17.1207 61.555
12840 1 11.5866 25.2161 12.8154
12841 2 12.0553 25.2846 11.9346
12842 2 11.819 26.0087 13.3791
12843 1 60.0881 24.4636 15.1662
12844 2 59.7189 25.2861 14.7334
12845 2 60.1881 23.7425 14.4807
12846 1 32.0982 12.9132 37.9297
12847 2 32.1484 13.0533 38.9186
12848 2 32.2036 11.94 37.7252
12849 1 6.16966 27.2374 64.3703
12850 2 6.85116 27.3334 65.0958
12851 2 6.05174 26.2691 64.1499
12852 1 44.4683 22.0938 69.0519
12853 2 45.4096 21.8502 68.8183
12854 2 44.463 22.6358 69.8923
12855 1 9.02539 28.7098 38.7674
12856 2 9.20581 27.9908 39.4385
12857 2 8.27409 29.2857 39.0898
12858 1 71.4672 3.38457 28.5853
12859 2 70.5599 3.80448 28.6087
12860 2 71.9303 3.54281 29.4573
12861 1 67.3323 24.3177 37.2791
12862 2 68.1396 24.7814 37.6441
12863 2 67.1553 24.6393 36.3489
12864 1 35.9901 0.843984 42.5371
12865 2 36.8383 0.660105 42.0404
12866 2 35.7149 1.79356 42.3867
12867 1 26.9772 26.5305 30.311
12868 2 27.7155 26.8601 30.8994
12869 2 26.4302 27.3062 29.9963
12870 1 49.1926 13.0849 77.2826
12871 2 50.1683 13.0466 77.067
12872 2 48.9325 14.0292 77.4842
12873 1 22.2147 17.0115 34.2171
12874 2 21.507 17.4563 34.766
12875 2 23.0252 17.596 34.1812
12876 1 25.7952 18.8626 61.0262
12877 2 26.3589 18.1 60.7086
12878 2 26.358 19.6861 61.097
12879 1 29.8147 29.2593 81.7694
12880 2 30.1036 0.213657 81.693
12881 2 29.434 28.9554 80.8961
12882 1 76.2876 2.72876 66.428
12883 2 75.9315 1.79918 66.3326
12884 2 77.0305 2.73404 67.0973
12885 1 37.174 13.5469 73.9076
12886 2 36.5454 13.2642 74.6321
12887 2 37.9072 14.1021 74.3003
12888 1 27.3629 24.4853 58.1594
12889 2 27.1172 23.5682 57.8452
12890 2 28.2204 24.7666 57.7287
12891 1 76.0949 4.58979 56.9406
12892 2 76.5524 4.52435 56.0538
12893 2 75.9758 3.67336 57.3227
12894 1 0.555962 4.57436 40.0661
12895 2 1.363 4.42849 40.6383
12896 2 0.310377 5.54368 40.0771
12897 1 4.07566 21.5461 80.4386
12898 2 3.27726 22.145 80.5014
12899 2 4.3409 21.2471 81.3552
12900 1 18.4349 23.1751 83.4875
12901 2 17.8747 22.984 84.2936
12902 2 18.5473 24.1636 83.3864
12903 1 8.48972 1.89179 75.0335
12904 2 8.87862 0.974206 75.1159
12905 2 9.06295 2.54269 75.5312
12906 1 51.1584 18.697 57.6186
12907 2 50.7545 19.6116 57.6393
12908 2 52.1002 18.756 57.2874
12909 1 60.028 20.1642 72.8628
12910 2 60.8212 20.7666 72.7737
12911 2 59.7197 20.1577 73.814
12912 1 26.1999 3.64792 24.1442
12913 2 26.7348 3.53193 23.3073
12914 2 26.8066 3.59599 24.9375
12915 1 14.9435 16.8616 28.1366
12916 2 15.3569 17.1326 27.2673
12917 2 14.6672 15.9017 28.0894
12918 1 73.539 5.14263 67.9607
12919 2 73.0692 5.07103 67.0808
12920 2 74.399 4.63385 67.9217
12921 1 44.9291 2.79006 54.9223
12922 2 44.1918 3.13033 54.3386
12923 2 45.6797 2.45742 54.3513
12924 1 30.4668 5.71407 85.974
12925 2 30.3113 5.47353 86.932
12926 2 30.0039 5.05188 85.3847
12927 1 17.037 27.779 40.0524
12928 2 16.3752 27.4253 40.7134
12929 2 17.9614 27.681 40.4212
12930 1 19.0484 1.07115 24.262
12931 2 19.3174 1.57698 23.4424
12932 2 19.2849 0.105912 24.1506
12933 1 67.8542 22.5631 88.8888
12934 2 68.1236 23.3666 89.4195
12935 2 68.1381 22.6816 87.9373
12936 1 21.9027 27.9515 74.2327
12937 2 22.0128 27.0963 73.7263
12938 2 21.6682 27.7481 75.1833
12939 1 36.7788 21.9156 68.6649
12940 2 35.8017 22.0221 68.4805
12941 2 36.9068 21.2831 69.4288
12942 1 64.9482 24.8171 81.217
12943 2 64.7457 24.5828 82.1678
12944 2 64.3407 24.304 80.6106
12945 1 0.739848 16.9013 61.411
12946 2 0.611472 16.1741 62.0853
12947 2 0.0391914 16.8255 60.7015
12948 1 40.3321 5.23041 43.6193
12949 2 39.6975 4.59101 43.1853
12950 2 40.8471 4.75593 44.3332
12951 1 27.0401 1.9426 49.8671
12952 2 27.876 1.86699 50.4108
12953 2 26.4159 1.20021 50.1105
12954 1 52.4278 25.5682 56.1107
12955 2 52.6747 25.4184 55.1533
12956 2 51.6178 25.0263 56.3347
12957 1 72.2962 27.7408 66.3097
12958 2 72.47 26.9549 65.7163
12959 2 71.9463 28.5009 65.7621
12960 1 21.7888 12.2482 70.3409
12961 2 22.2796 12.1457 71.2061
12962 2 20.9608 12.7889 70.4893
12963 1 14.3513 3.77646 42.7853
12964 2 14.6459 4.60253 42.3049
12965 2 14.7873 2.97706 42.3719
12966 1 78.5391 1.968 86.3147
12967 2 78.7034 2.4393 87.1813
12968 2 78.7394 0.994136 86.4218
12969 1 70.782 23.1904 61.6924
12970 2 70.2018 23.5366 60.9552
12971 2 71.4407 23.8949 61.9569
12972 1 7.52959 16.2036 71.0089
12973 2 6.60398 16.209 71.3873
12974 2 8.16934 16.5639 71.6878
12975 1 77.1271 25.8907 90.0974
12976 2 76.2086 25.4967 90.1329
12977 2 77.7352 25.3732 90.6994
12978 1 30.6343 4.72183 65.1026
12979 2 31.1097 5.60156 65.1093
12980 2 29.9405 4.72338 64.3823
12981 1 55.5881 15.4766 86.9346
12982 2 54.9687 15.4678 86.1495
12983 2 56.5345 15.4479 86.6129
12984 1 33.0364 4.59839 63.3636
12985 2 33.1633 4.2868 64.3053
12986 2 32.2801 5.25154 63.3276
12987 1 73.2975 2.12601 71.9928
12988 2 72.574 2.42411 72.6155
12989 2 73.981 1.60309 72.5021
12990 1 78.9065 6.4708 13.5892
12991 2 79.1319 5.84527 14.3361
12992 2 78.8147 5.95412 12.738
12993 1 42.6711 10.5487 71.3359
12994 2 42.3605 10.0216 70.5448
12995 2 43.518 10.1514 71.6894
12996 1 73.6362 9.25005 73.1175
12997 2 74.2189 8.50477 72.7935
12998 2 74.1576 10.1034 73.121
12999 1 34.5465 22.0197 45.3129
13000 2 34.805 21.7561 46.2422
13001 2 35.1827 21.6079 44.6604
13002 1 25.8887 6.56731 75.9725
13003 2 26.367 7.03216 76.7176
13004 2 24.9437 6.38612 76.2448
13005 1 74.7876 8.77068 11.034
13006 2 74.3618 9.58089 11.4368
13007 2 75.5835 9.04568 10.4947
13008 1 13.3957 29.9079 51.8309
13009 2 13.6922 29.4414 52.6643
13010 2 12.6581 29.3868 51.4017
13011 1 46.919 17.4196 40.9129
13012 2 46.4685 16.5988 40.5617
13013 2 46.7505 17.4976 41.8956
13014 1 44.1735 10.9644 64.269
13015 2 44.1455 9.96895 64.3597
13016 2 44.9343 11.3269 64.8074
13017 1 61.1388 4.20673 72.9043
13018 2 60.2815 4.46729 73.3482
13019 2 61.8784 4.21422 73.5774
13020 1 67.1972 21.7828 26.6089
13021 2 66.3605 21.5725 26.1033
13022 2 67.0437 22.5822 27.1897
13023 1 25.9008 16.8118 41.0728
13024 2 25.909 16.245 41.8966
13025 2 26.622 16.5065 40.451
13026 1 72.8572 0.970038 45.8614
13027 2 72.4834 1.73983 46.3788
13028 2 72.1327 0.303703 45.6852
13029 1 6.82701 28.3563 32.9508
13030 2 7.17817 29.2678 33.1651
13031 2 6.97184 27.7509 33.7334
13032 1 23.3494 7.37239 44.9935
13033 2 23.7156 7.1121 45.8869
13034 2 24.0368 7.89726 44.4915
13035 1 64.8402 17.9045 86.838
13036 2 64.9749 18.5553 86.0907
13037 2 65.7273 17.5551 87.1395
13038 1 78.6315 3.26277 82.9976
13039 2 78.3353 3.28952 82.0429
13040 2 78.3875 2.37933 83.3977
13041 1 30.3277 5.36929 40.615
13042 2 29.5406 4.92452 41.0426
13043 2 30.8124 4.70926 40.0411
13044 1 5.00676 1.37783 50.7321
13045 2 5.93848 1.63703 50.4777
13046 2 4.63683 2.05055 51.3729
13047 1 53.6457 16.6885 72.993
13048 2 53.7544 15.6944 72.9874
13049 2 54.0172 17.0692 72.1462
13050 1 38.2939 5.50935 75.011
13051 2 38.7537 5.49776 75.899
13052 2 38.6375 6.27545 74.4678
13053 1 20.2465 6.53193 25.0366
13054 2 19.6196 7.23328 24.6972
13055 2 20.1673 6.46733 26.0314
13056 1 35.8361 6.01023 56.7032
13057 2 34.9106 6.08356 57.0747
13058 2 35.7898 5.71608 55.7486
13059 1 45.1589 8.13764 70.2268
13060 2 45.5173 7.63639 71.0144
13061 2 45.6101 7.81671 69.3941
13062 1 23.8551 3.52095 21.2343
13063 2 24.627 3.28647 21.8253
13064 2 23.5416 2.70143 20.7546
13065 1 33.4441 17.8089 83.584
13066 2 33.7605 17.4276 84.4526
13067 2 33.9764 17.4163 82.834
13068 1 9.57207 10.4983 18.1042
13069 2 9.90469 9.62796 18.4673
13070 2 10.1893 10.8171 17.3849
13071 1 42.4876 17.0599 48.0776
13072 2 42.8196 16.9503 47.1408
13073 2 41.4956 16.9346 48.0965
13074 1 28.3755 18.2963 79.2022
13075 2 28.41 18.0716 80.1761
13076 2 27.6496 17.7666 78.7635
13077 1 21.8168 18.7632 57.7043
13078 2 22.2337 19.663 57.5755
13079 2 21.4602 18.4329 56.8304
13080 1 76.2329 27.1843 18.4783
13081 2 76.8042 26.8603 17.7241
13082 2 75.4689 27.7161 18.113
13083 1 40.431 11.8755 72.6145
13084 2 40.9852 11.128 72.2483
13085 2 41.0166 12.6645 72.8005
13086 1 17.2144 12.938 89.3048
13087 2 16.5682 13.6619 89.5467
13088 2 16.992 12.108 89.8163
13089 1 10.0913 6.32425 55.8368
13090 2 10.951 6.59492 55.4037
13091 2 10.0286 5.32645 55.8584
13092 1 75.4383 13.987 90.9545
13093 2 75.3415 14.7351 91.611
13094 2 74.5809 13.8704 90.4533
13095 1 8.02169 28.0141 61.8633
13096 2 7.48563 27.9215 62.7024
13097 2 8.39589 28.9398 61.8073
13098 1 41.1326 1.22763 43.9922
13099 2 41.3571 2.1138 44.3975
13100 2 41.9607 0.815396 43.6124
13101 1 38.6528 13.0914 37.6315
13102 2 39.0525 13.5145 38.4447
13103 2 38.2685 12.2006 37.8739
13104 1 3.7191 26.5706 77.1069
13105 2 3.21524 27.3476 77.4844
13106 2 3.14015 26.084 76.4527
13107 1 41.898 4.78865 87.1189
13108 2 42.2689 4.42577 87.9738
13109 2 41.0537 5.29004 87.3082
13110 1 71.4639 29.4685 74.9081
13111 2 72.061 0.211598 74.6059
13112 2 71.882 29.0006 75.6868
13113 1 69.5836 9.40789 55.2644
13114 2 69.7083 9.2348 56.2413
13115 2 69.4993 8.53726 54.7797
13116 1 44.4627 18.1131 75.8607
13117 2 43.828 18.1493 76.6325
13118 2 44.8329 17.1879 75.7766
13119 1 6.17787 16.5178 46.6871
13120 2 7.00116 16.6638 46.1386
13121 2 5.70429 17.3891 46.8158
13122 1 11.44 5.65246 15.2252
13123 2 11.8602 6.55698 15.1525
13124 2 11.0266 5.54867 16.1298
13125 1 64.4647 11.2854 88.7543
13126 2 64.294 11.2344 87.7703
13127 2 63.9181 10.592 89.2238
13128 1 72.0773 14.7622 79.9671
13129 2 71.6549 15.6632 80.0661
13130 2 72.2711 14.3836 80.8722
13131 1 49.6501 4.91836 75.7733
13132 2 49.2908 4.34464 76.5093
13133 2 50.3182 5.56136 76.1477
13134 1 66.063 21.7872 23.1825
13135 2 66.2038 22.7647 23.3394
13136 2 65.8583 21.3362 24.0512
13137 1 62.3688 28.6043 64.9488
13138 2 62.269 27.6979 64.5382
13139 2 61.749 28.6867 65.7292
13140 1 79.4626 27.2572 54.0253
13141 2 78.6044 27.7677 53.9701
13142 2 79.2906 26.3589 54.4294
13143 1 54.6897 2.03315 64.2364
13144 2 54.8369 1.04708 64.3138
13145 2 54.5623 2.42372 65.1481
13146 1 13.465 10.9702 81.4844
13147 2 13.6383 10.272 82.179
13148 2 13.068 10.5416 80.6728
13149 1 3.16691 0.67424 76.3929
13150 2 2.68882 1.55092 76.4463
13151 2 2.86425 0.0834159 77.1407
13152 1 31.8235 27.705 52.5381
13153 2 32.6941 27.7701 52.0504
13154 2 31.9874 27.7694 53.5225
13155 1 59.4219 8.23466 38.5386
13156 2 60.3638 7.90066 38.5016
13157 2 58.7917 7.45874 38.5096
13158 1 68.7216 18.5965 36.9277
13159 2 69.2965 17.7925 37.0799
13160 2 68.6576 19.1255 37.7739
13161 1 65.4178 5.53565 62.5731
13162 2 65.1073 5.83404 63.4757
13163 2 66.3911 5.74123 62.4706
13164 1 20.4539 21.7985 85.4157
13165 2 19.622 22.3274 85.5835
13166 2 20.4208 21.4079 84.4957
13167 1 45.163 27.7058 80.4943
13168 2 45.3289 26.9028 81.0667
13169 2 45.9722 28.2933 80.5018
13170 1 2.8149 28.2642 58.91
13171 2 3.31877 27.4431 58.6418
13172 2 2.26996 28.5882 58.1367
13173 1 3.59833 0.943839 37.4401
13174 2 4.45763 0.542577 37.1229
13175 2 3.74141 1.90951 37.6569
13176 1 27.311 22.2368 41.9742
13177 2 27.214 21.6029 42.7416
13178 2 28.1977 22.0943 41.5343
13179 1 21.0004 21.0912 34.9153
13180 2 21.6627 21.5968 35.4682
13181 2 20.4988 20.4518 35.498
13182 1 54.6048 26.0689 85.5581
13183 2 54.4622 25.5165 86.3794
13184 2 54.0141 25.7336 84.8242
13185 1 1.9577 7.20259 38.3462
13186 2 2.00232 7.86189 39.0968
13187 2 1.0145 7.12988 38.0221
13188 1 71.856 16.6324 12.8908
13189 2 71.8418 16.1677 12.0055
13190 2 71.008 17.1489 13.0097
13191 1 15.3635 24.2149 70.2937
13192 2 14.5764 24.451 69.7239
13193 2 15.2945 24.6903 71.1708
13194 1 58.1517 3.9773 21.4429
13195 2 58.1016 3.3578 20.6595
13196 2 58.3151 3.44872 22.2759
13197 1 25.0407 12.419 34.0181
13198 2 25.6768 11.8141 34.4971
13199 2 25.3547 13.3649 34.0998
13200 1 20.3529 9.00247 36.7049
13201 2 20.4437 8.02456 36.8931
13202 2 21.1971 9.34181 36.2899
13203 1 59.7927 18.5068 30.1135
13204 2 60.6441 18.6123 30.6274
13205 2 59.9515 18.7397 29.1541
13206 1 73.7378 5.0316 12.446
13207 2 74.1498 4.43557 13.1351
13208 2 72.8713 4.63747 12.1395
13209 1 59.0289 20.3818 58.2935
13210 2 58.9876 21.0933 57.5921
13211 2 58.1344 20.2932 58.7316
13212 1 62.626 12.6949 64.2547
13213 2 62.224 12.3072 65.0842
13214 2 63.5505 13.0205 64.4531
13215 1 59.7533 10.0814 53.0124
13216 2 59.1261 9.94735 52.2451
13217 2 59.499 10.9108 53.5098
13218 1 1.69551 25.6154 31.819
13219 2 1.15563 24.8512 32.1717
13220 2 1.66264 25.6134 30.8195
13221 1 22.0904 29.4704 37.0163
13222 2 22.1166 0.272918 36.4203
13223 2 22.7592 28.7978 36.6994
13224 1 12.9772 8.13229 82.4661
13225 2 13.3574 7.90508 81.5696
13226 2 12.0654 7.73087 82.553
13227 1 60.0315 22.0194 24.7576
13228 2 60.2631 22.9171 25.1323
13229 2 60.7688 21.3743 24.9579
13230 1 36.1517 29.9503 73.4913
13231 2 36.6067 29.0744 73.3305
13232 2 35.7891 29.9714 74.423
13233 1 28.0602 24.8118 50.7528
13234 2 27.5103 24.2892 51.4044
13235 2 28.2356 24.2538 49.9417
13236 1 38.2044 0.0307906 32.2898
13237 2 37.4505 29.4392 32.5754
13238 2 37.9055 0.608172 31.5299
13239 1 78.4676 10.4429 81.2878
13240 2 78.8069 10.5631 80.3548
13241 2 78.777 9.56125 81.644
13242 1 47.5448 11.3634 63.9002
13243 2 47.2949 11.7391 64.7926
13244 2 48.3791 11.8074 63.5734
13245 1 73.176 24.2064 10.8382
13246 2 73.1272 23.2638 11.1687
13247 2 73.7154 24.237 9.99664
13248 1 67.4961 14.4927 74.7027
13249 2 67.1548 15.1342 75.3897
13250 2 67.2376 13.5612 74.959
13251 1 66.7239 10.542 15.9212
13252 2 66.8229 11.5244 16.0797
13253 2 66.4969 10.0866 16.7821
13254 1 40.2596 15.0834 32.266
13255 2 41.2425 14.9099 32.3284
13256 2 39.9517 15.5566 33.0914
13257 1 20.5179 11.0281 80.2695
13258 2 19.668 10.5654 80.5217
13259 2 20.3084 11.8221 79.6989
13260 1 0.129845 25.1191 58.5496
13261 2 0.421315 25.9519 59.0202
13262 2 79.2022 25.2427 58.1971
13263 1 70.1735 24.3992 42.0554
13264 2 69.4565 23.8953 42.5371
13265 2 69.9398 24.466 41.0854
13266 1 17.6041 17.3902 16.8983
13267 2 17.274 16.4572 16.7552
13268 2 17.7793 17.5361 17.872
13269 1 79.1252 29.0108 21.282
13270 2 78.4847 29.7774 21.3263
13271 2 0.0614017 29.3603 21.2447
13272 1 21.8988 5.23599 14.3184
13273 2 21.4155 5.85994 14.9324
13274 2 22.4362 4.58749 14.8575
13275 1 34.8284 10.3955 40.9292
13276 2 35.4257 9.74625 40.4583
13277 2 35.1391 11.3281 40.7453
13278 1 3.0047 11.32 66.0376
13279 2 2.40382 12.1193 66.0489
13280 2 3.77614 11.4916 65.4248
13281 1 66.76 18.9026 68.2737
13282 2 66.7877 19.6717 67.6352
13283 2 66.8429 19.2436 69.2101
13284 1 13.4751 4.02347 56.6009
13285 2 13.5564 3.82655 57.578
13286 2 12.5105 4.01133 56.3376
13287 1 64.7801 24.45 18.3529
13288 2 65.3429 23.8083 18.874
13289 2 65.3159 24.8252 17.5966
13290 1 60.6641 25.4148 57.9936
13291 2 59.6662 25.351 57.9793
13292 2 60.9629 25.7652 58.8813
13293 1 5.49783 26.9655 71.467
13294 2 5.2788 26.7535 70.5146
13295 2 5.22352 26.2009 72.0502
13296 1 1.96959 24.5633 14.7697
13297 2 2.11846 23.6223 15.0735
13298 2 1.90632 24.5855 13.772
13299 1 48.201 2.46479 67.1733
13300 2 49.0952 2.59007 66.7435
13301 2 47.7094 1.72673 66.7111
13302 1 32.9112 1.83604 87.1524
13303 2 33.8814 1.65966 86.9862
13304 2 32.786 2.15054 88.0934
13305 1 23.3933 21.0655 57.2382
13306 2 22.9842 21.9446 56.9934
13307 2 24.3898 21.148 57.2307
13308 1 72.7419 7.05333 46.358
13309 2 73.1281 7.28399 47.2511
13310 2 73.4487 7.14262 45.6562
13311 1 70.0262 24.6858 30.7059
13312 2 69.7266 25.6208 30.8956
13313 2 69.2635 24.0555 30.8507
13314 1 47.3943 2.96694 85.7508
13315 2 47.7193 3.88838 85.9638
13316 2 46.6183 2.74261 86.3403
13317 1 6.93251 8.24133 11.9811
13318 2 6.58265 8.4718 12.8891
13319 2 7.08153 7.25427 11.922
13320 1 75.4992 7.73683 65.2923
13321 2 76.4749 7.95386 65.262
13322 2 75.333 6.88001 64.8042
13323 1 68.5864 8.79941 60.1769
13324 2 69.2804 8.58209 60.8633
13325 2 67.7053 8.94255 60.6276
13326 1 26.0031 0.993761 30.3687
13327 2 26.0916 1.79993 29.7837
13328 2 26.0868 1.26663 31.3271
13329 1 34.3405 7.45996 52.286
13330 2 34.629 6.51066 52.411
13331 2 34.3484 7.68528 51.3118
13332 1 14.5559 3.44227 26.7186
13333 2 15.4883 3.7874 26.8251
13334 2 13.906 4.13814 27.0243
13335 1 62.4606 11.6307 73.7076
13336 2 62.5529 11.0436 74.5118
13337 2 63.2788 12.1977 73.6131
13338 1 65.665 4.8346 78.8612
13339 2 65.8735 4.44895 79.76
13340 2 65.7359 5.83127 78.9015
13341 1 30.3763 7.78545 39.1806
13342 2 30.4261 7.03456 39.8392
13343 2 29.4509 8.16461 39.1769
13344 1 19.3363 18.6023 72.0003
13345 2 18.469 18.3874 71.5514
13346 2 19.2037 18.6182 72.9914
13347 1 13.171 0.409109 73.2896
13348 2 12.6559 0.480928 74.1437
13349 2 12.998 1.21755 72.727
13350 1 19.1567 19.6886 57.3863
13351 2 19.9354 19.2085 57.7901
13352 2 18.8602 20.4192 58.0014
13353 1 30.2779 29.4435 64.7756
13354 2 31.2266 29.2002 64.5739
13355 2 29.829 28.6792 65.2385
13356 1 13.5939 0.342162 80.2511
13357 2 13.6373 29.9456 79.3341
13358 2 12.9966 1.14409 80.2395
13359 1 44.5581 18.0643 59.1756
13360 2 45.0062 17.8207 60.0358
13361 2 43.5894 17.8206 59.2237
13362 1 16.0461 24.7345 40.5141
13363 2 16.9131 25.2322 40.5388
13364 2 16.07 23.9899 41.1813
13365 1 37.6546 27.8789 65.4848
13366 2 36.9338 28.5252 65.2343
13367 2 37.5777 27.058 64.9189
13368 1 74.2775 19.2119 90.4823
13369 2 73.7789 19.3339 89.6241
13370 2 74.0431 19.9525 91.1121
13371 1 0.580075 22.2423 34.2382
13372 2 79.9941 21.6474 34.7885
13373 2 0.89554 23.009 34.7973
13374 1 18.168 21.3714 43.4942
13375 2 17.5175 21.9867 43.049
13376 2 19.0278 21.3692 42.9836
13377 1 3.41932 2.76753 28.3478
13378 2 4.0154 3.56793 28.4113
13379 2 3.70615 2.08422 29.0193
13380 1 21.4117 23.1985 73.7376
13381 2 22.3105 22.8637 74.0207
13382 2 21.4872 24.1531 73.4494
13383 1 10.753 18.961 83.4198
13384 2 10.7148 19.8484 82.9604
13385 2 11.0204 18.2565 82.7623
13386 1 40.7747 22.2031 77.4432
13387 2 40.9954 23.1743 77.5332
13388 2 41.5707 21.6552 77.7006
13389 1 68.3816 0.512389 32.969
13390 2 68.615 0.372151 32.0068
13391 2 67.4169 0.764634 33.0447
13392 1 41.2295 13.1455 90.7844
13393 2 40.4535 12.5852 90.4946
13394 2 41.078 13.4668 91.7192
13395 1 64.1831 18.8395 60.7789
13396 2 64.5131 19.7728 60.9206
13397 2 64.9218 18.2776 60.4066
13398 1 7.29654 3.56025 30.4721
13399 2 7.20284 2.58183 30.6563
13400 2 7.8912 3.97374 31.1616
13401 1 21.6154 19.124 42.9597
13402 2 21.3875 19.6882 43.7532
13403 2 21.2343 19.5402 42.1342
13404 1 59.6849 16.7461 78.3702
13405 2 58.8586 16.1849 78.4188
13406 2 60.3682 16.389 79.007
13407 1 69.8638 25.9089 11.1142
13408 2 69.1848 25.2474 10.7959
13409 2 70.7586 25.6784 10.7318
13410 1 64.9036 21.6274 89.842
13411 2 65.1005 20.6745 90.0726
13412 2 65.6397 21.9911 89.2712
13413 1 35.1199 28.328 47.5238
13414 2 34.7717 27.3998 47.6551
13415 2 34.5637 28.7988 46.8389
13416 1 6.88257 21.0766 71.4471
13417 2 5.99752 20.7275 71.755
13418 2 7.60392 20.7328 72.0483
13419 1 9.78168 4.64424 79.22
13420 2 10.6554 4.95072 78.8422
13421 2 9.61575 5.10473 80.092
13422 1 64.0788 4.451 90.6659
13423 2 64.0934 5.22673 90.035
13424 2 65.0064 4.26905 90.992
13425 1 53.5684 19.6511 63.7757
13426 2 53.3098 19.5585 62.8142
13427 2 54.2559 20.3714 63.8681
13428 1 58.2766 27.3304 72.8697
13429 2 58.8395 27.7305 73.5929
13430 2 57.4112 27.8278 72.8073
13431 1 63.6342 3.59181 21.1807
13432 2 63.6589 4.27541 21.9101
13433 2 64.5279 3.14914 21.1083
13434 1 66.6835 18.9212 48.7948
13435 2 66.7156 17.9241 48.8646
13436 2 66.5777 19.316 49.7074
13437 1 25.9547 22.6942 49.2803
13438 2 26.7734 22.8888 48.74
13439 2 26.003 23.1882 50.1484
13440 1 63.1214 5.0034 46.9779
13441 2 62.7229 4.09025 46.8917
13442 2 63.2103 5.2383 47.9458
13443 1 17.8691 26.2054 33.955
13444 2 18.4393 25.3894 33.8595
13445 2 18.3254 26.9833 33.5229
13446 1 72.9263 15.7384 21.2691
13447 2 72.5579 16.6306 21.0081
13448 2 72.174 15.1233 21.5051
13449 1 50.4098 9.15608 47.1116
13450 2 50.8421 8.26513 46.9726
13451 2 50.6523 9.76557 46.3568
13452 1 66.1852 15.9304 69.7521
13453 2 67.0253 15.5321 70.1202
13454 2 66.4134 16.7128 69.1726
13455 1 75.8661 17.1982 90.8294
13456 2 75.2431 17.9761 90.7468
13457 2 76.8096 17.5284 90.8575
13458 1 58.214 11.7958 82.695
13459 2 57.6237 12.5791 82.5006
13460 2 58.5936 11.8849 83.6159
13461 1 13.1806 19.2742 64.6801
13462 2 14.1793 19.2396 64.6434
13463 2 12.847 19.962 64.0354
13464 1 57.3716 7.76716 48.2619
13465 2 57.4527 7.1044 49.0063
13466 2 56.4107 8.01653 48.1409
13467 1 10.0661 16.8504 57.4861
13468 2 9.27856 16.3867 57.8919
13469 2 10.1673 17.7566 57.8967
13470 1 12.7963 13.9013 53.7276
13471 2 12.8363 14.4216 54.5807
13472 2 13.7239 13.6704 53.4342
13473 1 69.6352 11.0359 28.4112
13474 2 69.9028 11.9957 28.4956
13475 2 68.6846 10.9805 28.1058
13476 1 56.7111 12.0478 75.3559
13477 2 56.3897 11.1501 75.6571
13478 2 57.4926 12.3267 75.9141
13479 1 17.6466 5.95234 69.5719
13480 2 16.9348 5.44025 69.0911
13481 2 18.4179 5.34689 69.7682
13482 1 15.9263 17.0776 63.8018
13483 2 15.642 18.0002 63.5413
13484 2 15.2137 16.6549 64.3618
13485 1 68.3638 3.21262 19.0565
13486 2 68.1925 3.58596 18.1448
13487 2 67.4954 3.1023 19.54
13488 1 6.31129 10.7005 34.8426
13489 2 5.8067 11.5635 34.8667
13490 2 6.39086 10.3349 35.7699
13491 1 78.426 23.6376 69.0927
13492 2 78.9426 23.2183 69.8392
13493 2 77.5106 23.2369 69.0547
13494 1 8.73191 5.58052 19.249
13495 2 9.34491 5.16143 18.5792
13496 2 9.19852 6.34355 19.6962
13497 1 34.7623 19.4725 69.8197
13498 2 35.7217 19.5776 70.0816
13499 2 34.2249 20.2165 70.2167
13500 1 20.1843 12.3222 47.0957
13501 2 20.8574 11.7358 47.5463
13502 2 20.5209 12.5812 46.1903
13503 1 29.4196 25.8367 37.7177
13504 2 28.4503 26.064 37.6236
13505 2 29.6165 25.6042 38.6702
13506 1 7.1639 20.6143 18.0247
13507 2 6.19043 20.5195 18.2329
13508 2 7.69785 20.4813 18.8597
13509 1 70.5025 20.0114 45.2865
13510 2 70.2791 20.9031 45.6801
13511 2 71.4939 19.8809 45.298
13512 1 65.5291 13.124 86.4029
13513 2 66.4576 13.3699 86.1248
13514 2 65.5506 12.2635 86.9121
13515 1 35.2837 19.795 31.8777
13516 2 36.124 19.3976 32.2463
13517 2 35.5114 20.5774 31.298
13518 1 7.16324 5.93536 51.586
13519 2 7.07138 6.63796 50.8804
13520 2 8.0574 6.01953 52.0257
13521 1 73.958 0.476184 56.3013
13522 2 74.5794 0.879769 56.9729
13523 2 73.9604 1.03112 55.4694
13524 1 20.3116 13.1862 17.921
13525 2 20.2453 12.1966 18.0485
13526 2 20.0127 13.424 16.9969
13527 1 4.51563 8.63935 57.054
13528 2 4.13904 8.45106 56.147
13529 2 5.18129 7.93204 57.292
13530 1 33.8614 4.85037 36.6781
13531 2 34.5117 4.67603 37.4175
13532 2 33.7978 5.83499 36.5154
13533 1 56.9756 12.3217 25.6665
13534 2 56.1407 12.3548 26.216
13535 2 57.6412 12.9723 26.0321
13536 1 1.06179 13.9507 35.4167
13537 2 1.10837 12.9601 35.2882
13538 2 0.997358 14.1575 36.393
13539 1 22.0754 29.2144 41.5887
13540 2 21.2454 28.6964 41.3819
13541 2 22.5486 28.7914 42.3614
13542 1 10.2924 1.73676 38.3125
13543 2 9.82171 2.39986 38.8945
13544 2 9.6334 1.06734 37.9696
13545 1 17.1846 28.9182 49.9594
13546 2 17.077 29.4259 49.1047
13547 2 17.6241 28.0397 49.7721
13548 1 23.2999 3.7564 28.3272
13549 2 24.1193 3.81947 28.8969
13550 2 22.6629 3.09989 28.7311
13551 1 25.4858 26.9252 58.2279
13552 2 25.4847 26.8447 59.2247
13553 2 26.3155 26.505 57.8605
13554 1 59.8211 5.21004 29.6593
13555 2 60.7692 5.26266 29.9728
13556 2 59.6641 4.32599 29.2191
13557 1 15.1601 25.0397 72.7413
13558 2 15.825 25.6773 73.1304
13559 2 14.3519 25.0011 73.3289
13560 1 73.1523 13.3068 86.6752
13561 2 73.4687 13.2703 87.6231
13562 2 73.5528 14.1024 86.2205
13563 1 43.7778 7.07067 85.7933
13564 2 42.8807 7.31042 86.1645
13565 2 44.1573 6.30242 86.3088
13566 1 7.84344 28.7269 70.3666
13567 2 7.24716 29.4824 70.0952
13568 2 7.30432 27.8883 70.4449
13569 1 57.7388 18.8082 24.735
13570 2 57.9882 17.8892 24.4295
13571 2 58.5272 19.2388 25.1743
13572 1 14.0436 3.62047 62.2072
13573 2 13.878 4.60303 62.1226
13574 2 14.0129 3.35915 63.172
13575 1 23.751 9.68892 69.8883
13576 2 23.0939 9.99603 70.5767
13577 2 23.7158 10.3003 69.0977
13578 1 75.3223 29.517 80.4814
13579 2 74.4505 29.1051 80.2164
13580 2 75.2691 0.509482 80.3715
13581 1 74.61 17.2914 25.5304
13582 2 74.8006 17.2931 26.512
13583 2 74.1025 18.1181 25.2879
13584 1 6.18733 16.5179 19.6211
13585 2 5.9096 17.2103 20.2871
13586 2 5.37588 16.139 19.1762
13587 1 63.5452 26.5648 51.119
13588 2 63.7459 26.9597 50.2225
13589 2 63.5381 27.2893 51.8083
13590 1 58.9739 20.3674 15.9005
13591 2 59.3153 19.4601 15.6549
13592 2 58.7699 20.8833 15.0685
13593 1 23.8981 3.72609 64.187
13594 2 24.62 3.62152 63.5029
13595 2 24.0597 3.09061 64.942
13596 1 74.4577 20.5575 77.9071
13597 2 74.7988 21.3821 78.3586
13598 2 74.3911 20.7199 76.9226
13599 1 56.1504 13.9676 55.3068
13600 2 55.1985 13.6632 55.2696
13601 2 56.533 13.7563 56.2062
13602 1 64.8906 2.45229 40.8696
13603 2 64.9616 3.44976 40.867
13604 2 64.0352 2.18018 41.3103
13605 1 11.7154 9.82674 76.2455
13606 2 11.7798 10.0018 77.228
13607 2 11.7773 8.84291 76.0775
13608 1 71.6836 13.9435 23.0634
13609 2 72.6719 14.078 23.1341
13610 2 71.4181 13.1379 23.5932
13611 1 74.5379 15.0278 75.2266
13612 2 75.4067 15.4432 75.4962
13613 2 73.8197 15.3168 75.8596
13614 1 54.2962 12.721 78.7573
13615 2 54.4031 12.7346 79.7515
13616 2 53.3281 12.8145 78.5248
13617 1 14.2423 14.2493 28.5805
13618 2 14.0766 13.3644 28.1452
13619 2 14.906 14.1378 29.3202
13620 1 22.5386 1.67632 60.0909
13621 2 22.7066 2.31186 59.3373
13622 2 21.8935 0.97174 59.7952
13623 1 78.9232 13.6026 22.8973
13624 2 79.6411 13.346 23.5443
13625 2 78.141 12.9893 23.0068
13626 1 42.9522 6.3491 72.6592
13627 2 42.2916 6.67869 71.9847
13628 2 43.8446 6.76414 72.4822
13629 1 68.0388 26.4792 34.2401
13630 2 67.3448 26.1362 34.8731
13631 2 68.1913 25.8065 33.5161
13632 1 35.5378 12.6157 75.7994
13633 2 35.1692 12.9854 76.6523
13634 2 36.275 11.9724 76.0061
13635 1 29.773 2.36332 74.4733
13636 2 29.1963 3.10232 74.1251
13637 2 29.2579 1.82424 75.1397
13638 1 9.26409 16.4187 78.317
13639 2 8.54274 16.3611 77.6269
13640 2 10.1528 16.4936 77.8648
13641 1 21.1349 17.6731 67.986
13642 2 20.3595 17.8932 67.3941
13643 2 21.8019 17.1317 67.4741
13644 1 20.5815 24.4382 30.0217
13645 2 19.738 24.5651 30.5437
13646 2 20.6384 25.1342 29.3059
13647 1 5.46543 18.1587 61.0944
13648 2 5.24507 18.1722 62.0697
13649 2 5.51929 19.0967 60.7519
13650 1 53.8122 8.7132 56.7698
13651 2 53.4553 9.64457 56.8416
13652 2 54.537 8.58097 57.4459
13653 1 19.7329 24.889 19.5671
13654 2 20.4273 25.0068 20.2769
13655 2 18.8275 25.0624 19.9545
13656 1 36.2544 11.1199 63.7287
13657 2 36.158 11.4921 62.8056
13658 2 35.6805 11.6416 64.36
13659 1 12.6609 15.7806 51.3223
13660 2 13.2887 15.0693 51.6385
13661 2 12.9689 16.1271 50.4362
13662 1 77.167 28.2914 61.808
13663 2 77.908 28.9466 61.6606
13664 2 77.5165 27.3616 61.6926
13665 1 13.0401 14.0917 25.6511
13666 2 13.4064 14.9968 25.4349
13667 2 12.6041 13.7057 24.8381
13668 1 39.9664 22.9414 80.6439
13669 2 39.2904 23.6764 80.6968
13670 2 39.7737 22.3679 79.8476
13671 1 11.8354 10.4308 12.4965
13672 2 12.187 9.61054 12.9477
13673 2 12.596 10.9462 12.1019
13674 1 4.78487 7.21226 67.7458
13675 2 3.79068 7.10621 67.7639
13676 2 5.09799 7.56999 68.6256
13677 1 57.3127 0.291467 53.5876
13678 2 56.4192 29.9437 53.3036
13679 2 57.9005 0.394824 52.7852
13680 1 47.6994 3.3272 57.3611
13681 2 48.1819 4.01466 56.8184
13682 2 46.9554 2.93651 56.819
13683 1 38.2854 8.70937 51.8525
13684 2 39.1763 8.31707 51.6234
13685 2 37.8609 9.07786 51.0254
13686 1 43.5115 7.39537 56.1669
13687 2 43.6991 6.41572 56.0952
13688 2 44.2337 7.90783 55.7023
13689 1 35.5546 5.58302 61.7137
13690 2 35.0363 5.02879 62.365
13691 2 35.3514 6.55061 61.8636
13692 1 72.7368 12.7103 65.91
13693 2 73.4014 12.4099 65.2259
13694 2 72.5287 13.6783 65.7701
13695 1 65.5971 7.50455 79.3765
13696 2 65.2114 8.27017 78.8617
13697 2 66.1741 7.85572 80.1139
13698 1 52.2165 29.2427 60.1798
13699 2 51.6494 29.772 60.8108
13700 2 52.6601 29.8614 59.5314
13701 1 24.6434 12.8229 82.6926
13702 2 25.011 12.8178 83.6225
13703 2 24.6261 13.7608 82.3461
13704 1 61.6787 1.23066 87.4791
13705 2 60.8641 0.813808 87.0758
13706 2 62.3925 1.30878 86.7831
13707 1 9.51719 6.10297 12.8564
13708 2 10.408 5.65023 12.8945
13709 2 9.40731 6.69038 13.6582
13710 1 66.2294 5.54175 42.4968
13711 2 65.4829 4.8852 42.6048
13712 2 66.1205 6.28235 43.1599
13713 1 56.7004 23.4948 22.0698
13714 2 56.5711 22.8519 21.3148
13715 2 57.155 24.3189 21.7317
13716 1 60.0788 0.70402 84.9284
13717 2 60.3847 0.0511125 84.2354
13718 2 59.1217 0.941777 84.7629
13719 1 60.3382 26.2447 88.9837
13720 2 60.1218 25.4731 88.3856
13721 2 61.1282 26.7377 88.6191
13722 1 57.5951 12.2907 52.6416
13723 2 57.8006 11.7615 51.8184
13724 2 56.979 13.0433 52.4089
13725 1 54.3996 1.43304 78.5491
13726 2 53.9836 1.04753 79.3727
13727 2 54.3802 2.43145 78.6019
13728 1 14.9603 25.7644 36.9638
13729 2 14.8631 25.8206 37.9575
13730 2 15.6709 25.0988 36.7356
13731 1 18.4837 24.0032 27.3948
13732 2 17.7554 24.5979 27.0546
13733 2 19.3687 24.3464 27.08
13734 1 21.3933 29.9523 54.8956
13735 2 21.0703 0.345516 55.7564
13736 2 22.1048 0.538114 54.5078
13737 1 64.151 27.3331 89.2275
13738 2 64.75 26.6196 89.5912
13739 2 64.7003 28.0161 88.7462
13740 1 5.09855 6.89084 49.2761
13741 2 5.9436 7.42207 49.3368
13742 2 4.32606 7.50888 49.1303
13743 1 3.76162 2.10233 15.5698
13744 2 4.56404 1.87578 15.0177
13745 2 3.98116 1.98959 16.5389
13746 1 46.8933 22.0412 84.3955
13747 2 46.657 22.6683 83.6533
13748 2 47.1602 21.1569 84.0124
13749 1 5.29577 19.1027 16.0759
13750 2 5.4 19.7665 16.8164
13751 2 4.33482 19.0557 15.8032
13752 1 62.8702 7.49709 24.4533
13753 2 63.0404 8.47517 24.5732
13754 2 61.9093 7.35248 24.2173
13755 1 17.6744 28.1756 70.689
13756 2 17.0163 27.9478 71.4067
13757 2 17.5334 29.121 70.3952
13758 1 1.84733 1.47903 12.4047
13759 2 2.39312 0.646312 12.4979
13760 2 2.43963 2.2369 12.1312
13761 1 77.532 25.1179 86.5143
13762 2 77.445 25.203 87.5069
13763 2 76.6572 25.3386 86.0829
13764 1 17.6741 28.4226 60.718
13765 2 16.9732 28.7038 60.0625
13766 2 17.3641 28.6282 61.6462
13767 1 57.1825 28.7539 31.4174
13768 2 56.2434 28.902 31.1073
13769 2 57.4139 29.4315 32.1154
13770 1 35.9313 6.14926 64.5932
13771 2 35.1118 6.71808 64.6628
13772 2 35.684 5.19014 64.7308
13773 1 10.9039 20.8561 27.3211
13774 2 11.8298 20.5497 27.5421
13775 2 10.7318 20.7201 26.3455
13776 1 20.6233 3.47445 76.6165
13777 2 19.7211 3.04491 76.6555
13778 2 20.519 4.45386 76.4437
13779 1 73.6253 27.5673 27.3105
13780 2 73.374 26.6211 27.1069
13781 2 73.9125 27.6378 28.2657
13782 1 15.7028 4.73692 34.0697
13783 2 15.319 5.65209 34.1927
13784 2 15.0462 4.16311 33.5802
13785 1 61.7679 16.8806 39.0386
13786 2 61.9621 16.5091 39.9465
13787 2 62.6213 17.1791 38.6112
13788 1 54.0894 15.8375 91.0345
13789 2 53.1385 16.1268 91.144
13790 2 54.1449 14.8414 91.1035
13791 1 61.4105 8.2976 46.7108
13792 2 61.2207 7.78077 47.5456
13793 2 61.1315 9.2495 46.8374
13794 1 19.4633 19.3283 91.0336
13795 2 19.5451 19.5709 92.0003
13796 2 18.4974 19.3086 90.7755
13797 1 63.5886 8.31314 49.3293
13798 2 63.4865 9.292 49.5065
13799 2 62.8095 7.98836 48.7932
13800 1 13.672 28.3292 21.1019
13801 2 14.3842 29.0277 21.0315
13802 2 13.4432 27.9933 20.1883
13803 1 79.8155 21.9797 47.9378
13804 2 78.8863 22.1033 48.2863
13805 2 79.8086 22.0446 46.9399
13806 1 66.1311 13.8048 45.1722
13807 2 66.7249 13.1608 45.6547
13808 2 65.4225 13.2999 44.6794
13809 1 9.20979 27.8975 88.4748
13810 2 8.34202 27.4675 88.724
13811 2 9.928 27.2026 88.4392
13812 1 59.8922 26.7362 79.2892
13813 2 59.6309 25.773 79.2262
13814 2 60.2488 26.9257 80.204
13815 1 37.8771 18.3265 48.7778
13816 2 38.1456 19.2896 48.759
13817 2 38.2248 17.8676 47.9602
13818 1 5.51268 13.8767 73.3017
13819 2 4.63687 13.4121 73.4326
13820 2 5.36272 14.8644 73.2572
13821 1 6.20183 7.68459 20.5968
13822 2 6.80288 8.35305 20.1588
13823 2 5.60789 7.26871 19.9081
13824 1 1.89168 7.93116 52.9575
13825 2 2.65498 7.83409 53.5962
13826 2 1.03148 7.95313 53.4669
13827 1 19.9707 1.17053 28.8995
13828 2 20.7955 1.06109 28.3448
13829 2 19.1864 1.33565 28.3016
13830 1 29.4415 28.0363 58.8887
13831 2 28.6854 27.8209 59.5067
13832 2 29.1979 27.7661 57.9572
13833 1 37.161 24.263 61.4613
13834 2 37.9948 24.5854 61.9094
13835 2 37.3788 23.9518 60.5362
13836 1 75.9615 20.0895 20.4967
13837 2 75.6734 19.6756 19.6331
13838 2 75.3335 19.8136 21.2244
13839 1 7.05122 6.89381 54.9597
13840 2 6.44067 6.32304 55.5087
13841 2 6.85083 7.8582 55.1324
13842 1 75.3976 11.8145 69.4336
13843 2 76.2241 11.2538 69.4835
13844 2 75.5548 12.6826 69.9043
13845 1 50.8655 1.80819 50.5359
13846 2 51.2245 2.34848 51.297
13847 2 50.7146 0.866763 50.8375
13848 1 66.7744 27.6014 12.3941
13849 2 66.3914 28.249 11.7353
13850 2 67.0275 26.7567 11.9225
13851 1 11.7112 0.898917 61.4991
13852 2 12.6917 1.07582 61.4135
13853 2 11.4315 0.231417 60.809
13854 1 78.3374 1.77369 77.1226
13855 2 77.3735 1.54943 76.9786
13856 2 78.9032 0.987604 76.8738
13857 1 74.5503 16.9433 44.8369
13858 2 74.0733 17.1866 45.6815
13859 2 74.9702 17.7613 44.4438
13860 1 40.29 10.1941 39.7406
13861 2 40.1492 9.72448 40.6122
13862 2 41.2697 10.318 39.5832
13863 1 35.9952 15.9396 58.6635
13864 2 35.2161 16.2148 59.2268
13865 2 36.6018 16.7229 58.5281
13866 1 71.4462 20.0245 53.5185
13867 2 72.1638 19.9334 54.2089
13868 2 70.5727 19.7277 53.9045
13869 1 43.0575 1.82407 34.1749
13870 2 43.9784 1.68585 33.8105
13871 2 42.703 0.956151 34.5228
13872 1 25.8267 19.0548 42.7696
13873 2 25.5531 18.093 42.7779
13874 2 26.8219 19.1189 42.8444
13875 1 16.6078 28.6883 21.702
13876 2 16.3405 28.69 20.7384
13877 2 17.0267 27.8094 21.9302
13878 1 34.3011 25.0113 36.0716
13879 2 34.7017 25.9185 35.9435
13880 2 34.8603 24.3302 35.5988
13881 1 53.3429 14.4828 22.8515
13882 2 52.6853 14.519 22.099
13883 2 53.9097 13.6641 22.7598
13884 1 56.3393 5.90929 54.6653
13885 2 56.1212 5.57304 53.7491
13886 2 56.7136 6.8343 54.6005
13887 1 6.68022 10.8275 82.4892
13888 2 7.33955 10.7205 81.745
13889 2 6.42812 11.7913 82.5752
13890 1 1.61485 10.5927 72.2965
13891 2 1.06446 11.186 72.8839
13892 2 1.01737 10.1125 71.6543
13893 1 64.2375 12.6323 83.7403
13894 2 64.6485 12.8587 84.6234
13895 2 64.2871 11.6444 83.5932
13896 1 46.6686 25.2244 81.3728
13897 2 47.2758 25.346 82.158
13898 2 46.1688 24.3636 81.4681
13899 1 75.2123 29.623 15.4362
13900 2 75.0418 28.911 14.7551
13901 2 74.5989 0.395461 15.2718
13902 1 34.092 1.15058 70.744
13903 2 33.7917 0.26086 71.0878
13904 2 33.6901 1.87654 71.302
13905 1 0.0119371 0.0817297 13.7416
13906 2 0.788554 0.618855 13.4124
13907 2 79.2751 0.112651 13.0662
13908 1 62.6084 22.6614 47.9872
13909 2 62.1193 21.7951 48.0888
13910 2 63.5897 22.5053 48.0999
13911 1 38.3489 27.0248 85.7007
13912 2 38.5485 26.092 86.0007
13913 2 39.1591 27.4146 85.263
13914 1 1.89864 19.1948 24.7986
13915 2 1.22852 19.0132 24.0789
13916 2 1.58077 18.7955 25.6585
13917 1 47.2962 24.5388 34.1375
13918 2 48.2161 24.3953 34.5025
13919 2 46.7202 23.7543 34.3675
13920 1 0.763035 27.5968 16.7196
13921 2 1.19384 28.4809 16.5387
13922 2 0.0303852 27.7139 17.3901
13923 1 18.9116 28.3672 32.6941
13924 2 19.8 28.2552 33.1393
13925 2 18.9996 28.1647 31.7188
13926 1 72.8951 25.9971 51.2036
13927 2 72.3354 25.9803 50.3751
13928 2 73.5272 26.7709 51.1632
13929 1 4.8718 2.12955 18.1184
13930 2 4.99171 1.54283 18.9192
13931 2 5.09129 3.07438 18.3615
13932 1 63.2615 14.8168 56.0251
13933 2 63.48 15.6444 56.5421
13934 2 63.213 15.0356 55.0505
13935 1 2.49062 0.858564 22.7576
13936 2 3.31303 1.24421 22.3394
13937 2 2.19924 1.4397 23.5175
13938 1 72.6481 26.2574 81.2467
13939 2 72.7412 25.5747 81.9714
13940 2 73.5415 26.6632 81.0542
13941 1 73.878 14.0182 33.9328
13942 2 73.9478 13.0649 33.6388
13943 2 74.6736 14.2539 34.4909
13944 1 72.247 19.0521 77.7165
13945 2 72.2212 18.7224 78.6603
13946 2 72.9954 19.7071 77.6127
13947 1 8.62557 23.2784 30.5967
13948 2 8.44389 22.849 31.4814
13949 2 7.81609 23.7848 30.2995
13950 1 78.8752 17.6352 51.7501
13951 2 78.1382 17.6916 51.0765
13952 2 79.0166 16.68 52.0102
13953 1 2.63317 22.0991 15.8031
13954 2 3.31097 21.9858 16.5295
13955 2 1.85732 21.4916 15.9734
13956 1 7.25903 25.4929 84.1322
13957 2 7.09513 25.3999 83.1502
13958 2 8.0361 26.1037 84.2841
13959 1 12.0211 1.35745 75.5152
13960 2 11.8823 2.32825 75.7109
13961 2 11.3356 0.817641 76.0038
13962 1 19.3486 12.7189 56.4213
13963 2 19.1665 13.4389 57.091
13964 2 19.1845 11.8255 56.8395
13965 1 26.18 9.27222 34.1743
13966 2 25.948 9.32904 35.1453
13967 2 25.4853 8.73446 33.6966
13968 1 54.1471 1.21532 58.7069
13969 2 53.8406 2.15608 58.5619
13970 2 54.1859 0.738313 57.8289
13971 1 68.5429 13.0731 66.3441
13972 2 69.1857 12.338 66.5597
13973 2 67.841 12.7297 65.72
13974 1 68.9098 9.18416 37.5483
13975 2 69.5981 8.76727 38.1421
13976 2 68.0122 8.79421 37.7537
13977 1 37.7245 10.9201 83.5687
13978 2 37.5543 11.3399 84.4602
13979 2 38.682 10.6373 83.5109
13980 1 37.3171 22.9941 52.2749
13981 2 36.8789 22.3721 52.9238
13982 2 37.1586 23.9393 52.5603
13983 1 38.774 23.7949 41.2883
13984 2 39.4234 23.4235 41.9518
13985 2 38.5002 24.7149 41.5689
13986 1 2.93711 5.61895 51.8676
13987 2 2.06062 5.44251 52.3155
13988 2 3.18673 6.57949 51.9903
13989 1 6.61792 5.02751 12.8733
13990 2 6.83115 4.1743 13.3493
13991 2 7.3757 5.26948 12.2673
13992 1 50.2243 3.9419 89.9055
13993 2 49.6754 4.76528 90.0498
13994 2 49.8742 3.20288 90.4811
13995 1 50.1719 20.1534 30.6502
13996 2 49.8164 19.3826 30.1215
13997 2 51.005 19.8741 31.1276
13998 1 22.8267 1.30006 35.0612
13999 2 23.0833 0.420733 34.6599
14000 2 23.6034 1.92807 35.0122
14001 1 9.64367 10.2102 65.448
14002 2 10.0003 11.1343 65.5852
14003 2 9.78211 9.67268 66.2798
14004 1 39.4191 21.8638 86.6204
14005 2 39.2712 22.8369 86.7971
14006 2 38.7766 21.5505 85.9211
14007 1 79.2752 14.0993 53.7088
14008 2 78.7926 14.6116 54.4192
14009 2 78.968 14.4077 52.8085
14010 1 23.5814 16.8792 60.9863
14011 2 23.5613 16.4567 60.0802
14012 2 24.2466 17.6259 60.9913
14013 1 19.4574 8.01296 78.8752
14014 2 20.2751 8.31316 78.3842
14015 2 19.0936 7.18755 78.4435
14016 1 25.3588 22.9431 80.1105
14017 2 25.4964 22.1511 80.7053
14018 2 25.6767 23.769 80.5761
14019 1 0.861083 4.7925 82.6903
14020 2 0.0326797 4.24675 82.5642
14021 2 0.92533 5.47413 81.9615
14022 1 32.7124 0.174198 73.2991
14023 2 33.0064 29.4543 72.6703
14024 2 32.7679 29.8386 74.2394
14025 1 20.2177 4.3142 12.392
14026 2 20.5467 3.3801 12.5309
14027 2 20.8656 4.95936 12.797
14028 1 2.69924 7.22331 15.6933
14029 2 2.06649 6.65223 16.2163
14030 2 2.18059 7.87758 15.1429
14031 1 5.18361 5.91287 71.7076
14032 2 4.76328 6.16401 72.5795
14033 2 5.74036 6.67385 71.3745
14034 1 60.0747 8.20066 18.988
14035 2 59.9099 7.33224 18.5204
14036 2 59.7716 8.13031 19.9383
14037 1 62.8822 0.742617 80.6914
14038 2 62.5464 0.662465 79.7529
14039 2 63.8303 1.06034 80.6801
14040 1 64.5663 27.8261 23.6583
14041 2 64.4782 28.6457 24.2246
14042 2 65.4149 27.8747 23.1315
14043 1 36.7996 14.0232 55.7412
14044 2 36.1036 14.5588 56.2196
14045 2 37.0106 13.2018 56.271
14046 1 1.00191 22.1653 45.2773
14047 2 0.246198 22.2444 44.6271
14048 2 1.40946 21.2549 45.2055
14049 1 18.3659 22.0204 37.7001
14050 2 18.2706 22.1511 38.6869
14051 2 19.148 21.4248 37.5168
14052 1 10.3476 5.36449 66.2528
14053 2 9.86188 4.5366 66.5334
14054 2 11.3322 5.22513 66.358
14055 1 42.7174 3.36416 62.5247
14056 2 43.0349 3.12904 61.606
14057 2 43.4011 3.93671 62.9772
14058 1 50.0738 4.02868 87.1193
14059 2 49.7113 3.20226 87.5502
14060 2 49.3232 4.54829 86.711
14061 1 44.194 22.5589 37.5706
14062 2 44.746 22.5173 36.7377
14063 2 43.749 23.4523 37.6313
14064 1 71.7841 9.56807 14.932
14065 2 70.826 9.62526 15.2128
14066 2 72.1582 8.68096 15.2023
14067 1 15.7092 10.2164 11.2196
14068 2 15.0641 9.45359 11.2649
14069 2 16.6344 9.88152 11.3981
14070 1 63.5409 28.9848 68.8242
14071 2 63.3185 29.1984 69.7755
14072 2 64.1701 29.6746 68.466
14073 1 49.9096 10.0714 43.6682
14074 2 49.7757 10.7472 42.9434
14075 2 50.37 10.5021 44.4444
14076 1 7.44046 5.72482 37.964
14077 2 6.99799 5.83855 37.0745
14078 2 8.43248 5.69498 37.8415
14079 1 33.4416 8.81575 43.2738
14080 2 33.7001 9.06936 44.2059
14081 2 33.6645 7.85376 43.1161
14082 1 12.6843 23.9949 38.6408
14083 2 12.2346 23.363 38.0095
14084 2 12.2491 23.9345 39.5391
14085 1 12.5476 29.5282 25.893
14086 2 11.7791 29.8665 26.4361
14087 2 12.9929 28.7757 26.3781
14088 1 73.8089 15.4435 70.3384
14089 2 73.893 14.8149 71.1116
14090 2 74.6584 15.9608 70.2355
14091 1 43.9596 10.2428 43.9172
14092 2 44.1114 10.1642 42.9319
14093 2 42.9914 10.4219 44.092
14094 1 73.841 8.49657 26.9996
14095 2 74.7476 8.91838 27.0103
14096 2 73.1515 9.18247 27.2322
14097 1 26.7194 28.0794 64.2046
14098 2 26.5416 28.5107 63.3201
14099 2 25.8912 27.6182 64.5231
14100 1 62.6784 8.51479 67.887
14101 2 62.605 8.71627 68.8637
14102 2 63.5485 8.86406 67.539
14103 1 31.6995 12.1087 86.7568
14104 2 32.4012 11.9384 86.065
14105 2 31.8821 12.9818 87.2089
14106 1 74.0692 2.44273 59.4289
14107 2 74.3542 2.18312 60.3516
14108 2 74.8762 2.65805 58.879
14109 1 63.2306 4.46949 56.9605
14110 2 63.3556 3.89343 57.7683
14111 2 62.91 5.3738 57.2423
14112 1 28.2688 13.7156 55.3103
14113 2 27.5283 13.3575 55.8791
14114 2 28.5251 14.6271 55.6318
14115 1 64.351 22.5363 78.0413
14116 2 63.4551 22.5927 77.6008
14117 2 64.8752 21.7874 77.636
14118 1 18.2484 8.64302 12.0863
14119 2 19.1381 9.04255 11.8651
14120 2 18.3557 7.6632 12.2549
14121 1 69.0698 25.5844 54.8356
14122 2 68.808 25.8322 55.7683
14123 2 68.5947 24.7463 54.5676
14124 1 74.8792 0.730534 43.5748
14125 2 74.1373 0.186552 43.9669
14126 2 74.505 1.5708 43.1825
14127 1 76.0157 24.0192 36.3889
14128 2 76.2608 23.101 36.6998
14129 2 76.3873 24.1713 35.473
14130 1 49.72 0.331032 56.8135
14131 2 49.2334 0.240374 55.9446
14132 2 50.3085 29.5343 56.9507
14133 1 40.663 2.20981 90.595
14134 2 41.6331 2.45127 90.6192
14135 2 40.1409 2.96644 90.2014
14136 1 79.8554 7.61286 70.8933
14137 2 79.6689 7.38752 69.937
14138 2 0.705621 7.17145 71.1801
14139 1 7.51274 25.5825 75.0428
14140 2 8.43355 25.7859 74.71
14141 2 7.44736 24.6108 75.2696
14142 1 77.5209 19.945 59.0774
14143 2 78.1068 20.7319 58.8834
14144 2 77.3069 19.9217 60.054
14145 1 62.7366 20.1813 79.6845
14146 2 62.1265 20.7891 79.1761
14147 2 62.513 19.2302 79.4713
14148 1 61.6345 6.44233 14.3611
14149 2 62.6132 6.588 14.5057
14150 2 61.1701 7.32639 14.3088
14151 1 10.6529 21.8991 60.9931
14152 2 10.8429 21.4566 61.8696
14153 2 9.74442 21.6295 60.6737
14154 1 37.9471 24.3601 68.2658
14155 2 38.7807 24.7807 68.6241
14156 2 37.6742 23.6029 68.8593
14157 1 58.6656 19.6134 50.1841
14158 2 59.2106 18.8571 50.546
14159 2 59.1601 20.4728 50.3141
14160 1 31.5973 29.677 42.9219
14161 2 32.0816 29.4869 42.068
14162 2 32.2526 29.9676 43.6192
14163 1 52.0621 9.4519 25.2463
14164 2 51.3389 9.18937 24.6075
14165 2 52.5881 8.64187 25.5054
14166 1 59.4929 0.81202 11.0363
14167 2 59.82 0.621491 10.1107
14168 2 59.6435 1.77702 11.251
14169 1 3.21978 23.5308 51.4982
14170 2 3.15421 24.4148 51.0352
14171 2 2.35181 23.3264 51.9507
14172 1 25.9221 25.5532 89.3463
14173 2 25.3533 26.2462 89.7892
14174 2 26.8659 25.6436 89.6644
14175 1 57.6314 1.84025 70.5985
14176 2 57.3228 1.25276 71.3466
14177 2 58.6282 1.79787 70.5308
14178 1 15.5318 0.747844 25.4383
14179 2 15.0682 1.55289 25.0683
14180 2 15.469 29.996 24.782
14181 1 53.662 3.9583 58.1133
14182 2 54.2911 4.67693 58.4096
14183 2 53.5779 3.97881 57.1171
14184 1 25.9758 12.1955 90.8719
14185 2 25.1624 11.9658 90.3374
14186 2 26.6312 11.4419 90.8218
14187 1 59.5808 18.7193 67.3169
14188 2 58.6948 19.1731 67.2217
14189 2 60.0985 19.1507 68.0558
14190 1 51.1028 1.89144 68.9457
14191 2 50.2185 2.33704 68.8068
14192 2 51.3137 1.86653 69.9229
14193 1 21.3615 17.5625 78.7574
14194 2 21.4371 17.4563 79.7489
14195 2 22.2751 17.655 78.3615
14196 1 55.1096 28.4528 83.4438
14197 2 56.0434 28.2139 83.7101
14198 2 54.6163 27.6243 83.1786
14199 1 39.1226 25.7605 45.6001
14200 2 39.2975 24.9428 45.0516
14201 2 39.8886 25.913 46.2246
14202 1 47.3513 22.6194 74.2024
14203 2 48.3254 22.8143 74.0881
14204 2 47.0674 22.8705 75.1278
14205 1 17.4997 11.2515 76.5384
14206 2 17.7178 11.0709 77.4975
14207 2 17.4635 10.3874 76.0364
14208 1 52.1708 17.2129 51.2253
14209 2 52.865 16.9529 50.5541
14210 2 52.6175 17.5733 52.0442
14211 1 37.2112 1.99693 66.9887
14212 2 37.9567 2.5115 67.4122
14213 2 36.9365 2.44666 66.1388
14214 1 50.746 9.31147 56.5636
14215 2 51.4809 9.83337 56.9965
14216 2 50.7139 9.52751 55.5877
14217 1 72.9899 4.51837 56.0044
14218 2 73.5436 3.75251 55.6774
14219 2 73.3427 5.37212 55.6215
14220 1 0.218206 20.6626 54.5815
14221 2 0.105847 21.1359 55.4553
14222 2 0.750599 19.8277 54.7208
14223 1 34.9705 19.3754 40.6764
14224 2 34.6133 19.3219 41.6089
14225 2 35.7553 18.7625 40.5844
14226 1 68.8423 15.823 46.739
14227 2 68.7108 16.2948 47.6109
14228 2 68.5866 14.8614 46.8385
14229 1 78.5315 6.75976 44.0684
14230 2 78.8946 6.69205 44.9977
14231 2 78.0951 5.89579 43.8173
14232 1 1.04565 28.9033 48.4363
14233 2 1.05704 28.182 49.1288
14234 2 0.133975 29.3122 48.3959
14235 1 54.1676 18.8288 89.8986
14236 2 53.9059 18.1802 90.6134
14237 2 53.4698 19.5412 89.8233
14238 1 58.3645 5.13168 61.098
14239 2 58.8464 4.49439 61.6994
14240 2 57.6784 4.63463 60.5669
14241 1 37.8844 23.5117 30.7577
14242 2 38.4662 24.2676 30.4576
14243 2 38.3435 23.0077 31.4892
14244 1 27.7412 29.7577 56.2456
14245 2 28.2026 28.8859 56.0814
14246 2 26.8726 29.7736 55.7502
14247 1 20.0603 13.4867 87.1676
14248 2 20.7375 12.974 87.6953
14249 2 19.1409 13.2007 87.4377
14250 1 32.7934 3.30707 71.4513
14251 2 32.8218 3.51083 72.4299
14252 2 32.3277 4.04951 70.9697
14253 1 41.4583 19.1765 70.9289
14254 2 40.9703 19.548 71.7187
14255 2 42.3939 18.9437 71.1945
14256 1 56.9177 21.5329 41.2429
14257 2 56.2236 20.8718 40.9581
14258 2 57.7001 21.4832 40.6222
14259 1 56.0658 14.519 59.5651
14260 2 55.9759 15.4737 59.8487
14261 2 56.0455 14.4645 58.5668
14262 1 78.9704 23.1358 27.4875
14263 2 79.4208 23.8503 28.0228
14264 2 78.4361 23.5556 26.7539
14265 1 79.7091 29.3948 77.3031
14266 2 0.457328 28.757 77.4861
14267 2 78.8369 28.9561 77.5193
14268 1 30.0257 12.8567 33.2464
14269 2 30.1869 13.5932 33.9033
14270 2 29.954 11.9859 33.7328
14271 1 55.2292 22.7023 77.2796
14272 2 55.2314 21.716 77.1149
14273 2 56.0248 22.9497 77.8326
14274 1 17.0312 13.7937 18.9969
14275 2 17.3679 13.0069 18.4795
14276 2 16.1774 13.5496 19.4567
14277 1 46.0487 7.74608 60.8185
14278 2 45.0596 7.86515 60.7319
14279 2 46.4696 7.78383 59.9122
14280 1 75.3228 7.93698 85.7285
14281 2 75.7058 7.36791 86.4562
14282 2 74.3299 7.82113 85.7025
14283 1 43.5287 20.4899 63.0733
14284 2 43.5327 21.3394 63.6008
14285 2 44.3717 20.4251 62.5394
14286 1 69.4572 8.91421 22.1089
14287 2 69.5332 7.94543 22.3448
14288 2 69.3026 9.44857 22.9399
14289 1 70.5789 6.47346 84.5861
14290 2 71.283 6.4409 85.2955
14291 2 70.1895 7.3936 84.545
14292 1 59.4058 24.7042 25.361
14293 2 60.0656 25.2362 24.8303
14294 2 58.7099 25.316 25.7371
14295 1 9.88902 29.9301 65.4991
14296 2 9.39163 0.375909 64.7549
14297 2 9.31378 29.2209 65.9066
14298 1 75.7765 16.2007 27.7862
14299 2 76.6342 16.6748 27.5871
14300 2 75.3149 16.6531 28.5493
14301 1 15.8633 12.7503 57.2301
14302 2 16.172 12.6291 56.2867
14303 2 16.3965 12.1578 57.834
14304 1 79.8684 3.38251 49.1133
14305 2 0.261972 4.15682 48.6178
14306 2 78.9751 3.64124 49.4807
14307 1 79.3917 3.57845 34.0105
14308 2 78.4114 3.63765 34.1986
14309 2 79.8331 3.02144 34.714
14310 1 9.49692 5.97996 44.0018
14311 2 10.3133 6.23622 43.4843
14312 2 8.99018 6.80417 44.2545
14313 1 8.84215 21.7483 43.9278
14314 2 7.87684 21.5127 43.8152
14315 2 8.99138 22.1122 44.8472
14316 1 40.53 24.9559 69.9278
14317 2 41.1525 25.6885 69.6527
14318 2 40.9269 24.0715 69.6823
14319 1 47.3993 0.246164 86.3499
14320 2 46.7739 0.1135 87.1189
14321 2 47.6953 1.20093 86.322
14322 1 36.6594 28.2772 83.311
14323 2 37.1007 27.3846 83.4035
14324 2 35.8766 28.3278 83.9312
14325 1 65.6524 0.908349 26.7427
14326 2 65.3231 0.00195023 27.0073
14327 2 65.4652 1.55893 27.4787
14328 1 60.0738 15.9753 20.1521
14329 2 61.0687 16.0309 20.0676
14330 2 59.7362 15.2038 19.6129
14331 1 26.8207 25.4807 63.1548
14332 2 27.1683 26.1407 63.8209
14333 2 27.3634 24.6421 63.2022
14334 1 62.1563 29.2786 33.8716
14335 2 62.3954 29.2353 32.9015
14336 2 61.2547 29.6989 33.9742
14337 1 20.0836 25.0584 37.0313
14338 2 20.8141 24.8624 37.6854
14339 2 20.0635 24.3453 36.3304
14340 1 42.1964 27.8292 91.2022
14341 2 41.6802 27.6306 90.3691
14342 2 41.5619 28.0502 91.9428
14343 1 30.7931 13.0439 47.0586
14344 2 30.8285 13.8673 47.6249
14345 2 31.7095 12.8342 46.7176
14346 1 76.765 10.0667 46.1548
14347 2 76.1642 10.6571 46.6939
14348 2 77.7132 10.3634 46.2683
14349 1 42.2723 20.7032 89.8433
14350 2 43.2207 20.7342 90.1589
14351 2 42.1906 21.2068 88.9832
14352 1 5.98167 20.1046 63.4205
14353 2 5.69897 20.9542 63.8659
14354 2 6.86287 20.2426 62.9683
14355 1 13.528 26.3205 44.8209
14356 2 13.7689 27.2879 44.8989
14357 2 14.2263 25.7656 45.273
14358 1 25.9819 3.99551 29.6695
14359 2 26.9424 4.27306 29.6479
14360 2 25.5796 4.25535 30.5473
14361 1 16.4184 14.9919 16.6269
14362 2 16.4956 14.4506 17.4641
14363 2 15.4574 15.0538 16.3574
14364 1 23.8942 21.838 82.735
14365 2 24.7948 21.4264 82.5954
14366 2 23.8581 22.2615 83.6402
14367 1 71.9584 25.6218 68.2209
14368 2 71.978 25.6853 69.2187
14369 2 72.082 26.5324 67.8265
14370 1 19.7853 21.067 70.0701
14371 2 19.102 21.3659 69.4039
14372 2 19.6047 20.1183 70.3299
14373 1 72.7049 7.41149 86.8208
14374 2 72.1337 8.18368 86.5425
14375 2 72.9231 7.49184 87.7934
14376 1 61.194 3.61817 38.0527
14377 2 61.2711 4.56504 38.365
14378 2 61.2362 3.00308 38.84
14379 1 17.7036 25.23 31.4879
14380 2 17.2981 24.5139 32.0561
14381 2 17.0994 26.0267 31.4742
14382 1 78.9443 28.1485 18.6396
14383 2 78.8932 27.1713 18.4336
14384 2 78.6233 28.3097 19.5729
14385 1 17.7116 14.4772 36.6636
14386 2 18.5299 14.2034 36.1581
14387 2 17.9786 15.0083 37.4677
14388 1 30.9612 23.9706 57.6273
14389 2 31.6705 23.4423 57.1606
14390 2 30.389 23.3547 58.1689
14391 1 5.56417 4.64242 18.3865
14392 2 5.43521 4.98841 19.3158
14393 2 5.66403 5.41161 17.7553
14394 1 43.5234 7.34084 39.2425
14395 2 43.1761 8.27644 39.1789
14396 2 43.7145 6.99313 38.3246
14397 1 60.8119 9.5576 79.3151
14398 2 60.6237 10.4376 78.8789
14399 2 60.2584 9.47099 80.1434
14400 1 28.7218 27.7074 76.2961
14401 2 27.8293 28.1538 76.231
14402 2 29.4335 28.3388 75.9882
14403 1 25.0422 9.30685 29.4099
14404 2 25.0924 9.87791 30.2293
14405 2 25.9574 8.97837 29.1761
14406 1 2.60974 4.40562 69.4907
14407 2 2.30865 3.68644 70.1168
14408 2 2.71396 4.02529 68.5717
14409 1 8.6419 21.273 40.671
14410 2 8.70083 20.7043 41.4915
14411 2 9.54421 21.3377 40.2448
14412 1 9.36846 14.2725 51.3645
14413 2 10.326 14.1237 51.1177
14414 2 8.88437 14.6809 50.5906
14415 1 62.8127 25.9341 11.0051
14416 2 63.053 26.6458 11.6652
14417 2 63.6434 25.5946 10.5638
14418 1 29.0559 22.7279 48.8848
14419 2 29.5068 22.8062 49.7739
14420 2 29.4389 23.4047 48.256
14421 1 40.7656 2.36866 47.3903
14422 2 40.0509 2.8093 47.9335
14423 2 41.0156 2.9614 46.6247
14424 1 13.4815 28.8179 40.5999
14425 2 12.9802 28.4207 41.3687
14426 2 13.8863 29.6884 40.8801
14427 1 50.2246 20.5305 54.1725
14428 2 49.2326 20.4114 54.2139
14429 2 50.4642 21.4456 54.497
14430 1 25.771 6.59522 25.4589
14431 2 24.98 6.00254 25.3071
14432 2 26.6033 6.11974 25.174
14433 1 7.12585 19.9423 84.4944
14434 2 7.96871 20.3749 84.8146
14435 2 6.55971 19.6933 85.2802
14436 1 47.7885 10.4673 80.7635
14437 2 48.5917 10.44 81.3585
14438 2 46.9625 10.3385 81.3124
14439 1 37.7776 6.7275 45.4709
14440 2 38.014 6.95189 44.5255
14441 2 38.3195 7.29253 46.0931
14442 1 22.1587 17.2271 71.9761
14443 2 21.4282 17.819 72.3167
14444 2 22.3132 16.4816 72.6245
14445 1 37.7109 21.6368 44.0142
14446 2 38.467 21.6538 44.6685
14447 2 37.4801 20.6885 43.7962
14448 1 55.4855 23.3789 45.9741
14449 2 55.0941 23.7008 45.112
14450 2 54.8062 23.4683 46.7025
14451 1 26.5588 0.292287 87.9345
14452 2 26.4603 0.83339 88.7696
14453 2 25.7273 0.373129 87.3849
14454 1 11.8675 6.68356 49.0628
14455 2 11.2123 6.66428 48.3076
14456 2 11.4042 6.43156 49.9125
14457 1 51.5721 13.741 65.1918
14458 2 51.1975 13.2371 64.4135
14459 2 50.8807 13.805 65.9114
14460 1 31.5285 18.8043 31.9377
14461 2 31.2787 19.7442 32.1702
14462 2 30.7083 18.2323 31.935
14463 1 31.6865 23.0342 37.8686
14464 2 31.5685 22.8886 36.8863
14465 2 32.1136 22.2271 38.2763
14466 1 21.7866 17.0562 51.4592
14467 2 22.6101 17.4091 51.9033
14468 2 21.4793 17.7051 50.763
14469 1 63.6172 9.6534 90.6325
14470 2 64.0128 9.97472 91.4929
14471 2 62.6203 9.63724 90.7095
14472 1 41.9843 12.2613 52.8812
14473 2 42.6461 13.0093 52.9307
14474 2 42.2952 11.5848 52.2136
14475 1 9.20858 14.4234 45.3256
14476 2 9.48282 15.2936 45.735
14477 2 9.88559 13.7221 45.5487
14478 1 30.2422 24.8461 46.9329
14479 2 30.4526 25.7522 46.566
14480 2 31.0933 24.3483 47.0998
14481 1 54.9053 5.4564 34.9121
14482 2 54.3908 5.59944 35.7575
14483 2 55.5406 4.69366 35.0335
14484 1 10.2641 6.30422 81.8588
14485 2 9.85875 7.15381 81.5213
14486 2 9.93595 6.12374 82.786
14487 1 58.4461 15.7493 61.4394
14488 2 58.3061 14.9199 60.8986
14489 2 57.6135 16.3029 61.4223
14490 1 26.191 3.10638 54.837
14491 2 25.2477 3.38291 55.021
14492 2 26.5531 3.64327 54.075
14493 1 26.3384 17.3237 90.5436
14494 2 26.0661 18.2028 90.1525
14495 2 25.5574 16.6991 90.5357
14496 1 65.9887 18.4322 90.9628
14497 2 66.8261 18.7815 90.5424
14498 2 65.7882 17.5221 90.6002
14499 1 38.8662 19.6067 51.4029
14500 2 39.8239 19.8937 51.4226
14501 2 38.334 20.2586 50.8627
14502 1 0.472163 27.5998 41.353
14503 2 0.329238 26.6487 41.6268
14504 2 0.610589 28.1638 42.1671
14505 1 40.245 26.6316 83.3221
14506 2 39.5559 26.056 83.7623
14507 2 40.1755 26.5346 82.3292
14508 1 53.4254 26.062 89.9286
14509 2 53.4461 25.4458 90.7159
14510 2 54.0548 25.7277 89.2271
14511 1 38.6263 6.9119 65.1711
14512 2 39.0324 6.09969 64.7523
14513 2 37.6331 6.88384 65.0583
14514 1 29.2363 8.33107 55.1937
14515 2 30.2091 8.45835 55
14516 2 29.1285 7.89829 56.0887
14517 1 12.466 13.6097 62.5012
14518 2 13.4148 13.85 62.7063
14519 2 11.9148 13.6906 63.3317
14520 1 25.3291 18.6516 86.7112
14521 2 24.7439 18.9256 85.9479
14522 2 24.9067 18.9332 87.5727
14523 1 35.2997 26.2124 61.2026
14524 2 34.4809 25.7511 60.8609
14525 2 36.0298 25.5419 61.3338
14526 1 49.6149 23.9223 79.5378
14527 2 50.5993 23.7544 79.5895
14528 2 49.2628 24.1245 80.4517
14529 1 11.4752 22.4043 67.9104
14530 2 12.0677 21.599 67.9341
14531 2 10.599 22.1862 68.3401
14532 1 47.0014 19.73 48.6103
14533 2 47.3553 19.1855 49.3708
14534 2 46.7555 20.6417 48.9392
14535 1 73.6106 25.3949 36.3827
14536 2 74.4896 24.9243 36.4595
14537 2 73.3731 25.8033 37.264
14538 1 20.9989 7.97662 46.7894
14539 2 21.3751 8.85542 47.083
14540 2 21.6067 7.23893 47.0835
14541 1 44.5342 12.9593 33.5635
14542 2 45.1271 12.3791 34.1219
14543 2 45.0319 13.259 32.7496
14544 1 70.524 20.6674 67.0956
14545 2 71.1625 20.0377 66.6531
14546 2 70.7037 21.5996 66.7814
14547 1 28.9007 24.2706 76.5182
14548 2 28.8636 24.7448 75.6386
14549 2 28.0891 24.5004 77.0553
14550 1 76.1646 8.56815 82.4623
14551 2 75.9819 7.64842 82.8098
14552 2 77.1412 8.66378 82.2696
14553 1 50.5004 28.5091 69.5272
14554 2 51.3804 28.8431 69.8647
14555 2 49.8515 28.4542 70.2861
14556 1 70.4897 27.8277 53.2802
14557 2 70.5227 26.9684 53.7905
14558 2 71.2102 28.4384 53.6089
14559 1 18.2242 1.44808 46.0216
14560 2 17.351 1.10084 46.3636
14561 2 18.8944 0.706052 46.0046
14562 1 20.0885 2.35394 69.4332
14563 2 21.0386 2.22226 69.7159
14564 2 19.478 1.98617 70.1347
14565 1 8.11219 22.6169 85.1912
14566 2 7.21154 22.8843 85.5337
14567 2 8.44144 23.306 84.5457
14568 1 36.7181 1.59895 70.9886
14569 2 35.8014 1.63257 70.5905
14570 2 36.8654 0.704586 71.411
14571 1 32.2701 16.6777 61.1173
14572 2 33.1771 17.0346 60.8934
14573 2 32.261 16.3624 62.0662
14574 1 56.7393 20.4731 22.6147
14575 2 56.3242 21.3408 22.8883
14576 2 56.8433 19.8857 23.4173
14577 1 19.6763 19.1763 21.7625
14578 2 20.1145 20.0752 21.7515
14579 2 18.7001 19.2837 21.9508
14580 1 33.3816 9.08448 68.3706
14581 2 32.8043 9.79554 67.9692
14582 2 32.8046 8.38977 68.8001
14583 1 66.5492 0.380631 80.003
14584 2 66.2171 0.0609912 80.8904
14585 2 66.3441 1.35408 79.9013
14586 1 46.9414 25.8736 76.7137
14587 2 47.2312 25.8418 77.6703
14588 2 47.0321 26.8079 76.3688
14589 1 18.3255 22.5283 64.071
14590 2 18.0791 21.6262 64.4253
14591 2 19.3211 22.604 64.0153
14592 1 17.6234 21.9268 51.9586
14593 2 18.0473 21.1149 51.5574
14594 2 16.6835 21.7144 52.226
14595 1 55.9896 23.248 63.2835
14596 2 55.3647 23.0215 64.0307
14597 2 56.2274 24.2182 63.3304
14598 1 9.70361 2.20782 12.3876
14599 2 10.1618 2.38522 13.2586
14600 2 9.92098 2.93952 11.7416
14601 1 15.7956 27.3795 64.5547
14602 2 15.9137 28.1145 63.887
14603 2 15.9298 27.7423 65.4769
14604 1 22.2803 20.4754 39.6244
14605 2 22.7995 19.774 40.1129
14606 2 21.5018 20.7629 40.1823
14607 1 10.6894 2.68709 31.1179
14608 2 11.6498 2.83147 31.3562
14609 2 10.1331 3.41392 31.5207
14610 1 15.4183 10.4931 89.3005
14611 2 14.9545 11.2802 89.7072
14612 2 15.0099 10.2886 88.411
14613 1 67.8751 3.60142 88.6605
14614 2 68.0251 3.49908 87.6771
14615 2 68.7165 3.37545 89.1513
14616 1 8.8335 27.3149 22.7552
14617 2 9.08057 27.4297 23.7174
14618 2 7.98484 27.8095 22.5677
14619 1 26.6012 29.5442 52.8875
14620 2 26.1751 28.8281 53.4404
14621 2 25.9075 29.9789 52.3131
14622 1 44.8832 8.0052 82.8819
14623 2 44.3516 7.63355 83.643
14624 2 45.6429 8.54825 83.2397
14625 1 8.21197 5.03827 60.1284
14626 2 7.93085 5.37424 61.0274
14627 2 7.41765 5.00442 59.5219
14628 1 63.3202 13.2591 24.8271
14629 2 64.2918 13.0636 24.9602
14630 2 62.9977 12.7985 24.0002
14631 1 16.7914 7.99437 27.1872
14632 2 17.0679 7.69986 26.2724
14633 2 16.9244 7.24306 27.8336
14634 1 62.1563 20.6808 26.1016
14635 2 61.7522 20.2087 26.8851
14636 2 63.1131 20.8948 26.2986
14637 1 53.2713 28.0123 36.9974
14638 2 53.4785 28.8505 37.5019
14639 2 52.8079 27.365 37.6027
14640 1 79.5556 28.7388 89.4993
14641 2 79.1957 28.092 88.8269
14642 2 0.475784 29.0225 89.2295
14643 1 48.1375 19.9298 33.511
14644 2 47.7761 20.1358 32.6016
14645 2 48.8114 20.6229 33.7668
14646 1 14.9873 15.8599 61.3948
14647 2 14.3985 15.3463 62.0188
14648 2 14.4395 16.5329 60.8977
14649 1 57.607 19.0431 43.861
14650 2 57.7864 20.0218 43.961
14651 2 58.4563 18.5329 43.9966
14652 1 35.2002 3.40145 41.9161
14653 2 36.1834 3.57592 41.8615
14654 2 34.7271 4.24068 42.1843
14655 1 28.8256 6.33364 60.4419
14656 2 29.2993 7.0635 60.9347
14657 2 29.4958 5.68317 60.0845
14658 1 57.3367 3.93287 24.3019
14659 2 56.3673 4.11968 24.1423
14660 2 57.563 3.02395 23.9517
14661 1 46.6657 0.759049 50.5238
14662 2 46.5971 29.8595 50.9551
14663 2 46.8497 0.647339 49.5473
14664 1 1.06089 21.8779 52.2687
14665 2 0.500733 21.4816 52.9961
14666 2 0.498065 22.0198 51.4544
14667 1 19.8805 10.5709 22.24
14668 2 19.1741 10.7333 21.5511
14669 2 19.5277 9.94872 22.9389
14670 1 32.3866 13.5701 58.3297
14671 2 32.6681 13.0281 57.5378
14672 2 33.1614 13.6773 58.9527
14673 1 38.6245 1.26853 64.5764
14674 2 39.1786 0.942732 63.8103
14675 2 38.8674 2.2161 64.7841
14676 1 29.9093 3.94888 67.7665
14677 2 29.7392 4.63978 68.4692
14678 2 30.3505 4.37712 66.9779
14679 1 28.0856 13.6326 46.7269
14680 2 29.0754 13.6244 46.8686
14681 2 27.8639 13.126 45.8937
14682 1 48.5329 7.04718 79.9106
14683 2 48.6187 7.12103 80.9042
14684 2 49.3765 6.66801 79.5305
14685 1 61.2633 11.4566 31.8374
14686 2 60.3356 11.1236 31.6687
14687 2 61.2359 12.4382 32.0264
14688 1 49.5391 9.38004 29.8943
14689 2 48.5701 9.62259 29.846
14690 2 49.6859 8.74289 30.651
14691 1 16.8362 6.29819 24.7144
14692 2 16.7056 5.39427 24.3072
14693 2 17.3481 6.87837 24.0809
14694 1 42.3536 1.40045 56.8005
14695 2 41.6692 2.05194 57.1279
14696 2 42.5017 1.53676 55.821
14697 1 35.7998 25.5582 83.0616
14698 2 35.2369 24.7357 82.9801
14699 2 35.2309 26.3674 82.9147
14700 1 8.38144 17.9654 82.3139
14701 2 8.75161 18.6278 82.9652
14702 2 7.78245 17.3247 82.7942
14703 1 33.3563 3.13717 54.8813
14704 2 33.5886 3.7596 54.1339
14705 2 32.8957 3.64647 55.6083
14706 1 6.08145 1.9314 14.0711
14707 2 6.305 1.19105 13.4371
14708 2 6.9259 2.33805 14.4197
14709 1 1.91581 11.4731 11.0048
14710 2 1.20677 10.7996 10.7957
14711 2 1.55751 12.1435 11.6546
14712 1 51.4246 7.92693 61.8017
14713 2 50.9733 8.79484 61.5941
14714 2 51.6393 7.45055 60.9491
14715 1 14.2372 9.78829 29.8577
14716 2 13.5002 9.1882 29.5465
14717 2 15.0266 9.23569 30.1249
14718 1 15.1556 28.7741 17.3824
14719 2 15.6249 28.0882 17.9385
14720 2 15.7372 29.0327 16.6111
14721 1 27.0602 10.81 83.6701
14722 2 27.0395 10.2214 84.4782
14723 2 28 10.8858 83.3369
14724 1 7.85266 22.5087 14.2311
14725 2 7.58305 21.7107 13.6922
14726 2 8.81953 22.7077 14.0712
14727 1 63.1425 15.1329 13.6157
14728 2 63.9453 14.5413 13.5411
14729 2 63.4313 16.0902 13.6003
14730 1 74.9342 14.187 43.2168
14731 2 75.4882 13.5921 42.6344
14732 2 74.0483 13.7555 43.3871
14733 1 78.2982 6.31679 23.0546
14734 2 78.4069 6.3129 22.0605
14735 2 79.1609 6.58547 23.4832
14736 1 18.3308 19.6634 46.6313
14737 2 17.7426 20.4697 46.6938
14738 2 19.2114 19.9231 46.2349
14739 1 36.3353 11.289 79.8596
14740 2 37.0044 11.7992 80.3999
14741 2 35.4262 11.6824 79.9969
14742 1 34.4708 19.8536 36.8706
14743 2 34.7127 18.8987 36.6982
14744 2 33.5361 20.0223 36.5578
14745 1 78.3366 18.9351 30.1035
14746 2 77.9587 18.8081 31.0206
14747 2 78.4768 19.9104 29.9328
14748 1 31.6823 24.2021 54.6978
14749 2 30.9859 24.02 55.3919
14750 2 32.1886 25.029 54.9425
14751 1 39.1271 16.7906 59.4227
14752 2 38.9233 16.3987 60.3199
14753 2 40.1137 16.7616 59.2626
14754 1 72.0002 21.9532 56.3584
14755 2 71.5455 22.1089 57.2354
14756 2 71.3149 21.9036 55.6318
14757 1 74.9588 19.6578 38.5405
14758 2 75.2204 19.2981 37.6449
14759 2 73.973 19.5487 38.6686
14760 1 58.3317 24.5849 45.7278
14761 2 57.4359 24.3874 46.1261
14762 2 58.4741 24.0068 44.9244
14763 1 32.918 28.2927 89.8906
14764 2 33.3699 27.8457 90.6626
14765 2 32.7616 29.2561 90.1082
14766 1 33.8607 4.36661 52.3769
14767 2 34.2606 3.65302 51.8017
14768 2 34.5908 4.87298 52.8358
14769 1 64.509 20.0074 69.6001
14770 2 64.0017 20.7025 70.1094
14771 2 64.7078 20.3466 68.6807
14772 1 4.2618 2.75494 10.8063
14773 2 4.75174 1.8976 10.9642
14774 2 4.04079 2.8385 9.83465
14775 1 5.81584 21.9853 11.9115
14776 2 5.88083 22.9783 12.0105
14777 2 5.08406 21.639 12.4985
14778 1 66.9283 20.7075 85.2722
14779 2 66.0852 20.2157 85.055
14780 2 67.3025 20.3634 86.1333
14781 1 48.3151 14.1481 30.7181
14782 2 47.6784 13.3884 30.85
14783 2 48.7731 14.3532 31.5831
14784 1 20.4941 20.2212 37.3509
14785 2 21.3703 20.5389 37.7133
14786 2 20.0236 19.677 38.0456
14787 1 78.3834 29.2178 24.4557
14788 2 77.9193 28.6962 25.1716
14789 2 78.1711 0.189376 24.5603
14790 1 71.5148 19.6071 25.1715
14791 2 70.6225 20.0141 25.3668
14792 2 72.111 19.7133 25.9672
14793 1 38.9479 11.613 52.8653
14794 2 39.8691 11.8388 52.5484
14795 2 38.6725 10.7293 52.4869
14796 1 78.2438 23.8016 46.0919
14797 2 77.8733 23.1442 46.748
14798 2 78.4087 23.3439 45.2182
14799 1 63.0021 13.603 61.7392
14800 2 63.7734 12.9757 61.8466
14801 2 63.1782 14.4397 62.2578
14802 1 10.6778 16.1908 86.1473
14803 2 10.8353 15.3068 86.5874
14804 2 10.4571 16.0482 85.1824
14805 1 68.6438 19.0219 57.251
14806 2 68.5395 20.0158 57.2159
14807 2 67.7496 18.5887 57.1384
14808 1 75.3588 20.3757 15.1854
14809 2 75.3735 21.1989 15.753
14810 2 76.2873 20.0152 15.097
14811 1 41.7905 9.31366 46.9104
14812 2 42.2704 8.53812 46.5002
14813 2 41.8268 10.0953 46.2877
14814 1 12.8739 12.2781 30.2852
14815 2 13.6105 11.6669 30.5748
14816 2 12.1953 11.7592 29.7653
14817 1 0.699293 10.3515 37.7376
14818 2 1.13028 11.004 37.1143
14819 2 0.354354 9.57077 37.2165
14820 1 10.0616 11.0787 68.4937
14821 2 9.93473 10.2859 69.0899
14822 2 10.6642 10.8319 67.7347
14823 1 32.4481 17.5888 58.1902
14824 2 32.9212 17.8702 59.0251
14825 2 31.7273 16.9348 58.4198
14826 1 36.1398 23.6604 78.8089
14827 2 36.8086 23.5186 78.0792
14828 2 36.6174 23.8569 79.6653
14829 1 20.6543 27.8648 61.7446
14830 2 19.7225 27.9579 61.3939
14831 2 20.7656 28.4429 62.553
14832 1 10.99 19.3176 68.2704
14833 2 11.0199 18.9174 69.1863
14834 2 10.3897 20.1173 68.2755
14835 1 0.260357 2.57742 43.0682
14836 2 0.514165 1.6472 42.8031
14837 2 0.739753 2.82675 43.9096
14838 1 11.5524 10.9896 86.9971
14839 2 12.4155 10.8406 86.5146
14840 2 11.4491 11.9627 87.2028
14841 1 78.9529 11.9171 83.544
14842 2 79.4181 11.4799 84.3136
14843 2 78.9512 11.2969 82.7596
14844 1 79.9951 21.7776 38.6701
14845 2 79.9182 20.8521 39.0409
14846 2 0.652176 22.3006 39.213
14847 1 34.5681 2.97005 79.3301
14848 2 35.5593 2.85829 79.401
14849 2 34.1241 2.08 79.4332
14850 1 6.54765 0.660845 31.4338
14851 2 6.21546 0.574426 32.3731
14852 2 5.7694 0.69353 30.8067
14853 1 71.5875 25.3965 48.1314
14854 2 72.427 25.9336 48.0482
14855 2 71.3281 25.0423 47.233
14856 1 55.8044 6.89206 23.6144
14857 2 55.181 6.15063 23.366
14858 2 55.4555 7.36375 24.4242
14859 1 66.8046 11.7281 72.758
14860 2 67.6207 11.1646 72.8864
14861 2 66.1079 11.4625 73.4244
14862 1 5.71814 0.573843 34.3182
14863 2 4.83045 0.889113 33.9827
14864 2 5.601 0.135282 35.2093
14865 1 23.1964 12.8592 26.4216
14866 2 22.2265 12.8128 26.6607
14867 2 23.4604 13.8137 26.2836
14868 1 58.0093 1.2513 27.9325
14869 2 57.2008 0.941634 27.4321
14870 2 57.8115 2.12458 28.3778
14871 1 7.20594 6.59569 62.4319
14872 2 6.23069 6.75 62.2736
14873 2 7.37192 6.49092 63.4125
14874 1 55.8804 16.1652 22.2698
14875 2 55.0581 16.3366 21.7272
14876 2 55.6866 15.4648 22.9567
14877 1 65.743 10.1674 85.9233
14878 2 66.6612 10.5632 85.9059
14879 2 65.756 9.31829 86.4513
14880 1 69.655 23.3708 68.6773
14881 2 70.0859 23.1636 67.7991
14882 2 70.2952 23.8826 69.2502
14883 1 0.375286 22.3156 75.7714
14884 2 79.4855 22.7574 75.886
14885 2 0.856291 22.3027 76.6481
14886 1 57.9387 25.194 57.07
14887 2 57.8267 24.2019 57.1279
14888 2 57.0666 25.6401 57.2706
14889 1 59.5268 0.543387 57.4743
14890 2 59.3102 1.36082 58.0081
14891 2 59.515 29.742 58.0723
14892 1 4.01828 6.21033 41.3652
14893 2 3.06732 5.9075 41.302
14894 2 4.27996 6.28865 42.3271
14895 1 26.7646 14.5538 34.4956
14896 2 27.0585 15.5068 34.5687
14897 2 26.1897 14.3212 35.2801
14898 1 21.8854 6.99837 54.8477
14899 2 22.2113 7.45352 54.0191
14900 2 22.4911 6.23393 55.0684
14901 1 40.1945 28.7545 60.466
14902 2 41.0538 28.2881 60.2559
14903 2 39.9324 29.3339 59.6942
14904 1 65.5058 29.1581 50.8179
14905 2 65.9909 29.4546 51.6406
14906 2 66.009 28.4097 50.3858
14907 1 24.1339 23.3349 43.9166
14908 2 23.6249 23.5904 44.7386
14909 2 25.1128 23.4592 44.0787
14910 1 67.3341 11.1978 76.3973
14911 2 66.4754 11.1354 75.8885
14912 2 67.3982 12.095 76.8342
14913 1 23.1805 3.08685 85.5998
14914 2 22.5056 3.43979 84.9518
14915 2 23.0644 3.54156 86.4828
14916 1 63.1147 29.707 26.2137
14917 2 62.9959 28.7572 25.9241
14918 2 63.5384 29.7288 27.1192
14919 1 77.0021 26.3347 45.3344
14920 2 77.5407 26.4522 44.5001
14921 2 76.512 27.1825 45.5369
14922 1 64.8538 10.0442 43.1315
14923 2 64.7096 10.9691 43.4834
14924 2 64.4946 9.3788 43.7859
14925 1 71.856 25.9458 58.1822
14926 2 71.8252 26.5965 57.4234
14927 2 71.7648 26.4384 59.0476
14928 1 32.3413 10.9611 62.9487
14929 2 32.1626 11.9405 62.8548
14930 2 32.2033 10.511 62.0665
14931 1 52.4426 16.3798 26.6308
14932 2 51.4701 16.599 26.5511
14933 2 52.5829 15.4096 26.4332
14934 1 54.3963 21.3181 58.949
14935 2 54.9078 21.5606 59.7734
14936 2 53.5885 20.7859 59.2024
14937 1 73.2657 12.1126 31.1934
14938 2 74.0617 11.8976 31.7591
14939 2 72.5493 12.5135 31.7644
14940 1 33.0705 16.8346 53.944
14941 2 33.78 16.7405 53.2456
14942 2 33.4981 16.9287 54.843
14943 1 13.354 5.36373 52.0987
14944 2 13.2398 5.73045 53.0219
14945 2 14.0078 4.60732 52.119
14946 1 41.0133 28.0319 86.5263
14947 2 41.0581 27.6175 87.4353
14948 2 41.6704 27.5815 85.9219
14949 1 38.559 29.8045 81.8496
14950 2 38.1785 29.2677 82.6026
14951 2 38.0902 0.686357 81.7987
14952 1 2.70616 24.8155 25.2546
14953 2 3.69649 24.9001 25.1446
14954 2 2.37877 25.5228 25.8811
14955 1 58.9676 4.29286 53.2577
14956 2 58.0877 3.93314 52.9473
14957 2 59.0304 5.26411 53.0281
14958 1 25.8258 0.244915 47.3804
14959 2 24.8738 0.532785 47.2769
14960 2 26.3855 1.03159 47.6411
14961 1 20.0223 12.4878 27.6344
14962 2 19.9716 11.4932 27.7251
14963 2 20.587 12.8612 28.3703
14964 1 16.4385 1.89782 15.4705
14965 2 16.8221 2.56157 16.1125
14966 2 17.0257 1.83702 14.6633
14967 1 38.8905 14.987 67.609
14968 2 38.4052 15.8224 67.8669
14969 2 39.8573 15.0757 67.8488
14970 1 36.6576 4.28943 31.2808
14971 2 36.2708 3.56782 31.8549
14972 2 37.2636 3.8826 30.5971
14973 1 4.52571 15.8235 22.1535
14974 2 5.42392 15.485 22.4339
14975 2 3.81189 15.2834 22.5994
14976 1 4.17041 1.0821 61.2993
14977 2 4.4381 1.50946 62.1628
14978 2 3.76967 0.184285 61.4818
14979 1 65.4089 21.8671 59.7346
14980 2 65.872 21.4177 58.9706
14981 2 66.0724 22.4003 60.2594
14982 1 15.7271 19.7598 76.6469
14983 2 16.645 20.131 76.5067
14984 2 15.7942 18.8533 77.0637
14985 1 24.7007 22.7721 40.5431
14986 2 24.1741 22.8214 41.3917
14987 2 25.6202 22.4321 40.7407
14988 1 15.8872 10.4276 71.6187
14989 2 15.8077 11.2868 72.124
14990 2 15.0246 9.92516 71.6778
14991 1 8.43271 21.3138 68.3466
14992 2 8.25477 22.2519 68.0494
14993 2 7.6205 20.9486 68.8015
14994 1 65.6163 25.7235 64.7958
14995 2 64.6313 25.5543 64.8309
14996 2 65.8308 26.5521 65.3129
14997 1 24.3505 21.9735 87.4521
14998 2 24.4329 22.3561 86.5319
14999 2 23.8678 22.622 88.0407
15000 1 57.4912 28.2682 40.8601
15001 2 58.023 29.0999 41.0198
15002 2 57.958 27.4887 41.2778
15003 1 2.51066 13.1078 73.2953
15004 2 2.97234 12.2208 73.2868
15005 2 2.88053 13.6689 74.0358
15006 1 16.2192 15.64 52.6704
15007 2 15.8345 15.7887 53.5814
15008 2 15.5202 15.246 52.0736
15009 1 45.8023 22.1383 90.0188
15010 2 45.9434 22.9339 89.4295
15011 2 46.688 21.7884 90.324
15012 1 45.1481 17.3374 71.9253
15013 2 45.8963 16.8274 72.3496
15014 2 45.013 18.1993 72.4141
15015 1 30.7919 4.86328 59.2942
15016 2 30.429 3.98467 59.6046
15017 2 31.3884 4.71745 58.505
15018 1 29.9389 15.433 61.3348
15019 2 29.767 15.8764 62.2145
15020 2 30.7268 15.8623 60.8934
15021 1 75.0443 1.39127 69.4209
15022 2 74.4834 1.47528 70.2446
15023 2 75.8242 0.794111 69.6082
15024 1 4.41512 15.5299 45.185
15025 2 3.4275 15.5042 45.3398
15026 2 4.85041 16.0771 45.8999
15027 1 52.804 26.1333 40.6905
15028 2 52.2369 26.3584 39.8983
15029 2 52.26 25.6208 41.355
15030 1 24.7118 28.1382 32.9228
15031 2 24.4115 28.2239 33.8727
15032 2 25.7001 27.9878 32.8979
15033 1 63.8084 3.46165 85.3718
15034 2 64.4415 3.87665 86.0253
15035 2 63.4654 4.16397 84.748
15036 1 18.7604 1.05583 63.8062
15037 2 18.3145 1.82233 64.2684
15038 2 18.128 0.282745 63.757
15039 1 36.3318 21.4244 50.2742
15040 2 36.6276 22.2603 50.7365
15041 2 36.9568 21.2213 49.5205
15042 1 47.5419 18.1017 66.9178
15043 2 47.3204 17.7853 67.8402
15044 2 46.8204 17.8183 66.286
15045 1 26.492 6.56822 81.5327
15046 2 26.4774 7.14277 82.3511
15047 2 27.4251 6.24973 81.3656
15048 1 22.4336 13.3819 67.2547
15049 2 21.9334 13.9142 67.9377
15050 2 22.1441 12.4258 67.2998
15051 1 62.4861 13.3936 33.4706
15052 2 62.2803 13.4402 34.4481
15053 2 62.9124 12.5135 33.2613
15054 1 44.8321 26.973 59.5948
15055 2 44.0632 26.3861 59.8484
15056 2 44.9398 27.6951 60.2782
15057 1 26.4354 11.0242 64.8378
15058 2 26.0706 11.299 63.9482
15059 2 27.2365 10.4408 64.7038
15060 1 47.2024 16.8902 69.5799
15061 2 47.9892 16.4564 70.019
15062 2 46.363 16.6033 70.0415
15063 1 28.6333 9.80271 81.2588
15064 2 28.9147 10.6922 81.6188
15065 2 27.8289 9.91835 80.676
15066 1 51.6454 28.1421 56.769
15067 2 51.664 27.9638 55.7852
15068 2 52.3028 27.5448 57.2284
15069 1 43.4181 18.8372 40.598
15070 2 43.8943 19.1813 41.4073
15071 2 43.1719 17.8783 40.7387
15072 1 49.7927 15.0622 41.7847
15073 2 49.7568 14.8455 42.7603
15074 2 49.2973 14.3628 41.2695
15075 1 48.9674 24.947 90.9576
15076 2 48.2256 24.391 91.3325
15077 2 49.553 24.3767 90.3815
15078 1 23.0557 20.5427 53.9953
15079 2 22.8316 19.6667 54.4223
15080 2 24.0313 20.5673 53.7772
15081 1 53.1039 1.21961 25.5157
15082 2 53.2398 0.969348 24.5571
15083 2 53.7309 0.693128 26.0898
15084 1 63.5375 29.3101 86.3443
15085 2 63.96 29.7477 87.138
15086 2 62.9253 28.5817 86.6519
15087 1 62.3405 23.1517 83.0735
15088 2 63.1562 23.6868 83.293
15089 2 61.7256 23.6991 82.5058
15090 1 4.43263 3.1988 24.5243
15091 2 4.62346 2.21756 24.4967
15092 2 4.85248 3.59727 25.3397
15093 1 72.9265 7.68413 24.2333
15094 2 73.6343 7.51452 23.5476
15095 2 73.3322 8.13972 25.0256
15096 1 60.8147 13.8538 58.094
15097 2 60.0497 13.8649 57.45
15098 2 61.5247 13.2352 57.7575
15099 1 17.4102 1.8721 82.6233
15100 2 17.2719 2.84107 82.4184
15101 2 16.5349 1.45504 82.8682
15102 1 75.524 14.3912 59.3846
15103 2 75.2053 13.5983 59.9041
15104 2 75.0043 15.2003 59.6591
15105 1 44.6248 11.4599 82.9066
15106 2 45.415 11.0166 83.3298
15107 2 44.9337 12.2314 82.3505
15108 1 10.9007 2.90552 14.7793
15109 2 10.8399 3.68901 15.3977
15110 2 10.9617 2.06273 15.3141
15111 1 38.324 0.474343 28.7045
15112 2 38.7105 1.0273 29.4427
15113 2 38.1344 1.05803 27.915
15114 1 7.66185 1.55905 79.5712
15115 2 7.97739 2.41104 79.1535
15116 2 8.28632 0.817017 79.3274
15117 1 0.765619 20.9514 31.1042
15118 2 0.225918 21.4498 30.4257
15119 2 0.919294 21.5347 31.9017
15120 1 29.8113 26.4936 92.0298
15121 2 29.8011 25.7859 92.7362
15122 2 29.2175 26.2184 91.2737
15123 1 4.66235 0.219795 29.7665
15124 2 5.04214 0.0718509 28.8533
15125 2 3.7019 29.9415 29.7771
15126 1 35.2499 16.0185 86.2297
15127 2 35.0592 16.9675 86.4808
15128 2 35.3844 15.475 87.0583
15129 1 47.8611 15.3652 86.8201
15130 2 48.4713 14.7561 86.3133
15131 2 47.6291 16.1538 86.2506
15132 1 69.1039 15.2756 78.2832
15133 2 68.4179 15.8546 77.8427
15134 2 68.6673 14.7223 78.9926
15135 1 60.671 20.679 48.5084
15136 2 60.0046 19.9557 48.3271
15137 2 60.1905 21.5366 48.6916
15138 1 11.9289 27.526 65.8536
15139 2 11.3691 28.3526 65.9126
15140 2 12.7634 27.7246 65.3397
15141 1 20.3077 2.36183 58.3514
15142 2 21.0765 2.2268 57.7263
15143 2 20.1281 3.34038 58.4524
15144 1 65.8011 14.5317 58.8589
15145 2 65.1462 14.3614 58.1227
15146 2 66.442 13.7665 58.9186
15147 1 4.90029 24.2119 75.2739
15148 2 4.88357 23.6545 76.104
15149 2 4.0237 24.6819 75.1703
15150 1 14.9986 0.0281659 12.8367
15151 2 15.4633 29.2252 12.4634
15152 2 14.3666 29.7426 13.5571
15153 1 3.78342 4.30765 85.5144
15154 2 3.00542 4.91816 85.3661
15155 2 3.45063 3.38546 85.7114
15156 1 18.064 1.91456 75.8125
15157 2 18.2323 1.35233 76.6222
15158 2 17.7039 1.34053 75.0771
15159 1 10.1847 8.56929 80.066
15160 2 11.026 8.93448 79.6676
15161 2 9.65642 8.10096 79.3577
15162 1 14.0796 0.0489767 86.2022
15163 2 14.5131 29.8344 85.327
15164 2 13.3227 29.4156 86.3634
15165 1 7.78544 16.9746 66.0788
15166 2 7.23287 16.53 65.3738
15167 2 8.73103 16.6563 66.0112
15168 1 11.2686 25.4722 25.0519
15169 2 11.7057 24.6097 25.3071
15170 2 11.5099 25.7019 24.109
15171 1 71.7838 3.93065 62.6387
15172 2 72.1922 3.57532 61.7979
15173 2 72.3418 3.65657 63.422
15174 1 63.3421 15.8294 47.8169
15175 2 62.5463 15.7478 47.2169
15176 2 63.6434 14.9178 48.0967
15177 1 42.2987 25.9214 56.0313
15178 2 43.2335 25.8408 55.6854
15179 2 42.2548 25.5565 56.9614
15180 1 41.075 22.8742 48.5581
15181 2 40.3658 22.1738 48.478
15182 2 41.1094 23.4117 47.7155
15183 1 47.044 15.8071 29.0621
15184 2 47.5135 16.588 28.6501
15185 2 47.7199 15.1602 29.4151
15186 1 27.591 7.53964 43.2217
15187 2 27.6248 6.69751 43.7599
15188 2 26.6817 7.94843 43.299
15189 1 14.0033 13.3755 87.1967
15190 2 13.0086 13.4078 87.294
15191 2 14.424 13.9822 87.8712
15192 1 2.56099 17.4011 87.0067
15193 2 2.22711 16.6341 87.5546
15194 2 1.81527 18.0489 86.8507
15195 1 3.60173 24.5893 71.6807
15196 2 3.98662 24.1806 72.5082
15197 2 3.98489 24.1361 70.8758
15198 1 50.9681 0.996795 85.4972
15199 2 51.2272 1.53651 86.2982
15200 2 50.7702 1.60961 84.7322
15201 1 40.4417 5.02555 32.5527
15202 2 39.933 5.25156 31.722
15203 2 39.8407 4.54433 33.1909
15204 1 41.0585 21.2184 65.6657
15205 2 41.8294 21.3959 65.0539
15206 2 40.2185 21.1388 65.129
15207 1 6 13.6529 84.698
15208 2 5.38233 14.4389 84.6738
15209 2 6.89453 13.9207 84.3401
15210 1 33.8465 5.33732 47.5808
15211 2 33.5245 5.41379 48.5245
15212 2 33.8154 4.37966 47.2946
15213 1 68.9079 19.5611 21.8094
15214 2 69.7443 19.0904 21.5285
15215 2 68.8207 19.5201 22.8048
15216 1 50.803 8.90486 89.0802
15217 2 51.0341 9.50759 89.8439
15218 2 50.097 8.25776 89.3681
15219 1 53.3294 9.90007 45.4836
15220 2 52.7398 10.6153 45.859
15221 2 53.8098 9.43861 46.2294
15222 1 58.7509 21.8934 52.5747
15223 2 59.3868 21.4328 53.194
15224 2 58.9678 22.8689 52.5392
15225 1 47.7476 27.4519 74.5783
15226 2 48.3759 28.0252 75.1042
15227 2 48.105 27.328 73.6526
15228 1 19.1003 24.8147 53.1202
15229 2 18.7312 25.0433 52.2194
15230 2 19.289 25.6563 53.6264
15231 1 37.1679 9.32606 57.0804
15232 2 37.408 10.2386 56.7494
15233 2 37.5193 8.63801 56.4455
15234 1 61.4293 7.74277 87.2566
15235 2 61.8233 8.5658 87.6657
15236 2 61.3418 7.8707 86.2687
15237 1 63.8265 28.8337 59.0718
15238 2 63.7033 29.7072 58.601
15239 2 62.9916 28.6039 59.572
15240 1 52.0841 7.40466 50.0761
15241 2 51.1435 7.74393 50.0621
15242 2 52.0848 6.43411 50.317
15243 1 44.5902 18.7827 89.6086
15244 2 45.5208 18.7015 89.9655
15245 2 43.9536 18.3267 90.2306
15246 1 49.334 6.70471 62.9591
15247 2 50.052 7.20671 62.4769
15248 2 48.9029 7.30465 63.6331
15249 1 1.16592 8.44648 22.8219
15250 2 0.990765 9.34459 22.4185
15251 2 2.12796 8.20546 22.6938
15252 1 65.4533 5.38046 55.3212
15253 2 64.6419 5.03768 55.7947
15254 2 65.6181 6.33023 55.5872
15255 1 59.9085 13.7606 81.4104
15256 2 59.5021 13.0899 80.79
15257 2 60.502 14.3768 80.8927
15258 1 66.7681 4.34111 16.6372
15259 2 66.1201 3.69378 16.2359
15260 2 66.9577 5.07234 15.9819
15261 1 24.9701 11.4302 31.1761
15262 2 24.226 11.9165 31.6343
15263 2 25.2692 11.9541 30.3786
15264 1 51.0449 17.8607 33.1371
15265 2 50.4889 17.1516 33.5707
15266 2 50.808 18.7523 33.5229
15267 1 28.6115 1.71212 44.7257
15268 2 28.874 0.848466 45.156
15269 2 27.8861 1.54487 44.058
15270 1 42.4166 24.8395 59.4148
15271 2 43.3042 24.547 59.7706
15272 2 41.6964 24.5724 60.0552
15273 1 19.2232 23.5511 46.9329
15274 2 19.3362 24.2516 47.6375
15275 2 19.4272 22.6522 47.3208
15276 1 1.36431 27.4764 35.2684
15277 2 1.24913 26.5005 35.0827
15278 2 0.673925 27.7739 35.9278
15279 1 22.3569 10.5993 82.993
15280 2 21.4102 10.2899 82.9031
15281 2 22.9456 10.0465 82.4032
15282 1 20.5374 18.5848 64.5953
15283 2 20.0637 18.9754 65.3847
15284 2 20.0989 17.7245 64.3356
15285 1 21.3282 12.9338 74.0601
15286 2 21.7915 12.0529 73.9633
15287 2 21.0369 13.0546 75.0091
15288 1 15.1252 22.9511 19.611
15289 2 14.1676 22.725 19.4324
15290 2 15.2069 23.9295 19.8006
15291 1 73.3975 16.8216 64.2527
15292 2 74.1263 17.2813 63.7451
15293 2 73.02 17.448 64.9347
15294 1 20.4611 10.0499 33.3336
15295 2 21.2814 10.1895 33.8882
15296 2 19.901 9.32929 33.7424
15297 1 41.0633 1.42571 31.4149
15298 2 41.2523 0.846156 30.6222
15299 2 40.1332 1.78726 31.3493
15300 1 37.6402 27.9041 40.4605
15301 2 38.1428 28.7461 40.6565
15302 2 38.0317 27.1513 40.9898
15303 1 47.5906 22.7392 77.2948
15304 2 47.1271 22.4479 78.1317
15305 2 48.2839 22.0631 77.0452
15306 1 62.4782 26.2377 73.5796
15307 2 63.2865 25.6505 73.6227
15308 2 62.1227 26.3837 74.5029
15309 1 7.0577 11.7663 38.254
15310 2 6.34957 11.0898 38.0518
15311 2 7.06346 11.9597 39.2351
15312 1 50.5636 27.8502 74.6443
15313 2 51.5054 27.5307 74.7482
15314 2 50.5622 28.8376 74.4859
15315 1 18.3487 9.87811 31.1867
15316 2 18.8394 9.57997 30.3679
15317 2 19.0055 10.0878 31.911
15318 1 46.1903 3.25064 39.5006
15319 2 46.7893 3.95285 39.8855
15320 2 45.5817 2.90381 40.2142
15321 1 0.422078 19.3856 50.1006
15322 2 79.8966 18.8549 50.7657
15323 2 79.798 19.8072 49.4428
15324 1 67.5445 17.4269 40.5458
15325 2 68.4467 16.9962 40.5687
15326 2 67.4468 18.038 41.3313
15327 1 44.2614 4.00322 51.756
15328 2 43.4794 3.38681 51.6632
15329 2 43.9402 4.91058 52.0272
15330 1 29.6106 25.6968 64.5628
15331 2 29.1516 24.9884 64.0266
15332 2 29.6897 25.3966 65.5133
15333 1 13.3716 12.4172 11.3231
15334 2 13.4786 11.6835 10.6522
15335 2 14.2725 12.7628 11.5857
15336 1 53.8458 8.697 54.1387
15337 2 53.9338 8.60811 55.1309
15338 2 53.833 7.78785 53.7225
15339 1 68.4374 5.09143 29.8238
15340 2 68.8691 4.99872 28.9265
15341 2 67.5682 5.57628 29.727
15342 1 28.9039 27.9295 66.9112
15343 2 28.3139 27.6471 66.1548
15344 2 28.4549 27.7206 67.78
15345 1 79.8409 23.9826 62.1282
15346 2 0.545717 24.6851 62.0294
15347 2 79.1396 24.3015 62.7658
15348 1 48.1922 23.5566 68.7633
15349 2 48.0797 24.3243 68.1325
15350 2 48.4687 23.9004 69.6607
15351 1 34.278 12.7195 32.1859
15352 2 34.1257 11.7994 32.5468
15353 2 35.1504 12.7459 31.6978
15354 1 43.1313 12.9221 69.5741
15355 2 44.0842 12.6791 69.3925
15356 2 42.917 12.7367 70.5331
15357 1 74.49 22.3051 53.1252
15358 2 75.4201 22.0688 53.4064
15359 2 74.5138 23.1199 52.546
15360 1 67.1474 23.7643 20.3621
15361 2 66.988 24.5814 19.808
15362 2 66.6129 23.8238 21.2051
15363 1 49.5271 26.6413 61.3946
15364 2 49.4404 26.085 60.5682
15365 2 49.5678 26.0442 62.1957
15366 1 10.8669 11.763 61.0163
15367 2 10.5888 10.9116 60.5714
15368 2 11.5218 11.5601 61.7443
15369 1 1.56745 15.2957 80.956
15370 2 0.600591 15.5341 80.8648
15371 2 2.128 16.1068 80.7892
15372 1 37.8983 8.2588 88.8292
15373 2 38.5627 8.92765 89.1628
15374 2 38.3241 7.35462 88.795
15375 1 39.6227 25.024 58.3146
15376 2 39.6177 25.2315 59.2928
15377 2 39.0814 25.7081 57.8259
15378 1 17.567 28.905 35.4834
15379 2 17.2867 28.4169 34.6569
15380 2 17.7062 29.8717 35.2686
15381 1 10.0822 19.7787 11.7249
15382 2 11.0272 20.0797 11.8527
15383 2 10.0751 18.8392 11.3823
15384 1 35.7102 19.8818 46.6656
15385 2 36.5658 19.512 47.0278
15386 2 35.056 20.001 47.4125
15387 1 31.1414 29.1614 68.4491
15388 2 31.3791 28.6786 69.292
15389 2 30.3485 28.7228 68.0261
15390 1 66.7168 10.1433 83.1799
15391 2 66.1731 10.2393 84.0137
15392 2 66.2121 9.59339 82.5144
15393 1 17.2021 6.08645 46.3481
15394 2 18.089 5.62921 46.2821
15395 2 16.9943 6.27387 47.3082
15396 1 74.3074 19.0908 22.4497
15397 2 74.1316 19.5728 23.3081
15398 2 73.4423 18.93 21.9745
15399 1 67.149 14.5883 83.8059
15400 2 66.9917 14.5828 82.8184
15401 2 67.8993 13.9654 84.0274
15402 1 39.5905 12.4744 85.8043
15403 2 39.2833 13.386 86.0775
15404 2 38.9345 11.7914 86.1255
15405 1 75.8754 19.8748 61.6607
15406 2 75.9795 20.0379 62.6418
15407 2 75.6457 18.9141 61.505
15408 1 35.4256 25.5175 86.2331
15409 2 35.4336 25.9014 87.1564
15410 2 35.1307 26.2181 85.5833
15411 1 23.6375 8.31566 82.1268
15412 2 23.1465 7.67051 82.7123
15413 2 24.1666 7.81078 81.4448
15414 1 69.087 4.09492 40.1631
15415 2 68.2641 4.31262 39.6383
15416 2 69.8926 4.42835 39.6733
15417 1 53.038 10.6479 58.6185
15418 2 54.0004 10.8004 58.3937
15419 2 52.8543 10.9833 59.5425
15420 1 12.3522 18.7596 18.8046
15421 2 12.2254 19.6654 19.2089
15422 2 13.3273 18.5396 18.7789
15423 1 38.8851 28.8769 44.2395
15424 2 39.4534 28.0844 44.4609
15425 2 38.9399 29.0627 43.2584
15426 1 12.6461 15.4958 78.0491
15427 2 12.73 16.4453 77.7467
15428 2 11.9484 15.0324 77.5029
15429 1 25.1023 18.4438 81.8443
15430 2 25.594 19.3007 81.6898
15431 2 25.3078 18.1023 82.7614
15432 1 11.0053 14.8048 37.4517
15433 2 11.5762 15.6051 37.2684
15434 2 11.5825 14.0451 37.7511
15435 1 54.67 19.684 42.4147
15436 2 54.8963 19.109 41.6285
15437 2 54.1496 20.4803 42.1065
15438 1 76.225 9.86764 27.1439
15439 2 76.8594 9.67527 26.3953
15440 2 76.6994 9.763 28.018
15441 1 58.6736 5.5459 90.9427
15442 2 59.5077 6.09705 90.9191
15443 2 58.8144 4.75343 91.5361
15444 1 64.6794 9.2582 60.8115
15445 2 65.0919 10.1541 60.6467
15446 2 65.0405 8.87627 61.6622
15447 1 54.6838 9.42211 60.7254
15448 2 55.0373 9.31169 59.7965
15449 2 53.9872 10.1395 60.7339
15450 1 23.6769 4.42957 57.8609
15451 2 24.5405 3.98416 58.097
15452 2 23.4581 4.24585 56.9026
15453 1 21.6495 8.37056 77.2709
15454 2 22.4423 8.05274 77.791
15455 2 21.1634 7.58391 76.8902
15456 1 22.038 16.3728 21.0694
15457 2 22.3024 15.4712 21.4117
15458 2 22.009 16.3545 20.07
15459 1 16.836 13.9348 24.9923
15460 2 16.5359 14.884 24.8978
15461 2 17.4372 13.6977 24.2292
15462 1 41.2455 8.40869 30.9093
15463 2 41.0402 8.67452 31.8512
15464 2 40.3939 8.33722 30.39
15465 1 29.5853 10.9489 73.8645
15466 2 29.6256 11.2344 74.822
15467 2 28.6302 10.8912 73.5738
15468 1 45.6648 16.3887 47.6208
15469 2 45.8244 15.4316 47.8625
15470 2 45.7972 16.5106 46.6372
15471 1 22.6404 28.709 83.5005
15472 2 23.2508 27.9889 83.8304
15473 2 21.8005 28.7087 84.0433
15474 1 53.6193 15.6041 31.8536
15475 2 54.3775 15.3831 32.4671
15476 2 52.9334 16.1364 32.3497
15477 1 41.8337 11.2829 31.7245
15478 2 41.4508 11.5802 30.8499
15479 2 41.1504 11.4012 32.445
15480 1 28.3893 13.6765 41.2218
15481 2 27.8906 14.3067 41.8168
15482 2 27.8848 12.816 41.1502
15483 1 72.61 17.3338 18.1371
15484 2 73.2413 17.5326 18.8867
15485 2 71.6861 17.2172 18.5016
15486 1 73.489 12.0809 57.4287
15487 2 74.0201 11.5828 58.1141
15488 2 72.6403 12.4124 57.8408
15489 1 73.4085 20.5525 47.4308
15490 2 73.2502 21.3125 48.0611
15491 2 74.1298 19.9628 47.7942
15492 1 59.6424 27.1834 61.2977
15493 2 59.5693 27.4216 62.2661
15494 2 60.5526 26.8126 61.1134
15495 1 16.0831 25.1439 14.3045
15496 2 16.4832 25.2293 15.217
15497 2 16.6769 25.5929 13.6369
15498 1 53.7544 22.8018 75.2205
15499 2 54.3217 22.58 76.0135
15500 2 52.96 23.3319 75.5168
15501 1 32.8565 13.8403 77.5678
15502 2 32.0649 13.5423 77.0342
15503 2 32.6463 13.7711 78.543
15504 1 79.4528 1.83189 29.5273
15505 2 78.896 1.21392 30.0824
15506 2 79.476 2.73517 29.9557
15507 1 27.1861 28.4713 34.4818
15508 2 28.0082 28.0018 34.1596
15509 2 27.0342 28.2535 35.4459
15510 1 20.4307 27.7009 38.3603
15511 2 21.0701 27.9816 37.6445
15512 2 20.8769 27.0425 38.9664
15513 1 8.85911 2.79063 84.5191
15514 2 8.75334 1.87684 84.1269
15515 2 8.94699 2.71883 85.5126
15516 1 5.64191 7.86676 65.3427
15517 2 5.42341 7.44972 66.225
15518 2 6.47285 7.45029 64.9739
15519 1 41.8739 22.0968 71.7012
15520 2 41.8153 22.9256 72.2577
15521 2 42.4489 21.4234 72.1658
15522 1 23.752 7.92733 58.1913
15523 2 24.7454 7.97094 58.0848
15524 2 23.3554 8.82269 57.9888
15525 1 72.8912 25.6442 64.7666
15526 2 73.0339 24.7362 65.1606
15527 2 72.7004 25.557 63.7889
15528 1 59.7072 19.0239 37.9856
15529 2 59.3898 18.092 38.1616
15530 2 60.1485 19.3863 38.8065
15531 1 29.3755 8.65381 61.9475
15532 2 28.965 8.14796 62.7062
15533 2 28.7441 9.36645 61.6417
15534 1 34.0483 2.17185 67.9295
15535 2 34.3466 2.78171 67.1953
15536 2 34.3465 2.53977 68.8102
15537 1 22.1014 25.668 50.8124
15538 2 22.6038 26.4904 51.0797
15539 2 21.5107 25.3788 51.5657
15540 1 23.8899 14.1249 60.8721
15541 2 24.6208 13.9247 61.5245
15542 2 23.0319 13.7309 61.2015
15543 1 13.3092 10.1594 84.9188
15544 2 13.3605 9.27266 84.4594
15545 2 12.8333 10.8128 84.33
15546 1 73.7699 21.4889 60.4464
15547 2 74.3822 20.9563 61.0308
15548 2 73.7191 22.4283 60.7855
15549 1 69.153 15.6645 42.43
15550 2 69.4718 16.0563 43.293
15551 2 69.8868 15.1245 42.0178
15552 1 66.071 9.23346 63.0428
15553 2 66.3085 10.2031 63.1008
15554 2 66.0972 8.82863 63.9568
15555 1 70.0291 9.8319 44.0284
15556 2 69.1771 9.3614 44.2581
15557 2 70.4536 10.1795 44.8645
15558 1 48.1969 1.29373 70.3074
15559 2 49.0529 1.80947 70.3432
15560 2 48.1738 0.743806 69.4725
15561 1 43.9176 17.2143 29.8256
15562 2 44.768 16.6882 29.8396
15563 2 44.1272 18.1831 29.6932
15564 1 27.1032 7.62145 29.415
15565 2 27.0912 6.8837 30.09
15566 2 27.697 7.36565 28.6522
15567 1 66.0317 19.2377 74.0103
15568 2 66.1636 20.2282 73.9713
15569 2 65.6315 18.9206 73.1505
15570 1 44.6424 25.0598 90.966
15571 2 45.3151 24.9862 91.7022
15572 2 44.641 24.2156 90.43
15573 1 25.2713 12.2316 23.611
15574 2 24.5325 12.3886 22.9556
15575 2 25.4699 13.0814 24.0992
15576 1 7.02124 27.8386 14.2636
15577 2 7.63253 27.5906 13.5121
15578 2 7.02792 27.1133 14.9519
15579 1 66.5785 7.36659 72.1173
15580 2 67.1648 6.76549 71.5742
15581 2 66.9405 7.43411 73.0471
15582 1 58.5648 15.513 41.735
15583 2 58.8538 16.3932 41.3586
15584 2 58.2946 15.6317 42.6905
15585 1 7.22445 9.16121 51.6782
15586 2 7.03086 10.1408 51.7329
15587 2 6.8263 8.78909 50.8397
15588 1 22.8353 5.87653 48.8569
15589 2 22.1182 5.39052 49.3565
15590 2 23.0489 6.73206 49.3286
15591 1 23.8336 7.35404 31.3134
15592 2 24.4328 7.77951 30.6352
15593 2 24.3873 6.86186 31.9852
15594 1 20.1488 11.2213 39.6082
15595 2 19.3147 11.7441 39.7842
15596 2 20.4344 10.7572 40.4466
15597 1 34.8014 24.9415 64.0827
15598 2 35.0107 23.9691 63.9796
15599 2 35.6528 25.4579 64.1745
15600 1 34.3956 17.2749 90.54
15601 2 33.651 16.6075 90.5251
15602 2 34.2424 17.9611 89.8288
15603 1 28.3083 3.16713 56.6036
15604 2 28.587 4.11036 56.4229
15605 2 27.6417 2.87898 55.9162
15606 1 71.268 18.454 48.8475
15607 2 71.048 18.4022 49.8216
15608 2 70.4229 18.5327 48.3187
15609 1 49.5235 28.0721 46.1971
15610 2 49.8805 29.0018 46.2879
15611 2 48.5305 28.1059 46.0843
15612 1 13.1074 15.8686 42.9088
15613 2 13.3036 16.2853 43.7964
15614 2 13.2446 16.5452 42.1854
15615 1 69.3366 20.8316 81.5282
15616 2 69.1237 21.6268 80.9605
15617 2 69.3721 20.0128 80.9552
15618 1 48.9402 26.5685 36.1806
15619 2 48.9435 27.5565 36.0264
15620 2 49.4831 26.3561 36.9931
15621 1 22.8056 18.6318 76.0216
15622 2 22.7328 19.5524 76.4054
15623 2 23.7538 18.3198 76.0813
15624 1 4.46385 25.1049 85.1334
15625 2 3.99041 24.2907 85.4694
15626 2 4.08958 25.3646 84.2432
15627 1 46.9001 27.7916 63.3388
15628 2 46.6428 28.3955 64.0931
15629 2 47.8803 27.5993 63.3852
15630 1 48.5802 28.1431 71.5245
15631 2 48.0163 27.5938 70.9078
15632 2 48.4257 29.114 71.3416
15633 1 16.2148 8.38997 17.6167
15634 2 16.0588 7.40821 17.7253
15635 2 16.6924 8.55814 16.7544
15636 1 45.762 13.3202 67.9122
15637 2 45.5653 12.343 67.8317
15638 2 46.0537 13.5257 68.8463
15639 1 18.6178 25.8914 12.5502
15640 2 19.2663 26.652 12.5799
15641 2 19.1193 25.0271 12.5112
15642 1 11.1096 1.2852 45.0234
15643 2 11.9319 1.33351 45.5902
15644 2 10.5293 2.07803 45.2096
15645 1 22.7819 15.8378 29.5008
15646 2 22.9751 15.8093 30.4815
15647 2 23.294 15.1136 29.0389
15648 1 54.3501 9.90369 22.9703
15649 2 54.6748 8.95788 22.9678
15650 2 53.4381 9.94193 23.3787
15651 1 4.6459 18.7691 22.6456
15652 2 4.97726 18.9167 23.5775
15653 2 4.40038 17.8069 22.5276
15654 1 63.2171 13.4199 41.4805
15655 2 63.0607 14.3819 41.7042
15656 2 63.4941 12.9267 42.3052
15657 1 48.9226 6.03472 90.7905
15658 2 48.2588 5.68866 91.4535
15659 2 48.6248 6.92892 90.4563
15660 1 78.9976 16.0863 80.855
15661 2 78.4331 16.5401 81.5445
15662 2 78.851 16.5201 79.966
15663 1 55.2794 3.24722 75.1316
15664 2 55.2667 2.34671 74.697
15665 2 55.0457 3.15356 76.0994
15666 1 62.7821 21.092 21.8911
15667 2 62.7152 20.9546 22.8793
15668 2 63.3573 21.8882 21.7035
15669 1 36.6895 19.5502 59.5267
15670 2 36.5998 19.1533 58.6132
15671 2 35.9604 19.2006 60.1151
15672 1 25.4075 28.5578 29.1393
15673 2 25.5468 29.283 29.8136
15674 2 25.9642 28.744 28.3297
15675 1 63.6931 4.86171 70.452
15676 2 63.0731 5.42006 71.0031
15677 2 64.6192 5.2343 70.5117
15678 1 70.9958 17.2155 23.2865
15679 2 71.0202 17.7071 24.157
15680 2 71.2978 17.8231 22.552
15681 1 29.6828 16.6837 37.5898
15682 2 29.4445 16.1443 38.3974
15683 2 29.5437 17.6547 37.7846
15684 1 72.8848 11.7863 54.5495
15685 2 72.7598 10.8722 54.9352
15686 2 72.8795 11.7302 53.551
15687 1 78.8902 20.0071 45.5952
15688 2 78.7805 20.7604 44.9467
15689 2 77.9913 19.7147 45.9214
15690 1 72.572 12.0808 40.4598
15691 2 73.4849 11.684 40.3643
15692 2 72.6211 13.0689 40.3142
15693 1 8.97063 17.3058 35.2936
15694 2 8.71414 18.2093 35.6371
15695 2 8.19466 16.6817 35.3853
15696 1 57.7423 5.1602 46.9634
15697 2 58.3427 4.69386 47.6131
15698 2 58.2498 5.89003 46.5053
15699 1 18.9529 10.7679 71.7065
15700 2 19.1014 11.7191 71.4361
15701 2 18.2014 10.7219 72.3645
15702 1 23.0629 10.6675 62.6779
15703 2 22.461 11.3242 62.2236
15704 2 22.934 10.7266 63.6678
15705 1 18.4426 19.5317 38.9701
15706 2 17.5283 19.2065 39.2115
15707 2 18.9863 19.6451 39.8017
15708 1 79.4918 24.6924 49.2278
15709 2 79.4349 23.853 48.6874
15710 2 78.5695 25.0114 49.4462
15711 1 67.5123 6.96208 83.4605
15712 2 66.5278 7.13079 83.51
15713 2 68.0007 7.69942 83.9271
15714 1 21.2083 7.15879 21.8052
15715 2 20.6415 7.87249 21.3936
15716 2 20.8452 6.92318 22.7066
15717 1 70.968 0.392432 89.3786
15718 2 71.2053 29.4211 89.3677
15719 2 71.3589 0.84012 88.5744
15720 1 44.0489 16.4962 82.0599
15721 2 43.8912 15.7153 82.6642
15722 2 44.7074 16.2419 81.3516
15723 1 68.2074 14.1371 86.6508
15724 2 68.4051 13.1581 86.6018
15725 2 67.6513 14.3247 87.4605
15726 1 13.9995 26.526 39.4956
15727 2 13.8824 27.5093 39.6351
15728 2 13.4638 26.0266 40.1765
15729 1 62.6548 11.6954 86.5054
15730 2 61.6765 11.5058 86.4216
15731 2 63.1763 10.9109 86.17
15732 1 53.1055 21.5018 55.0918
15733 2 52.4455 21.4716 55.8425
15734 2 53.0649 20.6449 54.5778
15735 1 32.8999 21.1109 39.8109
15736 2 33.2215 20.277 40.2594
15737 2 33.1824 21.9072 40.3457
15738 1 58.2965 27.3527 37.6859
15739 2 57.8579 26.9268 38.4772
15740 2 57.5958 27.67 37.047
15741 1 29.4474 24.3116 81.0181
15742 2 29.0301 25.1383 81.3953
15743 2 30.4433 24.3969 81.049
15744 1 36.2339 25.944 67.086
15745 2 36.7458 25.3174 67.6736
15746 2 36.8701 26.4475 66.5015
15747 1 55.8263 28.6921 44.325
15748 2 54.9743 28.9391 44.7865
15749 2 56.5872 29.19 44.741
15750 1 61.1515 14.0521 72.5739
15751 2 61.5015 14.5285 73.3804
15752 2 60.3864 13.4653 72.8393
15753 1 31.8043 27.526 62.2685
15754 2 32.3401 27.4059 61.4328
15755 2 32.3312 27.1975 63.0524
15756 1 34.9396 4.43032 70.1413
15757 2 35.2966 5.02093 70.865
15758 2 34.1701 3.89829 70.4945
15759 1 43.5736 0.0516636 50.0378
15760 2 44.5405 0.114283 50.2853
15761 2 43.0472 0.704689 50.5823
15762 1 20.5256 28.1138 58.6879
15763 2 20.4331 27.5295 59.4942
15764 2 20.6319 27.5436 57.8734
15765 1 24.9762 8.90295 54.9992
15766 2 24.7169 9.2826 54.1111
15767 2 24.2558 9.09307 55.6662
15768 1 66.7085 12.7157 37.4599
15769 2 67.5933 12.5112 37.8786
15770 2 65.9928 12.1895 37.9192
15771 1 45.5921 26.232 29.2895
15772 2 45.6791 25.2381 29.2221
15773 2 46.3288 26.667 28.7718
15774 1 3.83857 29.1112 12.3501
15775 2 4.68169 29.645 12.2851
15776 2 4.03934 28.148 12.1718
15777 1 17.4168 1.13786 18.2528
15778 2 16.899 0.796731 17.4683
15779 2 17.7702 2.05051 18.0475
15780 1 71.6969 29.3078 36.2553
15781 2 71.9565 29.8021 37.0849
15782 2 72.1074 29.7533 35.4597
15783 1 10.979 22.1085 30.6823
15784 2 11.5492 22.3331 31.4725
15785 2 10.1221 22.6215 30.733
15786 1 7.6827 24.8138 41.5678
15787 2 7.64962 24.1809 40.7943
15788 2 7.42097 25.729 41.2612
15789 1 47.8939 27.4154 56.0418
15790 2 47.7541 26.475 55.7318
15791 2 47.01 27.8776 56.1136
15792 1 10.7097 13.1744 26.9971
15793 2 11.4321 13.5491 26.416
15794 2 9.99431 12.7749 26.4239
15795 1 67.4485 24.7697 85.8362
15796 2 68.3642 25.1713 85.8526
15797 2 67.2438 24.4443 84.913
15798 1 7.56437 7.72775 58.2928
15799 2 8.38004 7.20942 58.0359
15800 2 6.88548 7.1076 58.6859
15801 1 22.6796 16.9778 81.6312
15802 2 23.0321 16.0426 81.5997
15803 2 23.4345 17.6228 81.5126
15804 1 66.0833 13.5317 51.9138
15805 2 65.3525 12.9309 52.2379
15806 2 66.6144 13.0605 51.2096
15807 1 20.6284 7.07001 27.9619
15808 2 21.2093 7.75246 28.4055
15809 2 20.5275 6.27695 28.5626
15810 1 30.7903 10.3919 78.2505
15811 2 30.9868 10.3483 79.23
15812 2 30.5328 9.48344 77.9214
15813 1 16.4582 3.92798 23.2074
15814 2 15.5341 3.74206 23.5413
15815 2 16.7987 3.13137 22.7079
15816 1 24.813 10.8978 49.7142
15817 2 24.679 10.4407 50.5934
15818 2 25.5183 10.4174 49.1928
15819 1 53.7214 22.9369 27.4229
15820 2 53.4173 23.5242 26.6728
15821 2 52.9257 22.6005 27.9264
15822 1 46.9872 4.40892 89.2895
15823 2 46.3558 3.64132 89.3997
15824 2 47.9267 4.06722 89.2678
15825 1 76.6267 15.0333 24.8236
15826 2 77.4322 15.6051 24.668
15827 2 76.03 15.4735 25.4945
15828 1 77.5853 19.2893 76.9185
15829 2 77.7688 18.6612 77.6747
15830 2 76.6837 19.7042 77.0412
15831 1 14.0126 13.1119 77.72
15832 2 13.2633 12.5944 78.1334
15833 2 13.6998 14.0369 77.5046
15834 1 27.8477 2.86791 32.7221
15835 2 28.2363 3.67561 33.1655
15836 2 27.8741 2.09471 33.3557
15837 1 32.6547 0.851101 90.6128
15838 2 32.5947 1.74596 90.1705
15839 2 32.1683 0.877636 91.4861
15840 1 64.5915 13.6558 74.2261
15841 2 65.0056 14.3159 73.5994
15842 2 65.137 13.6026 75.0625
15843 1 72.2552 2.69491 83.3548
15844 2 71.4399 2.15497 83.5642
15845 2 72.7694 2.86204 84.196
15846 1 4.29162 21.3531 83.1286
15847 2 4.3599 20.3851 82.8871
15848 2 4.20515 21.4438 84.1208
15849 1 15.9034 25.3214 11.4898
15850 2 15.9985 24.4927 10.9382
15851 2 16.8099 25.6844 11.7049
15852 1 53.5464 17.1534 35.768
15853 2 53.4235 17.8881 36.4351
15854 2 53.3077 16.278 36.1885
15855 1 74.0914 14.5824 78.2559
15856 2 75.0367 14.7628 78.5276
15857 2 73.547 14.3662 79.0664
15858 1 79.7218 9.76886 42.7703
15859 2 79.4664 9.73738 43.7366
15860 2 79.9025 10.7157 42.5039
15861 1 41.8594 24.6532 35.9962
15862 2 41.9761 25.1993 36.8258
15863 2 41.1273 25.0454 35.4393
15864 1 24.5435 18.0192 52.1297
15865 2 25.423 18.1113 52.5967
15866 2 24.3749 18.8327 51.5732
15867 1 7.92769 16.1274 90.4191
15868 2 8.83808 16.2293 90.0181
15869 2 7.40382 15.459 89.8911
15870 1 69.2313 0.16901 60.2933
15871 2 69.5019 0.34448 61.2399
15872 2 68.4026 29.6094 60.2818
15873 1 24.9108 4.82827 83.5342
15874 2 25.4001 5.69385 83.6406
15875 2 24.1528 4.79161 84.1855
15876 1 22.8474 5.8076 76.2892
15877 2 22.5138 5.98373 77.2153
15878 2 22.4694 6.48986 75.6634
15879 1 18.1414 29.2522 57.3514
15880 2 17.4139 28.596 57.5522
15881 2 19.0087 28.9088 57.7117
15882 1 75.8034 14.8759 87.4151
15883 2 74.9822 15.2069 87.88
15884 2 75.5725 14.6106 86.479
15885 1 3.97861 16.098 26.3646
15886 2 4.36505 16.9955 26.5768
15887 2 3.31306 16.1884 25.6237
15888 1 77.1999 29.707 69.5169
15889 2 77.01 28.7547 69.2777
15890 2 77.8707 29.7371 70.2579
15891 1 13.5475 11.1607 58.9883
15892 2 14.5373 11.2071 59.1226
15893 2 13.1061 11.8938 59.5058
15894 1 51.2983 10.3336 40.3493
15895 2 51.0968 9.41584 40.007
15896 2 50.4445 10.7924 40.5954
15897 1 59.2013 0.721314 65.6614
15898 2 59.2548 29.7845 65.3158
15899 2 59.9612 0.888761 66.2895
15900 1 25.5616 24.0522 51.6443
15901 2 25.796 24.9093 52.1031
15902 2 26.1174 23.3104 52.0196
15903 1 29.1132 20.3476 61.9469
15904 2 29.5381 20.0763 61.0833
15905 2 28.7123 21.2586 61.8493
15906 1 54.1141 16.2659 83.4204
15907 2 53.6105 16.124 84.2726
15908 2 53.7513 15.6584 82.7138
15909 1 24.3488 23.0317 67.3906
15910 2 24.6103 23.7465 66.742
15911 2 24.7175 23.2504 68.2941
15912 1 42.1762 5.04974 55.2735
15913 2 41.7244 4.3335 55.8054
15914 2 41.8474 5.94524 55.5735
15915 1 63.8459 22.3938 66.1281
15916 2 64.8189 22.6222 66.0936
15917 2 63.4976 22.5576 67.0511
15918 1 40.2568 11.9423 76.1443
15919 2 41.109 11.448 76.3161
15920 2 39.4795 11.3492 76.354
15921 1 6.04026 10.3407 29.9857
15922 2 5.55451 9.47506 29.8643
15923 2 6.84885 10.1922 30.5551
15924 1 26.4012 7.4979 83.9954
15925 2 25.6763 7.92291 84.5375
15926 2 27.266 7.55175 84.4946
15927 1 69.0021 18.3778 50.7672
15928 2 68.0685 18.1432 51.0382
15929 2 69.651 17.8582 51.3231
15930 1 11.5535 18.7456 90.1889
15931 2 11.4712 18.3839 89.2603
15932 2 12.5079 18.6952 90.4829
15933 1 16.0185 16.7953 24.8662
15934 2 16.0685 16.9361 23.8774
15935 2 15.0918 16.9947 25.1848
15936 1 37.5171 10.793 74.0098
15937 2 37.896 10.3888 74.8423
15938 2 37.7684 11.7598 73.9644
15939 1 64.4593 23.4816 42.2644
15940 2 64.5581 22.5341 42.5685
15941 2 65.3527 23.9309 42.278
15942 1 8.65 14.7562 28.8831
15943 2 9.05232 13.9578 28.4351
15944 2 7.79919 15.0047 28.4201
15945 1 23.5831 20.4217 60.8386
15946 2 24.2045 19.7489 61.2402
15947 2 24.0362 21.3123 60.7999
15948 1 78.824 19.6557 18.021
15949 2 79.593 19.8688 17.4184
15950 2 77.988 19.574 17.4784
15951 1 79.7127 4.87616 55.6799
15952 2 79.0299 4.88402 56.4104
15953 2 79.4936 5.58657 55.0111
15954 1 72.1954 13.8541 28.9523
15955 2 71.7441 14.4626 29.605
15956 2 72.2321 14.2953 28.0557
15957 1 58.7174 16.7068 28.0204
15958 2 59.6343 16.317 27.9345
15959 2 58.4944 16.8244 28.9881
15960 1 6.1409 11.6668 44.0385
15961 2 6.29945 12.3144 43.2932
15962 2 5.81218 10.8003 43.6628
15963 1 6.74667 22.3632 74.155
15964 2 6.08429 21.6143 74.173
15965 2 6.32454 23.1905 74.5258
15966 1 23.8426 13.9371 52.1852
15967 2 24.5504 14.6391 52.2637
15968 2 24.2669 13.0594 51.9627
15969 1 35.1917 22.1748 30.4935
15970 2 34.4889 22.8712 30.3482
15971 2 36.0332 22.6118 30.8113
15972 1 47.8787 0.278999 48.1146
15973 2 47.3761 0.292497 47.2502
15974 2 47.9588 29.3364 48.4389
15975 1 7.69522 19.9378 12.9542
15976 2 7.05576 19.8312 12.1928
15977 2 8.61082 20.1227 12.5972
15978 1 43.698 17.4032 54.6774
15979 2 44.257 17.1752 53.8801
15980 2 44.1929 18.0502 55.2574
15981 1 35.852 21.9269 38.4615
15982 2 35.1805 21.5336 39.0895
15983 2 35.6708 21.6017 37.5334
15984 1 68.9777 23.5433 49.5547
15985 2 69.2357 24.0475 50.3789
15986 2 68.4101 24.125 48.9721
15987 1 40.6536 26.3222 41.3591
15988 2 40.7069 26.5429 40.3852
15989 2 41.1736 26.9971 41.8827
15990 1 30.9024 6.65436 74.1846
15991 2 31.8436 6.43881 74.445
15992 2 30.3144 6.60902 74.9922
15993 1 8.1951 0.866291 23.2175
15994 2 7.27091 0.485475 23.2468
15995 2 8.44052 1.07306 22.2704
15996 1 79.1867 3.71043 24.6761
15997 2 78.3145 3.22574 24.7423
15998 2 79.4047 3.87439 23.714
15999 1 20.6819 9.81242 25.6211
16000 2 19.9857 9.38323 25.0458
16001 2 20.525 9.56282 26.5766
16002 1 1.10376 0.312959 86.5227
16003 2 1.5759 29.6411 87.0933
16004 2 0.378804 29.8594 86.0043
16005 1 66.6015 23.8626 67.5086
16006 2 66.0086 23.6196 68.2763
16007 2 66.6775 23.0834 66.8864
16008 1 54.7843 12.2377 69.2332
16009 2 55.7089 12.5059 69.504
16010 2 54.8067 11.8468 68.313
16011 1 56.1864 0.718894 74.3901
16012 2 57.0309 1.20778 74.6087
16013 2 56.4074 29.8705 73.9091
16014 1 23.3987 14.238 41.2614
16015 2 23.5925 13.7941 42.1363
16016 2 23.774 15.1649 41.2675
16017 1 55.9666 13.0486 23.1899
16018 2 55.5634 12.1335 23.1879
16019 2 56.739 13.0711 23.8246
16020 1 79.7507 14.7364 41.0893
16021 2 0.362531 14.1721 41.6435
16022 2 0.0449997 15.691 41.1349
16023 1 27.8169 7.51647 63.834
16024 2 27.7198 6.73733 64.4533
16025 2 26.9348 7.71441 63.4066
16026 1 65.7499 16.731 15.2011
16027 2 65.8028 16.6761 14.204
16028 2 65.8457 15.8151 15.5909
16029 1 59.7873 7.34328 52.226
16030 2 59.2824 8.08464 51.7838
16031 2 60.0072 7.60408 53.166
16032 1 76.5611 7.06758 15.3648
16033 2 75.8473 6.59941 15.8857
16034 2 77.1236 6.39186 14.8883
16035 1 45.0596 17.4473 33.3318
16036 2 44.7575 17.3701 32.3817
16037 2 44.3943 17.0012 33.9305
16038 1 29.9226 7.12246 67.6389
16039 2 29.2712 6.87091 68.3546
16040 2 30.1348 8.0972 67.7089
16041 1 76.3999 8.3326 75.3553
16042 2 77.2368 8.33379 75.9026
16043 2 75.6131 8.50055 75.9493
16044 1 13.6516 26.9239 75.7314
16045 2 13.2222 26.43 74.9753
16046 2 14.6453 26.8314 75.6683
16047 1 42.4367 6.64516 46.7944
16048 2 41.4845 6.35889 46.6873
16049 2 43.0352 5.99213 46.3304
16050 1 25.3156 17.7938 76.7545
16051 2 25.2501 17.5095 77.711
16052 2 26.066 18.4467 76.6515
16053 1 11.1599 16.9382 27.2778
16054 2 11.9819 16.569 26.8444
16055 2 11.2738 17.9206 27.4261
16056 1 50.2007 13.4574 37.5794
16057 2 50.6118 12.5521 37.6863
16058 2 49.29 13.4608 37.9924
16059 1 27.9902 7.55074 72.6992
16060 2 28.0853 8.52748 72.507
16061 2 27.0201 7.30993 72.7297
16062 1 56.35 1.47526 34.0116
16063 2 56.6203 1.97844 34.8324
16064 2 55.7191 0.741384 34.2632
16065 1 47.4022 11.6513 78.3424
16066 2 47.6201 11.4544 79.2983
16067 2 48.198 12.0611 77.8967
16068 1 11.1722 2.14571 48.3566
16069 2 11.4089 2.8347 49.0416
16070 2 10.2915 2.37609 47.9426
16071 1 38.2035 21.4718 61.3812
16072 2 39.0168 21.8731 61.8025
16073 2 38.1908 21.6909 60.4056
16074 1 71.4186 28.3793 32.4733
16075 2 72.2603 27.8774 32.6727
16076 2 71.4704 29.2917 32.8792
16077 1 56.7231 7.73608 86.1542
16078 2 56.5174 7.85001 87.1261
16079 2 56.4888 8.57519 85.6633
16080 1 0.445811 12.2904 64.808
16081 2 0.337802 13.2761 64.9371
16082 2 79.6064 11.8238 65.0867
16083 1 54.519 28.3505 67.9723
16084 2 55.2266 27.647 67.9069
16085 2 54.2686 28.6578 67.0542
16086 1 7.29393 1.53883 71.0134
16087 2 7.774 2.33512 71.3814
16088 2 7.16525 0.86258 71.7387
16089 1 15.0819 25.5238 50.6552
16090 2 15.1012 25.4351 51.6511
16091 2 14.1986 25.2074 50.3094
16092 1 74.1532 11.3125 21.6399
16093 2 74.1815 11.2284 22.636
16094 2 74.087 12.2782 21.3888
16095 1 47.2786 18.3272 91.0895
16096 2 47.3199 17.328 91.0911
16097 2 48.1958 18.6985 90.9455
16098 1 2.53226 27.3712 23.4556
16099 2 3.39601 26.8714 23.3907
16100 2 2.11627 27.4368 22.5486
16101 1 72.0048 6.57797 29.6284
16102 2 71.6639 6.80887 28.7171
16103 2 71.2417 6.55726 30.2743
16104 1 2.83803 20.4369 87.3155
16105 2 2.65314 21.0989 86.5891
16106 2 3.64803 19.9002 87.079
16107 1 74.4925 22.751 26.3586
16108 2 75.2706 22.221 26.6959
16109 2 74.2177 23.4175 27.0516
16110 1 5.43434 19.125 25.1068
16111 2 5.33444 20.1168 25.0278
16112 2 5.66434 18.8873 26.0506
16113 1 66.8641 24.0509 28.4937
16114 2 66.7687 23.6137 29.388
16115 2 66.623 25.0186 28.5684
16116 1 2.06005 25.6172 49.1788
16117 2 1.34163 25.0683 49.606
16118 2 2.57107 26.106 49.8859
16119 1 24.8284 24.9983 76.8969
16120 2 24.2574 25.7685 77.1807
16121 2 24.7643 24.8834 75.9056
16122 1 51.2038 21.4101 39.3532
16123 2 51.5308 21.0092 40.209
16124 2 51.9855 21.6971 38.7995
16125 1 9.8666 27.8656 25.2378
16126 2 10.4614 27.0886 25.444
16127 2 10.1186 28.6411 25.8167
16128 1 72.8112 4.42721 78.598
16129 2 73.0969 3.84422 79.3586
16130 2 73.4897 4.37536 77.8652
16131 1 53.1448 16.9031 77.3562
16132 2 53.7217 16.2364 76.8845
16133 2 53.6988 17.4216 78.0076
16134 1 64.6558 21.5681 62.2918
16135 2 64.8576 21.9223 61.3786
16136 2 64.2319 22.2874 62.8421
16137 1 32.9321 24.3997 60.8429
16138 2 32.0372 24.1205 60.4948
16139 2 33.1083 23.9422 61.7145
16140 1 31.9148 7.77055 62.6942
16141 2 31.2661 8.32742 62.1754
16142 2 31.6299 7.73245 63.652
16143 1 64.2628 12.3538 57.8287
16144 2 63.3338 12.0448 57.6251
16145 2 64.5311 12.0283 58.7353
16146 1 19.0993 5.09818 48.7591
16147 2 19.8913 4.68012 49.204
16148 2 19.025 6.05475 49.041
16149 1 0.532797 17.3676 45.9771
16150 2 1.42904 17.1326 46.3532
16151 2 79.9398 17.6989 46.711
16152 1 68.7027 8.7932 34.0033
16153 2 69.5414 8.24866 34.0111
16154 2 68.772 9.52175 34.6848
16155 1 2.33511 7.34658 49.8039
16156 2 1.58203 7.45825 50.4523
16157 2 1.96696 7.13248 48.8992
16158 1 12.0751 1.38795 22.0163
16159 2 11.6121 0.703384 21.4533
16160 2 12.8714 1.74059 21.5248
16161 1 4.23701 21.5307 20.5495
16162 2 5.15766 21.2344 20.8038
16163 2 4.09086 21.3645 19.5743
16164 1 62.758 28.3681 53.0188
16165 2 62.5555 27.6042 53.6315
16166 2 61.9168 28.8741 52.8276
16167 1 36.7557 2.14821 83.1244
16168 2 36.7449 2.29133 84.1141
16169 2 36.7208 3.03277 82.6593
16170 1 56.1737 9.16528 77.1808
16171 2 55.8039 8.46062 77.7864
16172 2 56.6964 9.82647 77.7191
16173 1 68.9223 29.4651 75.6973
16174 2 69.8786 29.3803 75.4175
16175 2 68.4677 28.5794 75.6028
16176 1 16.3712 19.9256 64.9949
16177 2 15.5236 20.094 65.498
16178 2 16.1672 19.8299 64.0206
16179 1 46.8198 9.01708 55.3868
16180 2 46.4895 9.32725 56.2783
16181 2 46.0719 9.05135 54.7239
16182 1 31.77 4.01515 38.7586
16183 2 31.114 3.3115 38.4855
16184 2 32.6992 3.65579 38.673
16185 1 41.3069 1.29568 84.291
16186 2 40.946 1.50364 83.3819
16187 2 41.4902 0.315085 84.3605
16188 1 13.6501 10.8367 61.815
16189 2 14.3188 10.1634 62.1304
16190 2 13.8496 11.0861 60.8674
16191 1 62.348 12.26 12.8453
16192 2 63.2162 12.7545 12.8046
16193 2 62.3261 11.6923 13.6683
16194 1 65.6514 21.5421 15.06
16195 2 64.6713 21.7353 15.1055
16196 2 66.1006 22.2299 14.4898
16197 1 18.1516 11.0814 37.3517
16198 2 18.2129 10.1011 37.1639
16199 2 18.9784 11.5364 37.0212
16200 1 68.6189 21.2007 54.9108
16201 2 69.0001 20.3262 54.6112
16202 2 68.7722 21.8909 54.2036
16203 1 15.7585 0.132832 77.6491
16204 2 15.7115 29.2694 77.1468
16205 2 16.678 0.250546 78.0242
16206 1 17.01 16.3217 69.7603
16207 2 17.2461 15.9471 68.8637
16208 2 16.0373 16.173 69.9381
16209 1 6.29121 25.9579 55.683
16210 2 5.75859 25.1903 56.0395
16211 2 5.8498 26.3165 54.8604
16212 1 50.1579 28.8014 38.3959
16213 2 49.3438 29.0012 38.9411
16214 2 50.2388 27.813 38.2674
16215 1 53.0159 9.22837 75.9336
16216 2 52.9212 8.24262 76.0726
16217 2 53.9726 9.44763 75.7422
16218 1 29.5527 2.95636 36.5121
16219 2 29.987 2.13484 36.1427
16220 2 28.5593 2.87175 36.4345
16221 1 58.4528 2.4712 59.6665
16222 2 59.3082 2.98662 59.6159
16223 2 58.534 1.75809 60.3628
16224 1 44.595 9.61146 76.8038
16225 2 43.7994 9.94374 77.3104
16226 2 44.4909 8.63329 76.6239
16227 1 61.2964 23.6127 61.3896
16228 2 62.14 23.2152 61.7505
16229 2 61.4772 24.5416 61.0665
16230 1 29.3824 0.0480958 50.2984
16231 2 29.3896 0.752984 49.5891
16232 2 29.7423 29.1939 49.9231
16233 1 29.047 6.36577 57.3215
16234 2 28.8318 6.84779 58.1708
16235 2 29.8976 5.85247 57.4359
16236 1 7.98458 10.4885 79.6799
16237 2 8.736 9.8679 79.4557
16238 2 7.135 10.1399 79.284
16239 1 50.8228 22.8315 67.0404
16240 2 51.4956 22.178 67.387
16241 2 49.9822 22.7609 67.5774
16242 1 20.2289 24.5426 86.4523
16243 2 20.5254 23.6472 86.12
16244 2 19.898 24.4566 87.392
16245 1 8.32161 15.393 41.2291
16246 2 7.54031 15.3563 41.8522
16247 2 9.16361 15.2188 41.7397
16248 1 53.9807 22.9285 65.2234
16249 2 53.8857 22.4215 66.0801
16250 2 53.9029 23.9086 65.4057
16251 1 0.727314 16.3451 74.6922
16252 2 0.231401 16.7045 73.9017
16253 2 1.69282 16.233 74.4572
16254 1 43.625 18.1183 44.9064
16255 2 42.9605 18.8637 44.96
16256 2 43.2579 17.3851 44.3339
16257 1 10.75 17.9773 14.5848
16258 2 9.97832 17.482 14.9839
16259 2 11.439 18.1449 15.29
16260 1 35.7783 26.5107 76.2811
16261 2 36.1417 26.5857 75.3525
16262 2 36.113 25.6681 76.703
16263 1 16.5658 0.427158 69.6273
16264 2 16.0645 0.760649 70.4258
16265 2 15.9857 0.498551 68.8159
16266 1 43.0716 20.8393 78.2498
16267 2 43.2428 19.865 78.3964
16268 2 43.9089 21.3555 78.4295
16269 1 72.3023 8.0819 89.6532
16270 2 71.3032 8.05053 89.6248
16271 2 72.6047 9.03393 89.7003
16272 1 77.984 29.4219 52.7598
16273 2 77.1231 28.925 52.6503
16274 2 78.508 29.372 51.9096
16275 1 49.6931 26.3606 86.6538
16276 2 50.5834 25.9603 86.8709
16277 2 49.0108 26.0289 87.3052
16278 1 24.6972 1.78702 56.8128
16279 2 24.6132 1.65659 55.8249
16280 2 24.0659 1.17182 57.2851
16281 1 13.5528 11.4776 27.4057
16282 2 13.6543 12.2801 26.8178
16283 2 14.3362 10.8694 27.2777
16284 1 79.1633 5.83111 19.903
16285 2 78.2358 6.18367 20.0268
16286 2 79.8008 6.59583 19.8091
16287 1 40.7815 11.6695 42.5945
16288 2 40.9321 12.6542 42.6816
16289 2 41.1091 11.208 43.419
16290 1 22.2242 0.256725 66.6856
16291 2 23.1297 0.678034 66.7365
16292 2 21.7865 0.510418 65.823
16293 1 79.3154 24.6607 14.8477
16294 2 0.312536 24.5926 14.8156
16295 2 78.9438 23.8787 15.3481
16296 1 0.376437 3.92812 64.6323
16297 2 1.06309 3.64064 65.3
16298 2 79.917 4.75335 64.9608
16299 1 9.74942 26.0989 81.9165
16300 2 8.95246 25.5023 81.8221
16301 2 9.48585 27.0419 81.7131
16302 1 16.6701 21.1154 25.5192
16303 2 17.036 20.1938 25.3896
16304 2 16.4643 21.2592 26.4871
16305 1 22.515 6.88426 84.3202
16306 2 23.1798 7.38056 84.8786
16307 2 21.9481 6.30889 84.9097
16308 1 55.3992 9.08385 73.7002
16309 2 55.7141 8.47724 74.4302
16310 2 54.7296 9.72892 74.0684
16311 1 51.8749 6.22382 88.1635
16312 2 52.5969 5.96614 88.8055
16313 2 50.9994 5.86167 88.4836
16314 1 21.2159 18.6525 47.7337
16315 2 21.6623 19.4239 48.1874
16316 2 21.6415 17.7984 48.0325
16317 1 78.9704 27.5888 81.7872
16318 2 78.7879 27.0801 80.9458
16319 2 78.1278 28.0259 82.1019
16320 1 68.9722 19.1335 47.465
16321 2 68.0167 18.8436 47.5186
16322 2 69.2695 19.1269 46.5102
16323 1 33.4734 28.6678 65.1374
16324 2 33.0075 27.8338 64.8419
16325 2 33.9488 29.0777 64.3589
16326 1 27.5678 20.1913 51.4519
16327 2 27.3796 19.5751 52.2167
16328 2 27.4027 21.1356 51.7363
16329 1 55.1984 24.0093 40.4246
16330 2 55.8642 23.8644 41.1566
16331 2 54.4778 24.6236 40.7462
16332 1 47.7462 17.991 37.1594
16333 2 48.5986 18.4296 36.8746
16334 2 47.0792 18.6917 37.4125
16335 1 11.6966 2.47497 53.0636
16336 2 12.4156 1.84589 52.7683
16337 2 11.5256 2.35057 54.041
16338 1 75.0908 17.3203 30.0187
16339 2 74.2862 16.7281 29.9741
16340 2 75.5599 17.1801 30.8907
16341 1 66.0125 15.3366 66.5499
16342 2 65.9841 15.1133 67.5243
16343 2 65.7988 14.5196 66.0144
16344 1 62.7223 12.9986 46.2907
16345 2 63.3928 12.8696 45.5602
16346 2 62.1963 12.1569 46.4129
16347 1 9.02496 11.7877 57.8555
16348 2 9.17838 12.0953 56.9164
16349 2 8.05369 11.8701 58.0787
16350 1 67.3548 26.7755 22.8446
16351 2 66.8113 26.1477 22.2872
16352 2 68.3059 26.4672 22.8624
16353 1 69.9563 24.6156 27.7282
16354 2 69.587 23.6882 27.7862
16355 2 70.8864 24.5818 27.3624
16356 1 62.52 25.2009 31.6297
16357 2 63.0022 24.3502 31.4206
16358 2 61.5757 24.9944 31.886
16359 1 16.1548 8.25814 52.837
16360 2 15.9107 8.73979 53.6787
16361 2 16.8549 8.77737 52.3469
16362 1 40.1799 10.0464 69.4346
16363 2 40.4004 11.0084 69.2737
16364 2 40.5217 9.49437 68.674
16365 1 6.99004 5.67017 82.4455
16366 2 6.08928 5.32673 82.7114
16367 2 6.97876 5.92105 81.4776
16368 1 63.5281 29.01 71.3947
16369 2 62.9875 28.3319 71.8925
16370 2 64.4155 29.1223 71.8417
16371 1 5.13981 7.01425 36.6219
16372 2 5.47567 7.95302 36.6987
16373 2 5.43239 6.4891 37.421
16374 1 60.7117 25.3362 49.7642
16375 2 59.7914 25.2961 50.1533
16376 2 61.0505 26.2761 49.8057
16377 1 32.7641 9.96243 80.3975
16378 2 32.9083 10.9202 80.6461
16379 2 33.486 9.40075 80.8017
16380 1 7.12194 13.9514 14.7464
16381 2 7.51275 14.2389 13.872
16382 2 7.82646 13.5 15.294
16383 1 65.193 9.54185 77.8648
16384 2 65.2932 10.4764 78.2062
16385 2 64.2652 9.41259 77.5148
16386 1 17.3378 8.89237 75.6662
16387 2 16.636 8.2818 76.0332
16388 2 17.0162 9.292 74.8078
16389 1 0.882054 24.1581 20.6207
16390 2 0.942 24.6741 21.4752
16391 2 1.50366 24.5566 19.9464
16392 1 66.8364 4.2564 71.6171
16393 2 67.3913 3.45323 71.8338
16394 2 67.4092 5.07549 71.6479
16395 1 43.5702 4.05633 38.2936
16396 2 43.7734 3.08385 38.1795
16397 2 44.4122 4.5866 38.1943
16398 1 12.7622 7.05047 20.5225
16399 2 11.9823 7.13082 19.9017
16400 2 13.289 7.90032 20.5076
16401 1 4.34403 1.55184 85.1391
16402 2 4.77776 2.11333 84.4344
16403 2 4.86176 1.62781 85.9912
16404 1 68.6441 3.55677 55.8588
16405 2 68.616 2.86069 56.5762
16406 2 69.4854 3.45455 55.3279
16407 1 9.48634 6.93583 84.6812
16408 2 9.7069 7.33193 85.5725
16409 2 8.6913 7.40423 84.2958
16410 1 71.1636 4.17223 24.892
16411 2 70.8667 4.65849 24.0701
16412 2 70.5001 4.32105 25.6253
16413 1 5.68476 25.285 79.2668
16414 2 6.20497 24.9494 78.4815
16415 2 6.28583 25.345 80.0638
16416 1 7.64682 18.9367 36.9662
16417 2 7.51164 17.9611 37.139
16418 2 6.82369 19.3178 36.5452
16419 1 71.5452 25.504 78.805
16420 2 71.9187 25.7189 79.7074
16421 2 71.5196 24.5118 78.6826
16422 1 62.2033 16.6484 29.7187
16423 2 61.9269 15.9619 29.046
16424 2 62.839 16.2376 30.3722
16425 1 42.0863 3.5602 70.9983
16426 2 43.0475 3.68032 71.2466
16427 2 41.5707 3.25584 71.7993
16428 1 61.2306 6.92526 70.1
16429 2 61.285 7.92247 70.151
16430 2 61.8966 6.5887 69.4344
16431 1 61.0756 27.1211 85.5095
16432 2 60.3611 27.8206 85.4926
16433 2 61.0469 26.5948 84.6597
16434 1 34.2951 29.3032 78.8919
16435 2 34.2727 29.9716 78.1484
16436 2 35.147 29.4044 79.4057
16437 1 9.04673 0.158602 17.2909
16438 2 9.87786 0.237761 17.8413
16439 2 8.96387 29.2241 16.9448
16440 1 12.5097 7.81259 28.7564
16441 2 12.6366 7.37107 27.8682
16442 2 11.9715 8.64728 28.6399
16443 1 69.6932 4.24374 22.5164
16444 2 69.8064 5.22954 22.3923
16445 2 68.9851 3.90866 21.8949
16446 1 78.5326 28.0137 65.3902
16447 2 78.1911 27.3447 64.73
16448 2 78.1443 27.8207 66.2914
16449 1 13.0657 11.9107 69.5906
16450 2 12.2868 11.656 69.0174
16451 2 13.3487 11.1228 70.1375
16452 1 31.4269 16.2242 79.7791
16453 2 30.7187 15.5679 80.0393
16454 2 32.3175 15.8958 80.0937
16455 1 40.484 28.9247 29.7677
16456 2 40.8109 28.0088 29.5347
16457 2 39.8466 29.24 29.0645
16458 1 20.54 29.1651 70.1543
16459 2 20.4129 28.2417 69.7921
16460 2 19.7403 29.723 69.9327
16461 1 11.3769 7.27029 58.6695
16462 2 11.2609 7.68658 59.5713
16463 2 12.1423 7.70695 58.1968
16464 1 68.4445 29.7147 90.131
16465 2 69.3376 0.160011 90.0669
16466 2 68.5659 28.7636 90.4151
16467 1 10.0255 8.81874 21.5416
16468 2 9.39675 9.58109 21.3882
16469 2 10.4274 8.53767 20.6701
16470 1 1.60556 5.55289 23.3398
16471 2 1.71074 6.48727 23.6802
16472 2 2.48103 5.22793 22.9821
16473 1 52.5621 8.61459 66.9844
16474 2 52.3218 7.69094 67.2829
16475 2 52.7143 9.19453 67.7847
16476 1 36.462 28.0781 69.3676
16477 2 35.7729 28.3718 68.705
16478 2 36.0265 27.5263 70.0789
16479 1 54.5902 13.0223 90.5599
16480 2 55.133 12.4196 91.1447
16481 2 53.9235 12.4795 90.0491
16482 1 79.7648 27.6946 11.483
16483 2 0.613759 27.311 11.1195
16484 2 79.0729 26.9751 11.5431
16485 1 25.6993 14.7884 47.3774
16486 2 25.2462 15.5225 46.8716
16487 2 26.6033 14.6213 46.9841
16488 1 20.5222 3.29497 26.3446
16489 2 19.6664 3.0847 25.872
16490 2 21.2777 2.82033 25.893
16491 1 59.2847 0.668753 62.2365
16492 2 59.3842 29.9019 62.8706
16493 2 60.1829 1.06837 62.0532
16494 1 68.2737 26.8511 46.3099
16495 2 67.7607 26.6653 45.4718
16496 2 67.6353 27.024 47.06
16497 1 4.14825 4.29742 65.175
16498 2 4.42527 3.55294 64.5676
16499 2 3.68166 3.91915 65.9745
16500 1 65.5361 15.5673 27.1222
16501 2 65.7307 15.2814 26.1839
16502 2 66.2565 16.1843 27.4389
16503 1 50.0581 13.6113 90.6891
16504 2 49.1424 13.2933 90.4431
16505 2 50.2443 13.3838 91.6449
16506 1 6.94766 29.5865 85.6157
16507 2 6.6891 0.309372 86.2566
16508 2 7.50868 29.9744 84.8845
16509 1 35.6352 8.81097 72.1241
16510 2 34.9708 9.06459 72.8271
16511 2 35.8398 7.83473 72.1955
16512 1 18.7608 26.5421 63.1458
16513 2 19.3129 26.0407 63.812
16514 2 18.9237 27.5233 63.2489
16515 1 66.7 25.9396 43.651
16516 2 66.7331 26.1901 42.6834
16517 2 65.7489 25.8012 43.9271
16518 1 11.5096 10.4036 28.7946
16519 2 12.2427 10.8371 28.2705
16520 2 10.8573 9.97901 28.1668
16521 1 79.4752 11.1124 16.9349
16522 2 78.7291 10.6233 17.3868
16523 2 79.5588 10.794 15.9907
16524 1 37.1087 16.7708 73.4109
16525 2 36.3114 17.362 73.5331
16526 2 37.7216 16.8715 74.1945
16527 1 66.2808 13.7647 89.8145
16528 2 67.0197 13.4782 90.4244
16529 2 65.7873 12.9588 89.4874
16530 1 77.2072 19.3461 56.0708
16531 2 77.7919 19.4386 56.8768
16532 2 76.2723 19.6127 56.3049
16533 1 16.2369 3.52433 38.0328
16534 2 15.5422 3.951 38.6119
16535 2 16.2416 2.53685 38.1905
16536 1 31.0674 2.31897 29.9091
16537 2 31.7963 1.64768 30.0432
16538 2 31.3108 3.17205 30.3706
16539 1 23.8518 18.4293 40.1024
16540 2 24.469 17.6644 40.2868
16541 2 23.8289 18.6095 39.119
16542 1 42.8099 14.9001 44.5419
16543 2 41.9988 14.4808 44.1341
16544 2 43.4598 15.1392 43.8205
16545 1 70.7948 26.5175 36.0067
16546 2 71.4443 25.8566 35.6308
16547 2 70.3979 26.1528 36.849
16548 1 77.4116 26.5807 41.7722
16549 2 76.6774 26.2605 42.3708
16550 2 78.1714 26.9183 42.3278
16551 1 63.8307 6.76622 73.2832
16552 2 64.7696 6.78028 72.9394
16553 2 63.7674 7.33535 74.103
16554 1 22.8288 23.1651 52.6836
16555 2 23.3594 22.4159 52.2871
16556 2 23.0955 24.0271 52.2525
16557 1 14.9513 1.43128 35.8218
16558 2 15.8093 1.85822 35.5363
16559 2 15.1465 0.67953 36.4517
16560 1 74.9522 5.95622 28.8035
16561 2 75.6871 5.34992 28.4996
16562 2 74.9329 6.77217 28.2257
16563 1 44.9584 22.4969 75.7349
16564 2 45.6318 21.8687 76.1246
16565 2 44.8538 23.2887 76.3367
16566 1 27.2802 3.83636 86.0113
16567 2 27.9265 3.80604 85.2488
16568 2 26.7207 4.66223 85.9413
16569 1 62.0092 6.02141 27.0458
16570 2 62.8217 6.45257 26.6534
16571 2 61.7263 6.52452 27.8624
16572 1 23.9986 25.4107 34.0857
16573 2 23.8561 26.1454 34.7489
16574 2 24.8444 25.5785 33.5791
16575 1 72.9166 13.7329 83.0898
16576 2 73.8432 13.3661 83.1727
16577 2 72.8922 14.6628 83.4566
16578 1 3.58261 10.4462 32.4202
16579 2 4.08641 9.99901 31.6811
16580 2 2.72975 9.9521 32.5888
16581 1 48.8518 2.33112 83.561
16582 2 48.9724 3.17037 83.0308
16583 2 48.3938 2.5449 84.4239
16584 1 33.537 4.67072 44.4872
16585 2 33.9239 3.82869 44.1112
16586 2 33.163 4.4887 45.3966
16587 1 27.5308 14.3735 81.409
16588 2 26.6275 14.8025 81.417
16589 2 27.6182 13.766 82.1985
16590 1 4.31142 29.6579 73.5691
16591 2 4.01746 0.0358519 74.4471
16592 2 5.27329 29.8835 73.4144
16593 1 70.0954 16.9952 44.6136
16594 2 70.5757 17.7168 45.1121
16595 2 69.9205 16.2255 45.2276
16596 1 72.6389 1.94478 41.0424
16597 2 73.504 2.43508 41.1481
16598 2 72.8162 0.961619 40.9982
16599 1 66.0645 26.1675 30.3829
16600 2 66.6607 25.5322 30.8737
16601 2 66.5676 27.0076 30.1801
16602 1 70.1271 11.3707 71.2165
16603 2 70.5437 11.2817 72.1212
16604 2 69.5692 10.563 71.0255
16605 1 69.8125 11.4781 61.0093
16606 2 69.6336 10.569 60.6331
16607 2 70.7812 11.7002 60.898
16608 1 50.7572 28.2635 82.4874
16609 2 50.3019 27.4861 82.0535
16610 2 51.7123 28.0306 82.6707
16611 1 19.3477 25.827 84.2562
16612 2 19.9224 25.8418 83.4379
16613 2 19.8592 25.4247 85.0155
16614 1 56.7132 17.6659 41.4095
16615 2 55.7993 17.5414 41.7957
16616 2 57.1266 18.4927 41.7911
16617 1 50.4464 2.6024 65.629
16618 2 50.9179 1.73733 65.8002
16619 2 51.1084 3.28909 65.3287
16620 1 49.8863 4.96231 45.4262
16621 2 50.7352 5.41541 45.1539
16622 2 49.2172 5.64982 45.7084
16623 1 36.4296 24.8765 39.1046
16624 2 37.4105 24.777 38.9371
16625 2 35.952 24.0588 38.7831
16626 1 59.0949 22.0447 27.989
16627 2 59.129 21.4239 27.2058
16628 2 59.0527 21.5126 28.8346
16629 1 23.3445 24.6538 29.7325
16630 2 22.4119 24.6163 30.0913
16631 2 23.4519 23.9693 29.0114
16632 1 44.2565 16.5218 69.1712
16633 2 44.2766 17.3936 69.6606
16634 2 43.7496 15.8488 69.7099
16635 1 28.6096 13.2542 38.4473
16636 2 29.0348 13.4707 39.3262
16637 2 28.0766 12.4125 38.5333
16638 1 2.62605 17.3833 70.7872
16639 2 2.05022 16.9834 71.5003
16640 2 3.57653 17.1091 70.9336
16641 1 36.0588 16.541 38.9578
16642 2 36.3181 16.6689 39.9151
16643 2 36.878 16.5638 38.3847
16644 1 50.0609 29.2788 62.6443
16645 2 50.0782 28.3589 62.2525
16646 2 50.3124 29.234 63.6111
16647 1 1.99232 1.50001 40.7049
16648 2 1.50181 0.718685 41.0908
16649 2 1.73488 2.33144 41.1973
16650 1 7.87216 13.7072 32.1011
16651 2 7.2715 13.3061 31.4095
16652 2 8.82605 13.5435 31.8495
16653 1 26.691 17.1049 48.7937
16654 2 26.4473 16.1563 48.5916
16655 2 27.5199 17.3505 48.2911
16656 1 28.781 26.999 61.7433
16657 2 29.7594 26.989 61.9497
16658 2 28.4248 27.9259 61.8617
16659 1 67.5966 28.1187 29.1553
16660 2 67.7085 27.9261 28.1804
16661 2 67.561 29.1079 29.2977
16662 1 62.5685 18.7304 89.6534
16663 2 63.322 18.1101 89.8711
16664 2 62.7901 19.2466 88.8262
16665 1 17.4569 13.2463 22.2221
16666 2 17.3733 12.6145 21.4514
16667 2 18.4039 13.559 22.2955
16668 1 33.4178 6.09832 41.9228
16669 2 32.6998 5.59517 41.4418
16670 2 33.2585 6.04552 42.9086
16671 1 5.87912 9.40124 73.1033
16672 2 6.56895 8.8845 73.6104
16673 2 5.8627 9.0915 72.1527
16674 1 61.6002 25.2921 23.8403
16675 2 62.3333 25.6848 24.3956
16676 2 61.7369 25.5433 22.8821
16677 1 17.2505 27.5395 28.0697
16678 2 18.1554 27.4992 28.4935
16679 2 17.047 26.6626 27.6343
16680 1 78.1849 12.949 34.6194
16681 2 78.2654 12.2461 33.9127
16682 2 77.2207 13.1774 34.7541
16683 1 69.4692 1.79442 70.2023
16684 2 70.2127 2.07908 69.5972
16685 2 69.8401 1.24347 70.9499
16686 1 27.4591 16.4364 75.0445
16687 2 27.7095 17.3998 74.9491
16688 2 27.5644 16.1576 75.999
16689 1 10.0074 27.7889 20.4993
16690 2 9.86096 27.5575 21.4611
16691 2 10.9887 27.8219 20.31
16692 1 63.3494 11.1653 49.2467
16693 2 63.3737 12.0588 49.6951
16694 2 62.7885 11.222 48.4208
16695 1 24.2165 0.530923 86.7505
16696 2 23.5462 0.398284 86.0204
16697 2 23.8325 1.13359 87.45
16698 1 68.5364 4.87964 44.5109
16699 2 68.3109 4.33645 43.7022
16700 2 69.12 4.34324 45.1206
16701 1 30.3173 18.8794 48.5524
16702 2 30.7825 19.6557 48.1271
16703 2 29.3402 18.921 48.3434
16704 1 39.4385 17.7058 56.9173
16705 2 38.9211 17.2706 56.1805
16706 2 39.0398 17.4532 57.7989
16707 1 40.9339 19.3936 42.6623
16708 2 40.2059 18.7158 42.765
16709 2 40.5972 20.1653 42.1227
16710 1 54.932 25.4992 60.9875
16711 2 55.5263 26.2681 61.223
16712 2 55.4918 24.7151 60.7194
16713 1 51.6005 16.0396 67.9692
16714 2 50.8439 15.5447 67.5417
16715 2 51.6348 15.8187 68.9439
16716 1 30.8215 1.14856 71.4353
16717 2 31.2002 2.0444 71.6677
16718 2 31.1467 0.468492 72.0924
16719 1 31.5916 21.0592 47.2795
16720 2 31.8297 20.2797 46.7002
16721 2 32.4183 21.4161 47.7145
16722 1 11.6134 22.831 51.6053
16723 2 12.3989 22.3493 51.2168
16724 2 11.4315 23.6568 51.0714
16725 1 20.0948 6.96964 86.9407
16726 2 19.6381 6.14456 87.2734
16727 2 19.4842 7.46137 86.32
16728 1 41.1636 6.32927 36.9328
16729 2 40.33 6.02718 36.4703
16730 2 41.8976 5.67263 36.7594
16731 1 76.3697 9.77157 36.6286
16732 2 75.611 10.4218 36.5893
16733 2 76.6318 9.62238 37.582
16734 1 67.7425 10.6107 31.2707
16735 2 67.1365 10.1136 31.8917
16736 2 67.8165 10.1122 30.407
16737 1 1.08799 24.0555 78.0231
16738 2 1.76369 23.815 78.7199
16739 2 0.451721 24.7314 78.3951
16740 1 68.7853 21.2547 34.7805
16741 2 69.1621 22.1123 34.4304
16742 2 68.7301 21.2974 35.778
16743 1 2.26071 17.8049 10.5086
16744 2 2.23699 18.0755 9.54621
16745 2 3.18751 17.9227 10.8652
16746 1 71.3804 28.0166 87.0293
16747 2 71.922 28.7822 86.6823
16748 2 71.3457 28.0584 88.0279
16749 1 71.4103 4.13836 13.9304
16750 2 71.2152 4.83419 13.2392
16751 2 71.5023 3.24607 13.4884
16752 1 48.0879 24.1793 65.2702
16753 2 48.3565 24.8685 65.9432
16754 2 47.7851 24.6324 64.4318
16755 1 50.7586 16.5168 88.5633
16756 2 49.8957 16.0605 88.3462
16757 2 50.5791 17.4692 88.81
16758 1 7.41475 16.0145 85.6347
16759 2 8.31303 16.4536 85.6192
16760 2 6.92758 16.222 84.7864
16761 1 79.1918 21.1099 66.6063
16762 2 78.2409 21.4093 66.686
16763 2 79.8006 21.8843 66.7789
16764 1 65.5411 22.1572 82.6806
16765 2 65.9507 21.4813 83.2933
16766 2 65.4823 23.039 83.1486
16767 1 57.7963 21.6653 74.4242
16768 2 58.6125 21.322 74.8888
16769 2 57.2471 22.1998 75.0666
16770 1 13.4986 18.226 71.6783
16771 2 13.6693 17.3375 71.2523
16772 2 14.3706 18.6729 71.8779
16773 1 16.9035 12.3663 15.0393
16774 2 16.7627 12.7271 15.9613
16775 2 17.8652 12.4681 14.7848
16776 1 15.9608 26.4588 55.6293
16777 2 16.2478 26.5033 56.5862
16778 2 15.4665 27.2946 55.3904
16779 1 50.4541 4.61203 72.1445
16780 2 51.1552 4.01794 72.5389
16781 2 50.8738 5.4681 71.8428
16782 1 66.8543 11.8731 11.8508
16783 2 66.3865 11.3829 11.1153
16784 2 66.2137 12.501 12.2928
16785 1 38.2762 1.06715 76.7802
16786 2 37.5513 1.13987 77.4652
16787 2 38.9133 0.343248 77.0447
16788 1 73.3333 25.7142 76.7012
16789 2 72.7327 24.9966 77.0539
16790 2 73.0935 25.9122 75.7508
16791 1 16.3651 15.6758 22.3905
16792 2 16.4357 16.1171 21.4959
16793 2 16.6806 14.7295 22.3212
16794 1 7.43345 19.8885 49.4304
16795 2 8.42203 19.7606 49.3505
16796 2 6.98572 19.5507 48.6025
16797 1 7.83872 0.655039 44.2795
16798 2 7.30994 0.436545 43.4593
16799 2 7.65513 29.9718 44.9863
16800 1 1.7137 2.53685 87.861
16801 2 0.876135 2.93907 88.2307
16802 2 1.47856 1.85715 87.1662
16803 1 44.2154 20.3354 86.6416
16804 2 43.7313 19.7642 85.9788
16805 2 44.1317 19.9323 87.5529
16806 1 18.5007 3.98864 32.3829
16807 2 19.1235 4.4057 33.0448
16808 2 18.7813 3.04446 32.2102
16809 1 25.4708 12.3592 57.2612
16810 2 25.8675 11.7765 57.9705
16811 2 25.297 13.2697 57.6365
16812 1 19.1118 0.434021 81.1528
16813 2 18.8577 0.387833 80.1867
16814 2 18.7175 1.2568 81.5621
16815 1 40.9279 18.8601 79.5724
16816 2 40.5714 19.7356 79.8984
16817 2 40.1747 18.3027 79.2233
16818 1 10.8407 13.8344 74.0941
16819 2 11.015 13.6345 75.0583
16820 2 11.056 13.0286 73.5424
16821 1 66.2455 3.7878 45.8665
16822 2 65.9874 4.28989 46.6919
16823 2 67.2237 3.90677 45.6962
16824 1 78.4385 6.77496 52.0207
16825 2 78.6616 6.66361 52.9891
16826 2 78.6406 5.92604 51.5324
16827 1 73.3768 14.9165 16.8914
16828 2 73.3527 14.0713 17.4254
16829 2 73.224 15.6977 17.4967
16830 1 37.7016 11.1154 66.0284
16831 2 38.5181 11.5554 65.6544
16832 2 37.0546 10.9298 65.2888
16833 1 28.4767 4.7679 25.1708
16834 2 28.4712 4.874 26.1652
16835 2 28.2945 3.81296 24.9365
16836 1 58.4553 27.7992 48.8926
16837 2 58.4057 26.8906 49.3073
16838 2 59.4013 28.1226 48.9105
16839 1 19.7498 27.9914 48.4078
16840 2 20.3052 27.3088 48.8827
16841 2 19.5255 27.6597 47.4915
16842 1 38.9373 17.6307 30.4021
16843 2 39.9285 17.5341 30.4921
16844 2 38.5155 16.7245 30.371
16845 1 72.6088 8.32768 34.7674
16846 2 71.7172 7.89279 34.641
16847 2 72.8732 8.27213 35.7302
16848 1 32.1765 16.1479 30.029
16849 2 31.2518 16.5049 30.1611
16850 2 32.781 16.5194 30.7337
16851 1 62.1825 25.2322 18.5163
16852 2 63.153 24.9942 18.4765
16853 2 61.952 25.5379 19.4401
16854 1 39.0714 14.5354 75.6104
16855 2 39.6227 13.7018 75.6453
16856 2 39.6196 15.311 75.9234
16857 1 68.6614 14.1453 63.5092
16858 2 68.5712 13.259 63.055
16859 2 68.2437 14.8548 62.9416
16860 1 32.9439 28.3441 71.3725
16861 2 33.0059 28.1552 72.3525
16862 2 33.0309 27.4886 70.862
16863 1 61.3265 13.2306 38.4462
16864 2 60.7737 13.4639 39.2462
16865 2 62.0027 12.5384 38.6987
16866 1 22.487 3.9967 61.6985
16867 2 22.942 3.90156 62.5839
16868 2 22.6516 3.17728 61.1495
16869 1 5.53315 18.8514 82.585
16870 2 5.90434 17.9232 82.6121
16871 2 6.103 19.4547 83.1429
16872 1 64.2576 16.8713 44.5524
16873 2 63.9169 16.4798 45.4072
16874 2 63.5268 16.8682 43.8698
16875 1 41.4726 13.051 64.1287
16876 2 40.9254 13.8773 63.9951
16877 2 42.3374 13.1405 63.6347
16878 1 63.2682 26.4612 56.866
16879 2 62.436 25.9147 56.9588
16880 2 63.719 26.2378 56.0017
16881 1 77.6297 12.9119 10.7644
16882 2 78.2735 12.961 10.0007
16883 2 76.9753 13.665 10.6976
16884 1 22.2189 1.2619 24.7415
16885 2 21.6482 0.483355 24.4804
16886 2 23.1559 0.950225 24.8994
16887 1 63.0562 7.18357 29.8978
16888 2 63.9556 7.10214 29.4685
16889 2 63.1676 7.315 30.8829
16890 1 5.02479 22.4301 49.0063
16891 2 5.78927 22.8557 49.4905
16892 2 5.25876 21.4847 48.7795
16893 1 31.6447 14.1774 67.1902
16894 2 31.815 13.2637 67.5592
16895 2 32.4035 14.4436 66.5958
16896 1 61.4314 26.6983 16.2615
16897 2 62.0016 25.946 16.5914
16898 2 60.7819 26.3523 15.5845
16899 1 38.0875 16.72 54.879
16900 2 37.4713 17.5066 54.918
16901 2 37.5738 15.9075 54.6035
16902 1 1.22137 12.7162 19.268
16903 2 0.850244 13.6127 19.51
16904 2 0.726643 12.3527 18.4786
16905 1 41.3531 17.7326 65.3028
16906 2 41.0998 18.412 64.6141
16907 2 40.6473 17.0258 65.3492
16908 1 1.72379 22.954 59.1813
16909 2 1.21414 22.2434 59.6663
16910 2 1.11133 23.7141 58.9642
16911 1 19.2933 28.9753 90.1385
16912 2 19.8306 28.4209 90.7741
16913 2 19.8078 29.1032 89.2907
16914 1 54.0107 6.55923 90.0305
16915 2 53.6957 6.72854 90.9644
16916 2 54.8521 7.07343 89.8641
16917 1 35.8752 23.3806 73.8366
16918 2 36.7333 23.5152 74.3321
16919 2 35.744 22.4058 73.6558
16920 1 35.3488 10.9797 29.3378
16921 2 35.8777 11.6123 28.772
16922 2 35.9676 10.4691 29.9347
16923 1 22.9681 28.361 60.2653
16924 2 22.1577 28.2123 60.832
16925 2 22.7186 28.2836 59.3
16926 1 20.2344 25.4294 56.1831
16927 2 19.5148 25.4975 56.8741
16928 2 21.1027 25.2079 56.6269
16929 1 77.8286 1.8409 80.395
16930 2 77.7946 0.876473 80.1329
16931 2 76.9324 2.12559 80.7353
16932 1 4.64178 13.7825 17.9328
16933 2 4.87738 12.8135 17.8594
16934 2 4.23782 13.9603 18.8301
16935 1 26.6738 12.2862 43.958
16936 2 26.1253 11.7957 43.2808
16937 2 26.5588 13.2713 43.8298
16938 1 46.5363 24.9334 56.0639
16939 2 46.7253 24.1148 55.5214
16940 2 45.8035 25.4583 55.6309
16941 1 63.2239 0.481408 90.7197
16942 2 63.8917 29.8856 90.2736
16943 2 62.9611 0.0870801 91.6003
16944 1 66.4385 8.77039 18.1043
16945 2 65.9417 8.67809 18.9673
16946 2 65.997 8.20947 17.404
16947 1 38.2329 3.91957 45.5113
16948 2 37.4751 4.56364 45.616
16949 2 39.1005 4.40681 45.6101
16950 1 59.8721 25.8052 64.5056
16951 2 60.8307 25.6283 64.2824
16952 2 59.6866 26.7846 64.4257
16953 1 55.0878 10.9991 28.8938
16954 2 54.9395 11.5516 29.714
16955 2 54.2808 10.4342 28.7219
16956 1 4.61922 12.8595 58.3766
16957 2 4.24756 12.0064 58.0105
16958 2 5.49701 12.6776 58.8198
16959 1 49.1298 3.88701 60.6478
16960 2 48.1927 3.57757 60.8093
16961 2 49.3963 3.66724 59.7093
16962 1 77.686 25.8502 75.9208
16963 2 76.9539 26.5285 75.8571
16964 2 77.6789 25.4367 76.8312
16965 1 49.2463 28.9477 52.4097
16966 2 48.3126 28.6593 52.1975
16967 2 49.2201 29.7373 53.0227
16968 1 67.6011 17.2734 84.9694
16969 2 67.361 16.3035 84.929
16970 2 68.3005 17.4725 84.283
16971 1 52.3184 29.4204 49.3429
16972 2 51.3746 29.2647 49.0516
16973 2 52.6834 28.5839 49.7518
16974 1 66.6021 15.5513 80.1003
16975 2 66.0448 14.7307 80.2269
16976 2 67.3048 15.5898 80.8108
16977 1 10.3157 13.7344 56.3219
16978 2 9.47754 14.1781 56.0046
16979 2 11.0843 14.3669 56.2264
16980 1 29.3575 11.8588 30.7589
16981 2 29.4617 10.8819 30.9459
16982 2 30.195 12.2091 30.3395
16983 1 65.8428 18.6243 12.7806
16984 2 66.2285 18.0425 12.0646
16985 2 64.8487 18.6629 12.6793
16986 1 3.98472 2.26148 43.4158
16987 2 3.08064 2.07098 43.7983
16988 2 4.54817 1.43682 43.4654
16989 1 26.7133 2.17538 64.6812
16990 2 26.3357 2.81726 64.0138
16991 2 25.9791 1.83479 65.2685
16992 1 30.0035 6.94969 79.6143
16993 2 30.221 6.96323 80.5902
16994 2 29.9574 7.88743 79.27
16995 1 18.71 0.917955 52.3318
16996 2 18.4443 1.86708 52.5008
16997 2 19.462 0.66864 52.942
16998 1 20.9 1.15423 83.5245
16999 2 20.7624 1.26432 84.5088
17000 2 20.489 0.29335 83.2246
17001 1 16.5523 9.68341 65.0779
17002 2 16.9857 9.24909 64.2882
17003 2 15.8808 10.354 64.7626
17004 1 34.6369 10.0336 33.3289
17005 2 35.0952 10.3688 34.152
17006 2 35.2212 9.36327 32.8715
17007 1 70.3473 28.8523 45.4324
17008 2 70.3994 29.1741 46.3778
17009 2 69.4228 28.5212 45.2435
17010 1 56.6227 18.7559 35.0014
17011 2 56.5336 19.4359 35.7292
17012 2 55.7195 18.3938 34.7712
17013 1 52.9808 12.612 39.6831
17014 2 52.0711 12.1967 39.6796
17015 2 53.0447 13.2683 40.4349
17016 1 77.5922 26.9282 49.0042
17017 2 77.3388 27.7517 49.5119
17018 2 76.7698 26.5037 48.6257
17019 1 34.6319 8.77779 75.6992
17020 2 34.663 9.13289 76.6335
17021 2 34.2156 7.86857 75.7019
17022 1 67.4541 29.5467 87.2381
17023 2 68.1446 29.5825 87.9605
17024 2 66.5426 29.6064 87.645
17025 1 57.1773 1.54003 84.0715
17026 2 57.1028 0.552938 83.9297
17027 2 56.5049 2.01053 83.5001
17028 1 38.3929 4.87658 54.952
17029 2 38.7053 4.13662 55.5476
17030 2 37.7224 4.52009 54.3013
17031 1 67.5081 8.51454 43.7177
17032 2 66.785 7.94358 44.1065
17033 2 67.221 9.47233 43.733
17034 1 6.07597 27.9251 45.9537
17035 2 5.40925 28.6418 46.1583
17036 2 5.88535 27.5406 45.0504
17037 1 68.6915 25.0234 57.6242
17038 2 68.7459 24.0275 57.5517
17039 2 68.2233 25.2708 58.4725
17040 1 69.1033 25.6269 75.704
17041 2 68.7743 24.8157 75.2206
17042 2 69.2219 25.412 76.6734
17043 1 17.9702 18.4164 36.6477
17044 2 18.0393 18.8403 37.5508
17045 2 18.6835 17.7224 36.5498
17046 1 5.6635 15.3112 64.9268
17047 2 5.40193 14.3463 64.9511
17048 2 5.98837 15.5455 64.0105
17049 1 62.7979 0.960246 38.6892
17050 2 62.919 1.03858 39.6788
17051 2 61.8681 0.65021 38.4907
17052 1 32.2745 8.43678 87.6327
17053 2 31.4389 8.14133 88.0958
17054 2 33.0308 8.45124 88.2868
17055 1 72.2104 25.9344 62.2192
17056 2 72.76 25.321 61.652
17057 2 72.2314 26.8557 61.8309
17058 1 23.8208 4.47213 25.9434
17059 2 24.0858 3.66671 25.4132
17060 2 23.5702 4.19329 26.8705
17061 1 17.2364 27.2655 42.7552
17062 2 17.7182 26.3905 42.7081
17063 2 17.9015 28.0088 42.8261
17064 1 12.7198 22.862 10.7186
17065 2 13.2183 23.3796 11.414
17066 2 12.7328 21.89 10.9534
17067 1 9.70412 10.8603 40.3239
17068 2 9.54705 10.4341 41.2148
17069 2 9.11095 10.4337 39.6411
17070 1 29.3752 26.2543 86.995
17071 2 29.0715 25.3746 86.6292
17072 2 29.1632 26.3005 87.9712
17073 1 10.4187 22.8817 13.2931
17074 2 10.7238 23.5429 12.6078
17075 2 11.1161 22.1742 13.4074
17076 1 52.8569 14.3364 69.4215
17077 2 51.9531 13.9206 69.5233
17078 2 53.5612 13.6378 69.5475
17079 1 65.7686 21.2879 35.6696
17080 2 64.884 20.8795 35.8948
17081 2 66.4548 20.9818 36.3294
17082 1 57.7485 19.3577 78.1103
17083 2 58.4919 19.4877 77.4542
17084 2 56.8893 19.6731 77.7073
17085 1 72.162 7.05802 63.7544
17086 2 72.7628 6.27444 63.596
17087 2 71.62 7.23397 62.9326
17088 1 79.5622 17.8621 54.4519
17089 2 78.8588 18.5118 54.7401
17090 2 79.3928 16.9751 54.8816
17091 1 20.9208 24.7908 26.5325
17092 2 21.4936 24.0974 26.9697
17093 2 20.8478 25.5886 27.1309
17094 1 22.3565 26.9097 23.5172
17095 2 21.3787 27.1003 23.4304
17096 2 22.5782 26.7348 24.4765
17097 1 79.1568 3.67964 52.0051
17098 2 79.437 3.29887 52.8863
17099 2 79.583 3.15803 51.266
17100 1 64.2089 18.2979 25.4636
17101 2 64.1216 19.2833 25.3175
17102 2 63.7013 17.8095 24.7537
17103 1 51.781 12.0614 28.2189
17104 2 50.9469 12.5987 28.0945
17105 2 51.5419 11.1423 28.5321
17106 1 55.7372 15.2046 33.6236
17107 2 55.2284 16.0027 33.9463
17108 2 56.7116 15.334 33.8074
17109 1 72.6029 21.1798 69.9288
17110 2 72.5345 22.1239 70.2513
17111 2 72.3695 20.5553 70.6741
17112 1 2.24653 12.004 47.0941
17113 2 3.06559 12.4643 47.4365
17114 2 1.45017 12.3079 47.617
17115 1 69.9983 19.9479 11.278
17116 2 69.3932 19.2148 11.5886
17117 2 70.5106 19.64 10.4763
17118 1 17.0207 25.0756 86.8096
17119 2 16.9819 24.2864 86.1967
17120 2 16.0977 25.3012 87.1214
17121 1 51.4264 5.32183 25.3028
17122 2 50.9024 5.34011 26.1543
17123 2 52.0327 6.11627 25.2673
17124 1 62.8451 9.02345 37.867
17125 2 63.3106 8.23362 38.2663
17126 2 63.1291 9.85456 38.3451
17127 1 58.6579 23.4626 76.5117
17128 2 59.1277 22.7124 76.0463
17129 2 58.9564 23.5023 77.4653
17130 1 72.9969 4.49405 81.8479
17131 2 72.6076 3.89517 82.5477
17132 2 73.8893 4.14136 81.5662
17133 1 1.55401 24.2849 39.7595
17134 2 1.73031 24.9526 39.0362
17135 2 1.52054 24.7518 40.6432
17136 1 15.0858 8.33698 86.8153
17137 2 14.3815 8.31973 86.1056
17138 2 15.7837 9.01206 86.5761
17139 1 50.091 13.4149 44.3149
17140 2 49.7497 14.2239 44.7935
17141 2 50.2259 12.6719 44.9704
17142 1 61.2458 16.9295 55.6429
17143 2 62.1905 17.0778 55.9355
17144 2 61.2375 16.3688 54.8148
17145 1 65.6115 13.5132 55.5215
17146 2 64.8308 13.6025 56.1399
17147 2 65.5116 12.6807 54.9765
17148 1 49.802 22.4593 32.397
17149 2 49.8097 23.4355 32.6138
17150 2 49.0912 22.2742 31.7184
17151 1 70.4849 27.3031 29.5202
17152 2 69.5129 27.0691 29.5431
17153 2 70.6206 28.1069 28.941
17154 1 52.3685 29.5741 41.3756
17155 2 51.3926 29.3742 41.4633
17156 2 52.5808 0.419815 41.8652
17157 1 69.1493 2.12065 58.0158
17158 2 68.8163 1.28209 58.4469
17159 2 70.144 2.07515 57.9226
17160 1 19.8641 25.889 22.2458
17161 2 19.1872 25.8509 21.5108
17162 2 19.4056 26.0922 23.111
17163 1 59.6077 12.7865 62.6539
17164 2 58.8442 12.1525 62.7764
17165 2 59.8094 13.2372 63.5235
17166 1 43.9007 26.0781 68.4262
17167 2 44.8251 26.4178 68.253
17168 2 43.8629 25.6633 69.3354
17169 1 41.21 4.07234 75.792
17170 2 41.8059 3.80012 76.5476
17171 2 40.3582 4.44726 76.1578
17172 1 42.5267 15.2151 35.7757
17173 2 42.103 15.5932 36.5989
17174 2 43.3437 14.6972 36.0291
17175 1 35.5039 9.45782 82.816
17176 2 36.1317 10.2354 82.8512
17177 2 35.1513 9.27235 83.7332
17178 1 42.5196 12.7145 37.8685
17179 2 42.7369 11.8539 38.3291
17180 2 41.7987 13.1897 38.3729
17181 1 51.7628 11.324 37.0669
17182 2 52.5303 11.5285 37.6746
17183 2 52.0511 10.6588 36.3782
17184 1 2.83178 10.5945 19.108
17185 2 3.55492 10.6627 18.4207
17186 2 2.31492 11.4502 19.1341
17187 1 15.7335 17.5517 39.0779
17188 2 15.383 17.5533 40.0144
17189 2 15.9595 18.4868 38.805
17190 1 1.80474 11.3065 62.2654
17191 2 2.48058 10.5871 62.1052
17192 2 1.63105 11.388 63.2468
17193 1 70.6157 7.38901 27.1068
17194 2 69.7853 7.94178 27.0374
17195 2 70.382 6.47726 27.4446
17196 1 74.2305 12.2793 45.3907
17197 2 74.8849 11.9613 44.7047
17198 2 74.7111 12.4706 46.2465
17199 1 41.4395 20.7789 38.5525
17200 2 42.1588 20.2675 39.0227
17201 2 41.2507 21.6243 39.0521
17202 1 40.8327 15.6405 50.8416
17203 2 40.0089 15.2262 50.4546
17204 2 41.2746 16.2121 50.1504
17205 1 26.3959 13.6569 84.6921
17206 2 26.7626 12.7304 84.7768
17207 2 26.6077 14.1761 85.5202
17208 1 17.4868 3.17812 12.7283
17209 2 17.1263 4.09409 12.5522
17210 2 18.4366 3.24677 13.0336
17211 1 1.40395 13.8513 90.6659
17212 2 0.609569 14.1893 91.1706
17213 2 1.64692 14.5055 89.9497
17214 1 42.5877 16.5141 79.2142
17215 2 43.502 16.5936 79.6115
17216 2 42.0046 15.9777 79.8244
17217 1 9.92646 6.50409 69.2046
17218 2 9.66114 6.11095 68.3242
17219 2 10.368 5.80223 69.7635
17220 1 40.7257 22.8715 62.1324
17221 2 40.2365 23.6289 61.6999
17222 2 41.6849 23.1238 62.2598
17223 1 72.2775 18.9833 88.4772
17224 2 72.1952 18.4796 87.6172
17225 2 71.5307 18.7224 89.0889
17226 1 31.9864 20.1194 53.5875
17227 2 31.3164 19.5386 53.1252
17228 2 32.6097 19.5487 54.1221
17229 1 28.5241 10.2742 70.3266
17230 2 29.1181 10.2403 69.5228
17231 2 27.5985 10.5288 70.0465
17232 1 19.8903 16.1915 24.1366
17233 2 20.7091 16.6341 23.771
17234 2 20.0739 15.2194 24.2825
17235 1 31.5169 10.3676 71.58
17236 2 31.2773 11.0456 70.885
17237 2 30.7071 10.1472 72.1237
17238 1 18.8319 6.21884 10.9588
17239 2 19.2085 5.37255 11.3355
17240 2 19.4938 6.62761 10.3305
17241 1 49.5163 4.28921 40.1203
17242 2 49.4262 3.29351 40.1417
17243 2 49.0376 4.68416 40.9044
17244 1 69.5987 16.0861 30.3995
17245 2 70.5566 16.3718 30.4282
17246 2 69.2376 16.2227 29.477
17247 1 2.58779 29.9274 27.0072
17248 2 2.35307 29.3084 27.7567
17249 2 3.31989 0.542568 27.2999
17250 1 3.37398 21.2577 62.4322
17251 2 4.03752 20.7252 61.9066
17252 2 3.71655 21.393 63.3619
17253 1 33.9475 12.0859 64.8384
17254 2 33.1387 11.8906 64.2838
17255 2 34.1836 13.0539 64.7543
17256 1 5.94985 9.35219 14.6781
17257 2 5.25896 8.82786 15.1759
17258 2 6.61161 9.7304 15.3255
17259 1 34.0205 21.7844 71.1541
17260 2 34.8229 22.2449 71.5336
17261 2 33.2321 21.9448 71.748
17262 1 4.72546 17.8675 63.4797
17263 2 3.91226 17.5791 63.9852
17264 2 5.15867 18.6337 63.9543
17265 1 40.144 26.7289 63.5105
17266 2 40.5272 25.9652 62.991
17267 2 39.1838 26.5421 63.7183
17268 1 17.769 22.6934 18.2638
17269 2 17.7114 23.5108 17.6905
17270 2 16.8643 22.4809 18.633
17271 1 66.1167 5.17931 11.6437
17272 2 65.3428 5.63436 11.2033
17273 2 66.2154 4.25581 11.2729
17274 1 39.6663 19.6477 54.0885
17275 2 38.96 19.0727 54.5014
17276 2 39.5954 19.599 53.0922
17277 1 56.6533 19.5794 72.8028
17278 2 56.934 20.2205 73.5171
17279 2 57.2338 18.7659 72.8382
17280 1 18.5092 26.3236 24.513
17281 2 18.8712 27.2553 24.4828
17282 2 18.2643 26.0916 25.4543
17283 1 38.8596 24.9446 77.644
17284 2 39.6955 24.8218 77.1091
17285 2 38.0837 24.5622 77.1423
17286 1 43.3479 24.2491 66.7727
17287 2 43.7315 23.6048 67.4343
17288 2 43.0779 25.089 67.2434
17289 1 72.9977 20.5711 63.0215
17290 2 73.322 21.203 63.7255
17291 2 72.8817 21.0639 62.1592
17292 1 20.5244 15.9402 27.2477
17293 2 20.626 15.8033 26.2623
17294 2 21.3403 16.3929 27.6072
17295 1 62.5062 0.413322 14.942
17296 2 61.8631 1.17866 14.9669
17297 2 62.8166 0.208422 15.8703
17298 1 39.2364 21.0955 67.8417
17299 2 39.9683 21.6507 67.4466
17300 2 38.3572 21.5477 67.692
17301 1 66.7283 29.3659 15.0282
17302 2 66.4736 29.1505 14.0855
17303 2 67.7132 29.2381 15.1449
17304 1 17.4561 6.5582 55.0844
17305 2 17.004 7.3402 55.5135
17306 2 18.4336 6.58219 55.2939
17307 1 26.4511 27.9108 44.3439
17308 2 26.6964 27.3512 43.5524
17309 2 26.4901 28.8781 44.0932
17310 1 57.9113 26.7976 26.2686
17311 2 58.63 27.2183 25.7152
17312 2 57.0164 27.0501 25.9007
17313 1 9.4043 29.0939 53.3645
17314 2 9.00822 0.00669102 53.4645
17315 2 9.49173 28.668 54.2651
17316 1 18.5793 1.86724 66.6855
17317 2 18.8918 2.50643 65.9828
17318 2 19.3151 1.71046 67.3444
17319 1 3.10321 2.47728 52.0254
17320 2 3.03951 2.96039 51.1522
17321 2 2.397 1.77054 52.0676
17322 1 38.389 15.243 79.3206
17323 2 38.5398 16.2308 79.3587
17324 2 38.511 14.9233 78.3809
17325 1 57.3396 18.4023 56.4306
17326 2 57.7837 17.5065 56.447
17327 2 57.1995 18.722 57.3678
17328 1 12.2462 12.4519 48.6757
17329 2 12.2118 11.9659 47.8023
17330 2 11.9114 13.3859 48.5508
17331 1 55.4043 28.4198 27.891
17332 2 54.6322 28.0388 27.3825
17333 2 55.0663 28.8964 28.7026
17334 1 40.2779 18.4941 86.7782
17335 2 40.2481 19.4412 86.4585
17336 2 40.1889 17.8758 85.9974
17337 1 45.7011 12.0278 90.7516
17338 2 46.6234 12.2427 90.4303
17339 2 45.3661 11.2114 90.2812
17340 1 65.734 8.3777 40.3864
17341 2 66.1349 7.91855 39.5936
17342 2 65.9549 9.35246 40.354
17343 1 22.4565 23.8379 78.7151
17344 2 23.1913 23.3777 79.2134
17345 2 21.774 24.1748 79.3637
17346 1 49.9064 13.0274 74.3595
17347 2 50.0678 13.2577 75.3191
17348 2 50.3739 13.6901 73.7745
17349 1 79.1824 22.8963 89.1732
17350 2 79.66 23.3259 88.4068
17351 2 78.1985 22.8958 88.9947
17352 1 75.7821 2.9556 37.9734
17353 2 75.5085 1.99558 37.9142
17354 2 75.4536 3.34333 38.8346
17355 1 65.3462 2.85215 54.2784
17356 2 65.85 3.67959 54.5264
17357 2 65.7307 2.46664 53.4396
17358 1 19.9801 7.80399 68.2488
17359 2 20.2495 6.90254 67.91
17360 2 19.2037 7.70762 68.8715
17361 1 13.4892 8.45995 57.7849
17362 2 12.9062 9.03446 58.3594
17363 2 13.2293 8.57477 56.8262
17364 1 70.6894 14.0433 73.9583
17365 2 69.704 14.1568 73.8314
17366 2 70.8575 13.4237 74.725
17367 1 74.5938 6.71135 77.4127
17368 2 75.2749 7.08568 78.0419
17369 2 74.9924 5.94663 76.9065
17370 1 52.5621 2.79264 77.0362
17371 2 53.5347 2.56372 77.0759
17372 2 52.133 2.57775 77.9135
17373 1 64.091 6.081 35.4275
17374 2 63.6282 5.52962 36.1216
17375 2 65.0559 6.18121 35.6703
17376 1 16.5207 1.84973 58.8884
17377 2 16.4056 2.5956 58.2323
17378 2 16.3051 2.17837 59.8079
17379 1 19.5607 12.5381 84.2222
17380 2 20.4883 12.8331 83.9929
17381 2 19.416 12.6289 85.2075
17382 1 18.8427 9.50486 27.9383
17383 2 19.2316 8.5897 28.0444
17384 2 18.0884 9.47256 27.2826
17385 1 13.1169 1.77895 29.5325
17386 2 12.3759 1.10814 29.5006
17387 2 13.9816 1.3119 29.7173
17388 1 5.42481 28.5336 51.6248
17389 2 4.56574 28.0304 51.5308
17390 2 5.27446 29.4954 51.3961
17391 1 29.9399 18.3282 28.5225
17392 2 29.2862 17.6007 28.7308
17393 2 30.1825 18.2908 27.5531
17394 1 66.5082 16.288 89.0734
17395 2 67.1518 16.2481 88.3091
17396 2 66.5017 15.4089 89.55
17397 1 15.7597 4.03989 51.8274
17398 2 15.8854 3.42867 52.6088
17399 2 15.2414 3.56734 51.1146
17400 1 45.5697 3.72598 42.319
17401 2 45.4541 2.7328 42.3346
17402 2 46.298 3.98682 42.9526
17403 1 75.8449 6.54101 54.034
17404 2 75.3718 6.95549 54.8115
17405 2 76.6394 6.02964 54.3614
17406 1 51.5854 2.65397 53.0154
17407 2 51.9909 1.96479 53.6159
17408 2 50.5894 2.62523 53.0998
17409 1 52.728 1.08491 67.1094
17410 2 52.437 1.39993 68.0128
17411 2 53.7264 1.10072 67.0565
17412 1 0.548983 11.1264 75.0489
17413 2 0.297384 10.2789 74.5815
17414 2 0.597562 10.962 76.0341
17415 1 68.2088 0.707533 29.7433
17416 2 67.8159 1.46625 29.2237
17417 2 69.1344 0.521781 29.4137
17418 1 67.1174 20.03 32.968
17419 2 67.489 20.5546 33.734
17420 2 67.176 19.0531 33.1735
17421 1 28.8535 29.3288 73.3669
17422 2 28.1653 28.9129 73.9614
17423 2 28.6326 0.293763 73.2256
17424 1 32.3636 24.1907 80.6204
17425 2 32.7757 24.7073 79.8699
17426 2 33.0849 23.7742 81.1738
17427 1 22.3394 9.96784 47.8205
17428 2 22.9922 9.27556 48.128
17429 2 22.6789 10.3978 46.9839
17430 1 47.4258 19.6351 62.838
17431 2 47.3444 20.5703 62.4932
17432 2 46.6612 19.0871 62.4987
17433 1 34.523 1.48245 48.7843
17434 2 34.5658 2.0313 49.6191
17435 2 33.9179 1.92695 48.1238
17436 1 58.401 1.29981 36.5998
17437 2 58.8231 2.20444 36.6585
17438 2 58.0849 1.01996 37.5063
17439 1 75.0269 13.7837 21.3711
17440 2 75.9581 13.8609 21.0149
17441 2 74.4804 14.5553 21.0455
17442 1 7.01003 10.3868 19.356
17443 2 7.92037 10.6552 19.0411
17444 2 6.31869 10.7733 18.7456
17445 1 27.3397 1.52059 90.6936
17446 2 26.7561 2.15359 91.2023
17447 2 27.9992 2.03926 90.1496
17448 1 13.3524 7.0113 31.4469
17449 2 14.082 7.24691 30.805
17450 2 13.7221 6.98174 32.3756
17451 1 32.9848 23.2296 42.299
17452 2 33.9613 23.4197 42.4002
17453 2 32.7645 22.3663 42.7532
17454 1 77.3606 2.89177 16.8956
17455 2 76.4331 3.22409 17.0666
17456 2 77.853 3.55376 16.3305
17457 1 23.2757 18.6004 31.7931
17458 2 23.5222 17.6324 31.7447
17459 2 23.4847 18.9524 32.7054
17460 1 4.03132 4.55969 38.3566
17461 2 3.60501 5.27619 38.9088
17462 2 3.43482 4.33288 37.5867
17463 1 65.9508 18.3094 58.8481
17464 2 65.9413 19.1436 58.2967
17465 2 65.3504 17.6272 58.4307
17466 1 17.2855 4.61981 26.8197
17467 2 17.713 5.24511 26.1668
17468 2 17.0828 5.11027 27.6673
17469 1 72.0573 0.0888877 25.7208
17470 2 72.2003 29.494 26.5118
17471 2 71.7472 0.98747 26.0313
17472 1 74.3581 27.7297 37.9218
17473 2 74.4069 28.6701 37.5852
17474 2 73.4187 27.5215 38.1942
17475 1 1.44669 3.02696 14.8737
17476 2 2.33105 2.91921 15.3279
17477 2 0.791019 3.43007 15.5121
17478 1 56.5222 25.7019 79.3086
17479 2 56.0629 24.9542 78.8291
17480 2 56.6284 25.4633 80.274
17481 1 49.3927 21.8485 86.5859
17482 2 48.4742 21.6838 86.2263
17483 2 49.3288 22.3661 87.4392
17484 1 65.7287 5.7274 32.3982
17485 2 65.8423 5.86321 31.414
17486 2 64.7563 5.75952 32.6291
17487 1 78.8603 11.7671 60.6622
17488 2 78.5233 11.6394 59.7294
17489 2 79.7868 11.3979 60.7353
17490 1 47.9196 1.21814 73.6269
17491 2 48.9028 1.37059 73.7278
17492 2 47.5738 1.76573 72.865
17493 1 40.1107 14.304 43.5967
17494 2 40.1802 14.8673 42.7734
17495 2 39.3473 14.6254 44.157
17496 1 3.2096 4.37176 48.1475
17497 2 3.61068 5.11742 48.6796
17498 2 2.29167 4.63213 47.8481
17499 1 4.47821 5.85092 62.736
17500 2 3.93548 5.29171 62.1094
17501 2 5.06294 5.25845 63.2902
17502 1 66.7859 7.03711 69.2171
17503 2 66.4414 6.15792 68.888
17504 2 67.7294 7.16146 68.9099
17505 1 75.9999 17.2675 54.7864
17506 2 76.6064 16.532 55.0885
17507 2 76.4349 18.1509 54.9606
17508 1 73.7524 10.6634 84.6667
17509 2 74.2264 11.1111 83.9085
17510 2 73.0062 11.2481 84.985
17511 1 54.6191 14.4972 76.1194
17512 2 53.6481 14.3332 76.2931
17513 2 54.7569 14.6838 75.1467
17514 1 74.5145 28.3819 45.9635
17515 2 74.5448 29.3811 45.9903
17516 2 74.849 28.0149 46.8315
17517 1 11.1942 22.8217 48.0883
17518 2 12.0319 23.279 48.3865
17519 2 10.5658 22.7393 48.8619
17520 1 45.9187 6.08643 78.275
17521 2 46.2799 5.15895 78.1785
17522 2 44.9329 6.04496 78.4375
17523 1 48.2587 24.4214 28.3732
17524 2 48.1489 25.4052 28.2319
17525 2 47.3584 23.9881 28.4147
17526 1 31.4666 4.80537 83.0766
17527 2 31.5631 5.72994 83.4451
17528 2 30.598 4.41428 83.3808
17529 1 12.0414 9.14375 39.4295
17530 2 13.0225 9.23541 39.2593
17531 2 11.8328 9.45905 40.3553
17532 1 73.8412 0.208044 83.3884
17533 2 74.5031 29.6532 82.8844
17534 2 73.1404 0.544395 82.7593
17535 1 71.2052 13.4691 32.9295
17536 2 72.1553 13.6861 33.1538
17537 2 70.8138 12.8997 33.6524
17538 1 65.4257 9.68078 36.5669
17539 2 65.7954 8.9405 37.1284
17540 2 64.7101 10.1595 37.0756
17541 1 51.6435 5.60093 39.5112
17542 2 51.7429 6.24487 40.2698
17543 2 50.8089 5.06456 39.6364
17544 1 66.9699 10.2671 67.9399
17545 2 67.1288 9.92982 68.8678
17546 2 67.4283 11.1481 67.8224
17547 1 63.0944 18.6218 13.0962
17548 2 62.3239 18.142 12.6765
17549 2 62.7505 19.3481 13.6914
17550 1 15.5259 21.8236 39.6264
17551 2 16.2976 21.2536 39.9087
17552 2 15.8166 22.7793 39.5809
17553 1 24.0159 22.4583 33.9231
17554 2 24.8745 21.9873 33.721
17555 2 24.1967 23.4298 34.0764
17556 1 29.2085 17.1714 46.3928
17557 2 28.7826 18.0716 46.3023
17558 2 29.9813 17.1034 45.7617
17559 1 71.1938 11.6823 80.2201
17560 2 71.5262 12.6162 80.0882
17561 2 71.9665 11.0478 80.2024
17562 1 58.9675 28.065 58.6427
17563 2 59.0956 27.8649 59.614
17564 2 57.9908 28.0641 58.4282
17565 1 39.5775 29.8159 73.6913
17566 2 39.0069 0.595489 73.4332
17567 2 39.0228 29.1454 74.184
17568 1 41.0337 18.3083 62.6263
17569 2 41.9022 18.7338 62.8806
17570 2 41.1996 17.3728 62.3144
17571 1 52.87 5.5421 83.4763
17572 2 53.3171 6.36017 83.1145
17573 2 52.5472 4.9757 82.718
17574 1 6.37762 13.4361 49.9894
17575 2 5.71413 13.5308 49.2472
17576 2 6.07212 13.9676 50.7794
17577 1 79.2799 11.391 78.7382
17578 2 79.058 11.7089 77.8164
17579 2 79.8216 10.5524 78.6801
17580 1 69.4914 27.3819 91.0458
17581 2 69.2868 26.4254 90.8379
17582 2 70.4006 27.6114 90.6986
17583 1 60.7594 15.8329 86.3752
17584 2 60.0358 15.2747 86.781
17585 2 60.851 15.6065 85.4055
17586 1 46.6794 1.80225 33.8524
17587 2 47.5787 1.40854 34.0427
17588 2 46.7899 2.65264 33.338
17589 1 18.5065 5.34342 14.7346
17590 2 18.3891 4.72834 15.5143
17591 2 19.4042 5.1904 14.3215
17592 1 63.6296 23.4572 28.5912
17593 2 63.623 22.5138 28.9229
17594 2 64.0953 23.4965 27.7072
17595 1 64.2696 8.13105 27.5316
17596 2 64.8184 7.4841 27.0021
17597 2 63.5696 8.53461 26.9424
17598 1 59.574 21.2452 61.2573
17599 2 59.8705 21.2794 60.3028
17600 2 59.842 22.0903 61.72
17601 1 45.493 5.10294 86.6432
17602 2 46.4794 5.16683 86.4915
17603 2 45.0357 4.8944 85.7786
17604 1 21.3066 25.0163 62.4311
17605 2 20.8666 24.8712 63.3173
17606 2 21.1897 25.9697 62.1531
17607 1 5.17024 17.5434 12.9369
17608 2 5.3218 18.286 12.2846
17609 2 5.13025 16.6725 12.4471
17610 1 46.7176 20.2591 39.2055
17611 2 46.2796 19.5558 39.7655
17612 2 46.4076 21.1623 39.5022
17613 1 6.62837 21.6805 79.422
17614 2 5.63456 21.7669 79.4918
17615 2 7.06364 22.3076 80.0679
17616 1 55.8516 27.7651 57.4585
17617 2 55.4385 27.5098 58.3327
17618 2 55.5826 28.699 57.2228
17619 1 57.7026 7.38371 13.5411
17620 2 58.5639 7.86448 13.7052
17621 2 57.0969 7.50731 14.3271
17622 1 59.4264 15.5226 31.4679
17623 2 59.9446 15.3884 30.6233
17624 2 58.5548 15.0364 31.4051
17625 1 8.33559 12.6968 16.8253
17626 2 9.15465 12.6765 16.2519
17627 2 8.14558 11.7767 17.1677
17628 1 32.2392 1.96645 33.0742
17629 2 31.5046 1.30348 32.9301
17630 2 33.1132 1.55777 32.8114
17631 1 10.6417 2.17869 58.3234
17632 2 10.8675 2.86511 57.6321
17633 2 10.2308 1.38197 57.8803
17634 1 68.9793 29.6779 56.2326
17635 2 68.1125 29.9574 56.6457
17636 2 68.8667 29.6004 55.242
17637 1 9.07834 22.1264 49.6365
17638 2 9.85589 21.4991 49.5916
17639 2 8.22632 21.6038 49.606
17640 1 66.8578 10.9617 45.7427
17641 2 67.6694 10.3781 45.7147
17642 2 66.1133 10.4756 46.2003
17643 1 26.0363 20.2571 90.5756
17644 2 26.6869 20.3354 91.331
17645 2 25.8315 21.1676 90.2164
17646 1 60.7609 9.41158 76.1156
17647 2 60.6296 8.96289 76.9996
17648 2 61.585 9.05149 75.6782
17649 1 77.6767 19.1884 49.0667
17650 2 76.7514 19.2011 48.6877
17651 2 78.2 18.4487 48.6437
17652 1 28.665 13.8032 63.8024
17653 2 28.9212 14.7392 63.5613
17654 2 28.3183 13.3329 62.9908
17655 1 37.5451 7.3462 82.1347
17656 2 36.9277 8.10944 81.944
17657 2 37.0882 6.69006 82.7354
17658 1 19.7675 16.8819 61.1815
17659 2 20.5668 17.4683 61.0499
17660 2 19.6487 16.6942 62.1565
17661 1 12.759 21.2882 76.3132
17662 2 12.1992 21.0594 75.5167
17663 2 12.3747 22.0895 76.7716
17664 1 26.4519 6.27119 67.8881
17665 2 26.8025 5.58479 67.251
17666 2 25.5255 6.02178 68.1702
17667 1 48.0979 19.5086 70.5791
17668 2 47.7373 18.6395 70.2409
17669 2 48.5683 19.3585 71.4487
17670 1 79.6614 29.1178 27.8797
17671 2 79.3993 28.1528 27.8929
17672 2 0.0875185 29.3594 28.7516
17673 1 33.2442 7.60395 82.0426
17674 2 33.6345 6.70572 82.2446
17675 2 33.9611 8.29894 82.0976
17676 1 37.417 10.8974 38.9766
17677 2 37.2959 10.0888 39.5525
17678 2 37.7885 11.6455 39.5264
17679 1 29.9571 11.1875 26.8092
17680 2 29.006 10.8833 26.8634
17681 2 30.0537 11.8485 26.065
17682 1 38.6729 16.6019 37.4777
17683 2 39.152 16.5907 36.6001
17684 2 39.2858 16.9487 38.1877
17685 1 11.2809 1.07369 68.6911
17686 2 11.5013 0.641959 67.8164
17687 2 12.0204 0.903618 69.3424
17688 1 38.7716 23.6888 71.5942
17689 2 38.6676 24.1412 72.4799
17690 2 39.3594 24.2423 71.0041
17691 1 69.9319 21.5991 27.4535
17692 2 70.4351 21.2258 28.2329
17693 2 68.9644 21.6847 27.6916
17694 1 47.3299 4.23049 80.371
17695 2 47.5188 4.28302 79.3904
17696 2 48.1241 4.55976 80.8816
17697 1 79.0674 3.29706 72.1749
17698 2 79.9919 3.51593 72.4869
17699 2 79.0885 3.0749 71.2001
17700 1 42.8912 15.9915 61.5514
17701 2 42.4746 16.2184 60.6712
17702 2 43.6851 16.5796 61.706
17703 1 67.354 22.3149 69.6719
17704 2 66.7702 22.913 70.2209
17705 2 67.8167 22.8547 68.9687
17706 1 7.41968 24.7467 60.8486
17707 2 8.1169 25.4005 60.5546
17708 2 6.72966 25.2193 61.3969
17709 1 19.537 13.9265 60.0818
17710 2 20.4552 13.7264 60.4237
17711 2 19.1972 13.1432 59.5613
17712 1 72.14 3.17941 19.0826
17713 2 73.0091 2.71178 18.9214
17714 2 72.2195 4.13623 18.803
17715 1 53.9623 4.46618 70.9789
17716 2 53.5254 3.92138 71.6947
17717 2 54.8276 4.0392 70.7164
17718 1 39.3723 16.1641 40.8781
17719 2 38.9524 15.4584 40.3074
17720 2 38.7817 16.9708 40.8993
17721 1 66.7747 3.9987 84.4342
17722 2 66.4629 4.94852 84.4095
17723 2 67.4589 3.89118 85.1555
17724 1 56.7963 14.1461 30.2141
17725 2 56.7248 13.4215 29.5287
17726 2 56.1461 13.971 30.9534
17727 1 71.2601 10.6034 33.2211
17728 2 71.8874 9.83599 33.3533
17729 2 70.3307 10.3184 33.4556
17730 1 75.7939 26.5432 64.263
17731 2 74.8477 26.3541 64.0007
17732 2 75.8991 26.4123 65.2488
17733 1 11.5422 4.41725 42.3673
17734 2 12.102 5.18594 42.6767
17735 2 10.9243 4.13778 43.1022
17736 1 32.414 24.4479 70.7912
17737 2 32.6961 25.084 70.073
17738 2 31.604 23.9442 70.491
17739 1 0.613403 4.05008 30.596
17740 2 1.17975 3.32178 30.9818
17741 2 1.19952 4.73049 30.1561
17742 1 76.4114 25.8952 20.8378
17743 2 76.2321 26.4305 20.0124
17744 2 76.5924 24.9445 20.5858
17745 1 65.2624 19.982 17.5093
17746 2 65.662 20.471 18.2846
17747 2 64.2658 20.0564 17.5461
17748 1 8.42492 8.17745 72.0687
17749 2 7.7731 7.86718 72.7607
17750 2 9.10535 8.77339 72.4951
17751 1 38.9757 4.10501 88.6765
17752 2 38.6316 5.00775 88.4183
17753 2 38.2869 3.41219 88.4629
17754 1 27.843 7.27703 88.5211
17755 2 28.0567 6.33559 88.7819
17756 2 28.6526 7.85008 88.6484
17757 1 73.4875 19.416 27.1942
17758 2 74.2536 20.0586 27.2071
17759 2 72.7762 19.7326 27.8218
17760 1 30.9716 23.7053 89.1373
17761 2 31.752 23.4846 88.5522
17762 2 30.1772 23.1705 88.8493
17763 1 32.6327 19.8761 81.3666
17764 2 33.2337 19.4546 82.0457
17765 2 32.814 20.8586 81.3252
17766 1 63.4195 17.5253 69.35
17767 2 62.8235 17.7741 70.1135
17768 2 64.1565 18.1964 69.2701
17769 1 65.0623 17.4532 78.0017
17770 2 65.8844 16.9139 77.819
17771 2 64.5582 17.5916 77.1492
17772 1 68.9797 8.88143 70.3114
17773 2 68.0648 8.47837 70.3351
17774 2 69.3852 8.73493 69.4091
17775 1 50.3512 14.4715 28.7649
17776 2 50.0309 13.858 29.4867
17777 2 49.6538 14.5394 28.0515
17778 1 73.5151 9.61527 65.4819
17779 2 73.5116 10.171 66.3132
17780 2 74.2726 8.96356 65.5198
17781 1 24.2318 4.84019 90.0558
17782 2 23.7232 5.65398 89.7747
17783 2 23.5929 4.14494 90.385
17784 1 23.8294 10.339 65.6772
17785 2 23.2538 10.491 66.4807
17786 2 24.713 10.7878 65.8105
17787 1 57.3751 21.0036 66.9828
17788 2 57.2316 21.9433 67.2934
17789 2 57.6536 21.0089 66.0224
17790 1 68.6796 23.5783 24.4728
17791 2 69.0668 24.4997 24.438
17792 2 68.2879 23.4154 25.3784
17793 1 58.3464 29.1604 78.9194
17794 2 59.2511 28.9681 79.2997
17795 2 57.647 28.9604 79.6056
17796 1 8.53235 18.6274 32.8295
17797 2 8.72636 19.0332 31.9363
17798 2 9.27497 18.0072 33.0822
17799 1 13.3586 15.6543 84.6098
17800 2 13.7534 14.9301 84.0443
17801 2 12.7692 16.2332 84.0463
17802 1 28.4208 20.5436 72.9814
17803 2 28.4684 20.9216 72.0568
17804 2 27.5437 20.7863 73.396
17805 1 5.23206 3.54971 34.3369
17806 2 4.67935 3.70668 33.5184
17807 2 4.66185 3.66176 35.1507
17808 1 40.6808 24.0333 51.9139
17809 2 40.1996 24.2522 52.7627
17810 2 40.1054 23.4437 51.3471
17811 1 12.9059 6.17199 54.6165
17812 2 12.992 5.71596 55.5023
17813 2 13.1171 7.14393 54.7201
17814 1 13.1614 4.38188 90.4959
17815 2 12.7131 5.25494 90.3042
17816 2 14.0943 4.54922 90.8149
17817 1 38.432 26.0905 42.8477
17818 2 38.46 25.7859 43.7998
17819 2 39.3646 26.2293 42.5146
17820 1 61.7186 10.6145 43.3485
17821 2 62.5909 10.7018 42.8674
17822 2 61.8257 10.9275 44.2922
17823 1 20.3107 9.9493 86.5976
17824 2 20.8292 10.5163 87.2376
17825 2 20.9234 9.28566 86.1684
17826 1 3.56517 27.0539 30.4629
17827 2 3.26854 26.703 31.3511
17828 2 2.85996 27.6572 30.0905
17829 1 40.2567 9.76706 59.1212
17830 2 41.1763 9.98635 59.4471
17831 2 39.6507 10.5455 59.2848
17832 1 44.8977 29.3751 68.3357
17833 2 45.5166 28.5902 68.3678
17834 2 44.9063 29.769 67.4166
17835 1 66.4254 12.5424 25.6698
17836 2 66.1185 11.6528 25.3315
17837 2 66.4033 13.2083 24.9242
17838 1 56.6414 23.5832 49.4625
17839 2 55.7829 23.2617 49.8621
17840 2 56.949 24.4017 49.9477
17841 1 63.4853 28.5592 45.8658
17842 2 62.933 29.331 45.5508
17843 2 62.9779 28.047 46.5588
17844 1 53.3914 10.1969 89.7959
17845 2 53.2737 10.694 88.9362
17846 2 53.6153 9.242 89.6008
17847 1 20.2274 12.8636 36.2461
17848 2 20.9114 13.1421 36.9203
17849 2 20.1727 13.552 35.5228
17850 1 49.624 22.9819 48.7188
17851 2 48.6567 22.7856 48.8793
17852 2 49.7201 23.9084 48.3549
17853 1 24.1899 5.6998 69.677
17854 2 23.2791 6.08641 69.8224
17855 2 24.721 5.77132 70.5212
17856 1 17.5428 11.2695 17.8721
17857 2 16.8399 10.7725 17.3633
17858 2 18.4477 10.9666 17.5729
17859 1 30.3562 28.151 39.5448
17860 2 29.5685 27.7694 39.0611
17861 2 31.1983 27.8674 39.0861
17862 1 54.3915 2.97732 86.5582
17863 2 54.5227 2.39313 85.7573
17864 2 54.9774 3.78414 86.4818
17865 1 57.5617 19.5028 28.0843
17866 2 57.2602 19.4404 29.0357
17867 2 57.8082 18.5922 27.7525
17868 1 76.2321 7.34846 71.5171
17869 2 77.0299 6.99084 71.0317
17870 2 75.57 6.61241 71.6577
17871 1 1.19134 12.5316 68.9906
17872 2 1.21384 11.574 68.7033
17873 2 2.00178 12.7338 69.5404
17874 1 72.8705 1.62074 37.1505
17875 2 72.6595 2.47406 37.6273
17876 2 73.8171 1.35907 37.3386
17877 1 6.32441 18.4604 89.7197
17878 2 6.2391 17.6014 90.2246
17879 2 5.58189 19.0766 89.9824
17880 1 35.1989 16.4901 62.7523
17881 2 34.9101 16.7668 61.8358
17882 2 34.3928 16.2985 63.3122
17883 1 49.6209 27.3285 77.9519
17884 2 49.8162 26.594 77.302
17885 2 50.4335 27.9008 78.0622
17886 1 64.8475 2.55559 80.4488
17887 2 65.3494 2.58087 81.3133
17888 2 64.0057 3.08823 80.5365
17889 1 65.7656 0.532213 23.8928
17890 2 65.3428 0.471426 24.797
17891 2 65.0567 0.67617 23.2023
17892 1 73.3434 25.1369 21.8128
17893 2 73.267 25.9914 22.3265
17894 2 74.196 25.1372 21.2902
17895 1 53.9716 7.93881 82.6465
17896 2 54.8662 8.16043 82.2583
17897 2 53.3414 8.69856 82.4865
17898 1 38.3596 17.6605 75.8122
17899 2 38.225 18.4511 76.4095
17900 2 39.0865 17.0825 76.1831
17901 1 26.1914 23.6183 30.5672
17902 2 26.3719 24.1228 31.4116
17903 2 25.7063 24.2096 29.9229
17904 1 17.1987 27.2564 73.4649
17905 2 16.8455 26.808 74.2859
17906 2 17.9057 27.9149 73.7227
17907 1 77.6517 20.4707 41.9156
17908 2 78.4267 20.6328 41.3048
17909 2 77.6567 21.1513 42.6482
17910 1 56.5832 3.73668 58.3174
17911 2 56.9356 4.64093 58.0762
17912 2 57.3117 3.19669 58.739
17913 1 39.5687 7.40734 60.2257
17914 2 39.3598 8.3404 59.9328
17915 2 38.8219 6.79877 59.9576
17916 1 28.4682 19.4993 43.3716
17917 2 28.0835 19.6801 44.2767
17918 2 29.4304 19.7712 43.358
17919 1 58.0687 27.5626 55.2661
17920 2 58.2053 26.73 55.8028
17921 2 57.5324 28.2179 55.7981
17922 1 26.0361 25.4056 81.4696
17923 2 26.8169 25.7729 81.975
17924 2 25.2185 25.4459 82.0439
17925 1 73.3065 6.65204 50.7333
17926 2 74.1001 6.08822 50.5043
17927 2 72.4705 6.18029 50.4532
17928 1 16.5753 7.21838 79.7251
17929 2 15.7401 7.44683 79.2249
17930 2 17.3709 7.53006 79.2056
17931 1 24.2213 15.5712 90.4844
17932 2 23.3618 15.7274 89.9977
17933 2 24.0322 15.4198 91.4546
17934 1 2.17641 25.033 83.1057
17935 2 1.72931 24.4445 83.7794
17936 2 2.20757 24.5648 82.2226
17937 1 52.1677 1.2696 30.7519
17938 2 53.0458 0.855209 30.5127
17939 2 51.7501 1.66214 29.9324
17940 1 45.0213 13.0541 78.6556
17941 2 45.3295 14.0054 78.6614
17942 2 45.8091 12.4479 78.7646
17943 1 75.364 23.6192 50.7787
17944 2 76.2795 23.9526 51.0041
17945 2 74.7647 24.3959 50.5853
17946 1 54.2708 19.8224 79.6338
17947 2 54.5513 20.1351 78.7263
17948 2 53.3972 20.2443 79.8764
17949 1 2.0022 27.9638 78.4687
17950 2 1.89768 28.8338 78.9505
17951 2 1.82676 27.2093 79.1011
17952 1 27.166 0.0392755 27.4977
17953 2 27.357 0.160943 28.4717
17954 2 27.3094 0.905561 27.0192
17955 1 44.1739 7.30547 42.4896
17956 2 45.0292 7.08182 42.9569
17957 2 43.5277 7.69551 43.1456
17958 1 34.7487 7.06961 79.4327
17959 2 35.4193 6.37433 79.1741
17960 2 34.8208 7.25388 80.413
17961 1 11.5343 18.9958 80.3452
17962 2 12.1157 19.2052 79.559
17963 2 10.6801 19.5109 80.2746
17964 1 52.1748 2.24053 62.0817
17965 2 52.458 2.80646 62.8559
17966 2 52.9452 1.67903 61.7798
17967 1 14.2876 12.1664 90.9587
17968 2 14.0782 13.1405 91.0441
17969 2 13.4481 11.6342 91.0686
17970 1 15.3057 16.3811 76.1406
17971 2 14.3964 16.5255 75.7503
17972 2 15.2765 16.551 77.1256
17973 1 78.8818 26.1941 29.7993
17974 2 79.8213 26.0339 29.4965
17975 2 78.4954 25.3419 30.152
17976 1 25.7861 22.9366 90.2029
17977 2 25.7355 23.8424 89.7824
17978 2 24.8746 22.658 90.5053
17979 1 0.386098 13.9354 59.2164
17980 2 0.050233 13.2031 59.8088
17981 2 0.372885 14.8013 59.7165
17982 1 77.7449 12.0893 73.8555
17983 2 78.1061 12.0198 74.7854
17984 2 77.832 13.0321 73.5337
17985 1 17.1142 28.2708 11.4617
17986 2 17.8617 28.2571 12.1258
17987 2 17.3376 27.6677 10.6959
17988 1 21.3401 3.76244 83.1055
17989 2 20.5745 4.36794 83.3228
17990 2 21.0783 2.815 83.2895
17991 1 16.2976 24.0861 80.9377
17992 2 15.5932 24.6456 81.3746
17993 2 15.8988 23.5912 80.1657
17994 1 64.207 26.6672 34.8912
17995 2 63.5964 25.8841 35.01
17996 2 64.61 26.9123 35.773
17997 1 63.3236 19.4471 57.4932
17998 2 63.5709 18.4822 57.5824
17999 2 64.06 20.0152 57.8605
18000 1 43.2787 13.8538 30.5926
18001 2 43.104 13.1791 31.3097
18002 2 43.3523 14.7634 31.0015
18003 1 4.09497 24.6167 28.9143
18004 2 3.16266 24.9783 28.9221
18005 2 4.56781 24.8961 29.75
18006 1 23.6984 13.0881 43.8507
18007 2 23.8835 13.8464 44.4757
18008 2 23.3766 12.2976 44.3718
18009 1 60.2889 18.5593 23.0359
18010 2 60.2648 19.4848 23.4138
18011 2 61.2344 18.2346 23.0096
18012 1 17.6354 8.39107 15.3195
18013 2 17.3857 7.42466 15.2586
18014 2 17.9037 8.72359 14.4153
18015 1 64.4629 1.64078 33.0769
18016 2 64.6049 1.17533 33.9505
18017 2 63.8068 1.12424 32.5268
18018 1 25.2522 17.041 55.1798
18019 2 25.8203 17.4571 54.4698
18020 2 25.8227 16.8013 55.9653
18021 1 6.45769 29.9319 48.0448
18022 2 6.43463 0.214989 49.0036
18023 2 5.77349 0.447117 47.5286
18024 1 32.0376 24.544 67.2561
18025 2 32.6408 24.4303 68.0455
18026 2 31.3487 23.8192 67.2559
18027 1 47.0198 15.7713 89.795
18028 2 47.1775 15.7529 88.8077
18029 2 47.2607 14.8837 90.1876
18030 1 43.8459 23.3507 62.9843
18031 2 43.4587 24.2114 63.3149
18032 2 44.1732 23.4706 62.0471
18033 1 11.0909 3.64963 24.8162
18034 2 10.8285 4.12035 23.9739
18035 2 11.3066 4.32456 25.5219
18036 1 60.7481 28.4961 42.9594
18037 2 59.9721 28.9118 42.4851
18038 2 61.0922 29.1286 43.6534
18039 1 19.902 19.0645 27.0724
18040 2 19.0844 19.2759 26.5368
18041 2 19.6589 19.0001 28.0403
18042 1 15.9622 27.702 47.7673
18043 2 15.452 28.4565 47.3544
18044 2 15.6475 26.8355 47.3798
18045 1 29.2895 29.1172 45.9202
18046 2 29.7948 28.9054 46.7567
18047 2 28.9074 28.2752 45.5392
18048 1 16.4863 27.2538 77.9598
18049 2 17.2382 26.9879 78.5631
18050 2 16.6636 26.9133 77.0364
18051 1 16.7784 3.22407 88.7308
18052 2 17.4797 3.87127 88.4319
18053 2 16.441 3.49151 89.6333
18054 1 19.9315 29.2009 19.5464
18055 2 20.2855 29.8698 18.8928
18056 2 19.5951 28.3987 19.0533
18057 1 2.59143 1.08608 34.2045
18058 2 1.63282 0.830411 34.0792
18059 2 2.72497 1.43443 35.1323
18060 1 41.1691 7.0641 76.7743
18061 2 41.9018 7.58064 77.2174
18062 2 40.6738 6.53218 77.4611
18063 1 12.5224 25.0124 60.4574
18064 2 12.6193 24.0175 60.4821
18065 2 12.5393 25.3722 61.3903
18066 1 60.4856 3.00024 27.0231
18067 2 60.1543 2.2737 27.6251
18068 2 61.3731 2.73949 26.643
18069 1 33.7735 0.991653 29.928
18070 2 34.469 0.87304 29.2193
18071 2 34.2191 1.14169 30.8106
18072 1 3.17634 16.4382 73.391
18073 2 3.89676 16.3256 72.7067
18074 2 3.21158 17.366 73.7625
18075 1 61.5468 13.3575 48.8531
18076 2 62.0283 13.2547 47.9827
18077 2 60.5661 13.4528 48.6822
18078 1 5.28398 23.5163 18.0945
18079 2 5.13522 23.8313 19.0318
18080 2 4.73446 22.6978 17.9268
18081 1 29.369 18.2494 76.148
18082 2 30.2191 18.776 76.1396
18083 2 28.5894 18.8753 76.1715
18084 1 52.4261 16.4651 80.4283
18085 2 52.0838 15.6237 80.8465
18086 2 53.4169 16.3992 80.3095
18087 1 79.0109 17.0109 15.7989
18088 2 78.3876 16.2419 15.941
18089 2 78.5511 17.7178 15.2614
18090 1 70.0255 13.6818 82.3552
18091 2 69.5865 13.0743 83.0172
18092 2 71.0029 13.7444 82.5572
18093 1 17.1868 18.9737 69.2546
18094 2 16.9788 17.9956 69.2545
18095 2 16.709 19.416 70.0136
18096 1 24.7996 16.4086 84.4373
18097 2 25.0557 16.9807 85.2165
18098 2 25.2578 15.5226 84.5094
18099 1 48.9126 26.3029 66.8699
18100 2 49.0273 26.7196 65.9681
18101 2 48.0029 26.5199 67.2241
18102 1 1.61364 28.1724 82.713
18103 2 1.3383 28.1606 81.7517
18104 2 1.80758 27.2393 83.0157
18105 1 13.2601 12.2811 56.7148
18106 2 14.1171 12.7567 56.5166
18107 2 13.3074 11.8756 57.6277
18108 1 44.9055 23.507 31.6705
18109 2 45.0742 22.8372 30.9474
18110 2 45.4336 23.2603 32.4831
18111 1 76.0731 4.19784 69.974
18112 2 75.7041 3.28111 69.821
18113 2 75.4899 4.68813 70.6217
18114 1 60.587 14.0996 15.1825
18115 2 61.5787 14.0085 15.0916
18116 2 60.2027 13.2394 15.5176
18117 1 78.0874 3.30949 13.3029
18118 2 77.5124 2.55569 13.6211
18119 2 78.4825 3.78263 14.0903
18120 1 23.3187 22.3206 90.628
18121 2 22.8841 23.0905 90.1607
18122 2 23.2984 21.516 90.0345
18123 1 63.9809 24.2997 58.8085
18124 2 63.1638 24.6051 58.3195
18125 2 63.9959 23.3003 58.8409
18126 1 55.2505 9.95337 51.7949
18127 2 55.4136 10.8388 52.2301
18128 2 56.1188 9.57466 51.4743
18129 1 58.2305 12.3362 89.2796
18130 2 58.0819 11.4451 89.7083
18131 2 59.1819 12.4074 88.9798
18132 1 79.8341 7.38649 90.9901
18133 2 78.8822 7.08112 90.9677
18134 2 0.0514369 7.86305 90.1383
18135 1 24.0879 1.72449 69.3549
18136 2 23.4771 1.95728 70.1117
18137 2 23.6056 1.84695 68.4875
18138 1 46.8847 17.1031 53.2665
18139 2 47.8227 16.905 52.982
18140 2 46.3786 17.4938 52.4975
18141 1 0.093654 9.79788 51.5887
18142 2 79.5922 9.01471 51.221
18143 2 1.03891 9.53045 51.7757
18144 1 63.127 9.19813 58.5356
18145 2 63.9655 9.32283 59.0661
18146 2 62.7161 10.0901 58.3472
18147 1 8.20832 8.74486 38.5616
18148 2 8.96739 8.57459 37.9332
18149 2 7.40781 9.04598 38.0434
18150 1 34.9524 16.5073 52.083
18151 2 34.3583 16.888 51.3744
18152 2 35.1186 15.5395 51.8941
18153 1 24.5148 15.9658 31.6438
18154 2 25.1048 15.2857 31.2086
18155 2 24.3776 15.7224 32.604
18156 1 62.6392 13.3399 69.0523
18157 2 63.2727 12.817 68.482
18158 2 61.716 13.2709 68.6744
18159 1 32.2238 21.2444 50.7984
18160 2 31.8704 20.4495 51.2916
18161 2 31.5497 21.5447 50.1236
18162 1 77.3603 11.8232 52.1528
18163 2 77.9829 11.879 51.3723
18164 2 76.5035 12.288 51.9296
18165 1 66.0531 29.628 72.6888
18166 2 67.0342 29.7 72.5094
18167 2 65.9079 29.307 73.6246
18168 1 62.9642 2.46021 26.1146
18169 2 62.9763 1.47328 25.954
18170 2 63.7992 2.86829 25.7457
18171 1 57.6615 7.57807 79.2975
18172 2 57.4128 8.48317 79.6424
18173 2 58.3984 7.19902 79.8572
18174 1 23.7645 11.412 59.3345
18175 2 23.2936 10.8618 58.6449
18176 2 23.2097 11.4511 60.1656
18177 1 43.3362 1.24552 37.7645
18178 2 43.9849 1.0595 37.0265
18179 2 43.6644 0.825386 38.6105
18180 1 25.4429 21.528 72.5055
18181 2 25.1573 22.0865 73.2843
18182 2 25.1822 20.5758 72.6648
18183 1 77.157 15.5321 76.0611
18184 2 77.5369 16.2494 76.6452
18185 2 77.6938 14.6953 76.1688
18186 1 60.9581 7.0534 49.6498
18187 2 60.7624 6.10772 49.3902
18188 2 60.3546 7.32488 50.3996
18189 1 53.5194 9.18946 69.5258
18190 2 53.9966 9.44219 70.3674
18191 2 52.9737 8.36698 69.6861
18192 1 38.6915 8.08624 79.5368
18193 2 38.606 7.18453 79.113
18194 2 38.4953 8.01483 80.5148
18195 1 31.1114 1.27515 46.6993
18196 2 31.9745 1.76183 46.834
18197 2 31.1582 0.38291 47.1484
18198 1 31.1542 1.62416 81.7714
18199 2 31.3762 1.69165 80.7986
18200 2 31.9432 1.91211 82.314
18201 1 31.3675 20.245 60.1557
18202 2 32.0334 20.2791 60.9009
18203 2 31.3804 21.1118 59.6572
18204 1 0.149697 17.6339 76.9826
18205 2 79.2055 17.6182 77.3116
18206 2 0.339425 16.7941 76.474
18207 1 76.0263 15.3127 16.0919
18208 2 75.1481 15.2194 16.5611
18209 2 76.628 14.5596 16.3579
18210 1 35.2091 6.28618 84.623
18211 2 35.763 5.89933 85.3603
18212 2 35.2247 7.28426 84.6829
18213 1 16.4971 23.1597 57.5179
18214 2 17.4436 22.8447 57.447
18215 2 15.9736 22.5186 58.079
18216 1 47.5153 19.8724 57.4622
18217 2 48.0508 19.9953 56.6266
18218 2 47.6 20.6876 58.0352
18219 1 36.6375 11.0328 51.0329
18220 2 37.5179 11.4835 50.8855
18221 2 36.3952 10.5012 50.2213
18222 1 37.9891 14.9914 86.199
18223 2 38.7281 15.0999 85.5341
18224 2 37.1087 15.0123 85.7252
18225 1 22.9438 3.908 43.0553
18226 2 23.5393 3.90739 43.8587
18227 2 22.3468 3.10624 43.0823
18228 1 46.7586 1.68064 78.7411
18229 2 46.6386 2.07921 79.6504
18230 2 47.4135 2.22868 78.2207
18231 1 3.85734 27.8374 85.4131
18232 2 3.26086 28.1821 86.1379
18233 2 3.68248 26.8629 85.2727
18234 1 68.8292 15.8755 90.8926
18235 2 68.831 16.5268 90.1338
18236 2 68.9363 16.3691 91.7557
18237 1 75.6532 22.1301 66.1871
18238 2 75.2674 22.9889 66.5243
18239 2 75.1329 21.3618 66.56
18240 1 60.8053 3.90176 77.0177
18241 2 61.2942 3.50813 76.2392
18242 2 60.5876 3.1796 77.6743
18243 1 49.7778 24.8339 76.5106
18244 2 48.9241 25.3368 76.3758
18245 2 49.6194 24.0699 77.1361
18246 1 18.2166 19.2853 80.2987
18247 2 18.0142 18.4316 79.8188
18248 2 17.394 19.6075 80.7672
18249 1 29.5313 3.51711 50.8463
18250 2 29.5403 3.86309 51.7845
18251 2 29.0173 4.14677 50.2637
18252 1 35.792 25.363 44.3538
18253 2 35.8747 26.3064 44.0328
18254 2 34.8935 25.2309 44.7724
18255 1 19.3504 9.14452 64.4997
18256 2 19.3633 8.17833 64.2422
18257 2 19.3453 9.70936 63.6745
18258 1 16.7303 16.9126 50.0062
18259 2 16.0506 16.4094 49.4726
18260 2 17.0395 16.3468 50.7706
18261 1 33.4892 17.453 73.9662
18262 2 34.1634 16.9858 74.5381
18263 2 33.8343 17.5184 73.0299
18264 1 26.1665 10.2975 76.0091
18265 2 25.2351 10.0028 75.7953
18266 2 26.5339 9.73189 76.7474
18267 1 68.6175 21.9373 41.7009
18268 2 67.9498 22.0924 40.9728
18269 2 68.2677 21.2449 42.332
18270 1 40.1865 25.3843 54.2206
18271 2 39.5031 26.062 54.4917
18272 2 40.9353 25.3823 54.8834
18273 1 46.8151 0.685447 38.3368
18274 2 46.0713 1.13926 38.8275
18275 2 46.729 29.6949 38.4432
18276 1 42.5341 24.4056 87.5491
18277 2 42.8067 24.4662 86.5889
18278 2 41.5454 24.5356 87.6237
18279 1 41.5874 19.1666 58.291
18280 2 42.085 19.874 58.793
18281 2 41.9159 18.2649 58.572
18282 1 15.8606 11.9168 80.9802
18283 2 15.507 12.8483 81.0659
18284 2 15.0976 11.2707 80.9655
18285 1 17.3896 10.1302 62.1745
18286 2 18.1629 9.51154 62.0358
18287 2 17.004 10.3857 61.288
18288 1 36.5347 27.7741 37.4501
18289 2 35.8203 28.4467 37.257
18290 2 36.8001 27.8367 38.4123
18291 1 19.2614 7.56293 49.5655
18292 2 19.3866 8.03138 48.6909
18293 2 20.0858 7.66919 50.1215
18294 1 33.427 22.7975 56.7126
18295 2 33.9785 22.902 55.885
18296 2 33.8943 22.1842 57.3493
18297 1 75.7993 24.7694 47.1955
18298 2 76.3373 24.0366 47.6122
18299 2 76.3109 25.1666 46.4336
18300 1 68.0427 19.8911 90.254
18301 2 68.6911 19.2448 89.8517
18302 2 68.2774 20.8202 89.9683
18303 1 7.68684 4.0144 71.9193
18304 2 7.05675 3.83527 72.6748
18305 2 7.86633 4.99641 71.8606
18306 1 19.3938 28.655 12.8782
18307 2 19.7993 29.4462 12.4204
18308 2 19.7389 28.5991 13.8151
18309 1 63.3263 24.1509 35.6993
18310 2 62.4211 24.5758 35.6903
18311 2 63.228 23.1586 35.7744
18312 1 31.3086 21.085 72.5607
18313 2 31.2647 20.3644 71.8688
18314 2 30.4417 21.123 73.0578
18315 1 47.2948 7.50917 89.5742
18316 2 47.3403 6.53941 89.3344
18317 2 46.338 7.78608 89.6627
18318 1 10.586 16.5129 33.0225
18319 2 10.6147 16.4615 32.0242
18320 2 11.518 16.5708 33.3803
18321 1 14.9732 19.6848 30.6395
18322 2 15.1998 20.389 29.9666
18323 2 14.0599 19.3242 30.4499
18324 1 34.9726 29.7236 67.6222
18325 2 34.248 29.3625 67.0352
18326 2 34.7444 0.657494 67.8974
18327 1 33.2483 27.7237 38.9986
18328 2 33.78 26.8887 38.8568
18329 2 33.2308 27.9462 39.9733
18330 1 53.4912 25.6939 76.0328
18331 2 53.7071 26.3409 76.764
18332 2 52.6084 25.2627 76.2191
18333 1 23.897 24.7179 64.4805
18334 2 22.9427 24.6377 64.1925
18335 2 24.1956 25.6674 64.3838
18336 1 16.8978 1.08899 30.6986
18337 2 17.7167 1.44045 31.1524
18338 2 16.9123 1.35235 29.734
18339 1 76.8608 15.4493 41.0882
18340 2 76.0023 15.1433 41.4997
18341 2 77.3737 14.6566 40.7587
18342 1 21.3393 4.98898 70.3765
18343 2 20.9255 5.13322 69.4776
18344 2 21.6718 4.04826 70.4433
18345 1 10.975 27.7235 60.67
18346 2 11.232 27.8455 61.6287
18347 2 11.372 26.8734 60.324
18348 1 51.9284 4.41534 79.2383
18349 2 51.9001 4.38322 80.2374
18350 2 51.0312 4.16947 78.8713
18351 1 10.1361 19.811 17.3772
18352 2 10.9569 19.2397 17.3764
18353 2 9.36313 19.2834 17.7296
18354 1 5.28811 25.9978 91.8761
18355 2 5.0962 25.2393 91.2534
18356 2 6.10851 26.4808 91.5702
18357 1 6.19374 28.3198 24.9722
18358 2 5.58017 27.544 24.8248
18359 2 6.25483 28.5151 25.951
18360 1 67.3815 23.3849 53.8828
18361 2 66.7664 23.7784 54.566
18362 2 66.9517 23.4317 52.981
18363 1 15.9728 20.3974 85.331
18364 2 15.0463 20.586 85.0053
18365 2 16.5106 21.2403 85.3122
18366 1 48.409 5.46684 49.2078
18367 2 48.3313 5.78303 48.2623
18368 2 47.724 5.92891 49.7711
18369 1 12.998 24.6331 82.4857
18370 2 13.5674 25.3722 82.1257
18371 2 12.0342 24.8897 82.4138
18372 1 60.1083 23.0507 38.3051
18373 2 60.4565 22.4572 39.0307
18374 2 60.2233 24.0073 38.5731
18375 1 62.7041 6.49244 20.6058
18376 2 63.1694 5.97465 21.3238
18377 2 63.3366 7.1601 20.2132
18378 1 55.9852 6.70055 75.7187
18379 2 56.671 6.07032 75.3546
18380 2 56.4214 7.33612 76.3557
18381 1 78.0564 3.84931 58.6352
18382 2 77.4623 3.17588 58.1954
18383 2 77.6915 4.07652 59.5381
18384 1 69.589 9.09712 73.0944
18385 2 69.4335 8.71501 72.1835
18386 2 68.7494 9.02688 73.6331
18387 1 3.89053 14.029 82.1769
18388 2 3.07978 14.5691 81.951
18389 2 4.71267 14.5566 81.9631
18390 1 72.3427 21.884 15.8432
18391 2 72.7716 22.5189 15.2005
18392 2 71.3664 21.8121 15.6392
18393 1 26.4076 14.7158 68.8077
18394 2 26.0987 15.6298 68.5446
18395 2 25.9161 14.421 69.6272
18396 1 2.74879 18.6876 15.0367
18397 2 3.50981 18.5932 14.3949
18398 2 1.9667 19.0985 14.5682
18399 1 64.3289 26.5561 61.4932
18400 2 64.1192 25.9831 62.2854
18401 2 63.527 26.608 60.8978
18402 1 56.0151 13.975 82.7764
18403 2 55.4959 13.5197 82.053
18404 2 56.3408 14.8608 82.4458
18405 1 1.63181 3.96005 73.0556
18406 2 1.36923 3.44746 73.8731
18407 2 2.42594 3.52565 72.6306
18408 1 1.22918 16.345 22.003
18409 2 1.26654 16.1804 21.0173
18410 2 1.63348 15.5684 22.4862
18411 1 11.2423 16.5515 20.3739
18412 2 12.1802 16.2572 20.1902
18413 2 10.9768 17.2516 19.7111
18414 1 34.9946 12.395 83.2064
18415 2 35.5417 13.2204 83.3461
18416 2 34.6495 12.3788 82.268
18417 1 62.6332 22.0868 88.5111
18418 2 62.6597 23.0721 88.3422
18419 2 63.4542 21.8123 89.0117
18420 1 69.3886 27.3793 42.5693
18421 2 69.7814 28.1958 42.1461
18422 2 69.1254 26.7286 41.8571
18423 1 7.70125 6.35522 86.9588
18424 2 8.44977 6.37691 86.296
18425 2 8.05093 6.59481 87.8645
18426 1 58.8343 0.699756 76.1957
18427 2 59.4643 0.227767 75.579
18428 2 58.731 0.168967 77.0369
18429 1 4.26104 27.7622 33.9977
18430 2 4.80481 28.4613 33.5335
18431 2 3.39462 28.1598 34.2997
18432 1 32.9379 7.16352 59.5904
18433 2 32.8025 7.91969 60.2306
18434 2 32.0489 6.81569 59.2925
18435 1 23.935 27.5717 64.1911
18436 2 23.7222 28.4597 63.7834
18437 2 23.3114 27.3968 64.953
18438 1 75.9054 7.58508 56.9612
18439 2 74.9796 7.58561 56.5832
18440 2 76.2929 6.66579 56.8926
18441 1 58.6039 25.5195 20.6597
18442 2 59.5997 25.6011 20.7022
18443 2 58.1975 25.9842 21.4463
18444 1 21.1186 1.35223 86.2153
18445 2 21.2547 2.26096 86.6099
18446 2 20.9496 0.692727 86.9478
18447 1 29.4926 2.32731 89.3558
18448 2 30.49 2.36141 89.4195
18449 2 29.2086 2.58493 88.4323
18450 1 50.6839 10.3969 79.6564
18451 2 51.1181 9.49619 79.6722
18452 2 50.5044 10.6969 80.5933
18453 1 69.1199 19.6217 87.0915
18454 2 69.5999 20.4509 87.3779
18455 2 69.23 18.9147 87.7901
18456 1 50.4691 25.3146 52.3024
18457 2 51.2151 25.1419 51.6593
18458 2 50.5967 26.2104 52.7282
18459 1 10.3986 1.03789 82.9408
18460 2 10.3469 2.03546 82.894
18461 2 9.539 0.643946 82.6155
18462 1 44.4641 6.01109 33.6755
18463 2 44.8264 6.94288 33.6524
18464 2 44.9234 5.49274 34.3969
18465 1 78.0972 14.6011 73.3227
18466 2 78.9006 15.1862 73.4324
18467 2 77.3209 15.007 73.8051
18468 1 3.8144 4.03146 59.4388
18469 2 4.37443 4.78937 59.7733
18470 2 2.96245 4.38975 59.0569
18471 1 40.1425 7.73603 67.6952
18472 2 40.6875 6.91293 67.8545
18473 2 39.5952 7.61813 66.8666
18474 1 37.9242 7.92523 54.9002
18475 2 38.2138 7.0021 55.1531
18476 2 37.9862 8.03393 53.908
18477 1 9.44663 28.3724 80.7172
18478 2 9.74976 28.0137 79.8344
18479 2 9.98534 29.1818 80.9508
18480 1 62.8742 5.95295 76.7394
18481 2 61.8761 5.96498 76.7992
18482 2 63.1815 6.69605 76.1449
18483 1 69.1251 8.10323 57.7178
18484 2 68.8702 7.14919 57.5602
18485 2 68.8748 8.36551 58.6498
18486 1 42.8489 24.5258 33.1994
18487 2 42.9649 24.3022 34.1671
18488 2 43.5055 24.0032 32.6555
18489 1 63.2019 5.72775 83.904
18490 2 63.0519 5.19806 83.0692
18491 2 63.8969 6.42664 83.7349
18492 1 75.5851 28.8774 33.557
18493 2 74.8587 29.5226 33.3203
18494 2 76.4222 29.3813 33.77
18495 1 26.1558 24.5483 36.0324
18496 2 25.202 24.3257 36.2342
18497 2 26.4304 25.3502 36.5629
18498 1 40.2204 9.50069 64.168
18499 2 40.2251 8.59142 64.5842
18500 2 39.3898 9.61333 63.6226
18501 1 71.0711 22.8715 58.6159
18502 2 72.0463 22.6944 58.7486
18503 2 70.9356 23.8351 58.3854
18504 1 73.9428 10.91 15.5313
18505 2 74.4201 10.3254 16.1873
18506 2 73.0326 10.5364 15.3526
18507 1 68.6362 1.98222 50.7542
18508 2 67.764 2.23687 51.1718
18509 2 69.2177 1.5426 51.4387
18510 1 70.9298 19.0709 62.7329
18511 2 71.2443 18.1714 62.4295
18512 2 71.7199 19.6497 62.9346
18513 1 12.6056 28.3688 62.8939
18514 2 12.4514 27.4047 63.1099
18515 2 12.2021 28.9393 63.6092
18516 1 13.3081 0.853986 55.8847
18517 2 12.5814 1.47659 56.175
18518 2 13.3331 0.0628611 56.4958
18519 1 18.249 25.7003 57.9778
18520 2 17.7557 26.5528 58.1506
18521 2 17.6406 25.0493 57.5239
18522 1 60.8323 14.2831 84.02
18523 2 60.3106 13.5899 84.5174
18524 2 60.5815 14.2583 83.0523
18525 1 51.6267 14.0756 81.622
18526 2 50.7534 13.6826 81.91
18527 2 52.2989 13.3444 81.5055
18528 1 30.2183 5.3617 44.9216
18529 2 30.3274 6.30915 45.2223
18530 2 29.2483 5.11866 44.9308
18531 1 66.9425 6.12703 36.0178
18532 2 67.8863 5.79712 36.0333
18533 2 66.8273 6.84025 36.7092
18534 1 67.5094 28.3142 70.3201
18535 2 68.1077 27.6466 69.877
18536 2 68.0622 28.9568 70.8506
18537 1 29.5809 9.94119 52.7181
18538 2 29.478 9.72216 51.7478
18539 2 30.3731 9.45534 53.0874
18540 1 16.7359 23.1483 21.7844
18541 2 17.1619 24.0473 21.6822
18542 2 16.1281 22.9774 21.0089
18543 1 59.702 0.818487 47.6069
18544 2 59.9537 29.9557 48.0455
18545 2 58.9762 0.653605 46.9391
18546 1 34.2828 25.7321 47.5517
18547 2 34.0923 25.177 48.3614
18548 2 33.9507 25.2575 46.7365
18549 1 0.679537 2.24097 17.7803
18550 2 0.443162 1.76026 16.9358
18551 2 1.3843 1.72762 18.2699
18552 1 63.1948 3.13694 17.0655
18553 2 63.8298 2.57264 16.5379
18554 2 62.6353 2.55044 17.6511
18555 1 76.0067 21.4936 74.2374
18556 2 76.6838 21.5702 74.9693
18557 2 75.0876 21.5026 74.6313
18558 1 1.21288 13.5744 39.0273
18559 2 1.50363 14.3679 38.4927
18560 2 0.314746 13.7539 39.4287
18561 1 77.5393 4.43438 27.9837
18562 2 77.4716 5.32934 27.5427
18563 2 78.1115 4.50769 28.8005
18564 1 70.3642 16.2126 55.053
18565 2 71.2917 15.9131 54.8294
18566 2 70.1398 17.0284 54.52
18567 1 1.75542 6.5041 72.0357
18568 2 2.61622 6.88007 71.6927
18569 2 1.81343 5.50606 72.0591
18570 1 71.9996 21.3883 22.9718
18571 2 72.819 21.8637 23.2918
18572 2 71.6521 20.7965 23.6992
18573 1 6.27048 3.69301 61.3596
18574 2 5.9988 3.23409 62.2055
18575 2 5.54562 3.59226 60.6781
18576 1 7.38722 7.31218 40.7978
18577 2 7.57132 8.03601 40.1328
18578 2 6.40493 7.12688 40.8254
18579 1 14.0007 2.96226 24.186
18580 2 13.0045 3.04877 24.1775
18581 2 14.3377 3.0814 25.1199
18582 1 28.1629 6.51135 70.0971
18583 2 27.2832 6.7527 69.6874
18584 2 28.1897 6.83403 71.0433
18585 1 13.0507 4.75958 66.5282
18586 2 13.9856 4.908 66.8505
18587 2 12.5346 4.25762 67.2223
18588 1 10.9023 13.9865 76.8525
18589 2 11.1994 13.6213 77.7347
18590 2 9.91372 13.8684 76.7588
18591 1 54.6738 3.76958 45.6909
18592 2 54.0644 3.59462 44.9176
18593 2 54.6703 2.97919 46.3035
18594 1 3.8318 13.8095 20.5125
18595 2 2.93565 13.531 20.858
18596 2 4.18376 14.5629 21.0679
18597 1 55.5984 11.2034 55.488
18598 2 56.4048 11.7681 55.3122
18599 2 55.8587 10.4148 56.0451
18600 1 52.9798 5.84136 37.0701
18601 2 52.5016 5.16426 36.5107
18602 2 52.3853 6.13505 37.8186
18603 1 74.0769 26.1105 32.9151
18604 2 74.7727 26.2134 32.2043
18605 2 74.0156 25.1495 33.1848
18606 1 15.8935 10.4299 27.8605
18607 2 15.7064 10.4495 28.8426
18608 2 16.19 9.51225 27.5959
18609 1 78.7044 2.44591 36.4465
18610 2 79.0358 1.72087 37.0502
18611 2 77.7608 2.67423 36.6866
18612 1 16.1571 20.9829 45.783
18613 2 15.5052 20.4521 45.2415
18614 2 16.8493 21.3773 45.1786
18615 1 26.6848 2.24491 59.0297
18616 2 26.4116 2.17286 58.0705
18617 2 25.8813 2.44297 59.5911
18618 1 1.72813 22.3882 27.8449
18619 2 2.0054 23.0269 28.5626
18620 2 0.862697 22.6909 27.4455
18621 1 32.1574 11.2976 76.1558
18622 2 33.0435 11.3911 76.6098
18623 2 31.4828 10.9537 76.8089
18624 1 15.1067 10.2966 78.5147
18625 2 14.1901 9.93369 78.6824
18626 2 15.0801 11.2959 78.5442
18627 1 78.6003 12.0435 44.5161
18628 2 79.2473 12.1791 43.7657
18629 2 77.8386 11.4772 44.2011
18630 1 48.0801 29.3763 68.4641
18631 2 47.5238 28.6982 67.9838
18632 2 49.0365 29.0839 68.4632
18633 1 30.4804 14.8717 35.1862
18634 2 30.6432 15.5841 34.5035
18635 2 30.2808 15.2959 36.0695
18636 1 40.6851 14.7555 54.6782
18637 2 40.5993 14.2373 53.8273
18638 2 39.7749 14.9952 55.0158
18639 1 46.7111 2.07804 64.4972
18640 2 46.105 2.68638 65.0096
18641 2 46.2212 1.70576 63.709
18642 1 64.022 18.7943 35.932
18643 2 64.1922 18.2842 36.7751
18644 2 63.1767 18.4673 35.5095
18645 1 36.2111 11.3446 43.2784
18646 2 35.5008 10.6416 43.3166
18647 2 37.025 11.0226 43.762
18648 1 19.1944 26.6367 46.1107
18649 2 19.9772 26.2736 45.6053
18650 2 18.3529 26.2211 45.7654
18651 1 54.8746 7.45787 50.3806
18652 2 53.8941 7.40395 50.1917
18653 2 55.2622 8.24909 49.9076
18654 1 4.55022 23.2332 90.8675
18655 2 3.57627 23.4347 90.7634
18656 2 4.71103 22.2629 90.6868
18657 1 20.351 25.0644 40.6076
18658 2 20.0486 25.9718 40.8994
18659 2 21.3413 24.9895 40.7246
18660 1 0.654282 23.9761 87.0054
18661 2 79.9941 23.8617 86.2631
18662 2 1.55413 23.6622 86.7025
18663 1 37.4784 14.3249 90.7762
18664 2 37.4977 13.5368 90.1609
18665 2 38.3543 14.8051 90.7304
18666 1 35.7453 22.4192 63.2486
18667 2 36.5947 22.9131 63.0626
18668 2 35.4075 22.0067 62.4026
18669 1 51.5003 1.72771 71.8347
18670 2 51.7911 0.810008 71.564
18671 2 50.9716 1.67357 72.6818
18672 1 34.2391 21.9474 76.3641
18673 2 34.0468 21.1678 76.9602
18674 2 35.16 22.29 76.5502
18675 1 20.3952 23.9577 89.6319
18676 2 21.3032 23.9104 89.2157
18677 2 20.4588 24.4132 90.5198
18678 1 5.15763 24.5287 20.4984
18679 2 5.1761 25.2304 21.2106
18680 2 4.94509 23.6422 20.9094
18681 1 66.2377 21.5668 11.6947
18682 2 66.2184 20.6833 12.1627
18683 2 66.3113 21.42 10.7083
18684 1 12.8179 8.02628 17.5237
18685 2 12.0131 8.16657 18.1004
18686 2 13.6447 8.21496 18.0536
18687 1 40.8888 1.31562 72.0523
18688 2 41.3154 1.13516 71.166
18689 2 40.2233 0.59709 72.2543
18690 1 31.9759 18.7262 64.6337
18691 2 31.6728 19.3854 63.9455
18692 2 31.9704 17.807 64.24
18693 1 14.4483 3.92203 79.7389
18694 2 13.7973 3.62803 80.4387
18695 2 13.9534 4.34578 78.9803
18696 1 66.4578 9.77396 57.256
18697 2 67.1258 10.3859 57.6793
18698 2 65.763 10.3153 56.7825
18699 1 42.5267 13.6136 81.0214
18700 2 42.0779 13.7383 81.9063
18701 2 43.4866 13.8846 81.0934
18702 1 15.6426 27.9475 67.6071
18703 2 15.3838 28.8802 67.3557
18704 2 16.5379 27.9585 68.0523
18705 1 17.5718 2.492 49.4769
18706 2 16.8091 2.55952 50.1201
18707 2 17.4337 3.13894 48.727
18708 1 70.1838 17.2776 15.8894
18709 2 70.6018 16.9743 16.7457
18710 2 69.864 18.2197 15.9899
18711 1 16.5327 5.53777 17.6827
18712 2 15.8508 5.57508 16.9521
18713 2 17.1399 4.75762 17.5323
18714 1 0.646074 24.6848 23.3837
18715 2 0.186969 23.8591 23.7117
18716 2 1.4971 24.8171 23.8919
18717 1 13.1268 1.53147 65.6998
18718 2 13.552 1.35149 66.5868
18719 2 13.2156 0.723353 65.1175
18720 1 50.8746 18.8794 73.2353
18721 2 51.5266 18.8948 73.9933
18722 2 49.9428 18.8568 73.5976
18723 1 40.876 28.2965 53.114
18724 2 40.2972 27.7206 53.6914
18725 2 40.7288 29.2576 53.3477
18726 1 17.5779 26.4302 80.3206
18727 2 16.909 25.7963 80.7087
18728 2 18.4592 26.305 80.7761
18729 1 5.01683 24.5275 44.6743
18730 2 4.80304 24.0334 43.8316
18731 2 5.80901 25.1185 44.5223
18732 1 50.0033 22.1339 28.6542
18733 2 49.1495 22.6526 28.6985
18734 2 50.113 21.6003 29.4928
18735 1 34.3476 17.4104 71.4843
18736 2 34.0082 16.6124 70.9863
18737 2 34.5146 18.1582 70.8417
18738 1 50.6573 17.0556 64.2877
18739 2 50.586 17.2278 63.3052
18740 2 51.6066 17.1743 64.5788
18741 1 43.2987 9.25862 73.6983
18742 2 43.6147 8.9102 74.5808
18743 2 43.6846 8.7019 72.9626
18744 1 5.26945 4.63382 28.9374
18745 2 4.57585 5.18294 29.4036
18746 2 6.0638 4.52303 29.5347
18747 1 64.1265 15.6016 31.3569
18748 2 64.6625 14.7576 31.3376
18749 2 64.4332 16.1738 32.1176
18750 1 71.4211 23.3756 66.5288
18751 2 71.7293 23.9727 67.2694
18752 2 72.2125 22.9367 66.1033
18753 1 19.9883 8.51319 82.6458
18754 2 19.9129 7.59997 83.0462
18755 2 20.5896 8.47849 81.8475
18756 1 35.304 1.59799 34.5341
18757 2 35.1281 0.795771 35.1046
18758 2 35.4699 1.307 33.5918
18759 1 23.4026 9.90615 76.017
18760 2 22.65 9.29183 76.2542
18761 2 23.0807 10.5905 75.3628
18762 1 11.5683 12.5109 84.3996
18763 2 12.0339 13.2296 84.9162
18764 2 11.3512 12.8466 83.4831
18765 1 75.2094 3.25467 83.2177
18766 2 75.007 2.39245 83.682
18767 2 75.127 3.12821 82.2291
18768 1 40.9583 16.3966 76.4169
18769 2 41.7127 16.3238 77.0693
18770 2 41.0151 17.2726 75.9381
18771 1 44.0456 6.72766 36.7694
18772 2 43.8525 7.41334 36.0676
18773 2 44.776 6.1227 36.4524
18774 1 67.5537 11.105 54.3825
18775 2 68.0787 10.2554 54.4321
18776 2 66.5767 10.8925 54.3636
18777 1 74.9836 17.4153 14.9912
18778 2 75.6829 18.0647 14.6924
18779 2 75.4077 16.7022 15.5495
18780 1 31.7602 26.6153 83.9779
18781 2 32.4663 27.1261 84.4683
18782 2 32.0234 25.6522 83.9224
18783 1 58.0334 15.0873 90.2092
18784 2 57.3626 15.6502 89.7263
18785 2 57.6674 14.165 90.3328
18786 1 56.9646 8.85298 42.229
18787 2 56.6953 8.03803 42.7422
18788 2 56.4996 9.65358 42.6069
18789 1 55.7736 4.16028 90.5845
18790 2 56.5825 4.35351 91.1398
18791 2 55.4593 5.00364 90.1486
18792 1 19.6712 13.0653 77.1168
18793 2 19.1923 12.1954 76.9988
18794 2 19.3364 13.5209 77.9416
18795 1 0.593701 6.77367 58.685
18796 2 79.8162 7.23495 58.2576
18797 2 1.34116 6.69941 58.0248
18798 1 1.09706 6.98606 76.1489
18799 2 0.601774 7.85434 76.1208
18800 2 1.95698 7.10869 76.6443
18801 1 12.8922 16.7189 13.2962
18802 2 12.5851 17.4257 13.9334
18803 2 13.119 15.8879 13.8041
18804 1 42.1304 28.0525 38.0101
18805 2 42.894 28.6225 38.3135
18806 2 42.1691 27.1683 38.4755
18807 1 68.8022 3.28395 31.6348
18808 2 68.8226 4.20958 31.2569
18809 2 68.9089 3.32704 32.6282
18810 1 63.0181 0.0378905 11.9122
18811 2 63.1731 0.758075 12.5885
18812 2 63.4999 0.26578 11.0661
18813 1 60.7272 2.75025 14.6882
18814 2 60.3099 3.56248 15.0958
18815 2 60.966 2.94049 13.7359
18816 1 64.0348 4.6175 39.3573
18817 2 63.7712 3.66617 39.1978
18818 2 63.4519 5.01016 40.0686
18819 1 12.516 21.1233 32.6641
18820 2 12.5515 20.25 32.1782
18821 2 13.2199 21.7347 32.3028
18822 1 77.3948 26.4798 23.6433
18823 2 77.3361 25.6129 24.1383
18824 2 77.3142 27.2387 24.2895
18825 1 17.1534 13.7281 78.7801
18826 2 17.0509 12.8586 79.2632
18827 2 16.3842 14.3265 79.004
18828 1 70.3226 29.3185 38.9884
18829 2 70.3897 29.1674 38.0022
18830 2 71.0183 28.7741 39.4571
18831 1 38.3061 5.19824 67.6483
18832 2 38.6394 4.34128 68.0414
18833 2 38.6249 5.27788 66.7038
18834 1 10.3645 19.0912 60.8511
18835 2 11.2403 19.4407 60.5181
18836 2 9.62805 19.6981 60.552
18837 1 7.46831 5.85465 34.2397
18838 2 8.00493 5.42769 33.5119
18839 2 6.52395 5.97213 33.9325
18840 1 27.5849 27.1091 39.894
18841 2 27.402 26.9874 38.9184
18842 2 27.2498 26.3129 40.3978
18843 1 35.3148 18.6844 63.9715
18844 2 34.3575 18.9634 63.8953
18845 2 35.4877 17.9149 63.3568
18846 1 41.5188 18.1446 31.3583
18847 2 42.1068 18.0199 30.5591
18848 2 41.6023 17.3508 31.9607
18849 1 39.0006 25.2349 89.5428
18850 2 38.8386 24.9161 88.6089
18851 2 39.8798 24.8851 89.8666
18852 1 44.2332 6.08163 88.717
18853 2 43.6347 5.44139 89.1985
18854 2 44.821 5.57712 88.0845
18855 1 65.8428 27.6586 82.2309
18856 2 65.7829 26.7231 82.5791
18857 2 66.7944 27.8714 82.0089
18858 1 15.3867 22.4553 65.8498
18859 2 14.9521 22.0531 66.6556
18860 2 15.6964 21.7264 65.2393
18861 1 70.5544 7.50157 50.7194
18862 2 70.3942 7.1734 51.6503
18863 2 69.7084 7.8879 50.3519
18864 1 70.9785 25.4014 13.8125
18865 2 70.3376 25.6879 14.5247
18866 2 70.8425 24.4311 13.6124
18867 1 54.0097 20.9172 39.676
18868 2 53.7934 19.9794 39.9476
18869 2 54.3821 20.9179 38.7479
18870 1 32.9877 11.206 89.3921
18871 2 32.3206 10.6572 89.8958
18872 2 32.9351 10.9837 88.4185
18873 1 24.9383 4.2438 78.8097
18874 2 24.3742 3.41979 78.756
18875 2 24.6865 4.76752 79.6236
18876 1 58.0457 10.3788 80.2056
18877 2 58.6824 11.0111 79.7643
18878 2 58.2061 10.3789 81.1926
18879 1 7.67134 20.681 88.5385
18880 2 6.72405 21.0002 88.5663
18881 2 7.69365 19.6908 88.6767
18882 1 3.80055 12.039 78.9548
18883 2 3.94953 12.8557 78.3973
18884 2 2.93544 11.6106 78.6939
18885 1 65.498 15.7849 41.2956
18886 2 66.1098 16.507 40.9726
18887 2 64.8014 16.1811 41.8938
18888 1 75.9543 8.27085 78.7267
18889 2 76.7777 8.38305 78.1704
18890 2 75.7598 9.12436 79.2101
18891 1 64.1266 17.7258 80.8879
18892 2 64.5336 18.633 80.9943
18893 2 64.3176 17.3805 79.969
18894 1 10.7125 6.1185 31.413
18895 2 10.2084 5.39171 31.8796
18896 2 11.6179 6.21459 31.8265
18897 1 48.0773 28.3054 89.3046
18898 2 48.8501 28.8294 89.6626
18899 2 48.2861 27.3287 89.3526
18900 1 71.8141 12.7782 20.2707
18901 2 71.1845 12.7632 19.494
18902 2 71.3053 12.9765 21.1085
18903 1 14.4652 14.9718 46.9219
18904 2 14.373 15.1143 47.9074
18905 2 14.6721 14.0101 46.7421
18906 1 69.9624 17.9474 65.9181
18907 2 69.578 18.5897 65.2551
18908 2 70.9489 18.0944 65.9912
18909 1 26.6952 4.4567 88.6641
18910 2 26.4313 4.09935 87.7682
18911 2 25.8742 4.69302 89.1837
18912 1 76.2735 1.46346 13.5726
18913 2 75.7592 1.76513 12.7697
18914 2 76.262 0.464643 13.6198
18915 1 50.7223 14.5127 56.349
18916 2 50.773 15.4466 55.9951
18917 2 51.0468 14.4966 57.2947
18918 1 4.06967 19.9374 90.0946
18919 2 4.16946 19.6917 89.1304
18920 2 3.10607 19.8789 90.3554
18921 1 73.6051 20.7609 67.4025
18922 2 73.1523 20.0412 66.8762
18923 2 73.2783 20.7385 68.3474
18924 1 10.7004 6.05949 51.7979
18925 2 11.4582 5.46804 52.0732
18926 2 10.7914 6.94858 52.2465
18927 1 77.522 28.0379 78.264
18928 2 76.5888 28.3895 78.3381
18929 2 77.5497 27.094 78.5931
18930 1 34.7937 19.048 43.7424
18931 2 35.7868 18.9608 43.8204
18932 2 34.437 19.5261 44.545
18933 1 25.0104 1.09439 61.7417
18934 2 25.4466 1.90529 62.1318
18935 2 25.7025 0.392964 61.5714
18936 1 74.3864 3.96628 23.7391
18937 2 74.7782 4.20557 24.6274
18938 2 74.5522 4.70921 23.0906
18939 1 73.1716 13.7171 73.0062
18940 2 72.3256 13.5137 73.4991
18941 2 73.8959 13.103 73.3196
18942 1 67.6786 13.2794 28.1568
18943 2 67.5148 13.0662 27.1936
18944 2 67.937 14.2413 28.246
18945 1 55.0606 5.875 28.9252
18946 2 54.6302 6.07324 29.8058
18947 2 54.3557 5.6471 28.2535
18948 1 4.56371 20.3047 54.089
18949 2 4.86031 20.3195 55.0439
18950 2 4.91797 21.1122 53.6174
18951 1 67.3662 23.9785 78.0612
18952 2 67.9941 23.5455 78.708
18953 2 67.2445 24.94 78.3077
18954 1 21.343 9.57263 41.1293
18955 2 21.654 8.80277 40.572
18956 2 21.5349 9.38572 42.0927
18957 1 27.9467 1.54221 84.1404
18958 2 28.3942 0.683257 84.3893
18959 2 28.427 2.30562 84.5723
18960 1 71.5448 7.83967 71.5007
18961 2 70.9162 8.49604 71.9179
18962 2 72.4731 8.01145 71.8304
18963 1 8.46223 19.0102 72.8346
18964 2 9.17412 18.4193 73.2141
18965 2 7.57349 18.5604 72.9231
18966 1 47.4164 20.7178 43.1259
18967 2 47.7549 21.2473 42.3481
18968 2 46.5062 20.361 42.9154
18969 1 73.9025 9.70063 51.7519
18970 2 73.4015 10.5521 51.5966
18971 2 74.295 9.70782 52.6716
18972 1 74.9157 7.70235 18.0328
18973 2 74.1662 8.35994 18.1084
18974 2 75.4594 7.71857 18.8719
18975 1 55.4623 25.1841 74.0522
18976 2 56.2024 25.7557 74.4065
18977 2 55.0344 24.6871 74.8071
18978 1 14.4171 22.478 36.4034
18979 2 14.6975 22.927 37.2518
18980 2 14.8321 21.5695 36.3542
18981 1 60.6133 0.653914 73.3402
18982 2 60.032 1.40487 73.6533
18983 2 60.4246 29.8368 73.8849
18984 1 76.9357 4.76326 35.241
18985 2 75.9658 4.52301 35.2825
18986 2 77.055 5.71658 35.5184
18987 1 66.0147 29.7524 45.4641
18988 2 65.2515 29.3837 45.9948
18989 2 66.5955 0.309053 46.0581
18990 1 71.9382 12.7703 75.882
18991 2 72.1605 13.4628 76.5683
18992 2 71.4774 12 76.323
18993 1 34.695 13.7947 51.2632
18994 2 33.6962 13.7707 51.3047
18995 2 35.0041 13.3582 50.4183
18996 1 38.4846 29.3851 48.0759
18997 2 39.4223 29.5508 47.7706
18998 2 37.982 0.249531 48.0931
18999 1 67.6634 26.0541 19.0848
19000 2 68.6397 25.8408 19.1221
19001 2 67.2872 25.7419 18.2124
19002 1 72.454 23.3371 46.3008
19003 2 71.5003 23.2544 46.5902
19004 2 73.0548 23.1876 47.0861
19005 1 54.088 23.7791 43.7011
19006 2 53.7119 22.9104 43.3787
19007 2 53.4535 24.5196 43.4797
19008 1 9.14609 19.0258 53.0353
19009 2 8.70698 19.7334 53.5889
19010 2 9.61071 18.3741 53.6349
19011 1 14.2437 21.5217 47.6643
19012 2 13.5198 22.2001 47.7901
19013 2 14.8259 21.7938 46.8982
19014 1 43.3603 27.1749 52.5269
19015 2 43.9132 26.8986 53.313
19016 2 42.3997 27.2326 52.7988
19017 1 3.16142 11.5981 15.7692
19018 2 2.66594 10.7302 15.8043
19019 2 3.94725 11.5584 16.3864
19020 1 19.4097 26.986 17.3929
19021 2 19.9373 26.2569 17.8288
19022 2 18.5344 26.6204 17.0762
19023 1 13.5636 28.3552 29.4816
19024 2 14.2062 27.9092 30.1046
19025 2 13.9858 29.1774 29.0998
19026 1 4.06945 20.0862 32.8024
19027 2 4.23598 19.4919 33.5892
19028 2 3.64412 20.9369 33.1114
19029 1 1.09909 5.30384 17.0721
19030 2 1.12282 4.37844 17.4504
19031 2 0.253327 5.43048 16.5538
19032 1 5.57716 24.1529 36.1917
19033 2 4.73302 24.6764 36.3074
19034 2 5.69062 23.912 35.2278
19035 1 60.7667 29.9341 23.7688
19036 2 60.4658 29.4205 24.5724
19037 2 59.9716 0.329671 23.3091
19038 1 14.2614 28.7763 54.2491
19039 2 15.1657 28.6428 53.8437
19040 2 14.2107 29.6875 54.658
19041 1 1.91727 23.424 90.4107
19042 2 1.38014 22.6245 90.6795
19043 2 1.71577 23.6563 89.4591
19044 1 71.9745 5.60226 74.4993
19045 2 71.1493 6.14892 74.6413
19046 2 71.8312 4.97516 73.7336
19047 1 68.4836 12.9173 47.4071
19048 2 67.7136 12.6782 47.9987
19049 2 69.2095 12.2379 47.5139
19050 1 78.4264 14.2613 90.6252
19051 2 77.5399 13.8893 90.3501
19052 2 78.3501 15.2512 90.7439
19053 1 14.5419 18.1354 48.7606
19054 2 14.7341 17.162 48.6361
19055 2 14.374 18.3209 49.7288
19056 1 61.098 0.449289 54.9716
19057 2 60.8827 1.02517 54.1829
19058 2 60.4045 0.581339 55.6799
19059 1 6.77579 5.1943 22.0759
19060 2 7.14815 5.88772 21.459
19061 2 5.79938 5.07681 21.8948
19062 1 57.5077 13.6586 21.2146
19063 2 56.8823 13.5262 21.9836
19064 2 57.3853 14.5776 20.8398
19065 1 29.8004 26.1356 52.8371
19066 2 29.8696 25.386 52.1788
19067 2 30.6484 26.6657 52.8289
19068 1 64.2671 26.851 28.6301
19069 2 64.3685 27.8458 28.6205
19070 2 64.6857 26.4813 29.4596
19071 1 52.8669 1.44004 43.2299
19072 2 52.7119 1.02905 44.1282
19073 2 51.9877 1.60849 42.7842
19074 1 69.5468 10.5433 66.398
19075 2 69.2571 9.76405 66.9538
19076 2 69.4211 10.3272 65.4298
19077 1 75.7798 13.2271 27.8504
19078 2 76.6061 13.1535 27.292
19079 2 75.4975 14.1849 27.9033
19080 1 45.6608 28.9666 61.3409
19081 2 46.4543 28.5371 61.7722
19082 2 45.3072 29.6878 61.9366
19083 1 78.4721 6.62341 84.1998
19084 2 78.935 6.98367 83.3899
19085 2 78.349 5.63586 84.1018
19086 1 26.6076 15.9856 86.7191
19087 2 26.1744 16.8851 86.7749
19088 2 27.5689 16.0616 86.9842
19089 1 16.8521 19.473 73.448
19090 2 16.6664 19.5972 72.4733
19091 2 16.5784 18.5518 73.7247
19092 1 75.7988 8.06529 31.1573
19093 2 75.0049 7.84556 30.5904
19094 2 76.5608 8.34107 30.5713
19095 1 20.0842 4.67306 55.666
19096 2 19.9565 4.44266 56.6307
19097 2 20.9345 5.18773 55.556
19098 1 53.3698 0.134118 38.4608
19099 2 52.6488 0.143582 39.1537
19100 2 53.8672 1.00129 38.4854
19101 1 13.1948 26.9761 79.3395
19102 2 13.9013 26.4285 78.8913
19103 2 13.2569 26.8542 80.3301
19104 1 46.4668 3.22222 60.4455
19105 2 46.7763 2.4008 59.9665
19106 2 45.4804 3.32895 60.321
19107 1 54.4202 9.73498 31.8653
19108 2 53.8318 9.39302 31.1326
19109 2 54.6065 10.7063 31.7173
19110 1 16.5037 6.29928 13.2093
19111 2 15.6918 5.9906 13.7049
19112 2 17.3242 5.96196 13.6708
19113 1 6.49839 12.2262 60.3212
19114 2 7.27874 12.4532 60.9039
19115 2 6.57515 11.2769 60.0162
19116 1 8.08202 7.8207 46.3809
19117 2 8.07341 8.29508 47.2612
19118 2 7.21383 7.34152 46.252
19119 1 17.5931 12.6373 30.2611
19120 2 17.7741 11.7504 30.6861
19121 2 18.3559 13.2571 30.4453
19122 1 35.9537 27.7232 43.2363
19123 2 36.835 27.6302 42.773
19124 2 35.4137 28.4342 42.786
19125 1 22.8899 29.5465 46.6802
19126 2 22.6441 28.6411 46.3341
19127 2 23.367 0.0582091 45.9656
19128 1 12.0655 26.8383 50.6532
19129 2 11.4002 27.1907 51.3114
19130 2 12.0634 25.8387 50.6798
19131 1 27.1221 3.83311 81.8428
19132 2 26.3223 4.402 82.0345
19133 2 27.3569 3.30293 82.6575
19134 1 25.7023 14.9194 25.4867
19135 2 26.5065 15.5086 25.5646
19136 2 25.2887 14.799 26.3892
19137 1 59.5009 15.5515 68.1289
19138 2 59.3289 16.3725 67.5846
19139 2 59.5435 15.7965 69.0975
19140 1 70.1622 15.5722 10.7097
19141 2 69.3971 15.6249 11.3515
19142 2 69.8542 15.1483 9.85803
19143 1 68.8631 7.28284 18.3713
19144 2 68.1166 7.85737 18.0358
19145 2 69.5444 7.85476 18.8283
19146 1 3.43512 21.9782 13.2426
19147 2 3.46498 22.117 14.2325
19148 2 2.48513 22.0018 12.9312
19149 1 72.0868 20.9754 20.2578
19150 2 72.2739 19.9953 20.3236
19151 2 72.0433 21.3688 21.1761
19152 1 75.6606 27.9826 90.5664
19153 2 74.972 27.3074 90.831
19154 2 76.4629 27.5135 90.1973
19155 1 46.9428 17.5495 56.2179
19156 2 47.0426 17.6768 55.2311
19157 2 46.5936 18.3916 56.629
19158 1 34.1794 29.6298 44.4042
19159 2 34.3051 29.4367 43.4311
19160 2 34.5683 0.525671 44.6191
19161 1 48.4997 4.37549 43.137
19162 2 48.6925 3.47099 42.7567
19163 2 49.0399 4.50974 43.9678
19164 1 3.1776 6.60827 26.9213
19165 2 4.11363 6.52251 26.58
19166 2 2.96176 7.57433 27.0632
19167 1 61.7337 4.03326 33.7368
19168 2 60.9737 3.71406 34.3029
19169 2 62.5635 3.52995 33.9782
19170 1 28.5435 20.1963 57.9995
19171 2 27.7525 20.7236 57.6892
19172 2 29.0149 20.6982 58.7248
19173 1 42.2446 14.4227 84.8877
19174 2 42.0221 13.4638 84.7119
19175 2 41.403 14.9627 84.9032
19176 1 14.4822 25.0423 17.9583
19177 2 15.4136 25.2177 17.6391
19178 2 14.1179 25.8663 18.3923
19179 1 47.5166 24.5261 46.8242
19180 2 47.1714 24.5801 47.7612
19181 2 47.172 23.694 46.3896
19182 1 6.753 15.6649 61.0874
19183 2 6.33544 16.4689 61.5107
19184 2 7.74887 15.7465 61.1273
19185 1 47.1866 11.2775 38.1252
19186 2 47.6673 10.8625 38.8976
19187 2 46.3136 11.6518 38.4381
19188 1 35.8223 15.1347 42.0565
19189 2 34.9702 15.4705 42.458
19190 2 36.4892 15.879 42.0191
19191 1 10.4927 5.32328 89.7192
19192 2 10.0137 4.4473 89.7766
19193 2 9.82553 6.06247 89.6267
19194 1 16.5702 1.86734 61.8242
19195 2 15.6 1.64051 61.9092
19196 2 17.1207 1.05603 62.021
19197 1 45.098 20.7335 60.9379
19198 2 45.3538 19.8463 60.5539
19199 2 45.7816 21.417 60.6819
19200 1 18.752 26.142 88.6576
19201 2 19.1371 25.4525 89.2709
19202 2 18.2395 25.6898 87.9276
19203 1 4.19726 26.1806 39.6703
19204 2 3.36645 26.1282 39.1162
19205 2 4.45291 27.1389 39.7979
19206 1 76.6118 3.55257 54.3995
19207 2 75.8683 2.89419 54.2824
19208 2 77.2851 3.42824 53.6706
19209 1 22.8334 19.6267 45.751
19210 2 23.5419 18.9228 45.701
19211 2 22.1414 19.3561 46.4203
19212 1 45.6842 19.5876 51.8312
19213 2 46.5975 19.3877 51.4764
19214 2 45.2125 18.7306 52.0391
19215 1 23.7922 2.42502 51.0381
19216 2 24.2142 3.2188 51.4762
19217 2 24.4251 1.65139 51.0696
19218 1 46.18 13.3402 70.6176
19219 2 45.9037 13.6374 71.5316
19220 2 46.6725 12.4725 70.684
19221 1 5.67792 2.34165 45.9435
19222 2 4.88259 1.82076 45.6335
19223 2 6.48843 2.04438 45.4389
19224 1 18.4292 6.19854 65.051
19225 2 18.204 5.2278 64.9678
19226 2 17.6641 6.74817 64.7155
19227 1 36.5771 8.37243 66.5439
19228 2 36.4833 9.3165 66.2277
19229 2 37.3426 8.30986 67.1843
19230 1 56.0526 16.0718 71.7877
19231 2 56.4279 16.5101 72.6044
19232 2 56.7737 15.5562 71.3249
19233 1 24.5546 0.927952 44.7626
19234 2 24.9206 1.02914 43.8375
19235 2 25.0325 1.55248 45.3803
19236 1 36.5566 18.6043 86.9271
19237 2 36.683 18.9728 86.0061
19238 2 35.7513 19.0236 87.3462
19239 1 18.4657 24.4183 75.8281
19240 2 19.3411 24.8952 75.7487
19241 2 17.7203 25.0846 75.8096
19242 1 56.5921 28.9481 80.9379
19243 2 55.5997 28.8445 81.0044
19244 2 56.9954 28.8891 81.851
19245 1 6.4064 10.1081 58.8709
19246 2 5.69793 9.66651 58.3203
19247 2 7.08069 9.42653 59.1552
19248 1 2.00329 8.93119 82.4044
19249 2 1.0264 8.81294 82.2264
19250 2 2.52193 8.70764 81.5792
19251 1 15.5386 27.997 87.7078
19252 2 15.8422 27.0939 88.0117
19253 2 14.5452 27.9936 87.5935
19254 1 19.5281 12.7379 32.3127
19255 2 18.8915 13.3495 32.7824
19256 2 19.8652 12.0501 32.9556
19257 1 35.7245 8.30569 36.251
19258 2 35.9517 8.02811 37.1845
19259 2 34.7743 8.06461 36.0535
19260 1 4.74287 22.7691 77.3669
19261 2 4.08476 22.1258 76.9756
19262 2 4.36574 23.1633 78.2049
19263 1 65.6286 1.95052 75.9051
19264 2 65.8747 1.0044 76.1156
19265 2 66.4533 2.516 75.8991
19266 1 5.00819 28.8748 39.8702
19267 2 5.38941 28.9792 38.9516
19268 2 5.66608 29.2107 40.5442
19269 1 42.5419 21.3205 74.5222
19270 2 43.2642 21.6674 75.1206
19271 2 41.6944 21.8214 74.6978
19272 1 39.806 17.6608 68.6254
19273 2 40.4726 17.017 68.2497
19274 2 38.886 17.2802 68.5325
19275 1 37.9636 11.3966 68.6695
19276 2 38.7024 10.7462 68.8458
19277 2 37.8028 11.4595 67.6845
19278 1 72.3894 13.146 36.8776
19279 2 71.6787 13.3762 36.2128
19280 2 72.9932 12.4483 36.492
19281 1 54.1577 21.1835 46.9634
19282 2 53.6952 22.0351 47.2103
19283 2 53.6459 20.7247 46.237
19284 1 60.5109 26.8994 69.4952
19285 2 60.4524 26.7899 70.4875
19286 2 61.3872 26.5425 69.1716
19287 1 12.1896 2.71609 17.6771
19288 2 12.7146 3.19818 18.3785
19289 2 11.3744 3.24755 17.4467
19290 1 20.9843 11.2702 90.5469
19291 2 21.3203 11.2939 89.6054
19292 2 20.2388 11.9284 90.6515
19293 1 15.28 15.9728 37.1441
19294 2 15.0582 16.9131 36.8859
19295 2 15.5589 15.9477 38.1041
19296 1 75.5134 5.07775 80.1775
19297 2 76.4533 5.41566 80.129
19298 2 75.514 4.07995 80.1113
19299 1 26.5146 25.3841 33.105
19300 2 27.2409 25.998 32.7958
19301 2 26.6801 25.1245 34.0564
19302 1 73.9316 25.0216 70.2077
19303 2 73.6996 25.8939 69.7773
19304 2 74.6033 25.1756 70.9323
19305 1 9.77722 20.1363 37.9436
19306 2 9.06739 19.645 37.4389
19307 2 10.543 19.5199 38.1271
19308 1 8.66364 13.5289 87.6
19309 2 9.63273 13.4006 87.3892
19310 2 8.28016 14.2259 86.9941
19311 1 39.3968 5.43068 71.8737
19312 2 40.2331 5.17541 71.3885
19313 2 38.8447 4.61345 72.039
19314 1 18.4473 15.4209 30.9909
19315 2 19.1706 15.6989 31.623
19316 2 18.818 15.3656 30.0638
19317 1 13.1159 1.02218 42.9046
19318 2 13.3595 1.99204 42.9106
19319 2 13.7677 0.511295 43.4651
19320 1 43.5165 9.8021 36.4139
19321 2 43.9742 10.3048 37.1472
19322 2 42.6584 9.42001 36.757
19323 1 50.2477 14.2128 48.2908
19324 2 49.63 14.1442 49.0742
19325 2 49.8492 14.821 47.6043
19326 1 46.4397 22.2283 71.1433
19327 2 47.2126 22.4095 70.5352
19328 2 46.5853 21.3602 71.6178
19329 1 52.7647 4.41905 42.0071
19330 2 53.7089 4.73559 41.9159
19331 2 52.5525 4.27758 42.974
19332 1 15.9145 6.87237 73.4591
19333 2 15.927 7.38001 72.5976
19334 2 16.1811 5.9234 73.2906
19335 1 54.9134 26.0601 32.1975
19336 2 54.6169 25.2763 32.7432
19337 2 54.6515 26.9068 32.6605
19338 1 41.8552 19.9086 55.3301
19339 2 41.7604 19.7824 56.3176
19340 2 40.9507 19.8935 54.9038
19341 1 16.7966 8.50357 21.9872
19342 2 16.7364 8.81509 21.0389
19343 2 17.6931 8.74261 22.3603
19344 1 23.3244 6.80363 64.8191
19345 2 23.9128 6.37346 64.1344
19346 2 23.8906 7.23583 65.521
19347 1 63.7261 7.88486 70.6389
19348 2 64.3379 8.06136 69.8678
19349 2 63.9513 8.50378 71.3914
19350 1 41.0044 23.2051 39.5184
19351 2 41.4757 24.0463 39.2535
19352 2 40.176 23.4339 40.0296
19353 1 19.9397 2.01308 21.7825
19354 2 19.0533 1.71689 21.4269
19355 2 20.6128 2.01194 21.043
19356 1 11.8393 23.4977 15.9016
19357 2 11.2363 23.6068 15.1113
19358 2 11.3414 23.044 16.6407
19359 1 26.2049 13.4686 87.9849
19360 2 25.2947 13.0599 87.9181
19361 2 26.2234 14.3269 87.472
19362 1 7.42018 4.16618 77.9595
19363 2 8.32282 4.4516 78.2817
19364 2 6.90958 4.96686 77.6462
19365 1 49.4498 26.9439 41.041
19366 2 49.9765 26.8231 40.1996
19367 2 49.8202 27.7155 41.5582
19368 1 15.6658 12.8838 62.6457
19369 2 15.7808 12.8098 61.655
19370 2 15.8397 11.9945 63.0687
19371 1 14.4424 2.56645 21.3245
19372 2 15.108 2.89479 21.9948
19373 2 14.8853 1.91858 20.7048
19374 1 51.9189 20.5933 26.876
19375 2 51.2137 20.9751 27.4734
19376 2 51.4957 20.2518 26.0368
19377 1 69.2004 24.9337 51.9322
19378 2 69.7052 25.7917 52.0279
19379 2 69.5827 24.2509 52.5548
19380 1 1.64015 15.5758 54.649
19381 2 0.690718 15.4154 54.9189
19382 2 1.66463 15.9469 53.7207
19383 1 73.5113 22.9166 48.7053
19384 2 74.2397 23.1276 49.3572
19385 2 72.7592 23.5648 48.8246
19386 1 49.6924 0.0435159 33.1039
19387 2 49.6922 29.8788 34.0902
19388 2 49.7059 1.02827 32.9304
19389 1 24.9985 1.06694 26.0088
19390 2 25.4178 1.93117 25.7308
19391 2 25.6703 0.513813 26.5015
19392 1 62.4741 5.83349 61.02
19393 2 63.1397 5.64254 61.7414
19394 2 62.4471 6.81739 60.8433
19395 1 48.5847 4.49607 54.5328
19396 2 48.8183 4.77336 53.6008
19397 2 47.9303 3.74057 54.5017
19398 1 44.5099 19.2105 56.8106
19399 2 44.9479 20.087 57.0105
19400 2 44.3283 18.7258 57.6661
19401 1 74.9842 24.8054 54.7914
19402 2 74.7057 25.2228 55.6564
19403 2 74.8172 25.4469 54.0427
19404 1 45.8801 15.774 76.9865
19405 2 45.7752 15.8448 77.9784
19406 2 45.1786 15.1626 76.62
19407 1 40.9128 23.0747 27.7342
19408 2 40.5854 23.7439 28.4014
19409 2 40.2556 23.0031 26.984
19410 1 45.8069 18.7478 83.2658
19411 2 45.5228 17.8763 82.866
19412 2 46.1187 18.598 84.2041
19413 1 71.0156 12.4742 85.3311
19414 2 70.1607 12.3717 85.8396
19415 2 71.6513 13.0381 85.8582
19416 1 44.4483 10.7679 41.1481
19417 2 45.0139 11.4078 40.6279
19418 2 43.7903 10.3304 40.5351
19419 1 72.6843 5.88108 18.499
19420 2 72.2738 6.73043 18.8308
19421 2 73.496 6.09352 17.9549
19422 1 78.3489 27.3143 33.1265
19423 2 78.342 26.4083 33.5497
19424 2 77.4745 27.7685 33.2972
19425 1 57.4998 7.80584 45.1117
19426 2 57.3776 8.64798 44.5865
19427 2 57.4974 8.01902 46.0887
19428 1 22.8554 27.7787 88.0288
19429 2 22.0237 28.3223 87.9153
19430 2 23.0409 27.6528 89.0033
19431 1 23.6997 19.2063 49.303
19432 2 23.1879 18.3645 49.1313
19433 2 23.321 19.946 48.7467
19434 1 9.0566 21.7024 34.9654
19435 2 8.43884 21.9189 34.2094
19436 2 9.86947 22.282 34.9081
19437 1 76.3189 14.1181 70.2924
19438 2 76.3625 15.1171 70.2802
19439 2 77.2403 13.7456 70.4026
19440 1 49.2595 16.8645 76.1539
19441 2 48.3901 16.3725 76.1085
19442 2 49.9435 16.3839 75.6051
19443 1 17.6025 24.797 45.073
19444 2 17.0793 24.1616 44.5051
19445 2 18.3319 24.3004 45.5436
19446 1 34.4596 25.4346 90.9066
19447 2 35.1328 26.0114 91.3694
19448 2 34.9046 24.9324 90.1651
19449 1 6.38544 10.783 76.7254
19450 2 5.90368 11.1347 77.5281
19451 2 5.79095 10.8498 75.9241
19452 1 68.7513 9.37117 63.8921
19453 2 69.1319 8.79887 63.1657
19454 2 67.9469 9.85548 63.5479
19455 1 74.1022 3.38913 14.8762
19456 2 74.5966 3.71221 15.6831
19457 2 74.6614 2.71827 14.3891
19458 1 65.964 6.64623 45.0511
19459 2 65.6162 6.54767 45.9835
19460 2 66.3534 5.77684 44.747
19461 1 78.8453 28.8261 39.1801
19462 2 78.4396 28.3206 38.4186
19463 2 79.6061 28.3008 39.5612
19464 1 23.413 8.57113 87.9557
19465 2 23.9452 8.16601 87.2123
19466 2 23.3848 9.56433 87.8426
19467 1 2.88847 29.2823 16.4732
19468 2 3.63182 28.6196 16.3817
19469 2 3.16078 0.148585 16.0544
19470 1 0.823493 4.36422 76.5336
19471 2 1.6681 3.89864 76.7979
19472 2 1.00451 5.34034 76.4135
19473 1 70.604 2.70277 65.26
19474 2 70.1846 3.43155 64.7188
19475 2 70.8821 3.06593 66.1493
19476 1 11.2575 9.84374 90.67
19477 2 11.645 9.41072 89.8562
19478 2 10.3616 10.2287 90.4482
19479 1 9.01279 24.1599 71.419
19480 2 9.4295 24.8121 70.7858
19481 2 8.23325 23.7169 70.9762
19482 1 56.9053 23.7261 31.5155
19483 2 55.978 24.0914 31.597
19484 2 56.971 22.8672 32.0234
19485 1 59.0442 6.40223 41.6358
19486 2 59.2511 5.44439 41.4364
19487 2 59.8977 6.91161 41.7459
