ITEM: TIMESTEP
0
ITEM: NUMBER OF ATOMS
19487
ITEM: BOX BOUNDS pp pp ff
0.0000000000000000e+00 8.0000000000000000e+01
0.0000000000000000e+00 3.0000000000000000e+01
0.0000000000000000e+00 1.1647665900000000e+02
ITEM: ATOMS id type x y z
1 5 0 0 0
2 5 1.24592 2.158 0
3 5 0 4.316 0
4 5 1.24592 6.474 0
5 5 0 8.632 0
6 5 1.24592 10.79 0
7 5 0 12.948 0
8 5 1.24592 15.106 0
9 5 0 17.264 0
10 5 1.24592 19.422 0
11 5 0 21.58 0
12 5 1.24592 23.738 0
13 5 2.49184 0 0
14 5 3.73777 2.158 0
15 5 2.49184 4.316 0
16 5 3.73777 6.474 0
17 5 2.49184 8.632 0
18 5 3.73777 10.79 0
19 5 2.49184 12.948 0
20 5 3.73777 15.106 0
21 5 2.49184 17.264 0
22 5 3.73777 19.422 0
23 5 2.49184 21.58 0
24 5 3.73777 23.738 0
25 5 4.98369 0 0
26 5 6.22961 2.158 0
27 5 4.98369 4.316 0
28 5 6.22961 6.474 0
29 5 4.98369 8.632 0
30 5 6.22961 10.79 0
31 5 4.98369 12.948 0
32 5 6.22961 15.106 0
33 5 4.98369 17.264 0
34 5 6.22961 19.422 0
35 5 4.98369 21.58 0
36 5 6.22961 23.738 0
37 5 7.47553 0 0
38 5 8.72146 2.158 0
39 5 7.47553 4.316 0
40 5 8.72146 6.474 0
41 5 7.47553 8.632 0
42 5 8.72146 10.79 0
43 5 7.47553 12.948 0
44 5 8.72146 15.106 0
45 5 7.47553 17.264 0
46 5 8.72146 19.422 0
47 5 7.47553 21.58 0
48 5 8.72146 23.738 0
49 5 9.96738 0 0
50 5 11.2133 2.158 0
51 5 9.96738 4.316 0
52 5 11.2133 6.474 0
53 5 9.96738 8.632 0
54 5 11.2133 10.79 0
55 5 9.96738 12.948 0
56 5 11.2133 15.106 0
57 5 9.96738 17.264 0
58 5 11.2133 19.422 0
59 5 9.96738 21.58 0
60 5 11.2133 23.738 0
61 5 12.4592 0 0
62 5 13.7051 2.158 0
63 5 12.4592 4.316 0
64 5 13.7051 6.474 0
65 5 12.4592 8.632 0
66 5 13.7051 10.79 0
67 5 12.4592 12.948 0
68 5 13.7051 15.106 0
69 5 12.4592 17.264 0
70 5 13.7051 19.422 0
71 5 12.4592 21.58 0
72 5 13.7051 23.738 0
73 5 14.9511 0 0
74 5 16.197 2.158 0
75 5 14.9511 4.316 0
76 5 16.197 6.474 0
77 5 14.9511 8.632 0
78 5 16.197 10.79 0
79 5 14.9511 12.948 0
80 5 16.197 15.106 0
81 5 14.9511 17.264 0
82 5 16.197 19.422 0
83 5 14.9511 21.58 0
84 5 16.197 23.738 0
85 5 17.4429 0 0
86 5 18.6888 2.158 0
87 5 17.4429 4.316 0
88 5 18.6888 6.474 0
89 5 17.4429 8.632 0
90 5 18.6888 10.79 0
91 5 17.4429 12.948 0
92 5 18.6888 15.106 0
93 5 17.4429 17.264 0
94 5 18.6888 19.422 0
95 5 17.4429 21.58 0
96 5 18.6888 23.738 0
97 5 19.9348 0 0
98 5 21.1807 2.158 0
99 5 19.9348 4.316 0
100 5 21.1807 6.474 0
101 5 19.9348 8.632 0
102 5 21.1807 10.79 0
103 5 19.9348 12.948 0
104 5 21.1807 15.106 0
105 5 19.9348 17.264 0
106 5 21.1807 19.422 0
107 5 19.9348 21.58 0
108 5 21.1807 23.738 0
109 5 22.4266 0 0
110 5 23.6725 2.158 0
111 5 22.4266 4.316 0
112 5 23.6725 6.474 0
113 5 22.4266 8.632 0
114 5 23.6725 10.79 0
115 5 22.4266 12.948 0
116 5 23.6725 15.106 0
117 5 22.4266 17.264 0
118 5 23.6725 19.422 0
119 5 22.4266 21.58 0
120 5 23.6725 23.738 0
121 5 24.9184 0 0
122 5 26.1644 2.158 0
123 5 24.9184 4.316 0
124 5 26.1644 6.474 0
125 5 24.9184 8.632 0
126 5 26.1644 10.79 0
127 5 24.9184 12.948 0
128 5 26.1644 15.106 0
129 5 24.9184 17.264 0
130 5 26.1644 19.422 0
131 5 24.9184 21.58 0
132 5 26.1644 23.738 0
133 5 27.4103 0 0
134 5 28.6562 2.158 0
135 5 27.4103 4.316 0
136 5 28.6562 6.474 0
137 5 27.4103 8.632 0
138 5 28.6562 10.79 0
139 5 27.4103 12.948 0
140 5 28.6562 15.106 0
141 5 27.4103 17.264 0
142 5 28.6562 19.422 0
143 5 27.4103 21.58 0
144 5 28.6562 23.738 0
145 5 29.9021 0 0
146 5 31.1481 2.158 0
147 5 29.9021 4.316 0
148 5 31.1481 6.474 0
149 5 29.9021 8.632 0
150 5 31.1481 10.79 0
151 5 29.9021 12.948 0
152 5 31.1481 15.106 0
153 5 29.9021 17.264 0
154 5 31.1481 19.422 0
155 5 29.9021 21.58 0
156 5 31.1481 23.738 0
157 5 32.394 0 0
158 5 33.6399 2.158 0
159 5 32.394 4.316 0
160 5 33.6399 6.474 0
161 5 32.394 8.632 0
162 5 33.6399 10.79 0
163 5 32.394 12.948 0
164 5 33.6399 15.106 0
165 5 32.394 17.264 0
166 5 33.6399 19.422 0
167 5 32.394 21.58 0
168 5 33.6399 23.738 0
169 5 34.8858 0 0
170 5 36.1317 2.158 0
171 5 34.8858 4.316 0
172 5 36.1317 6.474 0
173 5 34.8858 8.632 0
174 5 36.1317 10.79 0
175 5 34.8858 12.948 0
176 5 36.1317 15.106 0
177 5 34.8858 17.264 0
178 5 36.1317 19.422 0
179 5 34.8858 21.58 0
180 5 36.1317 23.738 0
181 5 37.3777 0 0
182 5 38.6236 2.158 0
183 5 37.3777 4.316 0
184 5 38.6236 6.474 0
185 5 37.3777 8.632 0
186 5 38.6236 10.79 0
187 5 37.3777 12.948 0
188 5 38.6236 15.106 0
189 5 37.3777 17.264 0
190 5 38.6236 19.422 0
191 5 37.3777 21.58 0
192 5 38.6236 23.738 0
193 5 39.8695 0 0
194 5 41.1154 2.158 0
195 5 39.8695 4.316 0
196 5 41.1154 6.474 0
197 5 39.8695 8.632 0
198 5 41.1154 10.79 0
199 5 39.8695 12.948 0
200 5 41.1154 15.106 0
201 5 39.8695 17.264 0
202 5 41.1154 19.422 0
203 5 39.8695 21.58 0
204 5 41.1154 23.738 0
205 5 42.3614 0 0
206 5 43.6073 2.158 0
207 5 42.3614 4.316 0
208 5 43.6073 6.474 0
209 5 42.3614 8.632 0
210 5 43.6073 10.79 0
211 5 42.3614 12.948 0
212 5 43.6073 15.106 0
213 5 42.3614 17.264 0
214 5 43.6073 19.422 0
215 5 42.3614 21.58 0
216 5 43.6073 23.738 0
217 5 44.8532 0 0
218 5 46.0991 2.158 0
219 5 44.8532 4.316 0
220 5 46.0991 6.474 0
221 5 44.8532 8.632 0
222 5 46.0991 10.79 0
223 5 44.8532 12.948 0
224 5 46.0991 15.106 0
225 5 44.8532 17.264 0
226 5 46.0991 19.422 0
227 5 44.8532 21.58 0
228 5 46.0991 23.738 0
229 5 47.345 0 0
230 5 48.591 2.158 0
231 5 47.345 4.316 0
232 5 48.591 6.474 0
233 5 47.345 8.632 0
234 5 48.591 10.79 0
235 5 47.345 12.948 0
236 5 48.591 15.106 0
237 5 47.345 17.264 0
238 5 48.591 19.422 0
239 5 47.345 21.58 0
240 5 48.591 23.738 0
241 5 49.8369 0 0
242 5 51.0828 2.158 0
243 5 49.8369 4.316 0
244 5 51.0828 6.474 0
245 5 49.8369 8.632 0
246 5 51.0828 10.79 0
247 5 49.8369 12.948 0
248 5 51.0828 15.106 0
249 5 49.8369 17.264 0
250 5 51.0828 19.422 0
251 5 49.8369 21.58 0
252 5 51.0828 23.738 0
253 5 52.3287 0 0
254 5 53.5746 2.158 0
255 5 52.3287 4.316 0
256 5 53.5746 6.474 0
257 5 52.3287 8.632 0
258 5 53.5746 10.79 0
259 5 52.3287 12.948 0
260 5 53.5746 15.106 0
261 5 52.3287 17.264 0
262 5 53.5746 19.422 0
263 5 52.3287 21.58 0
264 5 53.5746 23.738 0
265 5 54.8206 0 0
266 5 56.0665 2.158 0
267 5 54.8206 4.316 0
268 5 56.0665 6.474 0
269 5 54.8206 8.632 0
270 5 56.0665 10.79 0
271 5 54.8206 12.948 0
272 5 56.0665 15.106 0
273 5 54.8206 17.264 0
274 5 56.0665 19.422 0
275 5 54.8206 21.58 0
276 5 56.0665 23.738 0
277 5 57.3124 0 0
278 5 58.5583 2.158 0
279 5 57.3124 4.316 0
280 5 58.5583 6.474 0
281 5 57.3124 8.632 0
282 5 58.5583 10.79 0
283 5 57.3124 12.948 0
284 5 58.5583 15.106 0
285 5 57.3124 17.264 0
286 5 58.5583 19.422 0
287 5 57.3124 21.58 0
288 5 58.5583 23.738 0
289 5 59.8043 0 0
290 5 61.0502 2.158 0
291 5 59.8043 4.316 0
292 5 61.0502 6.474 0
293 5 59.8043 8.632 0
294 5 61.0502 10.79 0
295 5 59.8043 12.948 0
296 5 61.0502 15.106 0
297 5 59.8043 17.264 0
298 5 61.0502 19.422 0
299 5 59.8043 21.58 0
300 5 61.0502 23.738 0
301 5 62.2961 0 0
302 5 63.542 2.158 0
303 5 62.2961 4.316 0
304 5 63.542 6.474 0
305 5 62.2961 8.632 0
306 5 63.542 10.79 0
307 5 62.2961 12.948 0
308 5 63.542 15.106 0
309 5 62.2961 17.264 0
310 5 63.542 19.422 0
311 5 62.2961 21.58 0
312 5 63.542 23.738 0
313 5 64.7879 0 0
314 5 66.0339 2.158 0
315 5 64.7879 4.316 0
316 5 66.0339 6.474 0
317 5 64.7879 8.632 0
318 5 66.0339 10.79 0
319 5 64.7879 12.948 0
320 5 66.0339 15.106 0
321 5 64.7879 17.264 0
322 5 66.0339 19.422 0
323 5 64.7879 21.58 0
324 5 66.0339 23.738 0
325 5 67.2798 0 0
326 5 68.5257 2.158 0
327 5 67.2798 4.316 0
328 5 68.5257 6.474 0
329 5 67.2798 8.632 0
330 5 68.5257 10.79 0
331 5 67.2798 12.948 0
332 5 68.5257 15.106 0
333 5 67.2798 17.264 0
334 5 68.5257 19.422 0
335 5 67.2798 21.58 0
336 5 68.5257 23.738 0
337 5 69.7716 0 0
338 5 71.0176 2.158 0
339 5 69.7716 4.316 0
340 5 71.0176 6.474 0
341 5 69.7716 8.632 0
342 5 71.0176 10.79 0
343 5 69.7716 12.948 0
344 5 71.0176 15.106 0
345 5 69.7716 17.264 0
346 5 71.0176 19.422 0
347 5 69.7716 21.58 0
348 5 71.0176 23.738 0
349 5 72.2635 0 0
350 5 73.5094 2.158 0
351 5 72.2635 4.316 0
352 5 73.5094 6.474 0
353 5 72.2635 8.632 0
354 5 73.5094 10.79 0
355 5 72.2635 12.948 0
356 5 73.5094 15.106 0
357 5 72.2635 17.264 0
358 5 73.5094 19.422 0
359 5 72.2635 21.58 0
360 5 73.5094 23.738 0
361 5 74.7553 0 0
362 5 76.0012 2.158 0
363 5 74.7553 4.316 0
364 5 76.0012 6.474 0
365 5 74.7553 8.632 0
366 5 76.0012 10.79 0
367 5 74.7553 12.948 0
368 5 76.0012 15.106 0
369 5 74.7553 17.264 0
370 5 76.0012 19.422 0
371 5 74.7553 21.58 0
372 5 76.0012 23.738 0
373 5 77.2472 0 0
374 5 78.4931 2.158 0
375 5 77.2472 4.316 0
376 5 78.4931 6.474 0
377 5 77.2472 8.632 0
378 5 78.4931 10.79 0
379 5 77.2472 12.948 0
380 5 78.4931 15.106 0
381 5 77.2472 17.264 0
382 5 78.4931 19.422 0
383 5 77.2472 21.58 0
384 5 78.4931 23.738 0
385 5 0.83061 1.43867 2.03458
386 5 2.07654 3.59667 2.03458
387 5 0.83061 5.75467 2.03458
388 5 2.07654 7.91267 2.03458
389 5 0.83061 10.0707 2.03458
390 5 2.07654 12.2287 2.03458
391 5 0.83061 14.3867 2.03458
392 5 2.07654 16.5447 2.03458
393 5 0.83061 18.7027 2.03458
394 5 2.07654 20.8607 2.03458
395 5 0.83061 23.0187 2.03458
396 5 2.07654 25.1767 2.03458
397 5 3.32246 1.43867 2.03458
398 5 4.56838 3.59667 2.03458
399 5 3.32246 5.75467 2.03458
400 5 4.56838 7.91267 2.03458
401 5 3.32246 10.0707 2.03458
402 5 4.56838 12.2287 2.03458
403 5 3.32246 14.3867 2.03458
404 5 4.56838 16.5447 2.03458
405 5 3.32246 18.7027 2.03458
406 5 4.56838 20.8607 2.03458
407 5 3.32246 23.0187 2.03458
408 5 4.56838 25.1767 2.03458
409 5 5.8143 1.43867 2.03458
410 5 7.06023 3.59667 2.03458
411 5 5.8143 5.75467 2.03458
412 5 7.06023 7.91267 2.03458
413 5 5.8143 10.0707 2.03458
414 5 7.06023 12.2287 2.03458
415 5 5.8143 14.3867 2.03458
416 5 7.06023 16.5447 2.03458
417 5 5.8143 18.7027 2.03458
418 5 7.06023 20.8607 2.03458
419 5 5.8143 23.0187 2.03458
420 5 7.06023 25.1767 2.03458
421 5 8.30615 1.43867 2.03458
422 5 9.55207 3.59667 2.03458
423 5 8.30615 5.75467 2.03458
424 5 9.55207 7.91267 2.03458
425 5 8.30615 10.0707 2.03458
426 5 9.55207 12.2287 2.03458
427 5 8.30615 14.3867 2.03458
428 5 9.55207 16.5447 2.03458
429 5 8.30615 18.7027 2.03458
430 5 9.55207 20.8607 2.03458
431 5 8.30615 23.0187 2.03458
432 5 9.55207 25.1767 2.03458
433 5 10.798 1.43867 2.03458
434 5 12.0439 3.59667 2.03458
435 5 10.798 5.75467 2.03458
436 5 12.0439 7.91267 2.03458
437 5 10.798 10.0707 2.03458
438 5 12.0439 12.2287 2.03458
439 5 10.798 14.3867 2.03458
440 5 12.0439 16.5447 2.03458
441 5 10.798 18.7027 2.03458
442 5 12.0439 20.8607 2.03458
443 5 10.798 23.0187 2.03458
444 5 12.0439 25.1767 2.03458
445 5 13.2898 1.43867 2.03458
446 5 14.5358 3.59667 2.03458
447 5 13.2898 5.75467 2.03458
448 5 14.5358 7.91267 2.03458
449 5 13.2898 10.0707 2.03458
450 5 14.5358 12.2287 2.03458
451 5 13.2898 14.3867 2.03458
452 5 14.5358 16.5447 2.03458
453 5 13.2898 18.7027 2.03458
454 5 14.5358 20.8607 2.03458
455 5 13.2898 23.0187 2.03458
456 5 14.5358 25.1767 2.03458
457 5 15.7817 1.43867 2.03458
458 5 17.0276 3.59667 2.03458
459 5 15.7817 5.75467 2.03458
460 5 17.0276 7.91267 2.03458
461 5 15.7817 10.0707 2.03458
462 5 17.0276 12.2287 2.03458
463 5 15.7817 14.3867 2.03458
464 5 17.0276 16.5447 2.03458
465 5 15.7817 18.7027 2.03458
466 5 17.0276 20.8607 2.03458
467 5 15.7817 23.0187 2.03458
468 5 17.0276 25.1767 2.03458
469 5 18.2735 1.43867 2.03458
470 5 19.5194 3.59667 2.03458
471 5 18.2735 5.75467 2.03458
472 5 19.5194 7.91267 2.03458
473 5 18.2735 10.0707 2.03458
474 5 19.5194 12.2287 2.03458
475 5 18.2735 14.3867 2.03458
476 5 19.5194 16.5447 2.03458
477 5 18.2735 18.7027 2.03458
478 5 19.5194 20.8607 2.03458
479 5 18.2735 23.0187 2.03458
480 5 19.5194 25.1767 2.03458
481 5 20.7654 1.43867 2.03458
482 5 22.0113 3.59667 2.03458
483 5 20.7654 5.75467 2.03458
484 5 22.0113 7.91267 2.03458
485 5 20.7654 10.0707 2.03458
486 5 22.0113 12.2287 2.03458
487 5 20.7654 14.3867 2.03458
488 5 22.0113 16.5447 2.03458
489 5 20.7654 18.7027 2.03458
490 5 22.0113 20.8607 2.03458
491 5 20.7654 23.0187 2.03458
492 5 22.0113 25.1767 2.03458
493 5 23.2572 1.43867 2.03458
494 5 24.5031 3.59667 2.03458
495 5 23.2572 5.75467 2.03458
496 5 24.5031 7.91267 2.03458
497 5 23.2572 10.0707 2.03458
498 5 24.5031 12.2287 2.03458
499 5 23.2572 14.3867 2.03458
500 5 24.5031 16.5447 2.03458
501 5 23.2572 18.7027 2.03458
502 5 24.5031 20.8607 2.03458
503 5 23.2572 23.0187 2.03458
504 5 24.5031 25.1767 2.03458
505 5 25.7491 1.43867 2.03458
506 5 26.995 3.59667 2.03458
507 5 25.7491 5.75467 2.03458
508 5 26.995 7.91267 2.03458
509 5 25.7491 10.0707 2.03458
510 5 26.995 12.2287 2.03458
511 5 25.7491 14.3867 2.03458
512 5 26.995 16.5447 2.03458
513 5 25.7491 18.7027 2.03458
514 5 26.995 20.8607 2.03458
515 5 25.7491 23.0187 2.03458
516 5 26.995 25.1767 2.03458
517 5 28.2409 1.43867 2.03458
518 5 29.4868 3.59667 2.03458
519 5 28.2409 5.75467 2.03458
520 5 29.4868 7.91267 2.03458
521 5 28.2409 10.0707 2.03458
522 5 29.4868 12.2287 2.03458
523 5 28.2409 14.3867 2.03458
524 5 29.4868 16.5447 2.03458
525 5 28.2409 18.7027 2.03458
526 5 29.4868 20.8607 2.03458
527 5 28.2409 23.0187 2.03458
528 5 29.4868 25.1767 2.03458
529 5 30.7327 1.43867 2.03458
530 5 31.9787 3.59667 2.03458
531 5 30.7327 5.75467 2.03458
532 5 31.9787 7.91267 2.03458
533 5 30.7327 10.0707 2.03458
534 5 31.9787 12.2287 2.03458
535 5 30.7327 14.3867 2.03458
536 5 31.9787 16.5447 2.03458
537 5 30.7327 18.7027 2.03458
538 5 31.9787 20.8607 2.03458
539 5 30.7327 23.0187 2.03458
540 5 31.9787 25.1767 2.03458
541 5 33.2246 1.43867 2.03458
542 5 34.4705 3.59667 2.03458
543 5 33.2246 5.75467 2.03458
544 5 34.4705 7.91267 2.03458
545 5 33.2246 10.0707 2.03458
546 5 34.4705 12.2287 2.03458
547 5 33.2246 14.3867 2.03458
548 5 34.4705 16.5447 2.03458
549 5 33.2246 18.7027 2.03458
550 5 34.4705 20.8607 2.03458
551 5 33.2246 23.0187 2.03458
552 5 34.4705 25.1767 2.03458
553 5 35.7164 1.43867 2.03458
554 5 36.9624 3.59667 2.03458
555 5 35.7164 5.75467 2.03458
556 5 36.9624 7.91267 2.03458
557 5 35.7164 10.0707 2.03458
558 5 36.9624 12.2287 2.03458
559 5 35.7164 14.3867 2.03458
560 5 36.9624 16.5447 2.03458
561 5 35.7164 18.7027 2.03458
562 5 36.9624 20.8607 2.03458
563 5 35.7164 23.0187 2.03458
564 5 36.9624 25.1767 2.03458
565 5 38.2083 1.43867 2.03458
566 5 39.4542 3.59667 2.03458
567 5 38.2083 5.75467 2.03458
568 5 39.4542 7.91267 2.03458
569 5 38.2083 10.0707 2.03458
570 5 39.4542 12.2287 2.03458
571 5 38.2083 14.3867 2.03458
572 5 39.4542 16.5447 2.03458
573 5 38.2083 18.7027 2.03458
574 5 39.4542 20.8607 2.03458
575 5 38.2083 23.0187 2.03458
576 5 39.4542 25.1767 2.03458
577 5 40.7001 1.43867 2.03458
578 5 41.946 3.59667 2.03458
579 5 40.7001 5.75467 2.03458
580 5 41.946 7.91267 2.03458
581 5 40.7001 10.0707 2.03458
582 5 41.946 12.2287 2.03458
583 5 40.7001 14.3867 2.03458
584 5 41.946 16.5447 2.03458
585 5 40.7001 18.7027 2.03458
586 5 41.946 20.8607 2.03458
587 5 40.7001 23.0187 2.03458
588 5 41.946 25.1767 2.03458
589 5 43.192 1.43867 2.03458
590 5 44.4379 3.59667 2.03458
591 5 43.192 5.75467 2.03458
592 5 44.4379 7.91267 2.03458
593 5 43.192 10.0707 2.03458
594 5 44.4379 12.2287 2.03458
595 5 43.192 14.3867 2.03458
596 5 44.4379 16.5447 2.03458
597 5 43.192 18.7027 2.03458
598 5 44.4379 20.8607 2.03458
599 5 43.192 23.0187 2.03458
600 5 44.4379 25.1767 2.03458
601 5 45.6838 1.43867 2.03458
602 5 46.9297 3.59667 2.03458
603 5 45.6838 5.75467 2.03458
604 5 46.9297 7.91267 2.03458
605 5 45.6838 10.0707 2.03458
606 5 46.9297 12.2287 2.03458
607 5 45.6838 14.3867 2.03458
608 5 46.9297 16.5447 2.03458
609 5 45.6838 18.7027 2.03458
610 5 46.9297 20.8607 2.03458
611 5 45.6838 23.0187 2.03458
612 5 46.9297 25.1767 2.03458
613 5 48.1757 1.43867 2.03458
614 5 49.4216 3.59667 2.03458
615 5 48.1757 5.75467 2.03458
616 5 49.4216 7.91267 2.03458
617 5 48.1757 10.0707 2.03458
618 5 49.4216 12.2287 2.03458
619 5 48.1757 14.3867 2.03458
620 5 49.4216 16.5447 2.03458
621 5 48.1757 18.7027 2.03458
622 5 49.4216 20.8607 2.03458
623 5 48.1757 23.0187 2.03458
624 5 49.4216 25.1767 2.03458
625 5 50.6675 1.43867 2.03458
626 5 51.9134 3.59667 2.03458
627 5 50.6675 5.75467 2.03458
628 5 51.9134 7.91267 2.03458
629 5 50.6675 10.0707 2.03458
630 5 51.9134 12.2287 2.03458
631 5 50.6675 14.3867 2.03458
632 5 51.9134 16.5447 2.03458
633 5 50.6675 18.7027 2.03458
634 5 51.9134 20.8607 2.03458
635 5 50.6675 23.0187 2.03458
636 5 51.9134 25.1767 2.03458
637 5 53.1594 1.43867 2.03458
638 5 54.4053 3.59667 2.03458
639 5 53.1594 5.75467 2.03458
640 5 54.4053 7.91267 2.03458
641 5 53.1594 10.0707 2.03458
642 5 54.4053 12.2287 2.03458
643 5 53.1594 14.3867 2.03458
644 5 54.4053 16.5447 2.03458
645 5 53.1594 18.7027 2.03458
646 5 54.4053 20.8607 2.03458
647 5 53.1594 23.0187 2.03458
648 5 54.4053 25.1767 2.03458
649 5 55.6512 1.43867 2.03458
650 5 56.8971 3.59667 2.03458
651 5 55.6512 5.75467 2.03458
652 5 56.8971 7.91267 2.03458
653 5 55.6512 10.0707 2.03458
654 5 56.8971 12.2287 2.03458
655 5 55.6512 14.3867 2.03458
656 5 56.8971 16.5447 2.03458
657 5 55.6512 18.7027 2.03458
658 5 56.8971 20.8607 2.03458
659 5 55.6512 23.0187 2.03458
660 5 56.8971 25.1767 2.03458
661 5 58.143 1.43867 2.03458
662 5 59.389 3.59667 2.03458
663 5 58.143 5.75467 2.03458
664 5 59.389 7.91267 2.03458
665 5 58.143 10.0707 2.03458
666 5 59.389 12.2287 2.03458
667 5 58.143 14.3867 2.03458
668 5 59.389 16.5447 2.03458
669 5 58.143 18.7027 2.03458
670 5 59.389 20.8607 2.03458
671 5 58.143 23.0187 2.03458
672 5 59.389 25.1767 2.03458
673 5 60.6349 1.43867 2.03458
674 5 61.8808 3.59667 2.03458
675 5 60.6349 5.75467 2.03458
676 5 61.8808 7.91267 2.03458
677 5 60.6349 10.0707 2.03458
678 5 61.8808 12.2287 2.03458
679 5 60.6349 14.3867 2.03458
680 5 61.8808 16.5447 2.03458
681 5 60.6349 18.7027 2.03458
682 5 61.8808 20.8607 2.03458
683 5 60.6349 23.0187 2.03458
684 5 61.8808 25.1767 2.03458
685 5 63.1267 1.43867 2.03458
686 5 64.3726 3.59667 2.03458
687 5 63.1267 5.75467 2.03458
688 5 64.3726 7.91267 2.03458
689 5 63.1267 10.0707 2.03458
690 5 64.3726 12.2287 2.03458
691 5 63.1267 14.3867 2.03458
692 5 64.3726 16.5447 2.03458
693 5 63.1267 18.7027 2.03458
694 5 64.3726 20.8607 2.03458
695 5 63.1267 23.0187 2.03458
696 5 64.3726 25.1767 2.03458
697 5 65.6186 1.43867 2.03458
698 5 66.8645 3.59667 2.03458
699 5 65.6186 5.75467 2.03458
700 5 66.8645 7.91267 2.03458
701 5 65.6186 10.0707 2.03458
702 5 66.8645 12.2287 2.03458
703 5 65.6186 14.3867 2.03458
704 5 66.8645 16.5447 2.03458
705 5 65.6186 18.7027 2.03458
706 5 66.8645 20.8607 2.03458
707 5 65.6186 23.0187 2.03458
708 5 66.8645 25.1767 2.03458
709 5 68.1104 1.43867 2.03458
710 5 69.3563 3.59667 2.03458
711 5 68.1104 5.75467 2.03458
712 5 69.3563 7.91267 2.03458
713 5 68.1104 10.0707 2.03458
714 5 69.3563 12.2287 2.03458
715 5 68.1104 14.3867 2.03458
716 5 69.3563 16.5447 2.03458
717 5 68.1104 18.7027 2.03458
718 5 69.3563 20.8607 2.03458
719 5 68.1104 23.0187 2.03458
720 5 69.3563 25.1767 2.03458
721 5 70.6023 1.43867 2.03458
722 5 71.8482 3.59667 2.03458
723 5 70.6023 5.75467 2.03458
724 5 71.8482 7.91267 2.03458
725 5 70.6023 10.0707 2.03458
726 5 71.8482 12.2287 2.03458
727 5 70.6023 14.3867 2.03458
728 5 71.8482 16.5447 2.03458
729 5 70.6023 18.7027 2.03458
730 5 71.8482 20.8607 2.03458
731 5 70.6023 23.0187 2.03458
732 5 71.8482 25.1767 2.03458
733 5 73.0941 1.43867 2.03458
734 5 74.34 3.59667 2.03458
735 5 73.0941 5.75467 2.03458
736 5 74.34 7.91267 2.03458
737 5 73.0941 10.0707 2.03458
738 5 74.34 12.2287 2.03458
739 5 73.0941 14.3867 2.03458
740 5 74.34 16.5447 2.03458
741 5 73.0941 18.7027 2.03458
742 5 74.34 20.8607 2.03458
743 5 73.0941 23.0187 2.03458
744 5 74.34 25.1767 2.03458
745 5 75.5859 1.43867 2.03458
746 5 76.8319 3.59667 2.03458
747 5 75.5859 5.75467 2.03458
748 5 76.8319 7.91267 2.03458
749 5 75.5859 10.0707 2.03458
750 5 76.8319 12.2287 2.03458
751 5 75.5859 14.3867 2.03458
752 5 76.8319 16.5447 2.03458
753 5 75.5859 18.7027 2.03458
754 5 76.8319 20.8607 2.03458
755 5 75.5859 23.0187 2.03458
756 5 76.8319 25.1767 2.03458
757 5 78.0778 1.43867 2.03458
758 5 79.3237 3.59667 2.03458
759 5 78.0778 5.75467 2.03458
760 5 79.3237 7.91267 2.03458
761 5 78.0778 10.0707 2.03458
762 5 79.3237 12.2287 2.03458
763 5 78.0778 14.3867 2.03458
764 5 79.3237 16.5447 2.03458
765 5 78.0778 18.7027 2.03458
766 5 79.3237 20.8607 2.03458
767 5 78.0778 23.0187 2.03458
768 5 79.3237 25.1767 2.03458
769 5 1.66123 2.87733 4.06916
770 5 2.90715 5.03533 4.06916
771 5 1.66123 7.19333 4.06916
772 5 2.90715 9.35134 4.06916
773 5 1.66123 11.5093 4.06916
774 5 2.90715 13.6673 4.06916
775 5 1.66123 15.8253 4.06916
776 5 2.90715 17.9833 4.06916
777 5 1.66123 20.1413 4.06916
778 5 2.90715 22.2993 4.06916
779 5 1.66123 24.4573 4.06916
780 5 2.90715 26.6153 4.06916
781 5 4.15307 2.87733 4.06916
782 5 5.399 5.03533 4.06916
783 5 4.15307 7.19333 4.06916
784 5 5.399 9.35134 4.06916
785 5 4.15307 11.5093 4.06916
786 5 5.399 13.6673 4.06916
787 5 4.15307 15.8253 4.06916
788 5 5.399 17.9833 4.06916
789 5 4.15307 20.1413 4.06916
790 5 5.399 22.2993 4.06916
791 5 4.15307 24.4573 4.06916
792 5 5.399 26.6153 4.06916
793 5 6.64492 2.87733 4.06916
794 5 7.89084 5.03533 4.06916
795 5 6.64492 7.19333 4.06916
796 5 7.89084 9.35134 4.06916
797 5 6.64492 11.5093 4.06916
798 5 7.89084 13.6673 4.06916
799 5 6.64492 15.8253 4.06916
800 5 7.89084 17.9833 4.06916
801 5 6.64492 20.1413 4.06916
802 5 7.89084 22.2993 4.06916
803 5 6.64492 24.4573 4.06916
804 5 7.89084 26.6153 4.06916
805 5 9.13676 2.87733 4.06916
806 5 10.3827 5.03533 4.06916
807 5 9.13676 7.19333 4.06916
808 5 10.3827 9.35134 4.06916
809 5 9.13676 11.5093 4.06916
810 5 10.3827 13.6673 4.06916
811 5 9.13676 15.8253 4.06916
812 5 10.3827 17.9833 4.06916
813 5 9.13676 20.1413 4.06916
814 5 10.3827 22.2993 4.06916
815 5 9.13676 24.4573 4.06916
816 5 10.3827 26.6153 4.06916
817 5 11.6286 2.87733 4.06916
818 5 12.8745 5.03533 4.06916
819 5 11.6286 7.19333 4.06916
820 5 12.8745 9.35134 4.06916
821 5 11.6286 11.5093 4.06916
822 5 12.8745 13.6673 4.06916
823 5 11.6286 15.8253 4.06916
824 5 12.8745 17.9833 4.06916
825 5 11.6286 20.1413 4.06916
826 5 12.8745 22.2993 4.06916
827 5 11.6286 24.4573 4.06916
828 5 12.8745 26.6153 4.06916
829 5 14.1204 2.87733 4.06916
830 5 15.3664 5.03533 4.06916
831 5 14.1204 7.19333 4.06916
832 5 15.3664 9.35134 4.06916
833 5 14.1204 11.5093 4.06916
834 5 15.3664 13.6673 4.06916
835 5 14.1204 15.8253 4.06916
836 5 15.3664 17.9833 4.06916
837 5 14.1204 20.1413 4.06916
838 5 15.3664 22.2993 4.06916
839 5 14.1204 24.4573 4.06916
840 5 15.3664 26.6153 4.06916
841 5 16.6123 2.87733 4.06916
842 5 17.8582 5.03533 4.06916
843 5 16.6123 7.19333 4.06916
844 5 17.8582 9.35134 4.06916
845 5 16.6123 11.5093 4.06916
846 5 17.8582 13.6673 4.06916
847 5 16.6123 15.8253 4.06916
848 5 17.8582 17.9833 4.06916
849 5 16.6123 20.1413 4.06916
850 5 17.8582 22.2993 4.06916
851 5 16.6123 24.4573 4.06916
852 5 17.8582 26.6153 4.06916
853 5 19.1041 2.87733 4.06916
854 5 20.3501 5.03533 4.06916
855 5 19.1041 7.19333 4.06916
856 5 20.3501 9.35134 4.06916
857 5 19.1041 11.5093 4.06916
858 5 20.3501 13.6673 4.06916
859 5 19.1041 15.8253 4.06916
860 5 20.3501 17.9833 4.06916
861 5 19.1041 20.1413 4.06916
862 5 20.3501 22.2993 4.06916
863 5 19.1041 24.4573 4.06916
864 5 20.3501 26.6153 4.06916
865 5 21.596 2.87733 4.06916
866 5 22.8419 5.03533 4.06916
867 5 21.596 7.19333 4.06916
868 5 22.8419 9.35134 4.06916
869 5 21.596 11.5093 4.06916
870 5 22.8419 13.6673 4.06916
871 5 21.596 15.8253 4.06916
872 5 22.8419 17.9833 4.06916
873 5 21.596 20.1413 4.06916
874 5 22.8419 22.2993 4.06916
875 5 21.596 24.4573 4.06916
876 5 22.8419 26.6153 4.06916
877 5 24.0878 2.87733 4.06916
878 5 25.3337 5.03533 4.06916
879 5 24.0878 7.19333 4.06916
880 5 25.3337 9.35134 4.06916
881 5 24.0878 11.5093 4.06916
882 5 25.3337 13.6673 4.06916
883 5 24.0878 15.8253 4.06916
884 5 25.3337 17.9833 4.06916
885 5 24.0878 20.1413 4.06916
886 5 25.3337 22.2993 4.06916
887 5 24.0878 24.4573 4.06916
888 5 25.3337 26.6153 4.06916
889 5 26.5797 2.87733 4.06916
890 5 27.8256 5.03533 4.06916
891 5 26.5797 7.19333 4.06916
892 5 27.8256 9.35134 4.06916
893 5 26.5797 11.5093 4.06916
894 5 27.8256 13.6673 4.06916
895 5 26.5797 15.8253 4.06916
896 5 27.8256 17.9833 4.06916
897 5 26.5797 20.1413 4.06916
898 5 27.8256 22.2993 4.06916
899 5 26.5797 24.4573 4.06916
900 5 27.8256 26.6153 4.06916
901 5 29.0715 2.87733 4.06916
902 5 30.3174 5.03533 4.06916
903 5 29.0715 7.19333 4.06916
904 5 30.3174 9.35134 4.06916
905 5 29.0715 11.5093 4.06916
906 5 30.3174 13.6673 4.06916
907 5 29.0715 15.8253 4.06916
908 5 30.3174 17.9833 4.06916
909 5 29.0715 20.1413 4.06916
910 5 30.3174 22.2993 4.06916
911 5 29.0715 24.4573 4.06916
912 5 30.3174 26.6153 4.06916
913 5 31.5634 2.87733 4.06916
914 5 32.8093 5.03533 4.06916
915 5 31.5634 7.19333 4.06916
916 5 32.8093 9.35134 4.06916
917 5 31.5634 11.5093 4.06916
918 5 32.8093 13.6673 4.06916
919 5 31.5634 15.8253 4.06916
920 5 32.8093 17.9833 4.06916
921 5 31.5634 20.1413 4.06916
922 5 32.8093 22.2993 4.06916
923 5 31.5634 24.4573 4.06916
924 5 32.8093 26.6153 4.06916
925 5 34.0552 2.87733 4.06916
926 5 35.3011 5.03533 4.06916
927 5 34.0552 7.19333 4.06916
928 5 35.3011 9.35134 4.06916
929 5 34.0552 11.5093 4.06916
930 5 35.3011 13.6673 4.06916
931 5 34.0552 15.8253 4.06916
932 5 35.3011 17.9833 4.06916
933 5 34.0552 20.1413 4.06916
934 5 35.3011 22.2993 4.06916
935 5 34.0552 24.4573 4.06916
936 5 35.3011 26.6153 4.06916
937 5 36.547 2.87733 4.06916
938 5 37.793 5.03533 4.06916
939 5 36.547 7.19333 4.06916
940 5 37.793 9.35134 4.06916
941 5 36.547 11.5093 4.06916
942 5 37.793 13.6673 4.06916
943 5 36.547 15.8253 4.06916
944 5 37.793 17.9833 4.06916
945 5 36.547 20.1413 4.06916
946 5 37.793 22.2993 4.06916
947 5 36.547 24.4573 4.06916
948 5 37.793 26.6153 4.06916
949 5 39.0389 2.87733 4.06916
950 5 40.2848 5.03533 4.06916
951 5 39.0389 7.19333 4.06916
952 5 40.2848 9.35134 4.06916
953 5 39.0389 11.5093 4.06916
954 5 40.2848 13.6673 4.06916
955 5 39.0389 15.8253 4.06916
956 5 40.2848 17.9833 4.06916
957 5 39.0389 20.1413 4.06916
958 5 40.2848 22.2993 4.06916
959 5 39.0389 24.4573 4.06916
960 5 40.2848 26.6153 4.06916
961 5 41.5307 2.87733 4.06916
962 5 42.7767 5.03533 4.06916
963 5 41.5307 7.19333 4.06916
964 5 42.7767 9.35134 4.06916
965 5 41.5307 11.5093 4.06916
966 5 42.7767 13.6673 4.06916
967 5 41.5307 15.8253 4.06916
968 5 42.7767 17.9833 4.06916
969 5 41.5307 20.1413 4.06916
970 5 42.7767 22.2993 4.06916
971 5 41.5307 24.4573 4.06916
972 5 42.7767 26.6153 4.06916
973 5 44.0226 2.87733 4.06916
974 5 45.2685 5.03533 4.06916
975 5 44.0226 7.19333 4.06916
976 5 45.2685 9.35134 4.06916
977 5 44.0226 11.5093 4.06916
978 5 45.2685 13.6673 4.06916
979 5 44.0226 15.8253 4.06916
980 5 45.2685 17.9833 4.06916
981 5 44.0226 20.1413 4.06916
982 5 45.2685 22.2993 4.06916
983 5 44.0226 24.4573 4.06916
984 5 45.2685 26.6153 4.06916
985 5 46.5144 2.87733 4.06916
986 5 47.7604 5.03533 4.06916
987 5 46.5144 7.19333 4.06916
988 5 47.7604 9.35134 4.06916
989 5 46.5144 11.5093 4.06916
990 5 47.7604 13.6673 4.06916
991 5 46.5144 15.8253 4.06916
992 5 47.7604 17.9833 4.06916
993 5 46.5144 20.1413 4.06916
994 5 47.7604 22.2993 4.06916
995 5 46.5144 24.4573 4.06916
996 5 47.7604 26.6153 4.06916
997 5 49.0063 2.87733 4.06916
998 5 50.2522 5.03533 4.06916
999 5 49.0063 7.19333 4.06916
1000 5 50.2522 9.35134 4.06916
1001 5 49.0063 11.5093 4.06916
1002 5 50.2522 13.6673 4.06916
1003 5 49.0063 15.8253 4.06916
1004 5 50.2522 17.9833 4.06916
1005 5 49.0063 20.1413 4.06916
1006 5 50.2522 22.2993 4.06916
1007 5 49.0063 24.4573 4.06916
1008 5 50.2522 26.6153 4.06916
1009 5 51.4981 2.87733 4.06916
1010 5 52.744 5.03533 4.06916
1011 5 51.4981 7.19333 4.06916
1012 5 52.744 9.35134 4.06916
1013 5 51.4981 11.5093 4.06916
1014 5 52.744 13.6673 4.06916
1015 5 51.4981 15.8253 4.06916
1016 5 52.744 17.9833 4.06916
1017 5 51.4981 20.1413 4.06916
1018 5 52.744 22.2993 4.06916
1019 5 51.4981 24.4573 4.06916
1020 5 52.744 26.6153 4.06916
1021 5 53.99 2.87733 4.06916
1022 5 55.2359 5.03533 4.06916
1023 5 53.99 7.19333 4.06916
1024 5 55.2359 9.35134 4.06916
1025 5 53.99 11.5093 4.06916
1026 5 55.2359 13.6673 4.06916
1027 5 53.99 15.8253 4.06916
1028 5 55.2359 17.9833 4.06916
1029 5 53.99 20.1413 4.06916
1030 5 55.2359 22.2993 4.06916
1031 5 53.99 24.4573 4.06916
1032 5 55.2359 26.6153 4.06916
1033 5 56.4818 2.87733 4.06916
1034 5 57.7277 5.03533 4.06916
1035 5 56.4818 7.19333 4.06916
1036 5 57.7277 9.35134 4.06916
1037 5 56.4818 11.5093 4.06916
1038 5 57.7277 13.6673 4.06916
1039 5 56.4818 15.8253 4.06916
1040 5 57.7277 17.9833 4.06916
1041 5 56.4818 20.1413 4.06916
1042 5 57.7277 22.2993 4.06916
1043 5 56.4818 24.4573 4.06916
1044 5 57.7277 26.6153 4.06916
1045 5 58.9736 2.87733 4.06916
1046 5 60.2196 5.03533 4.06916
1047 5 58.9736 7.19333 4.06916
1048 5 60.2196 9.35134 4.06916
1049 5 58.9736 11.5093 4.06916
1050 5 60.2196 13.6673 4.06916
1051 5 58.9736 15.8253 4.06916
1052 5 60.2196 17.9833 4.06916
1053 5 58.9736 20.1413 4.06916
1054 5 60.2196 22.2993 4.06916
1055 5 58.9736 24.4573 4.06916
1056 5 60.2196 26.6153 4.06916
1057 5 61.4655 2.87733 4.06916
1058 5 62.7114 5.03533 4.06916
1059 5 61.4655 7.19333 4.06916
1060 5 62.7114 9.35134 4.06916
1061 5 61.4655 11.5093 4.06916
1062 5 62.7114 13.6673 4.06916
1063 5 61.4655 15.8253 4.06916
1064 5 62.7114 17.9833 4.06916
1065 5 61.4655 20.1413 4.06916
1066 5 62.7114 22.2993 4.06916
1067 5 61.4655 24.4573 4.06916
1068 5 62.7114 26.6153 4.06916
1069 5 63.9573 2.87733 4.06916
1070 5 65.2033 5.03533 4.06916
1071 5 63.9573 7.19333 4.06916
1072 5 65.2033 9.35134 4.06916
1073 5 63.9573 11.5093 4.06916
1074 5 65.2033 13.6673 4.06916
1075 5 63.9573 15.8253 4.06916
1076 5 65.2033 17.9833 4.06916
1077 5 63.9573 20.1413 4.06916
1078 5 65.2033 22.2993 4.06916
1079 5 63.9573 24.4573 4.06916
1080 5 65.2033 26.6153 4.06916
1081 5 66.4492 2.87733 4.06916
1082 5 67.6951 5.03533 4.06916
1083 5 66.4492 7.19333 4.06916
1084 5 67.6951 9.35134 4.06916
1085 5 66.4492 11.5093 4.06916
1086 5 67.6951 13.6673 4.06916
1087 5 66.4492 15.8253 4.06916
1088 5 67.6951 17.9833 4.06916
1089 5 66.4492 20.1413 4.06916
1090 5 67.6951 22.2993 4.06916
1091 5 66.4492 24.4573 4.06916
1092 5 67.6951 26.6153 4.06916
1093 5 68.941 2.87733 4.06916
1094 5 70.1869 5.03533 4.06916
1095 5 68.941 7.19333 4.06916
1096 5 70.1869 9.35134 4.06916
1097 5 68.941 11.5093 4.06916
1098 5 70.1869 13.6673 4.06916
1099 5 68.941 15.8253 4.06916
1100 5 70.1869 17.9833 4.06916
1101 5 68.941 20.1413 4.06916
1102 5 70.1869 22.2993 4.06916
1103 5 68.941 24.4573 4.06916
1104 5 70.1869 26.6153 4.06916
1105 5 71.4329 2.87733 4.06916
1106 5 72.6788 5.03533 4.06916
1107 5 71.4329 7.19333 4.06916
1108 5 72.6788 9.35134 4.06916
1109 5 71.4329 11.5093 4.06916
1110 5 72.6788 13.6673 4.06916
1111 5 71.4329 15.8253 4.06916
1112 5 72.6788 17.9833 4.06916
1113 5 71.4329 20.1413 4.06916
1114 5 72.6788 22.2993 4.06916
1115 5 71.4329 24.4573 4.06916
1116 5 72.6788 26.6153 4.06916
1117 5 73.9247 2.87733 4.06916
1118 5 75.1706 5.03533 4.06916
1119 5 73.9247 7.19333 4.06916
1120 5 75.1706 9.35134 4.06916
1121 5 73.9247 11.5093 4.06916
1122 5 75.1706 13.6673 4.06916
1123 5 73.9247 15.8253 4.06916
1124 5 75.1706 17.9833 4.06916
1125 5 73.9247 20.1413 4.06916
1126 5 75.1706 22.2993 4.06916
1127 5 73.9247 24.4573 4.06916
1128 5 75.1706 26.6153 4.06916
1129 5 76.4166 2.87733 4.06916
1130 5 77.6625 5.03533 4.06916
1131 5 76.4166 7.19333 4.06916
1132 5 77.6625 9.35134 4.06916
1133 5 76.4166 11.5093 4.06916
1134 5 77.6625 13.6673 4.06916
1135 5 76.4166 15.8253 4.06916
1136 5 77.6625 17.9833 4.06916
1137 5 76.4166 20.1413 4.06916
1138 5 77.6625 22.2993 4.06916
1139 5 76.4166 24.4573 4.06916
1140 5 77.6625 26.6153 4.06916
1141 5 78.9084 2.87733 4.06916
1142 5 0.15432 5.03533 4.06916
1143 5 78.9084 7.19333 4.06916
1144 5 0.15432 9.35134 4.06916
1145 5 78.9084 11.5093 4.06916
1146 5 0.15432 13.6673 4.06916
1147 5 78.9084 15.8253 4.06916
1148 5 0.15432 17.9833 4.06916
1149 5 78.9084 20.1413 4.06916
1150 5 0.15432 22.2993 4.06916
1151 5 78.9084 24.4573 4.06916
1152 5 0.15432 26.6153 4.06916
1153 5 0 0 6.10375
1154 5 1.24592 2.158 6.10375
1155 5 0 4.316 6.10375
1156 5 1.24592 6.474 6.10375
1157 5 0 8.632 6.10375
1158 5 1.24592 10.79 6.10375
1159 5 0 12.948 6.10375
1160 5 1.24592 15.106 6.10375
1161 5 0 17.264 6.10375
1162 5 1.24592 19.422 6.10375
1163 5 0 21.58 6.10375
1164 5 1.24592 23.738 6.10375
1165 5 2.49184 0 6.10375
1166 5 3.73777 2.158 6.10375
1167 5 2.49184 4.316 6.10375
1168 5 3.73777 6.474 6.10375
1169 5 2.49184 8.632 6.10375
1170 5 3.73777 10.79 6.10375
1171 5 2.49184 12.948 6.10375
1172 5 3.73777 15.106 6.10375
1173 5 2.49184 17.264 6.10375
1174 5 3.73777 19.422 6.10375
1175 5 2.49184 21.58 6.10375
1176 5 3.73777 23.738 6.10375
1177 5 4.98369 0 6.10375
1178 5 6.22961 2.158 6.10375
1179 5 4.98369 4.316 6.10375
1180 5 6.22961 6.474 6.10375
1181 5 4.98369 8.632 6.10375
1182 5 6.22961 10.79 6.10375
1183 5 4.98369 12.948 6.10375
1184 5 6.22961 15.106 6.10375
1185 5 4.98369 17.264 6.10375
1186 5 6.22961 19.422 6.10375
1187 5 4.98369 21.58 6.10375
1188 5 6.22961 23.738 6.10375
1189 5 7.47553 0 6.10375
1190 5 8.72146 2.158 6.10375
1191 5 7.47553 4.316 6.10375
1192 5 8.72146 6.474 6.10375
1193 5 7.47553 8.632 6.10375
1194 5 8.72146 10.79 6.10375
1195 5 7.47553 12.948 6.10375
1196 5 8.72146 15.106 6.10375
1197 5 7.47553 17.264 6.10375
1198 5 8.72146 19.422 6.10375
1199 5 7.47553 21.58 6.10375
1200 5 8.72146 23.738 6.10375
1201 5 9.96738 0 6.10375
1202 5 11.2133 2.158 6.10375
1203 5 9.96738 4.316 6.10375
1204 5 11.2133 6.474 6.10375
1205 5 9.96738 8.632 6.10375
1206 5 11.2133 10.79 6.10375
1207 5 9.96738 12.948 6.10375
1208 5 11.2133 15.106 6.10375
1209 5 9.96738 17.264 6.10375
1210 5 11.2133 19.422 6.10375
1211 5 9.96738 21.58 6.10375
1212 5 11.2133 23.738 6.10375
1213 5 12.4592 0 6.10375
1214 5 13.7051 2.158 6.10375
1215 5 12.4592 4.316 6.10375
1216 5 13.7051 6.474 6.10375
1217 5 12.4592 8.632 6.10375
1218 5 13.7051 10.79 6.10375
1219 5 12.4592 12.948 6.10375
1220 5 13.7051 15.106 6.10375
1221 5 12.4592 17.264 6.10375
1222 5 13.7051 19.422 6.10375
1223 5 12.4592 21.58 6.10375
1224 5 13.7051 23.738 6.10375
1225 5 14.9511 0 6.10375
1226 5 16.197 2.158 6.10375
1227 5 14.9511 4.316 6.10375
1228 5 16.197 6.474 6.10375
1229 5 14.9511 8.632 6.10375
1230 5 16.197 10.79 6.10375
1231 5 14.9511 12.948 6.10375
1232 5 16.197 15.106 6.10375
1233 5 14.9511 17.264 6.10375
1234 5 16.197 19.422 6.10375
1235 5 14.9511 21.58 6.10375
1236 5 16.197 23.738 6.10375
1237 5 17.4429 0 6.10375
1238 5 18.6888 2.158 6.10375
1239 5 17.4429 4.316 6.10375
1240 5 18.6888 6.474 6.10375
1241 5 17.4429 8.632 6.10375
1242 5 18.6888 10.79 6.10375
1243 5 17.4429 12.948 6.10375
1244 5 18.6888 15.106 6.10375
1245 5 17.4429 17.264 6.10375
1246 5 18.6888 19.422 6.10375
1247 5 17.4429 21.58 6.10375
1248 5 18.6888 23.738 6.10375
1249 5 19.9348 0 6.10375
1250 5 21.1807 2.158 6.10375
1251 5 19.9348 4.316 6.10375
1252 5 21.1807 6.474 6.10375
1253 5 19.9348 8.632 6.10375
1254 5 21.1807 10.79 6.10375
1255 5 19.9348 12.948 6.10375
1256 5 21.1807 15.106 6.10375
1257 5 19.9348 17.264 6.10375
1258 5 21.1807 19.422 6.10375
1259 5 19.9348 21.58 6.10375
1260 5 21.1807 23.738 6.10375
1261 5 22.4266 0 6.10375
1262 5 23.6725 2.158 6.10375
1263 5 22.4266 4.316 6.10375
1264 5 23.6725 6.474 6.10375
1265 5 22.4266 8.632 6.10375
1266 5 23.6725 10.79 6.10375
1267 5 22.4266 12.948 6.10375
1268 5 23.6725 15.106 6.10375
1269 5 22.4266 17.264 6.10375
1270 5 23.6725 19.422 6.10375
1271 5 22.4266 21.58 6.10375
1272 5 23.6725 23.738 6.10375
1273 5 24.9184 0 6.10375
1274 5 26.1644 2.158 6.10375
1275 5 24.9184 4.316 6.10375
1276 5 26.1644 6.474 6.10375
1277 5 24.9184 8.632 6.10375
1278 5 26.1644 10.79 6.10375
1279 5 24.9184 12.948 6.10375
1280 5 26.1644 15.106 6.10375
1281 5 24.9184 17.264 6.10375
1282 5 26.1644 19.422 6.10375
1283 5 24.9184 21.58 6.10375
1284 5 26.1644 23.738 6.10375
1285 5 27.4103 0 6.10375
1286 5 28.6562 2.158 6.10375
1287 5 27.4103 4.316 6.10375
1288 5 28.6562 6.474 6.10375
1289 5 27.4103 8.632 6.10375
1290 5 28.6562 10.79 6.10375
1291 5 27.4103 12.948 6.10375
1292 5 28.6562 15.106 6.10375
1293 5 27.4103 17.264 6.10375
1294 5 28.6562 19.422 6.10375
1295 5 27.4103 21.58 6.10375
1296 5 28.6562 23.738 6.10375
1297 5 29.9021 0 6.10375
1298 5 31.1481 2.158 6.10375
1299 5 29.9021 4.316 6.10375
1300 5 31.1481 6.474 6.10375
1301 5 29.9021 8.632 6.10375
1302 5 31.1481 10.79 6.10375
1303 5 29.9021 12.948 6.10375
1304 5 31.1481 15.106 6.10375
1305 5 29.9021 17.264 6.10375
1306 5 31.1481 19.422 6.10375
1307 5 29.9021 21.58 6.10375
1308 5 31.1481 23.738 6.10375
1309 5 32.394 0 6.10375
1310 5 33.6399 2.158 6.10375
1311 5 32.394 4.316 6.10375
1312 5 33.6399 6.474 6.10375
1313 5 32.394 8.632 6.10375
1314 5 33.6399 10.79 6.10375
1315 5 32.394 12.948 6.10375
1316 5 33.6399 15.106 6.10375
1317 5 32.394 17.264 6.10375
1318 5 33.6399 19.422 6.10375
1319 5 32.394 21.58 6.10375
1320 5 33.6399 23.738 6.10375
1321 5 34.8858 0 6.10375
1322 5 36.1317 2.158 6.10375
1323 5 34.8858 4.316 6.10375
1324 5 36.1317 6.474 6.10375
1325 5 34.8858 8.632 6.10375
1326 5 36.1317 10.79 6.10375
1327 5 34.8858 12.948 6.10375
1328 5 36.1317 15.106 6.10375
1329 5 34.8858 17.264 6.10375
1330 5 36.1317 19.422 6.10375
1331 5 34.8858 21.58 6.10375
1332 5 36.1317 23.738 6.10375
1333 5 37.3777 0 6.10375
1334 5 38.6236 2.158 6.10375
1335 5 37.3777 4.316 6.10375
1336 5 38.6236 6.474 6.10375
1337 5 37.3777 8.632 6.10375
1338 5 38.6236 10.79 6.10375
1339 5 37.3777 12.948 6.10375
1340 5 38.6236 15.106 6.10375
1341 5 37.3777 17.264 6.10375
1342 5 38.6236 19.422 6.10375
1343 5 37.3777 21.58 6.10375
1344 5 38.6236 23.738 6.10375
1345 5 39.8695 0 6.10375
1346 5 41.1154 2.158 6.10375
1347 5 39.8695 4.316 6.10375
1348 5 41.1154 6.474 6.10375
1349 5 39.8695 8.632 6.10375
1350 5 41.1154 10.79 6.10375
1351 5 39.8695 12.948 6.10375
1352 5 41.1154 15.106 6.10375
1353 5 39.8695 17.264 6.10375
1354 5 41.1154 19.422 6.10375
1355 5 39.8695 21.58 6.10375
1356 5 41.1154 23.738 6.10375
1357 5 42.3614 0 6.10375
1358 5 43.6073 2.158 6.10375
1359 5 42.3614 4.316 6.10375
1360 5 43.6073 6.474 6.10375
1361 5 42.3614 8.632 6.10375
1362 5 43.6073 10.79 6.10375
1363 5 42.3614 12.948 6.10375
1364 5 43.6073 15.106 6.10375
1365 5 42.3614 17.264 6.10375
1366 5 43.6073 19.422 6.10375
1367 5 42.3614 21.58 6.10375
1368 5 43.6073 23.738 6.10375
1369 5 44.8532 0 6.10375
1370 5 46.0991 2.158 6.10375
1371 5 44.8532 4.316 6.10375
1372 5 46.0991 6.474 6.10375
1373 5 44.8532 8.632 6.10375
1374 5 46.0991 10.79 6.10375
1375 5 44.8532 12.948 6.10375
1376 5 46.0991 15.106 6.10375
1377 5 44.8532 17.264 6.10375
1378 5 46.0991 19.422 6.10375
1379 5 44.8532 21.58 6.10375
1380 5 46.0991 23.738 6.10375
1381 5 47.345 0 6.10375
1382 5 48.591 2.158 6.10375
1383 5 47.345 4.316 6.10375
1384 5 48.591 6.474 6.10375
1385 5 47.345 8.632 6.10375
1386 5 48.591 10.79 6.10375
1387 5 47.345 12.948 6.10375
1388 5 48.591 15.106 6.10375
1389 5 47.345 17.264 6.10375
1390 5 48.591 19.422 6.10375
1391 5 47.345 21.58 6.10375
1392 5 48.591 23.738 6.10375
1393 5 49.8369 0 6.10375
1394 5 51.0828 2.158 6.10375
1395 5 49.8369 4.316 6.10375
1396 5 51.0828 6.474 6.10375
1397 5 49.8369 8.632 6.10375
1398 5 51.0828 10.79 6.10375
1399 5 49.8369 12.948 6.10375
1400 5 51.0828 15.106 6.10375
1401 5 49.8369 17.264 6.10375
1402 5 51.0828 19.422 6.10375
1403 5 49.8369 21.58 6.10375
1404 5 51.0828 23.738 6.10375
1405 5 52.3287 0 6.10375
1406 5 53.5746 2.158 6.10375
1407 5 52.3287 4.316 6.10375
1408 5 53.5746 6.474 6.10375
1409 5 52.3287 8.632 6.10375
1410 5 53.5746 10.79 6.10375
1411 5 52.3287 12.948 6.10375
1412 5 53.5746 15.106 6.10375
1413 5 52.3287 17.264 6.10375
1414 5 53.5746 19.422 6.10375
1415 5 52.3287 21.58 6.10375
1416 5 53.5746 23.738 6.10375
1417 5 54.8206 0 6.10375
1418 5 56.0665 2.158 6.10375
1419 5 54.8206 4.316 6.10375
1420 5 56.0665 6.474 6.10375
1421 5 54.8206 8.632 6.10375
1422 5 56.0665 10.79 6.10375
1423 5 54.8206 12.948 6.10375
1424 5 56.0665 15.106 6.10375
1425 5 54.8206 17.264 6.10375
1426 5 56.0665 19.422 6.10375
1427 5 54.8206 21.58 6.10375
1428 5 56.0665 23.738 6.10375
1429 5 57.3124 0 6.10375
1430 5 58.5583 2.158 6.10375
1431 5 57.3124 4.316 6.10375
1432 5 58.5583 6.474 6.10375
1433 5 57.3124 8.632 6.10375
1434 5 58.5583 10.79 6.10375
1435 5 57.3124 12.948 6.10375
1436 5 58.5583 15.106 6.10375
1437 5 57.3124 17.264 6.10375
1438 5 58.5583 19.422 6.10375
1439 5 57.3124 21.58 6.10375
1440 5 58.5583 23.738 6.10375
1441 5 59.8043 0 6.10375
1442 5 61.0502 2.158 6.10375
1443 5 59.8043 4.316 6.10375
1444 5 61.0502 6.474 6.10375
1445 5 59.8043 8.632 6.10375
1446 5 61.0502 10.79 6.10375
1447 5 59.8043 12.948 6.10375
1448 5 61.0502 15.106 6.10375
1449 5 59.8043 17.264 6.10375
1450 5 61.0502 19.422 6.10375
1451 5 59.8043 21.58 6.10375
1452 5 61.0502 23.738 6.10375
1453 5 62.2961 0 6.10375
1454 5 63.542 2.158 6.10375
1455 5 62.2961 4.316 6.10375
1456 5 63.542 6.474 6.10375
1457 5 62.2961 8.632 6.10375
1458 5 63.542 10.79 6.10375
1459 5 62.2961 12.948 6.10375
1460 5 63.542 15.106 6.10375
1461 5 62.2961 17.264 6.10375
1462 5 63.542 19.422 6.10375
1463 5 62.2961 21.58 6.10375
1464 5 63.542 23.738 6.10375
1465 5 64.7879 0 6.10375
1466 5 66.0339 2.158 6.10375
1467 5 64.7879 4.316 6.10375
1468 5 66.0339 6.474 6.10375
1469 5 64.7879 8.632 6.10375
1470 5 66.0339 10.79 6.10375
1471 5 64.7879 12.948 6.10375
1472 5 66.0339 15.106 6.10375
1473 5 64.7879 17.264 6.10375
1474 5 66.0339 19.422 6.10375
1475 5 64.7879 21.58 6.10375
1476 5 66.0339 23.738 6.10375
1477 5 67.2798 0 6.10375
1478 5 68.5257 2.158 6.10375
1479 5 67.2798 4.316 6.10375
1480 5 68.5257 6.474 6.10375
1481 5 67.2798 8.632 6.10375
1482 5 68.5257 10.79 6.10375
1483 5 67.2798 12.948 6.10375
1484 5 68.5257 15.106 6.10375
1485 5 67.2798 17.264 6.10375
1486 5 68.5257 19.422 6.10375
1487 5 67.2798 21.58 6.10375
1488 5 68.5257 23.738 6.10375
1489 5 69.7716 0 6.10375
1490 5 71.0176 2.158 6.10375
1491 5 69.7716 4.316 6.10375
1492 5 71.0176 6.474 6.10375
1493 5 69.7716 8.632 6.10375
1494 5 71.0176 10.79 6.10375
1495 5 69.7716 12.948 6.10375
1496 5 71.0176 15.106 6.10375
1497 5 69.7716 17.264 6.10375
1498 5 71.0176 19.422 6.10375
1499 5 69.7716 21.58 6.10375
1500 5 71.0176 23.738 6.10375
1501 5 72.2635 0 6.10375
1502 5 73.5094 2.158 6.10375
1503 5 72.2635 4.316 6.10375
1504 5 73.5094 6.474 6.10375
1505 5 72.2635 8.632 6.10375
1506 5 73.5094 10.79 6.10375
1507 5 72.2635 12.948 6.10375
1508 5 73.5094 15.106 6.10375
1509 5 72.2635 17.264 6.10375
1510 5 73.5094 19.422 6.10375
1511 5 72.2635 21.58 6.10375
1512 5 73.5094 23.738 6.10375
1513 5 74.7553 0 6.10375
1514 5 76.0012 2.158 6.10375
1515 5 74.7553 4.316 6.10375
1516 5 76.0012 6.474 6.10375
1517 5 74.7553 8.632 6.10375
1518 5 76.0012 10.79 6.10375
1519 5 74.7553 12.948 6.10375
1520 5 76.0012 15.106 6.10375
1521 5 74.7553 17.264 6.10375
1522 5 76.0012 19.422 6.10375
1523 5 74.7553 21.58 6.10375
1524 5 76.0012 23.738 6.10375
1525 5 77.2472 0 6.10375
1526 5 78.4931 2.158 6.10375
1527 5 77.2472 4.316 6.10375
1528 5 78.4931 6.474 6.10375
1529 5 77.2472 8.632 6.10375
1530 5 78.4931 10.79 6.10375
1531 5 77.2472 12.948 6.10375
1532 5 78.4931 15.106 6.10375
1533 5 77.2472 17.264 6.10375
1534 5 78.4931 19.422 6.10375
1535 5 77.2472 21.58 6.10375
1536 5 78.4931 23.738 6.10375
1537 5 0.83061 1.43867 8.13833
1538 5 2.07654 3.59667 8.13833
1539 5 0.83061 5.75467 8.13833
1540 5 2.07654 7.91267 8.13833
1541 5 0.83061 10.0707 8.13833
1542 5 2.07654 12.2287 8.13833
1543 5 0.83061 14.3867 8.13833
1544 5 2.07654 16.5447 8.13833
1545 5 0.83061 18.7027 8.13833
1546 5 2.07654 20.8607 8.13833
1547 5 0.83061 23.0187 8.13833
1548 5 2.07654 25.1767 8.13833
1549 5 3.32246 1.43867 8.13833
1550 5 4.56838 3.59667 8.13833
1551 5 3.32246 5.75467 8.13833
1552 5 4.56838 7.91267 8.13833
1553 5 3.32246 10.0707 8.13833
1554 5 4.56838 12.2287 8.13833
1555 5 3.32246 14.3867 8.13833
1556 5 4.56838 16.5447 8.13833
1557 5 3.32246 18.7027 8.13833
1558 5 4.56838 20.8607 8.13833
1559 5 3.32246 23.0187 8.13833
1560 5 4.56838 25.1767 8.13833
1561 5 5.8143 1.43867 8.13833
1562 5 7.06023 3.59667 8.13833
1563 5 5.8143 5.75467 8.13833
1564 5 7.06023 7.91267 8.13833
1565 5 5.8143 10.0707 8.13833
1566 5 7.06023 12.2287 8.13833
1567 5 5.8143 14.3867 8.13833
1568 5 7.06023 16.5447 8.13833
1569 5 5.8143 18.7027 8.13833
1570 5 7.06023 20.8607 8.13833
1571 5 5.8143 23.0187 8.13833
1572 5 7.06023 25.1767 8.13833
1573 5 8.30615 1.43867 8.13833
1574 5 9.55207 3.59667 8.13833
1575 5 8.30615 5.75467 8.13833
1576 5 9.55207 7.91267 8.13833
1577 5 8.30615 10.0707 8.13833
1578 5 9.55207 12.2287 8.13833
1579 5 8.30615 14.3867 8.13833
1580 5 9.55207 16.5447 8.13833
1581 5 8.30615 18.7027 8.13833
1582 5 9.55207 20.8607 8.13833
1583 5 8.30615 23.0187 8.13833
1584 5 9.55207 25.1767 8.13833
1585 5 10.798 1.43867 8.13833
1586 5 12.0439 3.59667 8.13833
1587 5 10.798 5.75467 8.13833
1588 5 12.0439 7.91267 8.13833
1589 5 10.798 10.0707 8.13833
1590 5 12.0439 12.2287 8.13833
1591 5 10.798 14.3867 8.13833
1592 5 12.0439 16.5447 8.13833
1593 5 10.798 18.7027 8.13833
1594 5 12.0439 20.8607 8.13833
1595 5 10.798 23.0187 8.13833
1596 5 12.0439 25.1767 8.13833
1597 5 13.2898 1.43867 8.13833
1598 5 14.5358 3.59667 8.13833
1599 5 13.2898 5.75467 8.13833
1600 5 14.5358 7.91267 8.13833
1601 5 13.2898 10.0707 8.13833
1602 5 14.5358 12.2287 8.13833
1603 5 13.2898 14.3867 8.13833
1604 5 14.5358 16.5447 8.13833
1605 5 13.2898 18.7027 8.13833
1606 5 14.5358 20.8607 8.13833
1607 5 13.2898 23.0187 8.13833
1608 5 14.5358 25.1767 8.13833
1609 5 15.7817 1.43867 8.13833
1610 5 17.0276 3.59667 8.13833
1611 5 15.7817 5.75467 8.13833
1612 5 17.0276 7.91267 8.13833
1613 5 15.7817 10.0707 8.13833
1614 5 17.0276 12.2287 8.13833
1615 5 15.7817 14.3867 8.13833
1616 5 17.0276 16.5447 8.13833
1617 5 15.7817 18.7027 8.13833
1618 5 17.0276 20.8607 8.13833
1619 5 15.7817 23.0187 8.13833
1620 5 17.0276 25.1767 8.13833
1621 5 18.2735 1.43867 8.13833
1622 5 19.5194 3.59667 8.13833
1623 5 18.2735 5.75467 8.13833
1624 5 19.5194 7.91267 8.13833
1625 5 18.2735 10.0707 8.13833
1626 5 19.5194 12.2287 8.13833
1627 5 18.2735 14.3867 8.13833
1628 5 19.5194 16.5447 8.13833
1629 5 18.2735 18.7027 8.13833
1630 5 19.5194 20.8607 8.13833
1631 5 18.2735 23.0187 8.13833
1632 5 19.5194 25.1767 8.13833
1633 5 20.7654 1.43867 8.13833
1634 5 22.0113 3.59667 8.13833
1635 5 20.7654 5.75467 8.13833
1636 5 22.0113 7.91267 8.13833
1637 5 20.7654 10.0707 8.13833
1638 5 22.0113 12.2287 8.13833
1639 5 20.7654 14.3867 8.13833
1640 5 22.0113 16.5447 8.13833
1641 5 20.7654 18.7027 8.13833
1642 5 22.0113 20.8607 8.13833
1643 5 20.7654 23.0187 8.13833
1644 5 22.0113 25.1767 8.13833
1645 5 23.2572 1.43867 8.13833
1646 5 24.5031 3.59667 8.13833
1647 5 23.2572 5.75467 8.13833
1648 5 24.5031 7.91267 8.13833
1649 5 23.2572 10.0707 8.13833
1650 5 24.5031 12.2287 8.13833
1651 5 23.2572 14.3867 8.13833
1652 5 24.5031 16.5447 8.13833
1653 5 23.2572 18.7027 8.13833
1654 5 24.5031 20.8607 8.13833
1655 5 23.2572 23.0187 8.13833
1656 5 24.5031 25.1767 8.13833
1657 5 25.7491 1.43867 8.13833
1658 5 26.995 3.59667 8.13833
1659 5 25.7491 5.75467 8.13833
1660 5 26.995 7.91267 8.13833
1661 5 25.7491 10.0707 8.13833
1662 5 26.995 12.2287 8.13833
1663 5 25.7491 14.3867 8.13833
1664 5 26.995 16.5447 8.13833
1665 5 25.7491 18.7027 8.13833
1666 5 26.995 20.8607 8.13833
1667 5 25.7491 23.0187 8.13833
1668 5 26.995 25.1767 8.13833
1669 5 28.2409 1.43867 8.13833
1670 5 29.4868 3.59667 8.13833
1671 5 28.2409 5.75467 8.13833
1672 5 29.4868 7.91267 8.13833
1673 5 28.2409 10.0707 8.13833
1674 5 29.4868 12.2287 8.13833
1675 5 28.2409 14.3867 8.13833
1676 5 29.4868 16.5447 8.13833
1677 5 28.2409 18.7027 8.13833
1678 5 29.4868 20.8607 8.13833
1679 5 28.2409 23.0187 8.13833
1680 5 29.4868 25.1767 8.13833
1681 5 30.7327 1.43867 8.13833
1682 5 31.9787 3.59667 8.13833
1683 5 30.7327 5.75467 8.13833
1684 5 31.9787 7.91267 8.13833
1685 5 30.7327 10.0707 8.13833
1686 5 31.9787 12.2287 8.13833
1687 5 30.7327 14.3867 8.13833
1688 5 31.9787 16.5447 8.13833
1689 5 30.7327 18.7027 8.13833
1690 5 31.9787 20.8607 8.13833
1691 5 30.7327 23.0187 8.13833
1692 5 31.9787 25.1767 8.13833
1693 5 33.2246 1.43867 8.13833
1694 5 34.4705 3.59667 8.13833
1695 5 33.2246 5.75467 8.13833
1696 5 34.4705 7.91267 8.13833
1697 5 33.2246 10.0707 8.13833
1698 5 34.4705 12.2287 8.13833
1699 5 33.2246 14.3867 8.13833
1700 5 34.4705 16.5447 8.13833
1701 5 33.2246 18.7027 8.13833
1702 5 34.4705 20.8607 8.13833
1703 5 33.2246 23.0187 8.13833
1704 5 34.4705 25.1767 8.13833
1705 5 35.7164 1.43867 8.13833
1706 5 36.9624 3.59667 8.13833
1707 5 35.7164 5.75467 8.13833
1708 5 36.9624 7.91267 8.13833
1709 5 35.7164 10.0707 8.13833
1710 5 36.9624 12.2287 8.13833
1711 5 35.7164 14.3867 8.13833
1712 5 36.9624 16.5447 8.13833
1713 5 35.7164 18.7027 8.13833
1714 5 36.9624 20.8607 8.13833
1715 5 35.7164 23.0187 8.13833
1716 5 36.9624 25.1767 8.13833
1717 5 38.2083 1.43867 8.13833
1718 5 39.4542 3.59667 8.13833
1719 5 38.2083 5.75467 8.13833
1720 5 39.4542 7.91267 8.13833
1721 5 38.2083 10.0707 8.13833
1722 5 39.4542 12.2287 8.13833
1723 5 38.2083 14.3867 8.13833
1724 5 39.4542 16.5447 8.13833
1725 5 38.2083 18.7027 8.13833
1726 5 39.4542 20.8607 8.13833
1727 5 38.2083 23.0187 8.13833
1728 5 39.4542 25.1767 8.13833
1729 5 40.7001 1.43867 8.13833
1730 5 41.946 3.59667 8.13833
1731 5 40.7001 5.75467 8.13833
1732 5 41.946 7.91267 8.13833
1733 5 40.7001 10.0707 8.13833
1734 5 41.946 12.2287 8.13833
1735 5 40.7001 14.3867 8.13833
1736 5 41.946 16.5447 8.13833
1737 5 40.7001 18.7027 8.13833
1738 5 41.946 20.8607 8.13833
1739 5 40.7001 23.0187 8.13833
1740 5 41.946 25.1767 8.13833
1741 5 43.192 1.43867 8.13833
1742 5 44.4379 3.59667 8.13833
1743 5 43.192 5.75467 8.13833
1744 5 44.4379 7.91267 8.13833
1745 5 43.192 10.0707 8.13833
1746 5 44.4379 12.2287 8.13833
1747 5 43.192 14.3867 8.13833
1748 5 44.4379 16.5447 8.13833
1749 5 43.192 18.7027 8.13833
1750 5 44.4379 20.8607 8.13833
1751 5 43.192 23.0187 8.13833
1752 5 44.4379 25.1767 8.13833
1753 5 45.6838 1.43867 8.13833
1754 5 46.9297 3.59667 8.13833
1755 5 45.6838 5.75467 8.13833
1756 5 46.9297 7.91267 8.13833
1757 5 45.6838 10.0707 8.13833
1758 5 46.9297 12.2287 8.13833
1759 5 45.6838 14.3867 8.13833
1760 5 46.9297 16.5447 8.13833
1761 5 45.6838 18.7027 8.13833
1762 5 46.9297 20.8607 8.13833
1763 5 45.6838 23.0187 8.13833
1764 5 46.9297 25.1767 8.13833
1765 5 48.1757 1.43867 8.13833
1766 5 49.4216 3.59667 8.13833
1767 5 48.1757 5.75467 8.13833
1768 5 49.4216 7.91267 8.13833
1769 5 48.1757 10.0707 8.13833
1770 5 49.4216 12.2287 8.13833
1771 5 48.1757 14.3867 8.13833
1772 5 49.4216 16.5447 8.13833
1773 5 48.1757 18.7027 8.13833
1774 5 49.4216 20.8607 8.13833
1775 5 48.1757 23.0187 8.13833
1776 5 49.4216 25.1767 8.13833
1777 5 50.6675 1.43867 8.13833
1778 5 51.9134 3.59667 8.13833
1779 5 50.6675 5.75467 8.13833
1780 5 51.9134 7.91267 8.13833
1781 5 50.6675 10.0707 8.13833
1782 5 51.9134 12.2287 8.13833
1783 5 50.6675 14.3867 8.13833
1784 5 51.9134 16.5447 8.13833
1785 5 50.6675 18.7027 8.13833
1786 5 51.9134 20.8607 8.13833
1787 5 50.6675 23.0187 8.13833
1788 5 51.9134 25.1767 8.13833
1789 5 53.1594 1.43867 8.13833
1790 5 54.4053 3.59667 8.13833
1791 5 53.1594 5.75467 8.13833
1792 5 54.4053 7.91267 8.13833
1793 5 53.1594 10.0707 8.13833
1794 5 54.4053 12.2287 8.13833
1795 5 53.1594 14.3867 8.13833
1796 5 54.4053 16.5447 8.13833
1797 5 53.1594 18.7027 8.13833
1798 5 54.4053 20.8607 8.13833
1799 5 53.1594 23.0187 8.13833
1800 5 54.4053 25.1767 8.13833
1801 5 55.6512 1.43867 8.13833
1802 5 56.8971 3.59667 8.13833
1803 5 55.6512 5.75467 8.13833
1804 5 56.8971 7.91267 8.13833
1805 5 55.6512 10.0707 8.13833
1806 5 56.8971 12.2287 8.13833
1807 5 55.6512 14.3867 8.13833
1808 5 56.8971 16.5447 8.13833
1809 5 55.6512 18.7027 8.13833
1810 5 56.8971 20.8607 8.13833
1811 5 55.6512 23.0187 8.13833
1812 5 56.8971 25.1767 8.13833
1813 5 58.143 1.43867 8.13833
1814 5 59.389 3.59667 8.13833
1815 5 58.143 5.75467 8.13833
1816 5 59.389 7.91267 8.13833
1817 5 58.143 10.0707 8.13833
1818 5 59.389 12.2287 8.13833
1819 5 58.143 14.3867 8.13833
1820 5 59.389 16.5447 8.13833
1821 5 58.143 18.7027 8.13833
1822 5 59.389 20.8607 8.13833
1823 5 58.143 23.0187 8.13833
1824 5 59.389 25.1767 8.13833
1825 5 60.6349 1.43867 8.13833
1826 5 61.8808 3.59667 8.13833
1827 5 60.6349 5.75467 8.13833
1828 5 61.8808 7.91267 8.13833
1829 5 60.6349 10.0707 8.13833
1830 5 61.8808 12.2287 8.13833
1831 5 60.6349 14.3867 8.13833
1832 5 61.8808 16.5447 8.13833
1833 5 60.6349 18.7027 8.13833
1834 5 61.8808 20.8607 8.13833
1835 5 60.6349 23.0187 8.13833
1836 5 61.8808 25.1767 8.13833
1837 5 63.1267 1.43867 8.13833
1838 5 64.3726 3.59667 8.13833
1839 5 63.1267 5.75467 8.13833
1840 5 64.3726 7.91267 8.13833
1841 5 63.1267 10.0707 8.13833
1842 5 64.3726 12.2287 8.13833
1843 5 63.1267 14.3867 8.13833
1844 5 64.3726 16.5447 8.13833
1845 5 63.1267 18.7027 8.13833
1846 5 64.3726 20.8607 8.13833
1847 5 63.1267 23.0187 8.13833
1848 5 64.3726 25.1767 8.13833
1849 5 65.6186 1.43867 8.13833
1850 5 66.8645 3.59667 8.13833
1851 5 65.6186 5.75467 8.13833
1852 5 66.8645 7.91267 8.13833
1853 5 65.6186 10.0707 8.13833
1854 5 66.8645 12.2287 8.13833
1855 5 65.6186 14.3867 8.13833
1856 5 66.8645 16.5447 8.13833
1857 5 65.6186 18.7027 8.13833
1858 5 66.8645 20.8607 8.13833
1859 5 65.6186 23.0187 8.13833
1860 5 66.8645 25.1767 8.13833
1861 5 68.1104 1.43867 8.13833
1862 5 69.3563 3.59667 8.13833
1863 5 68.1104 5.75467 8.13833
1864 5 69.3563 7.91267 8.13833
1865 5 68.1104 10.0707 8.13833
1866 5 69.3563 12.2287 8.13833
1867 5 68.1104 14.3867 8.13833
1868 5 69.3563 16.5447 8.13833
1869 5 68.1104 18.7027 8.13833
1870 5 69.3563 20.8607 8.13833
1871 5 68.1104 23.0187 8.13833
1872 5 69.3563 25.1767 8.13833
1873 5 70.6023 1.43867 8.13833
1874 5 71.8482 3.59667 8.13833
1875 5 70.6023 5.75467 8.13833
1876 5 71.8482 7.91267 8.13833
1877 5 70.6023 10.0707 8.13833
1878 5 71.8482 12.2287 8.13833
1879 5 70.6023 14.3867 8.13833
1880 5 71.8482 16.5447 8.13833
1881 5 70.6023 18.7027 8.13833
1882 5 71.8482 20.8607 8.13833
1883 5 70.6023 23.0187 8.13833
1884 5 71.8482 25.1767 8.13833
1885 5 73.0941 1.43867 8.13833
1886 5 74.34 3.59667 8.13833
1887 5 73.0941 5.75467 8.13833
1888 5 74.34 7.91267 8.13833
1889 5 73.0941 10.0707 8.13833
1890 5 74.34 12.2287 8.13833
1891 5 73.0941 14.3867 8.13833
1892 5 74.34 16.5447 8.13833
1893 5 73.0941 18.7027 8.13833
1894 5 74.34 20.8607 8.13833
1895 5 73.0941 23.0187 8.13833
1896 5 74.34 25.1767 8.13833
1897 5 75.5859 1.43867 8.13833
1898 5 76.8319 3.59667 8.13833
1899 5 75.5859 5.75467 8.13833
1900 5 76.8319 7.91267 8.13833
1901 5 75.5859 10.0707 8.13833
1902 5 76.8319 12.2287 8.13833
1903 5 75.5859 14.3867 8.13833
1904 5 76.8319 16.5447 8.13833
1905 5 75.5859 18.7027 8.13833
1906 5 76.8319 20.8607 8.13833
1907 5 75.5859 23.0187 8.13833
1908 5 76.8319 25.1767 8.13833
1909 5 78.0778 1.43867 8.13833
1910 5 79.3237 3.59667 8.13833
1911 5 78.0778 5.75467 8.13833
1912 5 79.3237 7.91267 8.13833
1913 5 78.0778 10.0707 8.13833
1914 5 79.3237 12.2287 8.13833
1915 5 78.0778 14.3867 8.13833
1916 5 79.3237 16.5447 8.13833
1917 5 78.0778 18.7027 8.13833
1918 5 79.3237 20.8607 8.13833
1919 5 78.0778 23.0187 8.13833
1920 5 79.3237 25.1767 8.13833
1921 6 0 0 93.3383
1922 6 1.24592 2.158 93.3383
1923 6 0 4.316 93.3383
1924 6 1.24592 6.474 93.3383
1925 6 0 8.632 93.3383
1926 6 1.24592 10.79 93.3383
1927 6 0 12.948 93.3383
1928 6 1.24592 15.106 93.3383
1929 6 0 17.264 93.3383
1930 6 1.24592 19.422 93.3383
1931 6 0 21.58 93.3383
1932 6 1.24592 23.738 93.3383
1933 6 2.49184 0 93.3383
1934 6 3.73777 2.158 93.3383
1935 6 2.49184 4.316 93.3383
1936 6 3.73777 6.474 93.3383
1937 6 2.49184 8.632 93.3383
1938 6 3.73777 10.79 93.3383
1939 6 2.49184 12.948 93.3383
1940 6 3.73777 15.106 93.3383
1941 6 2.49184 17.264 93.3383
1942 6 3.73777 19.422 93.3383
1943 6 2.49184 21.58 93.3383
1944 6 3.73777 23.738 93.3383
1945 6 4.98369 0 93.3383
1946 6 6.22961 2.158 93.3383
1947 6 4.98369 4.316 93.3383
1948 6 6.22961 6.474 93.3383
1949 6 4.98369 8.632 93.3383
1950 6 6.22961 10.79 93.3383
1951 6 4.98369 12.948 93.3383
1952 6 6.22961 15.106 93.3383
1953 6 4.98369 17.264 93.3383
1954 6 6.22961 19.422 93.3383
1955 6 4.98369 21.58 93.3383
1956 6 6.22961 23.738 93.3383
1957 6 7.47553 0 93.3383
1958 6 8.72146 2.158 93.3383
1959 6 7.47553 4.316 93.3383
1960 6 8.72146 6.474 93.3383
1961 6 7.47553 8.632 93.3383
1962 6 8.72146 10.79 93.3383
1963 6 7.47553 12.948 93.3383
1964 6 8.72146 15.106 93.3383
1965 6 7.47553 17.264 93.3383
1966 6 8.72146 19.422 93.3383
1967 6 7.47553 21.58 93.3383
1968 6 8.72146 23.738 93.3383
1969 6 9.96738 0 93.3383
1970 6 11.2133 2.158 93.3383
1971 6 9.96738 4.316 93.3383
1972 6 11.2133 6.474 93.3383
1973 6 9.96738 8.632 93.3383
1974 6 11.2133 10.79 93.3383
1975 6 9.96738 12.948 93.3383
1976 6 11.2133 15.106 93.3383
1977 6 9.96738 17.264 93.3383
1978 6 11.2133 19.422 93.3383
1979 6 9.96738 21.58 93.3383
1980 6 11.2133 23.738 93.3383
1981 6 12.4592 0 93.3383
1982 6 13.7051 2.158 93.3383
1983 6 12.4592 4.316 93.3383
1984 6 13.7051 6.474 93.3383
1985 6 12.4592 8.632 93.3383
1986 6 13.7051 10.79 93.3383
1987 6 12.4592 12.948 93.3383
1988 6 13.7051 15.106 93.3383
1989 6 12.4592 17.264 93.3383
1990 6 13.7051 19.422 93.3383
1991 6 12.4592 21.58 93.3383
1992 6 13.7051 23.738 93.3383
1993 6 14.9511 0 93.3383
1994 6 16.197 2.158 93.3383
1995 6 14.9511 4.316 93.3383
1996 6 16.197 6.474 93.3383
1997 6 14.9511 8.632 93.3383
1998 6 16.197 10.79 93.3383
1999 6 14.9511 12.948 93.3383
2000 6 16.197 15.106 93.3383
2001 6 14.9511 17.264 93.3383
2002 6 16.197 19.422 93.3383
2003 6 14.9511 21.58 93.3383
2004 6 16.197 23.738 93.3383
2005 6 17.4429 0 93.3383
2006 6 18.6888 2.158 93.3383
2007 6 17.4429 4.316 93.3383
2008 6 18.6888 6.474 93.3383
2009 6 17.4429 8.632 93.3383
2010 6 18.6888 10.79 93.3383
2011 6 17.4429 12.948 93.3383
2012 6 18.6888 15.106 93.3383
2013 6 17.4429 17.264 93.3383
2014 6 18.6888 19.422 93.3383
2015 6 17.4429 21.58 93.3383
2016 6 18.6888 23.738 93.3383
2017 6 19.9348 0 93.3383
2018 6 21.1807 2.158 93.3383
2019 6 19.9348 4.316 93.3383
2020 6 21.1807 6.474 93.3383
2021 6 19.9348 8.632 93.3383
2022 6 21.1807 10.79 93.3383
2023 6 19.9348 12.948 93.3383
2024 6 21.1807 15.106 93.3383
2025 6 19.9348 17.264 93.3383
2026 6 21.1807 19.422 93.3383
2027 6 19.9348 21.58 93.3383
2028 6 21.1807 23.738 93.3383
2029 6 22.4266 0 93.3383
2030 6 23.6725 2.158 93.3383
2031 6 22.4266 4.316 93.3383
2032 6 23.6725 6.474 93.3383
2033 6 22.4266 8.632 93.3383
2034 6 23.6725 10.79 93.3383
2035 6 22.4266 12.948 93.3383
2036 6 23.6725 15.106 93.3383
2037 6 22.4266 17.264 93.3383
2038 6 23.6725 19.422 93.3383
2039 6 22.4266 21.58 93.3383
2040 6 23.6725 23.738 93.3383
2041 6 24.9184 0 93.3383
2042 6 26.1644 2.158 93.3383
2043 6 24.9184 4.316 93.3383
2044 6 26.1644 6.474 93.3383
2045 6 24.9184 8.632 93.3383
2046 6 26.1644 10.79 93.3383
2047 6 24.9184 12.948 93.3383
2048 6 26.1644 15.106 93.3383
2049 6 24.9184 17.264 93.3383
2050 6 26.1644 19.422 93.3383
2051 6 24.9184 21.58 93.3383
2052 6 26.1644 23.738 93.3383
2053 6 27.4103 0 93.3383
2054 6 28.6562 2.158 93.3383
2055 6 27.4103 4.316 93.3383
2056 6 28.6562 6.474 93.3383
2057 6 27.4103 8.632 93.3383
2058 6 28.6562 10.79 93.3383
2059 6 27.4103 12.948 93.3383
2060 6 28.6562 15.106 93.3383
2061 6 27.4103 17.264 93.3383
2062 6 28.6562 19.422 93.3383
2063 6 27.4103 21.58 93.3383
2064 6 28.6562 23.738 93.3383
2065 6 29.9021 0 93.3383
2066 6 31.1481 2.158 93.3383
2067 6 29.9021 4.316 93.3383
2068 6 31.1481 6.474 93.3383
2069 6 29.9021 8.632 93.3383
2070 6 31.1481 10.79 93.3383
2071 6 29.9021 12.948 93.3383
2072 6 31.1481 15.106 93.3383
2073 6 29.9021 17.264 93.3383
2074 6 31.1481 19.422 93.3383
2075 6 29.9021 21.58 93.3383
2076 6 31.1481 23.738 93.3383
2077 6 32.394 0 93.3383
2078 6 33.6399 2.158 93.3383
2079 6 32.394 4.316 93.3383
2080 6 33.6399 6.474 93.3383
2081 6 32.394 8.632 93.3383
2082 6 33.6399 10.79 93.3383
2083 6 32.394 12.948 93.3383
2084 6 33.6399 15.106 93.3383
2085 6 32.394 17.264 93.3383
2086 6 33.6399 19.422 93.3383
2087 6 32.394 21.58 93.3383
2088 6 33.6399 23.738 93.3383
2089 6 34.8858 0 93.3383
2090 6 36.1317 2.158 93.3383
2091 6 34.8858 4.316 93.3383
2092 6 36.1317 6.474 93.3383
2093 6 34.8858 8.632 93.3383
2094 6 36.1317 10.79 93.3383
2095 6 34.8858 12.948 93.3383
2096 6 36.1317 15.106 93.3383
2097 6 34.8858 17.264 93.3383
2098 6 36.1317 19.422 93.3383
2099 6 34.8858 21.58 93.3383
2100 6 36.1317 23.738 93.3383
2101 6 37.3777 0 93.3383
2102 6 38.6236 2.158 93.3383
2103 6 37.3777 4.316 93.3383
2104 6 38.6236 6.474 93.3383
2105 6 37.3777 8.632 93.3383
2106 6 38.6236 10.79 93.3383
2107 6 37.3777 12.948 93.3383
2108 6 38.6236 15.106 93.3383
2109 6 37.3777 17.264 93.3383
2110 6 38.6236 19.422 93.3383
2111 6 37.3777 21.58 93.3383
2112 6 38.6236 23.738 93.3383
2113 6 39.8695 0 93.3383
2114 6 41.1154 2.158 93.3383
2115 6 39.8695 4.316 93.3383
2116 6 41.1154 6.474 93.3383
2117 6 39.8695 8.632 93.3383
2118 6 41.1154 10.79 93.3383
2119 6 39.8695 12.948 93.3383
2120 6 41.1154 15.106 93.3383
2121 6 39.8695 17.264 93.3383
2122 6 41.1154 19.422 93.3383
2123 6 39.8695 21.58 93.3383
2124 6 41.1154 23.738 93.3383
2125 6 42.3614 0 93.3383
2126 6 43.6073 2.158 93.3383
2127 6 42.3614 4.316 93.3383
2128 6 43.6073 6.474 93.3383
2129 6 42.3614 8.632 93.3383
2130 6 43.6073 10.79 93.3383
2131 6 42.3614 12.948 93.3383
2132 6 43.6073 15.106 93.3383
2133 6 42.3614 17.264 93.3383
2134 6 43.6073 19.422 93.3383
2135 6 42.3614 21.58 93.3383
2136 6 43.6073 23.738 93.3383
2137 6 44.8532 0 93.3383
2138 6 46.0991 2.158 93.3383
2139 6 44.8532 4.316 93.3383
2140 6 46.0991 6.474 93.3383
2141 6 44.8532 8.632 93.3383
2142 6 46.0991 10.79 93.3383
2143 6 44.8532 12.948 93.3383
2144 6 46.0991 15.106 93.3383
2145 6 44.8532 17.264 93.3383
2146 6 46.0991 19.422 93.3383
2147 6 44.8532 21.58 93.3383
2148 6 46.0991 23.738 93.3383
2149 6 47.345 0 93.3383
2150 6 48.591 2.158 93.3383
2151 6 47.345 4.316 93.3383
2152 6 48.591 6.474 93.3383
2153 6 47.345 8.632 93.3383
2154 6 48.591 10.79 93.3383
2155 6 47.345 12.948 93.3383
2156 6 48.591 15.106 93.3383
2157 6 47.345 17.264 93.3383
2158 6 48.591 19.422 93.3383
2159 6 47.345 21.58 93.3383
2160 6 48.591 23.738 93.3383
2161 6 49.8369 0 93.3383
2162 6 51.0828 2.158 93.3383
2163 6 49.8369 4.316 93.3383
2164 6 51.0828 6.474 93.3383
2165 6 49.8369 8.632 93.3383
2166 6 51.0828 10.79 93.3383
2167 6 49.8369 12.948 93.3383
2168 6 51.0828 15.106 93.3383
2169 6 49.8369 17.264 93.3383
2170 6 51.0828 19.422 93.3383
2171 6 49.8369 21.58 93.3383
2172 6 51.0828 23.738 93.3383
2173 6 52.3287 0 93.3383
2174 6 53.5746 2.158 93.3383
2175 6 52.3287 4.316 93.3383
2176 6 53.5746 6.474 93.3383
2177 6 52.3287 8.632 93.3383
2178 6 53.5746 10.79 93.3383
2179 6 52.3287 12.948 93.3383
2180 6 53.5746 15.106 93.3383
2181 6 52.3287 17.264 93.3383
2182 6 53.5746 19.422 93.3383
2183 6 52.3287 21.58 93.3383
2184 6 53.5746 23.738 93.3383
2185 6 54.8206 0 93.3383
2186 6 56.0665 2.158 93.3383
2187 6 54.8206 4.316 93.3383
2188 6 56.0665 6.474 93.3383
2189 6 54.8206 8.632 93.3383
2190 6 56.0665 10.79 93.3383
2191 6 54.8206 12.948 93.3383
2192 6 56.0665 15.106 93.3383
2193 6 54.8206 17.264 93.3383
2194 6 56.0665 19.422 93.3383
2195 6 54.8206 21.58 93.3383
2196 6 56.0665 23.738 93.3383
2197 6 57.3124 0 93.3383
2198 6 58.5583 2.158 93.3383
2199 6 57.3124 4.316 93.3383
2200 6 58.5583 6.474 93.3383
2201 6 57.3124 8.632 93.3383
2202 6 58.5583 10.79 93.3383
2203 6 57.3124 12.948 93.3383
2204 6 58.5583 15.106 93.3383
2205 6 57.3124 17.264 93.3383
2206 6 58.5583 19.422 93.3383
2207 6 57.3124 21.58 93.3383
2208 6 58.5583 23.738 93.3383
2209 6 59.8043 0 93.3383
2210 6 61.0502 2.158 93.3383
2211 6 59.8043 4.316 93.3383
2212 6 61.0502 6.474 93.3383
2213 6 59.8043 8.632 93.3383
2214 6 61.0502 10.79 93.3383
2215 6 59.8043 12.948 93.3383
2216 6 61.0502 15.106 93.3383
2217 6 59.8043 17.264 93.3383
2218 6 61.0502 19.422 93.3383
2219 6 59.8043 21.58 93.3383
2220 6 61.0502 23.738 93.3383
2221 6 62.2961 0 93.3383
2222 6 63.542 2.158 93.3383
2223 6 62.2961 4.316 93.3383
2224 6 63.542 6.474 93.3383
2225 6 62.2961 8.632 93.3383
2226 6 63.542 10.79 93.3383
2227 6 62.2961 12.948 93.3383
2228 6 63.542 15.106 93.3383
2229 6 62.2961 17.264 93.3383
2230 6 63.542 19.422 93.3383
2231 6 62.2961 21.58 93.3383
2232 6 63.542 23.738 93.3383
2233 6 64.7879 0 93.3383
2234 6 66.0339 2.158 93.3383
2235 6 64.7879 4.316 93.3383
2236 6 66.0339 6.474 93.3383
2237 6 64.7879 8.632 93.3383
2238 6 66.0339 10.79 93.3383
2239 6 64.7879 12.948 93.3383
2240 6 66.0339 15.106 93.3383
2241 6 64.7879 17.264 93.3383
2242 6 66.0339 19.422 93.3383
2243 6 64.7879 21.58 93.3383
2244 6 66.0339 23.738 93.3383
2245 6 67.2798 0 93.3383
2246 6 68.5257 2.158 93.3383
2247 6 67.2798 4.316 93.3383
2248 6 68.5257 6.474 93.3383
2249 6 67.2798 8.632 93.3383
2250 6 68.5257 10.79 93.3383
2251 6 67.2798 12.948 93.3383
2252 6 68.5257 15.106 93.3383
2253 6 67.2798 17.264 93.3383
2254 6 68.5257 19.422 93.3383
2255 6 67.2798 21.58 93.3383
2256 6 68.5257 23.738 93.3383
2257 6 69.7716 0 93.3383
2258 6 71.0176 2.158 93.3383
2259 6 69.7716 4.316 93.3383
2260 6 71.0176 6.474 93.3383
2261 6 69.7716 8.632 93.3383
2262 6 71.0176 10.79 93.3383
2263 6 69.7716 12.948 93.3383
2264 6 71.0176 15.106 93.3383
2265 6 69.7716 17.264 93.3383
2266 6 71.0176 19.422 93.3383
2267 6 69.7716 21.58 93.3383
2268 6 71.0176 23.738 93.3383
2269 6 72.2635 0 93.3383
2270 6 73.5094 2.158 93.3383
2271 6 72.2635 4.316 93.3383
2272 6 73.5094 6.474 93.3383
2273 6 72.2635 8.632 93.3383
2274 6 73.5094 10.79 93.3383
2275 6 72.2635 12.948 93.3383
2276 6 73.5094 15.106 93.3383
2277 6 72.2635 17.264 93.3383
2278 6 73.5094 19.422 93.3383
2279 6 72.2635 21.58 93.3383
2280 6 73.5094 23.738 93.3383
2281 6 74.7553 0 93.3383
2282 6 76.0012 2.158 93.3383
2283 6 74.7553 4.316 93.3383
2284 6 76.0012 6.474 93.3383
2285 6 74.7553 8.632 93.3383
2286 6 76.0012 10.79 93.3383
2287 6 74.7553 12.948 93.3383
2288 6 76.0012 15.106 93.3383
2289 6 74.7553 17.264 93.3383
2290 6 76.0012 19.422 93.3383
2291 6 74.7553 21.58 93.3383
2292 6 76.0012 23.738 93.3383
2293 6 77.2472 0 93.3383
2294 6 78.4931 2.158 93.3383
2295 6 77.2472 4.316 93.3383
2296 6 78.4931 6.474 93.3383
2297 6 77.2472 8.632 93.3383
2298 6 78.4931 10.79 93.3383
2299 6 77.2472 12.948 93.3383
2300 6 78.4931 15.106 93.3383
2301 6 77.2472 17.264 93.3383
2302 6 78.4931 19.422 93.3383
2303 6 77.2472 21.58 93.3383
2304 6 78.4931 23.738 93.3383
2305 6 0.83061 1.43867 95.3729
2306 6 2.07654 3.59667 95.3729
2307 6 0.83061 5.75467 95.3729
2308 6 2.07654 7.91267 95.3729
2309 6 0.83061 10.0707 95.3729
2310 6 2.07654 12.2287 95.3729
2311 6 0.83061 14.3867 95.3729
2312 6 2.07654 16.5447 95.3729
2313 6 0.83061 18.7027 95.3729
2314 6 2.07654 20.8607 95.3729
2315 6 0.83061 23.0187 95.3729
2316 6 2.07654 25.1767 95.3729
2317 6 3.32246 1.43867 95.3729
2318 6 4.56838 3.59667 95.3729
2319 6 3.32246 5.75467 95.3729
2320 6 4.56838 7.91267 95.3729
2321 6 3.32246 10.0707 95.3729
2322 6 4.56838 12.2287 95.3729
2323 6 3.32246 14.3867 95.3729
2324 6 4.56838 16.5447 95.3729
2325 6 3.32246 18.7027 95.3729
2326 6 4.56838 20.8607 95.3729
2327 6 3.32246 23.0187 95.3729
2328 6 4.56838 25.1767 95.3729
2329 6 5.8143 1.43867 95.3729
2330 6 7.06023 3.59667 95.3729
2331 6 5.8143 5.75467 95.3729
2332 6 7.06023 7.91267 95.3729
2333 6 5.8143 10.0707 95.3729
2334 6 7.06023 12.2287 95.3729
2335 6 5.8143 14.3867 95.3729
2336 6 7.06023 16.5447 95.3729
2337 6 5.8143 18.7027 95.3729
2338 6 7.06023 20.8607 95.3729
2339 6 5.8143 23.0187 95.3729
2340 6 7.06023 25.1767 95.3729
2341 6 8.30615 1.43867 95.3729
2342 6 9.55207 3.59667 95.3729
2343 6 8.30615 5.75467 95.3729
2344 6 9.55207 7.91267 95.3729
2345 6 8.30615 10.0707 95.3729
2346 6 9.55207 12.2287 95.3729
2347 6 8.30615 14.3867 95.3729
2348 6 9.55207 16.5447 95.3729
2349 6 8.30615 18.7027 95.3729
2350 6 9.55207 20.8607 95.3729
2351 6 8.30615 23.0187 95.3729
2352 6 9.55207 25.1767 95.3729
2353 6 10.798 1.43867 95.3729
2354 6 12.0439 3.59667 95.3729
2355 6 10.798 5.75467 95.3729
2356 6 12.0439 7.91267 95.3729
2357 6 10.798 10.0707 95.3729
2358 6 12.0439 12.2287 95.3729
2359 6 10.798 14.3867 95.3729
2360 6 12.0439 16.5447 95.3729
2361 6 10.798 18.7027 95.3729
2362 6 12.0439 20.8607 95.3729
2363 6 10.798 23.0187 95.3729
2364 6 12.0439 25.1767 95.3729
2365 6 13.2898 1.43867 95.3729
2366 6 14.5358 3.59667 95.3729
2367 6 13.2898 5.75467 95.3729
2368 6 14.5358 7.91267 95.3729
2369 6 13.2898 10.0707 95.3729
2370 6 14.5358 12.2287 95.3729
2371 6 13.2898 14.3867 95.3729
2372 6 14.5358 16.5447 95.3729
2373 6 13.2898 18.7027 95.3729
2374 6 14.5358 20.8607 95.3729
2375 6 13.2898 23.0187 95.3729
2376 6 14.5358 25.1767 95.3729
2377 6 15.7817 1.43867 95.3729
2378 6 17.0276 3.59667 95.3729
2379 6 15.7817 5.75467 95.3729
2380 6 17.0276 7.91267 95.3729
2381 6 15.7817 10.0707 95.3729
2382 6 17.0276 12.2287 95.3729
2383 6 15.7817 14.3867 95.3729
2384 6 17.0276 16.5447 95.3729
2385 6 15.7817 18.7027 95.3729
2386 6 17.0276 20.8607 95.3729
2387 6 15.7817 23.0187 95.3729
2388 6 17.0276 25.1767 95.3729
2389 6 18.2735 1.43867 95.3729
2390 6 19.5194 3.59667 95.3729
2391 6 18.2735 5.75467 95.3729
2392 6 19.5194 7.91267 95.3729
2393 6 18.2735 10.0707 95.3729
2394 6 19.5194 12.2287 95.3729
2395 6 18.2735 14.3867 95.3729
2396 6 19.5194 16.5447 95.3729
2397 6 18.2735 18.7027 95.3729
2398 6 19.5194 20.8607 95.3729
2399 6 18.2735 23.0187 95.3729
2400 6 19.5194 25.1767 95.3729
2401 6 20.7654 1.43867 95.3729
2402 6 22.0113 3.59667 95.3729
2403 6 20.7654 5.75467 95.3729
2404 6 22.0113 7.91267 95.3729
2405 6 20.7654 10.0707 95.3729
2406 6 22.0113 12.2287 95.3729
2407 6 20.7654 14.3867 95.3729
2408 6 22.0113 16.5447 95.3729
2409 6 20.7654 18.7027 95.3729
2410 6 22.0113 20.8607 95.3729
2411 6 20.7654 23.0187 95.3729
2412 6 22.0113 25.1767 95.3729
2413 6 23.2572 1.43867 95.3729
2414 6 24.5031 3.59667 95.3729
2415 6 23.2572 5.75467 95.3729
2416 6 24.5031 7.91267 95.3729
2417 6 23.2572 10.0707 95.3729
2418 6 24.5031 12.2287 95.3729
2419 6 23.2572 14.3867 95.3729
2420 6 24.5031 16.5447 95.3729
2421 6 23.2572 18.7027 95.3729
2422 6 24.5031 20.8607 95.3729
2423 6 23.2572 23.0187 95.3729
2424 6 24.5031 25.1767 95.3729
2425 6 25.7491 1.43867 95.3729
2426 6 26.995 3.59667 95.3729
2427 6 25.7491 5.75467 95.3729
2428 6 26.995 7.91267 95.3729
2429 6 25.7491 10.0707 95.3729
2430 6 26.995 12.2287 95.3729
2431 6 25.7491 14.3867 95.3729
2432 6 26.995 16.5447 95.3729
2433 6 25.7491 18.7027 95.3729
2434 6 26.995 20.8607 95.3729
2435 6 25.7491 23.0187 95.3729
2436 6 26.995 25.1767 95.3729
2437 6 28.2409 1.43867 95.3729
2438 6 29.4868 3.59667 95.3729
2439 6 28.2409 5.75467 95.3729
2440 6 29.4868 7.91267 95.3729
2441 6 28.2409 10.0707 95.3729
2442 6 29.4868 12.2287 95.3729
2443 6 28.2409 14.3867 95.3729
2444 6 29.4868 16.5447 95.3729
2445 6 28.2409 18.7027 95.3729
2446 6 29.4868 20.8607 95.3729
2447 6 28.2409 23.0187 95.3729
2448 6 29.4868 25.1767 95.3729
2449 6 30.7327 1.43867 95.3729
2450 6 31.9787 3.59667 95.3729
2451 6 30.7327 5.75467 95.3729
2452 6 31.9787 7.91267 95.3729
2453 6 30.7327 10.0707 95.3729
2454 6 31.9787 12.2287 95.3729
2455 6 30.7327 14.3867 95.3729
2456 6 31.9787 16.5447 95.3729
2457 6 30.7327 18.7027 95.3729
2458 6 31.9787 20.8607 95.3729
2459 6 30.7327 23.0187 95.3729
2460 6 31.9787 25.1767 95.3729
2461 6 33.2246 1.43867 95.3729
2462 6 34.4705 3.59667 95.3729
2463 6 33.2246 5.75467 95.3729
2464 6 34.4705 7.91267 95.3729
2465 6 33.2246 10.0707 95.3729
2466 6 34.4705 12.2287 95.3729
2467 6 33.2246 14.3867 95.3729
2468 6 34.4705 16.5447 95.3729
2469 6 33.2246 18.7027 95.3729
2470 6 34.4705 20.8607 95.3729
2471 6 33.2246 23.0187 95.3729
2472 6 34.4705 25.1767 95.3729
2473 6 35.7164 1.43867 95.3729
2474 6 36.9624 3.59667 95.3729
2475 6 35.7164 5.75467 95.3729
2476 6 36.9624 7.91267 95.3729
2477 6 35.7164 10.0707 95.3729
2478 6 36.9624 12.2287 95.3729
2479 6 35.7164 14.3867 95.3729
2480 6 36.9624 16.5447 95.3729
2481 6 35.7164 18.7027 95.3729
2482 6 36.9624 20.8607 95.3729
2483 6 35.7164 23.0187 95.3729
2484 6 36.9624 25.1767 95.3729
2485 6 38.2083 1.43867 95.3729
2486 6 39.4542 3.59667 95.3729
2487 6 38.2083 5.75467 95.3729
2488 6 39.4542 7.91267 95.3729
2489 6 38.2083 10.0707 95.3729
2490 6 39.4542 12.2287 95.3729
2491 6 38.2083 14.3867 95.3729
2492 6 39.4542 16.5447 95.3729
2493 6 38.2083 18.7027 95.3729
2494 6 39.4542 20.8607 95.3729
2495 6 38.2083 23.0187 95.3729
2496 6 39.4542 25.1767 95.3729
2497 6 40.7001 1.43867 95.3729
2498 6 41.946 3.59667 95.3729
2499 6 40.7001 5.75467 95.3729
2500 6 41.946 7.91267 95.3729
2501 6 40.7001 10.0707 95.3729
2502 6 41.946 12.2287 95.3729
2503 6 40.7001 14.3867 95.3729
2504 6 41.946 16.5447 95.3729
2505 6 40.7001 18.7027 95.3729
2506 6 41.946 20.8607 95.3729
2507 6 40.7001 23.0187 95.3729
2508 6 41.946 25.1767 95.3729
2509 6 43.192 1.43867 95.3729
2510 6 44.4379 3.59667 95.3729
2511 6 43.192 5.75467 95.3729
2512 6 44.4379 7.91267 95.3729
2513 6 43.192 10.0707 95.3729
2514 6 44.4379 12.2287 95.3729
2515 6 43.192 14.3867 95.3729
2516 6 44.4379 16.5447 95.3729
2517 6 43.192 18.7027 95.3729
2518 6 44.4379 20.8607 95.3729
2519 6 43.192 23.0187 95.3729
2520 6 44.4379 25.1767 95.3729
2521 6 45.6838 1.43867 95.3729
2522 6 46.9297 3.59667 95.3729
2523 6 45.6838 5.75467 95.3729
2524 6 46.9297 7.91267 95.3729
2525 6 45.6838 10.0707 95.3729
2526 6 46.9297 12.2287 95.3729
2527 6 45.6838 14.3867 95.3729
2528 6 46.9297 16.5447 95.3729
2529 6 45.6838 18.7027 95.3729
2530 6 46.9297 20.8607 95.3729
2531 6 45.6838 23.0187 95.3729
2532 6 46.9297 25.1767 95.3729
2533 6 48.1757 1.43867 95.3729
2534 6 49.4216 3.59667 95.3729
2535 6 48.1757 5.75467 95.3729
2536 6 49.4216 7.91267 95.3729
2537 6 48.1757 10.0707 95.3729
2538 6 49.4216 12.2287 95.3729
2539 6 48.1757 14.3867 95.3729
2540 6 49.4216 16.5447 95.3729
2541 6 48.1757 18.7027 95.3729
2542 6 49.4216 20.8607 95.3729
2543 6 48.1757 23.0187 95.3729
2544 6 49.4216 25.1767 95.3729
2545 6 50.6675 1.43867 95.3729
2546 6 51.9134 3.59667 95.3729
2547 6 50.6675 5.75467 95.3729
2548 6 51.9134 7.91267 95.3729
2549 6 50.6675 10.0707 95.3729
2550 6 51.9134 12.2287 95.3729
2551 6 50.6675 14.3867 95.3729
2552 6 51.9134 16.5447 95.3729
2553 6 50.6675 18.7027 95.3729
2554 6 51.9134 20.8607 95.3729
2555 6 50.6675 23.0187 95.3729
2556 6 51.9134 25.1767 95.3729
2557 6 53.1594 1.43867 95.3729
2558 6 54.4053 3.59667 95.3729
2559 6 53.1594 5.75467 95.3729
2560 6 54.4053 7.91267 95.3729
2561 6 53.1594 10.0707 95.3729
2562 6 54.4053 12.2287 95.3729
2563 6 53.1594 14.3867 95.3729
2564 6 54.4053 16.5447 95.3729
2565 6 53.1594 18.7027 95.3729
2566 6 54.4053 20.8607 95.3729
2567 6 53.1594 23.0187 95.3729
2568 6 54.4053 25.1767 95.3729
2569 6 55.6512 1.43867 95.3729
2570 6 56.8971 3.59667 95.3729
2571 6 55.6512 5.75467 95.3729
2572 6 56.8971 7.91267 95.3729
2573 6 55.6512 10.0707 95.3729
2574 6 56.8971 12.2287 95.3729
2575 6 55.6512 14.3867 95.3729
2576 6 56.8971 16.5447 95.3729
2577 6 55.6512 18.7027 95.3729
2578 6 56.8971 20.8607 95.3729
2579 6 55.6512 23.0187 95.3729
2580 6 56.8971 25.1767 95.3729
2581 6 58.143 1.43867 95.3729
2582 6 59.389 3.59667 95.3729
2583 6 58.143 5.75467 95.3729
2584 6 59.389 7.91267 95.3729
2585 6 58.143 10.0707 95.3729
2586 6 59.389 12.2287 95.3729
2587 6 58.143 14.3867 95.3729
2588 6 59.389 16.5447 95.3729
2589 6 58.143 18.7027 95.3729
2590 6 59.389 20.8607 95.3729
2591 6 58.143 23.0187 95.3729
2592 6 59.389 25.1767 95.3729
2593 6 60.6349 1.43867 95.3729
2594 6 61.8808 3.59667 95.3729
2595 6 60.6349 5.75467 95.3729
2596 6 61.8808 7.91267 95.3729
2597 6 60.6349 10.0707 95.3729
2598 6 61.8808 12.2287 95.3729
2599 6 60.6349 14.3867 95.3729
2600 6 61.8808 16.5447 95.3729
2601 6 60.6349 18.7027 95.3729
2602 6 61.8808 20.8607 95.3729
2603 6 60.6349 23.0187 95.3729
2604 6 61.8808 25.1767 95.3729
2605 6 63.1267 1.43867 95.3729
2606 6 64.3726 3.59667 95.3729
2607 6 63.1267 5.75467 95.3729
2608 6 64.3726 7.91267 95.3729
2609 6 63.1267 10.0707 95.3729
2610 6 64.3726 12.2287 95.3729
2611 6 63.1267 14.3867 95.3729
2612 6 64.3726 16.5447 95.3729
2613 6 63.1267 18.7027 95.3729
2614 6 64.3726 20.8607 95.3729
2615 6 63.1267 23.0187 95.3729
2616 6 64.3726 25.1767 95.3729
2617 6 65.6186 1.43867 95.3729
2618 6 66.8645 3.59667 95.3729
2619 6 65.6186 5.75467 95.3729
2620 6 66.8645 7.91267 95.3729
2621 6 65.6186 10.0707 95.3729
2622 6 66.8645 12.2287 95.3729
2623 6 65.6186 14.3867 95.3729
2624 6 66.8645 16.5447 95.3729
2625 6 65.6186 18.7027 95.3729
2626 6 66.8645 20.8607 95.3729
2627 6 65.6186 23.0187 95.3729
2628 6 66.8645 25.1767 95.3729
2629 6 68.1104 1.43867 95.3729
2630 6 69.3563 3.59667 95.3729
2631 6 68.1104 5.75467 95.3729
2632 6 69.3563 7.91267 95.3729
2633 6 68.1104 10.0707 95.3729
2634 6 69.3563 12.2287 95.3729
2635 6 68.1104 14.3867 95.3729
2636 6 69.3563 16.5447 95.3729
2637 6 68.1104 18.7027 95.3729
2638 6 69.3563 20.8607 95.3729
2639 6 68.1104 23.0187 95.3729
2640 6 69.3563 25.1767 95.3729
2641 6 70.6023 1.43867 95.3729
2642 6 71.8482 3.59667 95.3729
2643 6 70.6023 5.75467 95.3729
2644 6 71.8482 7.91267 95.3729
2645 6 70.6023 10.0707 95.3729
2646 6 71.8482 12.2287 95.3729
2647 6 70.6023 14.3867 95.3729
2648 6 71.8482 16.5447 95.3729
2649 6 70.6023 18.7027 95.3729
2650 6 71.8482 20.8607 95.3729
2651 6 70.6023 23.0187 95.3729
2652 6 71.8482 25.1767 95.3729
2653 6 73.0941 1.43867 95.3729
2654 6 74.34 3.59667 95.3729
2655 6 73.0941 5.75467 95.3729
2656 6 74.34 7.91267 95.3729
2657 6 73.0941 10.0707 95.3729
2658 6 74.34 12.2287 95.3729
2659 6 73.0941 14.3867 95.3729
2660 6 74.34 16.5447 95.3729
2661 6 73.0941 18.7027 95.3729
2662 6 74.34 20.8607 95.3729
2663 6 73.0941 23.0187 95.3729
2664 6 74.34 25.1767 95.3729
2665 6 75.5859 1.43867 95.3729
2666 6 76.8319 3.59667 95.3729
2667 6 75.5859 5.75467 95.3729
2668 6 76.8319 7.91267 95.3729
2669 6 75.5859 10.0707 95.3729
2670 6 76.8319 12.2287 95.3729
2671 6 75.5859 14.3867 95.3729
2672 6 76.8319 16.5447 95.3729
2673 6 75.5859 18.7027 95.3729
2674 6 76.8319 20.8607 95.3729
2675 6 75.5859 23.0187 95.3729
2676 6 76.8319 25.1767 95.3729
2677 6 78.0778 1.43867 95.3729
2678 6 79.3237 3.59667 95.3729
2679 6 78.0778 5.75467 95.3729
2680 6 79.3237 7.91267 95.3729
2681 6 78.0778 10.0707 95.3729
2682 6 79.3237 12.2287 95.3729
2683 6 78.0778 14.3867 95.3729
2684 6 79.3237 16.5447 95.3729
2685 6 78.0778 18.7027 95.3729
2686 6 79.3237 20.8607 95.3729
2687 6 78.0778 23.0187 95.3729
2688 6 79.3237 25.1767 95.3729
2689 6 1.66123 2.87733 97.4075
2690 6 2.90715 5.03533 97.4075
2691 6 1.66123 7.19333 97.4075
2692 6 2.90715 9.35134 97.4075
2693 6 1.66123 11.5093 97.4075
2694 6 2.90715 13.6673 97.4075
2695 6 1.66123 15.8253 97.4075
2696 6 2.90715 17.9833 97.4075
2697 6 1.66123 20.1413 97.4075
2698 6 2.90715 22.2993 97.4075
2699 6 1.66123 24.4573 97.4075
2700 6 2.90715 26.6153 97.4075
2701 6 4.15307 2.87733 97.4075
2702 6 5.399 5.03533 97.4075
2703 6 4.15307 7.19333 97.4075
2704 6 5.399 9.35134 97.4075
2705 6 4.15307 11.5093 97.4075
2706 6 5.399 13.6673 97.4075
2707 6 4.15307 15.8253 97.4075
2708 6 5.399 17.9833 97.4075
2709 6 4.15307 20.1413 97.4075
2710 6 5.399 22.2993 97.4075
2711 6 4.15307 24.4573 97.4075
2712 6 5.399 26.6153 97.4075
2713 6 6.64492 2.87733 97.4075
2714 6 7.89084 5.03533 97.4075
2715 6 6.64492 7.19333 97.4075
2716 6 7.89084 9.35134 97.4075
2717 6 6.64492 11.5093 97.4075
2718 6 7.89084 13.6673 97.4075
2719 6 6.64492 15.8253 97.4075
2720 6 7.89084 17.9833 97.4075
2721 6 6.64492 20.1413 97.4075
2722 6 7.89084 22.2993 97.4075
2723 6 6.64492 24.4573 97.4075
2724 6 7.89084 26.6153 97.4075
2725 6 9.13676 2.87733 97.4075
2726 6 10.3827 5.03533 97.4075
2727 6 9.13676 7.19333 97.4075
2728 6 10.3827 9.35134 97.4075
2729 6 9.13676 11.5093 97.4075
2730 6 10.3827 13.6673 97.4075
2731 6 9.13676 15.8253 97.4075
2732 6 10.3827 17.9833 97.4075
2733 6 9.13676 20.1413 97.4075
2734 6 10.3827 22.2993 97.4075
2735 6 9.13676 24.4573 97.4075
2736 6 10.3827 26.6153 97.4075
2737 6 11.6286 2.87733 97.4075
2738 6 12.8745 5.03533 97.4075
2739 6 11.6286 7.19333 97.4075
2740 6 12.8745 9.35134 97.4075
2741 6 11.6286 11.5093 97.4075
2742 6 12.8745 13.6673 97.4075
2743 6 11.6286 15.8253 97.4075
2744 6 12.8745 17.9833 97.4075
2745 6 11.6286 20.1413 97.4075
2746 6 12.8745 22.2993 97.4075
2747 6 11.6286 24.4573 97.4075
2748 6 12.8745 26.6153 97.4075
2749 6 14.1204 2.87733 97.4075
2750 6 15.3664 5.03533 97.4075
2751 6 14.1204 7.19333 97.4075
2752 6 15.3664 9.35134 97.4075
2753 6 14.1204 11.5093 97.4075
2754 6 15.3664 13.6673 97.4075
2755 6 14.1204 15.8253 97.4075
2756 6 15.3664 17.9833 97.4075
2757 6 14.1204 20.1413 97.4075
2758 6 15.3664 22.2993 97.4075
2759 6 14.1204 24.4573 97.4075
2760 6 15.3664 26.6153 97.4075
2761 6 16.6123 2.87733 97.4075
2762 6 17.8582 5.03533 97.4075
2763 6 16.6123 7.19333 97.4075
2764 6 17.8582 9.35134 97.4075
2765 6 16.6123 11.5093 97.4075
2766 6 17.8582 13.6673 97.4075
2767 6 16.6123 15.8253 97.4075
2768 6 17.8582 17.9833 97.4075
2769 6 16.6123 20.1413 97.4075
2770 6 17.8582 22.2993 97.4075
2771 6 16.6123 24.4573 97.4075
2772 6 17.8582 26.6153 97.4075
2773 6 19.1041 2.87733 97.4075
2774 6 20.3501 5.03533 97.4075
2775 6 19.1041 7.19333 97.4075
2776 6 20.3501 9.35134 97.4075
2777 6 19.1041 11.5093 97.4075
2778 6 20.3501 13.6673 97.4075
2779 6 19.1041 15.8253 97.4075
2780 6 20.3501 17.9833 97.4075
2781 6 19.1041 20.1413 97.4075
2782 6 20.3501 22.2993 97.4075
2783 6 19.1041 24.4573 97.4075
2784 6 20.3501 26.6153 97.4075
2785 6 21.596 2.87733 97.4075
2786 6 22.8419 5.03533 97.4075
2787 6 21.596 7.19333 97.4075
2788 6 22.8419 9.35134 97.4075
2789 6 21.596 11.5093 97.4075
2790 6 22.8419 13.6673 97.4075
2791 6 21.596 15.8253 97.4075
2792 6 22.8419 17.9833 97.4075
2793 6 21.596 20.1413 97.4075
2794 6 22.8419 22.2993 97.4075
2795 6 21.596 24.4573 97.4075
2796 6 22.8419 26.6153 97.4075
2797 6 24.0878 2.87733 97.4075
2798 6 25.3337 5.03533 97.4075
2799 6 24.0878 7.19333 97.4075
2800 6 25.3337 9.35134 97.4075
2801 6 24.0878 11.5093 97.4075
2802 6 25.3337 13.6673 97.4075
2803 6 24.0878 15.8253 97.4075
2804 6 25.3337 17.9833 97.4075
2805 6 24.0878 20.1413 97.4075
2806 6 25.3337 22.2993 97.4075
2807 6 24.0878 24.4573 97.4075
2808 6 25.3337 26.6153 97.4075
2809 6 26.5797 2.87733 97.4075
2810 6 27.8256 5.03533 97.4075
2811 6 26.5797 7.19333 97.4075
2812 6 27.8256 9.35134 97.4075
2813 6 26.5797 11.5093 97.4075
2814 6 27.8256 13.6673 97.4075
2815 6 26.5797 15.8253 97.4075
2816 6 27.8256 17.9833 97.4075
2817 6 26.5797 20.1413 97.4075
2818 6 27.8256 22.2993 97.4075
2819 6 26.5797 24.4573 97.4075
2820 6 27.8256 26.6153 97.4075
2821 6 29.0715 2.87733 97.4075
2822 6 30.3174 5.03533 97.4075
2823 6 29.0715 7.19333 97.4075
2824 6 30.3174 9.35134 97.4075
2825 6 29.0715 11.5093 97.4075
2826 6 30.3174 13.6673 97.4075
2827 6 29.0715 15.8253 97.4075
2828 6 30.3174 17.9833 97.4075
2829 6 29.0715 20.1413 97.4075
2830 6 30.3174 22.2993 97.4075
2831 6 29.0715 24.4573 97.4075
2832 6 30.3174 26.6153 97.4075
2833 6 31.5634 2.87733 97.4075
2834 6 32.8093 5.03533 97.4075
2835 6 31.5634 7.19333 97.4075
2836 6 32.8093 9.35134 97.4075
2837 6 31.5634 11.5093 97.4075
2838 6 32.8093 13.6673 97.4075
2839 6 31.5634 15.8253 97.4075
2840 6 32.8093 17.9833 97.4075
2841 6 31.5634 20.1413 97.4075
2842 6 32.8093 22.2993 97.4075
2843 6 31.5634 24.4573 97.4075
2844 6 32.8093 26.6153 97.4075
2845 6 34.0552 2.87733 97.4075
2846 6 35.3011 5.03533 97.4075
2847 6 34.0552 7.19333 97.4075
2848 6 35.3011 9.35134 97.4075
2849 6 34.0552 11.5093 97.4075
2850 6 35.3011 13.6673 97.4075
2851 6 34.0552 15.8253 97.4075
2852 6 35.3011 17.9833 97.4075
2853 6 34.0552 20.1413 97.4075
2854 6 35.3011 22.2993 97.4075
2855 6 34.0552 24.4573 97.4075
2856 6 35.3011 26.6153 97.4075
2857 6 36.547 2.87733 97.4075
2858 6 37.793 5.03533 97.4075
2859 6 36.547 7.19333 97.4075
2860 6 37.793 9.35134 97.4075
2861 6 36.547 11.5093 97.4075
2862 6 37.793 13.6673 97.4075
2863 6 36.547 15.8253 97.4075
2864 6 37.793 17.9833 97.4075
2865 6 36.547 20.1413 97.4075
2866 6 37.793 22.2993 97.4075
2867 6 36.547 24.4573 97.4075
2868 6 37.793 26.6153 97.4075
2869 6 39.0389 2.87733 97.4075
2870 6 40.2848 5.03533 97.4075
2871 6 39.0389 7.19333 97.4075
2872 6 40.2848 9.35134 97.4075
2873 6 39.0389 11.5093 97.4075
2874 6 40.2848 13.6673 97.4075
2875 6 39.0389 15.8253 97.4075
2876 6 40.2848 17.9833 97.4075
2877 6 39.0389 20.1413 97.4075
2878 6 40.2848 22.2993 97.4075
2879 6 39.0389 24.4573 97.4075
2880 6 40.2848 26.6153 97.4075
2881 6 41.5307 2.87733 97.4075
2882 6 42.7767 5.03533 97.4075
2883 6 41.5307 7.19333 97.4075
2884 6 42.7767 9.35134 97.4075
2885 6 41.5307 11.5093 97.4075
2886 6 42.7767 13.6673 97.4075
2887 6 41.5307 15.8253 97.4075
2888 6 42.7767 17.9833 97.4075
2889 6 41.5307 20.1413 97.4075
2890 6 42.7767 22.2993 97.4075
2891 6 41.5307 24.4573 97.4075
2892 6 42.7767 26.6153 97.4075
2893 6 44.0226 2.87733 97.4075
2894 6 45.2685 5.03533 97.4075
2895 6 44.0226 7.19333 97.4075
2896 6 45.2685 9.35134 97.4075
2897 6 44.0226 11.5093 97.4075
2898 6 45.2685 13.6673 97.4075
2899 6 44.0226 15.8253 97.4075
2900 6 45.2685 17.9833 97.4075
2901 6 44.0226 20.1413 97.4075
2902 6 45.2685 22.2993 97.4075
2903 6 44.0226 24.4573 97.4075
2904 6 45.2685 26.6153 97.4075
2905 6 46.5144 2.87733 97.4075
2906 6 47.7604 5.03533 97.4075
2907 6 46.5144 7.19333 97.4075
2908 6 47.7604 9.35134 97.4075
2909 6 46.5144 11.5093 97.4075
2910 6 47.7604 13.6673 97.4075
2911 6 46.5144 15.8253 97.4075
2912 6 47.7604 17.9833 97.4075
2913 6 46.5144 20.1413 97.4075
2914 6 47.7604 22.2993 97.4075
2915 6 46.5144 24.4573 97.4075
2916 6 47.7604 26.6153 97.4075
2917 6 49.0063 2.87733 97.4075
2918 6 50.2522 5.03533 97.4075
2919 6 49.0063 7.19333 97.4075
2920 6 50.2522 9.35134 97.4075
2921 6 49.0063 11.5093 97.4075
2922 6 50.2522 13.6673 97.4075
2923 6 49.0063 15.8253 97.4075
2924 6 50.2522 17.9833 97.4075
2925 6 49.0063 20.1413 97.4075
2926 6 50.2522 22.2993 97.4075
2927 6 49.0063 24.4573 97.4075
2928 6 50.2522 26.6153 97.4075
2929 6 51.4981 2.87733 97.4075
2930 6 52.744 5.03533 97.4075
2931 6 51.4981 7.19333 97.4075
2932 6 52.744 9.35134 97.4075
2933 6 51.4981 11.5093 97.4075
2934 6 52.744 13.6673 97.4075
2935 6 51.4981 15.8253 97.4075
2936 6 52.744 17.9833 97.4075
2937 6 51.4981 20.1413 97.4075
2938 6 52.744 22.2993 97.4075
2939 6 51.4981 24.4573 97.4075
2940 6 52.744 26.6153 97.4075
2941 6 53.99 2.87733 97.4075
2942 6 55.2359 5.03533 97.4075
2943 6 53.99 7.19333 97.4075
2944 6 55.2359 9.35134 97.4075
2945 6 53.99 11.5093 97.4075
2946 6 55.2359 13.6673 97.4075
2947 6 53.99 15.8253 97.4075
2948 6 55.2359 17.9833 97.4075
2949 6 53.99 20.1413 97.4075
2950 6 55.2359 22.2993 97.4075
2951 6 53.99 24.4573 97.4075
2952 6 55.2359 26.6153 97.4075
2953 6 56.4818 2.87733 97.4075
2954 6 57.7277 5.03533 97.4075
2955 6 56.4818 7.19333 97.4075
2956 6 57.7277 9.35134 97.4075
2957 6 56.4818 11.5093 97.4075
2958 6 57.7277 13.6673 97.4075
2959 6 56.4818 15.8253 97.4075
2960 6 57.7277 17.9833 97.4075
2961 6 56.4818 20.1413 97.4075
2962 6 57.7277 22.2993 97.4075
2963 6 56.4818 24.4573 97.4075
2964 6 57.7277 26.6153 97.4075
2965 6 58.9736 2.87733 97.4075
2966 6 60.2196 5.03533 97.4075
2967 6 58.9736 7.19333 97.4075
2968 6 60.2196 9.35134 97.4075
2969 6 58.9736 11.5093 97.4075
2970 6 60.2196 13.6673 97.4075
2971 6 58.9736 15.8253 97.4075
2972 6 60.2196 17.9833 97.4075
2973 6 58.9736 20.1413 97.4075
2974 6 60.2196 22.2993 97.4075
2975 6 58.9736 24.4573 97.4075
2976 6 60.2196 26.6153 97.4075
2977 6 61.4655 2.87733 97.4075
2978 6 62.7114 5.03533 97.4075
2979 6 61.4655 7.19333 97.4075
2980 6 62.7114 9.35134 97.4075
2981 6 61.4655 11.5093 97.4075
2982 6 62.7114 13.6673 97.4075
2983 6 61.4655 15.8253 97.4075
2984 6 62.7114 17.9833 97.4075
2985 6 61.4655 20.1413 97.4075
2986 6 62.7114 22.2993 97.4075
2987 6 61.4655 24.4573 97.4075
2988 6 62.7114 26.6153 97.4075
2989 6 63.9573 2.87733 97.4075
2990 6 65.2033 5.03533 97.4075
2991 6 63.9573 7.19333 97.4075
2992 6 65.2033 9.35134 97.4075
2993 6 63.9573 11.5093 97.4075
2994 6 65.2033 13.6673 97.4075
2995 6 63.9573 15.8253 97.4075
2996 6 65.2033 17.9833 97.4075
2997 6 63.9573 20.1413 97.4075
2998 6 65.2033 22.2993 97.4075
2999 6 63.9573 24.4573 97.4075
3000 6 65.2033 26.6153 97.4075
3001 6 66.4492 2.87733 97.4075
3002 6 67.6951 5.03533 97.4075
3003 6 66.4492 7.19333 97.4075
3004 6 67.6951 9.35134 97.4075
3005 6 66.4492 11.5093 97.4075
3006 6 67.6951 13.6673 97.4075
3007 6 66.4492 15.8253 97.4075
3008 6 67.6951 17.9833 97.4075
3009 6 66.4492 20.1413 97.4075
3010 6 67.6951 22.2993 97.4075
3011 6 66.4492 24.4573 97.4075
3012 6 67.6951 26.6153 97.4075
3013 6 68.941 2.87733 97.4075
3014 6 70.1869 5.03533 97.4075
3015 6 68.941 7.19333 97.4075
3016 6 70.1869 9.35134 97.4075
3017 6 68.941 11.5093 97.4075
3018 6 70.1869 13.6673 97.4075
3019 6 68.941 15.8253 97.4075
3020 6 70.1869 17.9833 97.4075
3021 6 68.941 20.1413 97.4075
3022 6 70.1869 22.2993 97.4075
3023 6 68.941 24.4573 97.4075
3024 6 70.1869 26.6153 97.4075
3025 6 71.4329 2.87733 97.4075
3026 6 72.6788 5.03533 97.4075
3027 6 71.4329 7.19333 97.4075
3028 6 72.6788 9.35134 97.4075
3029 6 71.4329 11.5093 97.4075
3030 6 72.6788 13.6673 97.4075
3031 6 71.4329 15.8253 97.4075
3032 6 72.6788 17.9833 97.4075
3033 6 71.4329 20.1413 97.4075
3034 6 72.6788 22.2993 97.4075
3035 6 71.4329 24.4573 97.4075
3036 6 72.6788 26.6153 97.4075
3037 6 73.9247 2.87733 97.4075
3038 6 75.1706 5.03533 97.4075
3039 6 73.9247 7.19333 97.4075
3040 6 75.1706 9.35134 97.4075
3041 6 73.9247 11.5093 97.4075
3042 6 75.1706 13.6673 97.4075
3043 6 73.9247 15.8253 97.4075
3044 6 75.1706 17.9833 97.4075
3045 6 73.9247 20.1413 97.4075
3046 6 75.1706 22.2993 97.4075
3047 6 73.9247 24.4573 97.4075
3048 6 75.1706 26.6153 97.4075
3049 6 76.4166 2.87733 97.4075
3050 6 77.6625 5.03533 97.4075
3051 6 76.4166 7.19333 97.4075
3052 6 77.6625 9.35134 97.4075
3053 6 76.4166 11.5093 97.4075
3054 6 77.6625 13.6673 97.4075
3055 6 76.4166 15.8253 97.4075
3056 6 77.6625 17.9833 97.4075
3057 6 76.4166 20.1413 97.4075
3058 6 77.6625 22.2993 97.4075
3059 6 76.4166 24.4573 97.4075
3060 6 77.6625 26.6153 97.4075
3061 6 78.9084 2.87733 97.4075
3062 6 0.15432 5.03533 97.4075
3063 6 78.9084 7.19333 97.4075
3064 6 0.15432 9.35134 97.4075
3065 6 78.9084 11.5093 97.4075
3066 6 0.15432 13.6673 97.4075
3067 6 78.9084 15.8253 97.4075
3068 6 0.15432 17.9833 97.4075
3069 6 78.9084 20.1413 97.4075
3070 6 0.15432 22.2993 97.4075
3071 6 78.9084 24.4573 97.4075
3072 6 0.15432 26.6153 97.4075
3073 6 0 0 99.4421
3074 6 1.24592 2.158 99.4421
3075 6 0 4.316 99.4421
3076 6 1.24592 6.474 99.4421
3077 6 0 8.632 99.4421
3078 6 1.24592 10.79 99.4421
3079 6 0 12.948 99.4421
3080 6 1.24592 15.106 99.4421
3081 6 0 17.264 99.4421
3082 6 1.24592 19.422 99.4421
3083 6 0 21.58 99.4421
3084 6 1.24592 23.738 99.4421
3085 6 2.49184 0 99.4421
3086 6 3.73777 2.158 99.4421
3087 6 2.49184 4.316 99.4421
3088 6 3.73777 6.474 99.4421
3089 6 2.49184 8.632 99.4421
3090 6 3.73777 10.79 99.4421
3091 6 2.49184 12.948 99.4421
3092 6 3.73777 15.106 99.4421
3093 6 2.49184 17.264 99.4421
3094 6 3.73777 19.422 99.4421
3095 6 2.49184 21.58 99.4421
3096 6 3.73777 23.738 99.4421
3097 6 4.98369 0 99.4421
3098 6 6.22961 2.158 99.4421
3099 6 4.98369 4.316 99.4421
3100 6 6.22961 6.474 99.4421
3101 6 4.98369 8.632 99.4421
3102 6 6.22961 10.79 99.4421
3103 6 4.98369 12.948 99.4421
3104 6 6.22961 15.106 99.4421
3105 6 4.98369 17.264 99.4421
3106 6 6.22961 19.422 99.4421
3107 6 4.98369 21.58 99.4421
3108 6 6.22961 23.738 99.4421
3109 6 7.47553 0 99.4421
3110 6 8.72146 2.158 99.4421
3111 6 7.47553 4.316 99.4421
3112 6 8.72146 6.474 99.4421
3113 6 7.47553 8.632 99.4421
3114 6 8.72146 10.79 99.4421
3115 6 7.47553 12.948 99.4421
3116 6 8.72146 15.106 99.4421
3117 6 7.47553 17.264 99.4421
3118 6 8.72146 19.422 99.4421
3119 6 7.47553 21.58 99.4421
3120 6 8.72146 23.738 99.4421
3121 6 9.96738 0 99.4421
3122 6 11.2133 2.158 99.4421
3123 6 9.96738 4.316 99.4421
3124 6 11.2133 6.474 99.4421
3125 6 9.96738 8.632 99.4421
3126 6 11.2133 10.79 99.4421
3127 6 9.96738 12.948 99.4421
3128 6 11.2133 15.106 99.4421
3129 6 9.96738 17.264 99.4421
3130 6 11.2133 19.422 99.4421
3131 6 9.96738 21.58 99.4421
3132 6 11.2133 23.738 99.4421
3133 6 12.4592 0 99.4421
3134 6 13.7051 2.158 99.4421
3135 6 12.4592 4.316 99.4421
3136 6 13.7051 6.474 99.4421
3137 6 12.4592 8.632 99.4421
3138 6 13.7051 10.79 99.4421
3139 6 12.4592 12.948 99.4421
3140 6 13.7051 15.106 99.4421
3141 6 12.4592 17.264 99.4421
3142 6 13.7051 19.422 99.4421
3143 6 12.4592 21.58 99.4421
3144 6 13.7051 23.738 99.4421
3145 6 14.9511 0 99.4421
3146 6 16.197 2.158 99.4421
3147 6 14.9511 4.316 99.4421
3148 6 16.197 6.474 99.4421
3149 6 14.9511 8.632 99.4421
3150 6 16.197 10.79 99.4421
3151 6 14.9511 12.948 99.4421
3152 6 16.197 15.106 99.4421
3153 6 14.9511 17.264 99.4421
3154 6 16.197 19.422 99.4421
3155 6 14.9511 21.58 99.4421
3156 6 16.197 23.738 99.4421
3157 6 17.4429 0 99.4421
3158 6 18.6888 2.158 99.4421
3159 6 17.4429 4.316 99.4421
3160 6 18.6888 6.474 99.4421
3161 6 17.4429 8.632 99.4421
3162 6 18.6888 10.79 99.4421
3163 6 17.4429 12.948 99.4421
3164 6 18.6888 15.106 99.4421
3165 6 17.4429 17.264 99.4421
3166 6 18.6888 19.422 99.4421
3167 6 17.4429 21.58 99.4421
3168 6 18.6888 23.738 99.4421
3169 6 19.9348 0 99.4421
3170 6 21.1807 2.158 99.4421
3171 6 19.9348 4.316 99.4421
3172 6 21.1807 6.474 99.4421
3173 6 19.9348 8.632 99.4421
3174 6 21.1807 10.79 99.4421
3175 6 19.9348 12.948 99.4421
3176 6 21.1807 15.106 99.4421
3177 6 19.9348 17.264 99.4421
3178 6 21.1807 19.422 99.4421
3179 6 19.9348 21.58 99.4421
3180 6 21.1807 23.738 99.4421
3181 6 22.4266 0 99.4421
3182 6 23.6725 2.158 99.4421
3183 6 22.4266 4.316 99.4421
3184 6 23.6725 6.474 99.4421
3185 6 22.4266 8.632 99.4421
3186 6 23.6725 10.79 99.4421
3187 6 22.4266 12.948 99.4421
3188 6 23.6725 15.106 99.4421
3189 6 22.4266 17.264 99.4421
3190 6 23.6725 19.422 99.4421
3191 6 22.4266 21.58 99.4421
3192 6 23.6725 23.738 99.4421
3193 6 24.9184 0 99.4421
3194 6 26.1644 2.158 99.4421
3195 6 24.9184 4.316 99.4421
3196 6 26.1644 6.474 99.4421
3197 6 24.9184 8.632 99.4421
3198 6 26.1644 10.79 99.4421
3199 6 24.9184 12.948 99.4421
3200 6 26.1644 15.106 99.4421
3201 6 24.9184 17.264 99.4421
3202 6 26.1644 19.422 99.4421
3203 6 24.9184 21.58 99.4421
3204 6 26.1644 23.738 99.4421
3205 6 27.4103 0 99.4421
3206 6 28.6562 2.158 99.4421
3207 6 27.4103 4.316 99.4421
3208 6 28.6562 6.474 99.4421
3209 6 27.4103 8.632 99.4421
3210 6 28.6562 10.79 99.4421
3211 6 27.4103 12.948 99.4421
3212 6 28.6562 15.106 99.4421
3213 6 27.4103 17.264 99.4421
3214 6 28.6562 19.422 99.4421
3215 6 27.4103 21.58 99.4421
3216 6 28.6562 23.738 99.4421
3217 6 29.9021 0 99.4421
3218 6 31.1481 2.158 99.4421
3219 6 29.9021 4.316 99.4421
3220 6 31.1481 6.474 99.4421
3221 6 29.9021 8.632 99.4421
3222 6 31.1481 10.79 99.4421
3223 6 29.9021 12.948 99.4421
3224 6 31.1481 15.106 99.4421
3225 6 29.9021 17.264 99.4421
3226 6 31.1481 19.422 99.4421
3227 6 29.9021 21.58 99.4421
3228 6 31.1481 23.738 99.4421
3229 6 32.394 0 99.4421
3230 6 33.6399 2.158 99.4421
3231 6 32.394 4.316 99.4421
3232 6 33.6399 6.474 99.4421
3233 6 32.394 8.632 99.4421
3234 6 33.6399 10.79 99.4421
3235 6 32.394 12.948 99.4421
3236 6 33.6399 15.106 99.4421
3237 6 32.394 17.264 99.4421
3238 6 33.6399 19.422 99.4421
3239 6 32.394 21.58 99.4421
3240 6 33.6399 23.738 99.4421
3241 6 34.8858 0 99.4421
3242 6 36.1317 2.158 99.4421
3243 6 34.8858 4.316 99.4421
3244 6 36.1317 6.474 99.4421
3245 6 34.8858 8.632 99.4421
3246 6 36.1317 10.79 99.4421
3247 6 34.8858 12.948 99.4421
3248 6 36.1317 15.106 99.4421
3249 6 34.8858 17.264 99.4421
3250 6 36.1317 19.422 99.4421
3251 6 34.8858 21.58 99.4421
3252 6 36.1317 23.738 99.4421
3253 6 37.3777 0 99.4421
3254 6 38.6236 2.158 99.4421
3255 6 37.3777 4.316 99.4421
3256 6 38.6236 6.474 99.4421
3257 6 37.3777 8.632 99.4421
3258 6 38.6236 10.79 99.4421
3259 6 37.3777 12.948 99.4421
3260 6 38.6236 15.106 99.4421
3261 6 37.3777 17.264 99.4421
3262 6 38.6236 19.422 99.4421
3263 6 37.3777 21.58 99.4421
3264 6 38.6236 23.738 99.4421
3265 6 39.8695 0 99.4421
3266 6 41.1154 2.158 99.4421
3267 6 39.8695 4.316 99.4421
3268 6 41.1154 6.474 99.4421
3269 6 39.8695 8.632 99.4421
3270 6 41.1154 10.79 99.4421
3271 6 39.8695 12.948 99.4421
3272 6 41.1154 15.106 99.4421
3273 6 39.8695 17.264 99.4421
3274 6 41.1154 19.422 99.4421
3275 6 39.8695 21.58 99.4421
3276 6 41.1154 23.738 99.4421
3277 6 42.3614 0 99.4421
3278 6 43.6073 2.158 99.4421
3279 6 42.3614 4.316 99.4421
3280 6 43.6073 6.474 99.4421
3281 6 42.3614 8.632 99.4421
3282 6 43.6073 10.79 99.4421
3283 6 42.3614 12.948 99.4421
3284 6 43.6073 15.106 99.4421
3285 6 42.3614 17.264 99.4421
3286 6 43.6073 19.422 99.4421
3287 6 42.3614 21.58 99.4421
3288 6 43.6073 23.738 99.4421
3289 6 44.8532 0 99.4421
3290 6 46.0991 2.158 99.4421
3291 6 44.8532 4.316 99.4421
3292 6 46.0991 6.474 99.4421
3293 6 44.8532 8.632 99.4421
3294 6 46.0991 10.79 99.4421
3295 6 44.8532 12.948 99.4421
3296 6 46.0991 15.106 99.4421
3297 6 44.8532 17.264 99.4421
3298 6 46.0991 19.422 99.4421
3299 6 44.8532 21.58 99.4421
3300 6 46.0991 23.738 99.4421
3301 6 47.345 0 99.4421
3302 6 48.591 2.158 99.4421
3303 6 47.345 4.316 99.4421
3304 6 48.591 6.474 99.4421
3305 6 47.345 8.632 99.4421
3306 6 48.591 10.79 99.4421
3307 6 47.345 12.948 99.4421
3308 6 48.591 15.106 99.4421
3309 6 47.345 17.264 99.4421
3310 6 48.591 19.422 99.4421
3311 6 47.345 21.58 99.4421
3312 6 48.591 23.738 99.4421
3313 6 49.8369 0 99.4421
3314 6 51.0828 2.158 99.4421
3315 6 49.8369 4.316 99.4421
3316 6 51.0828 6.474 99.4421
3317 6 49.8369 8.632 99.4421
3318 6 51.0828 10.79 99.4421
3319 6 49.8369 12.948 99.4421
3320 6 51.0828 15.106 99.4421
3321 6 49.8369 17.264 99.4421
3322 6 51.0828 19.422 99.4421
3323 6 49.8369 21.58 99.4421
3324 6 51.0828 23.738 99.4421
3325 6 52.3287 0 99.4421
3326 6 53.5746 2.158 99.4421
3327 6 52.3287 4.316 99.4421
3328 6 53.5746 6.474 99.4421
3329 6 52.3287 8.632 99.4421
3330 6 53.5746 10.79 99.4421
3331 6 52.3287 12.948 99.4421
3332 6 53.5746 15.106 99.4421
3333 6 52.3287 17.264 99.4421
3334 6 53.5746 19.422 99.4421
3335 6 52.3287 21.58 99.4421
3336 6 53.5746 23.738 99.4421
3337 6 54.8206 0 99.4421
3338 6 56.0665 2.158 99.4421
3339 6 54.8206 4.316 99.4421
3340 6 56.0665 6.474 99.4421
3341 6 54.8206 8.632 99.4421
3342 6 56.0665 10.79 99.4421
3343 6 54.8206 12.948 99.4421
3344 6 56.0665 15.106 99.4421
3345 6 54.8206 17.264 99.4421
3346 6 56.0665 19.422 99.4421
3347 6 54.8206 21.58 99.4421
3348 6 56.0665 23.738 99.4421
3349 6 57.3124 0 99.4421
3350 6 58.5583 2.158 99.4421
3351 6 57.3124 4.316 99.4421
3352 6 58.5583 6.474 99.4421
3353 6 57.3124 8.632 99.4421
3354 6 58.5583 10.79 99.4421
3355 6 57.3124 12.948 99.4421
3356 6 58.5583 15.106 99.4421
3357 6 57.3124 17.264 99.4421
3358 6 58.5583 19.422 99.4421
3359 6 57.3124 21.58 99.4421
3360 6 58.5583 23.738 99.4421
3361 6 59.8043 0 99.4421
3362 6 61.0502 2.158 99.4421
3363 6 59.8043 4.316 99.4421
3364 6 61.0502 6.474 99.4421
3365 6 59.8043 8.632 99.4421
3366 6 61.0502 10.79 99.4421
3367 6 59.8043 12.948 99.4421
3368 6 61.0502 15.106 99.4421
3369 6 59.8043 17.264 99.4421
3370 6 61.0502 19.422 99.4421
3371 6 59.8043 21.58 99.4421
3372 6 61.0502 23.738 99.4421
3373 6 62.2961 0 99.4421
3374 6 63.542 2.158 99.4421
3375 6 62.2961 4.316 99.4421
3376 6 63.542 6.474 99.4421
3377 6 62.2961 8.632 99.4421
3378 6 63.542 10.79 99.4421
3379 6 62.2961 12.948 99.4421
3380 6 63.542 15.106 99.4421
3381 6 62.2961 17.264 99.4421
3382 6 63.542 19.422 99.4421
3383 6 62.2961 21.58 99.4421
3384 6 63.542 23.738 99.4421
3385 6 64.7879 0 99.4421
3386 6 66.0339 2.158 99.4421
3387 6 64.7879 4.316 99.4421
3388 6 66.0339 6.474 99.4421
3389 6 64.7879 8.632 99.4421
3390 6 66.0339 10.79 99.4421
3391 6 64.7879 12.948 99.4421
3392 6 66.0339 15.106 99.4421
3393 6 64.7879 17.264 99.4421
3394 6 66.0339 19.422 99.4421
3395 6 64.7879 21.58 99.4421
3396 6 66.0339 23.738 99.4421
3397 6 67.2798 0 99.4421
3398 6 68.5257 2.158 99.4421
3399 6 67.2798 4.316 99.4421
3400 6 68.5257 6.474 99.4421
3401 6 67.2798 8.632 99.4421
3402 6 68.5257 10.79 99.4421
3403 6 67.2798 12.948 99.4421
3404 6 68.5257 15.106 99.4421
3405 6 67.2798 17.264 99.4421
3406 6 68.5257 19.422 99.4421
3407 6 67.2798 21.58 99.4421
3408 6 68.5257 23.738 99.4421
3409 6 69.7716 0 99.4421
3410 6 71.0176 2.158 99.4421
3411 6 69.7716 4.316 99.4421
3412 6 71.0176 6.474 99.4421
3413 6 69.7716 8.632 99.4421
3414 6 71.0176 10.79 99.4421
3415 6 69.7716 12.948 99.4421
3416 6 71.0176 15.106 99.4421
3417 6 69.7716 17.264 99.4421
3418 6 71.0176 19.422 99.4421
3419 6 69.7716 21.58 99.4421
3420 6 71.0176 23.738 99.4421
3421 6 72.2635 0 99.4421
3422 6 73.5094 2.158 99.4421
3423 6 72.2635 4.316 99.4421
3424 6 73.5094 6.474 99.4421
3425 6 72.2635 8.632 99.4421
3426 6 73.5094 10.79 99.4421
3427 6 72.2635 12.948 99.4421
3428 6 73.5094 15.106 99.4421
3429 6 72.2635 17.264 99.4421
3430 6 73.5094 19.422 99.4421
3431 6 72.2635 21.58 99.4421
3432 6 73.5094 23.738 99.4421
3433 6 74.7553 0 99.4421
3434 6 76.0012 2.158 99.4421
3435 6 74.7553 4.316 99.4421
3436 6 76.0012 6.474 99.4421
3437 6 74.7553 8.632 99.4421
3438 6 76.0012 10.79 99.4421
3439 6 74.7553 12.948 99.4421
3440 6 76.0012 15.106 99.4421
3441 6 74.7553 17.264 99.4421
3442 6 76.0012 19.422 99.4421
3443 6 74.7553 21.58 99.4421
3444 6 76.0012 23.738 99.4421
3445 6 77.2472 0 99.4421
3446 6 78.4931 2.158 99.4421
3447 6 77.2472 4.316 99.4421
3448 6 78.4931 6.474 99.4421
3449 6 77.2472 8.632 99.4421
3450 6 78.4931 10.79 99.4421
3451 6 77.2472 12.948 99.4421
3452 6 78.4931 15.106 99.4421
3453 6 77.2472 17.264 99.4421
3454 6 78.4931 19.422 99.4421
3455 6 77.2472 21.58 99.4421
3456 6 78.4931 23.738 99.4421
3457 6 0.83061 1.43867 101.477
3458 6 2.07654 3.59667 101.477
3459 6 0.83061 5.75467 101.477
3460 6 2.07654 7.91267 101.477
3461 6 0.83061 10.0707 101.477
3462 6 2.07654 12.2287 101.477
3463 6 0.83061 14.3867 101.477
3464 6 2.07654 16.5447 101.477
3465 6 0.83061 18.7027 101.477
3466 6 2.07654 20.8607 101.477
3467 6 0.83061 23.0187 101.477
3468 6 2.07654 25.1767 101.477
3469 6 3.32246 1.43867 101.477
3470 6 4.56838 3.59667 101.477
3471 6 3.32246 5.75467 101.477
3472 6 4.56838 7.91267 101.477
3473 6 3.32246 10.0707 101.477
3474 6 4.56838 12.2287 101.477
3475 6 3.32246 14.3867 101.477
3476 6 4.56838 16.5447 101.477
3477 6 3.32246 18.7027 101.477
3478 6 4.56838 20.8607 101.477
3479 6 3.32246 23.0187 101.477
3480 6 4.56838 25.1767 101.477
3481 6 5.8143 1.43867 101.477
3482 6 7.06023 3.59667 101.477
3483 6 5.8143 5.75467 101.477
3484 6 7.06023 7.91267 101.477
3485 6 5.8143 10.0707 101.477
3486 6 7.06023 12.2287 101.477
3487 6 5.8143 14.3867 101.477
3488 6 7.06023 16.5447 101.477
3489 6 5.8143 18.7027 101.477
3490 6 7.06023 20.8607 101.477
3491 6 5.8143 23.0187 101.477
3492 6 7.06023 25.1767 101.477
3493 6 8.30615 1.43867 101.477
3494 6 9.55207 3.59667 101.477
3495 6 8.30615 5.75467 101.477
3496 6 9.55207 7.91267 101.477
3497 6 8.30615 10.0707 101.477
3498 6 9.55207 12.2287 101.477
3499 6 8.30615 14.3867 101.477
3500 6 9.55207 16.5447 101.477
3501 6 8.30615 18.7027 101.477
3502 6 9.55207 20.8607 101.477
3503 6 8.30615 23.0187 101.477
3504 6 9.55207 25.1767 101.477
3505 6 10.798 1.43867 101.477
3506 6 12.0439 3.59667 101.477
3507 6 10.798 5.75467 101.477
3508 6 12.0439 7.91267 101.477
3509 6 10.798 10.0707 101.477
3510 6 12.0439 12.2287 101.477
3511 6 10.798 14.3867 101.477
3512 6 12.0439 16.5447 101.477
3513 6 10.798 18.7027 101.477
3514 6 12.0439 20.8607 101.477
3515 6 10.798 23.0187 101.477
3516 6 12.0439 25.1767 101.477
3517 6 13.2898 1.43867 101.477
3518 6 14.5358 3.59667 101.477
3519 6 13.2898 5.75467 101.477
3520 6 14.5358 7.91267 101.477
3521 6 13.2898 10.0707 101.477
3522 6 14.5358 12.2287 101.477
3523 6 13.2898 14.3867 101.477
3524 6 14.5358 16.5447 101.477
3525 6 13.2898 18.7027 101.477
3526 6 14.5358 20.8607 101.477
3527 6 13.2898 23.0187 101.477
3528 6 14.5358 25.1767 101.477
3529 6 15.7817 1.43867 101.477
3530 6 17.0276 3.59667 101.477
3531 6 15.7817 5.75467 101.477
3532 6 17.0276 7.91267 101.477
3533 6 15.7817 10.0707 101.477
3534 6 17.0276 12.2287 101.477
3535 6 15.7817 14.3867 101.477
3536 6 17.0276 16.5447 101.477
3537 6 15.7817 18.7027 101.477
3538 6 17.0276 20.8607 101.477
3539 6 15.7817 23.0187 101.477
3540 6 17.0276 25.1767 101.477
3541 6 18.2735 1.43867 101.477
3542 6 19.5194 3.59667 101.477
3543 6 18.2735 5.75467 101.477
3544 6 19.5194 7.91267 101.477
3545 6 18.2735 10.0707 101.477
3546 6 19.5194 12.2287 101.477
3547 6 18.2735 14.3867 101.477
3548 6 19.5194 16.5447 101.477
3549 6 18.2735 18.7027 101.477
3550 6 19.5194 20.8607 101.477
3551 6 18.2735 23.0187 101.477
3552 6 19.5194 25.1767 101.477
3553 6 20.7654 1.43867 101.477
3554 6 22.0113 3.59667 101.477
3555 6 20.7654 5.75467 101.477
3556 6 22.0113 7.91267 101.477
3557 6 20.7654 10.0707 101.477
3558 6 22.0113 12.2287 101.477
3559 6 20.7654 14.3867 101.477
3560 6 22.0113 16.5447 101.477
3561 6 20.7654 18.7027 101.477
3562 6 22.0113 20.8607 101.477
3563 6 20.7654 23.0187 101.477
3564 6 22.0113 25.1767 101.477
3565 6 23.2572 1.43867 101.477
3566 6 24.5031 3.59667 101.477
3567 6 23.2572 5.75467 101.477
3568 6 24.5031 7.91267 101.477
3569 6 23.2572 10.0707 101.477
3570 6 24.5031 12.2287 101.477
3571 6 23.2572 14.3867 101.477
3572 6 24.5031 16.5447 101.477
3573 6 23.2572 18.7027 101.477
3574 6 24.5031 20.8607 101.477
3575 6 23.2572 23.0187 101.477
3576 6 24.5031 25.1767 101.477
3577 6 25.7491 1.43867 101.477
3578 6 26.995 3.59667 101.477
3579 6 25.7491 5.75467 101.477
3580 6 26.995 7.91267 101.477
3581 6 25.7491 10.0707 101.477
3582 6 26.995 12.2287 101.477
3583 6 25.7491 14.3867 101.477
3584 6 26.995 16.5447 101.477
3585 6 25.7491 18.7027 101.477
3586 6 26.995 20.8607 101.477
3587 6 25.7491 23.0187 101.477
3588 6 26.995 25.1767 101.477
3589 6 28.2409 1.43867 101.477
3590 6 29.4868 3.59667 101.477
3591 6 28.2409 5.75467 101.477
3592 6 29.4868 7.91267 101.477
3593 6 28.2409 10.0707 101.477
3594 6 29.4868 12.2287 101.477
3595 6 28.2409 14.3867 101.477
3596 6 29.4868 16.5447 101.477
3597 6 28.2409 18.7027 101.477
3598 6 29.4868 20.8607 101.477
3599 6 28.2409 23.0187 101.477
3600 6 29.4868 25.1767 101.477
3601 6 30.7327 1.43867 101.477
3602 6 31.9787 3.59667 101.477
3603 6 30.7327 5.75467 101.477
3604 6 31.9787 7.91267 101.477
3605 6 30.7327 10.0707 101.477
3606 6 31.9787 12.2287 101.477
3607 6 30.7327 14.3867 101.477
3608 6 31.9787 16.5447 101.477
3609 6 30.7327 18.7027 101.477
3610 6 31.9787 20.8607 101.477
3611 6 30.7327 23.0187 101.477
3612 6 31.9787 25.1767 101.477
3613 6 33.2246 1.43867 101.477
3614 6 34.4705 3.59667 101.477
3615 6 33.2246 5.75467 101.477
3616 6 34.4705 7.91267 101.477
3617 6 33.2246 10.0707 101.477
3618 6 34.4705 12.2287 101.477
3619 6 33.2246 14.3867 101.477
3620 6 34.4705 16.5447 101.477
3621 6 33.2246 18.7027 101.477
3622 6 34.4705 20.8607 101.477
3623 6 33.2246 23.0187 101.477
3624 6 34.4705 25.1767 101.477
3625 6 35.7164 1.43867 101.477
3626 6 36.9624 3.59667 101.477
3627 6 35.7164 5.75467 101.477
3628 6 36.9624 7.91267 101.477
3629 6 35.7164 10.0707 101.477
3630 6 36.9624 12.2287 101.477
3631 6 35.7164 14.3867 101.477
3632 6 36.9624 16.5447 101.477
3633 6 35.7164 18.7027 101.477
3634 6 36.9624 20.8607 101.477
3635 6 35.7164 23.0187 101.477
3636 6 36.9624 25.1767 101.477
3637 6 38.2083 1.43867 101.477
3638 6 39.4542 3.59667 101.477
3639 6 38.2083 5.75467 101.477
3640 6 39.4542 7.91267 101.477
3641 6 38.2083 10.0707 101.477
3642 6 39.4542 12.2287 101.477
3643 6 38.2083 14.3867 101.477
3644 6 39.4542 16.5447 101.477
3645 6 38.2083 18.7027 101.477
3646 6 39.4542 20.8607 101.477
3647 6 38.2083 23.0187 101.477
3648 6 39.4542 25.1767 101.477
3649 6 40.7001 1.43867 101.477
3650 6 41.946 3.59667 101.477
3651 6 40.7001 5.75467 101.477
3652 6 41.946 7.91267 101.477
3653 6 40.7001 10.0707 101.477
3654 6 41.946 12.2287 101.477
3655 6 40.7001 14.3867 101.477
3656 6 41.946 16.5447 101.477
3657 6 40.7001 18.7027 101.477
3658 6 41.946 20.8607 101.477
3659 6 40.7001 23.0187 101.477
3660 6 41.946 25.1767 101.477
3661 6 43.192 1.43867 101.477
3662 6 44.4379 3.59667 101.477
3663 6 43.192 5.75467 101.477
3664 6 44.4379 7.91267 101.477
3665 6 43.192 10.0707 101.477
3666 6 44.4379 12.2287 101.477
3667 6 43.192 14.3867 101.477
3668 6 44.4379 16.5447 101.477
3669 6 43.192 18.7027 101.477
3670 6 44.4379 20.8607 101.477
3671 6 43.192 23.0187 101.477
3672 6 44.4379 25.1767 101.477
3673 6 45.6838 1.43867 101.477
3674 6 46.9297 3.59667 101.477
3675 6 45.6838 5.75467 101.477
3676 6 46.9297 7.91267 101.477
3677 6 45.6838 10.0707 101.477
3678 6 46.9297 12.2287 101.477
3679 6 45.6838 14.3867 101.477
3680 6 46.9297 16.5447 101.477
3681 6 45.6838 18.7027 101.477
3682 6 46.9297 20.8607 101.477
3683 6 45.6838 23.0187 101.477
3684 6 46.9297 25.1767 101.477
3685 6 48.1757 1.43867 101.477
3686 6 49.4216 3.59667 101.477
3687 6 48.1757 5.75467 101.477
3688 6 49.4216 7.91267 101.477
3689 6 48.1757 10.0707 101.477
3690 6 49.4216 12.2287 101.477
3691 6 48.1757 14.3867 101.477
3692 6 49.4216 16.5447 101.477
3693 6 48.1757 18.7027 101.477
3694 6 49.4216 20.8607 101.477
3695 6 48.1757 23.0187 101.477
3696 6 49.4216 25.1767 101.477
3697 6 50.6675 1.43867 101.477
3698 6 51.9134 3.59667 101.477
3699 6 50.6675 5.75467 101.477
3700 6 51.9134 7.91267 101.477
3701 6 50.6675 10.0707 101.477
3702 6 51.9134 12.2287 101.477
3703 6 50.6675 14.3867 101.477
3704 6 51.9134 16.5447 101.477
3705 6 50.6675 18.7027 101.477
3706 6 51.9134 20.8607 101.477
3707 6 50.6675 23.0187 101.477
3708 6 51.9134 25.1767 101.477
3709 6 53.1594 1.43867 101.477
3710 6 54.4053 3.59667 101.477
3711 6 53.1594 5.75467 101.477
3712 6 54.4053 7.91267 101.477
3713 6 53.1594 10.0707 101.477
3714 6 54.4053 12.2287 101.477
3715 6 53.1594 14.3867 101.477
3716 6 54.4053 16.5447 101.477
3717 6 53.1594 18.7027 101.477
3718 6 54.4053 20.8607 101.477
3719 6 53.1594 23.0187 101.477
3720 6 54.4053 25.1767 101.477
3721 6 55.6512 1.43867 101.477
3722 6 56.8971 3.59667 101.477
3723 6 55.6512 5.75467 101.477
3724 6 56.8971 7.91267 101.477
3725 6 55.6512 10.0707 101.477
3726 6 56.8971 12.2287 101.477
3727 6 55.6512 14.3867 101.477
3728 6 56.8971 16.5447 101.477
3729 6 55.6512 18.7027 101.477
3730 6 56.8971 20.8607 101.477
3731 6 55.6512 23.0187 101.477
3732 6 56.8971 25.1767 101.477
3733 6 58.143 1.43867 101.477
3734 6 59.389 3.59667 101.477
3735 6 58.143 5.75467 101.477
3736 6 59.389 7.91267 101.477
3737 6 58.143 10.0707 101.477
3738 6 59.389 12.2287 101.477
3739 6 58.143 14.3867 101.477
3740 6 59.389 16.5447 101.477
3741 6 58.143 18.7027 101.477
3742 6 59.389 20.8607 101.477
3743 6 58.143 23.0187 101.477
3744 6 59.389 25.1767 101.477
3745 6 60.6349 1.43867 101.477
3746 6 61.8808 3.59667 101.477
3747 6 60.6349 5.75467 101.477
3748 6 61.8808 7.91267 101.477
3749 6 60.6349 10.0707 101.477
3750 6 61.8808 12.2287 101.477
3751 6 60.6349 14.3867 101.477
3752 6 61.8808 16.5447 101.477
3753 6 60.6349 18.7027 101.477
3754 6 61.8808 20.8607 101.477
3755 6 60.6349 23.0187 101.477
3756 6 61.8808 25.1767 101.477
3757 6 63.1267 1.43867 101.477
3758 6 64.3726 3.59667 101.477
3759 6 63.1267 5.75467 101.477
3760 6 64.3726 7.91267 101.477
3761 6 63.1267 10.0707 101.477
3762 6 64.3726 12.2287 101.477
3763 6 63.1267 14.3867 101.477
3764 6 64.3726 16.5447 101.477
3765 6 63.1267 18.7027 101.477
3766 6 64.3726 20.8607 101.477
3767 6 63.1267 23.0187 101.477
3768 6 64.3726 25.1767 101.477
3769 6 65.6186 1.43867 101.477
3770 6 66.8645 3.59667 101.477
3771 6 65.6186 5.75467 101.477
3772 6 66.8645 7.91267 101.477
3773 6 65.6186 10.0707 101.477
3774 6 66.8645 12.2287 101.477
3775 6 65.6186 14.3867 101.477
3776 6 66.8645 16.5447 101.477
3777 6 65.6186 18.7027 101.477
3778 6 66.8645 20.8607 101.477
3779 6 65.6186 23.0187 101.477
3780 6 66.8645 25.1767 101.477
3781 6 68.1104 1.43867 101.477
3782 6 69.3563 3.59667 101.477
3783 6 68.1104 5.75467 101.477
3784 6 69.3563 7.91267 101.477
3785 6 68.1104 10.0707 101.477
3786 6 69.3563 12.2287 101.477
3787 6 68.1104 14.3867 101.477
3788 6 69.3563 16.5447 101.477
3789 6 68.1104 18.7027 101.477
3790 6 69.3563 20.8607 101.477
3791 6 68.1104 23.0187 101.477
3792 6 69.3563 25.1767 101.477
3793 6 70.6023 1.43867 101.477
3794 6 71.8482 3.59667 101.477
3795 6 70.6023 5.75467 101.477
3796 6 71.8482 7.91267 101.477
3797 6 70.6023 10.0707 101.477
3798 6 71.8482 12.2287 101.477
3799 6 70.6023 14.3867 101.477
3800 6 71.8482 16.5447 101.477
3801 6 70.6023 18.7027 101.477
3802 6 71.8482 20.8607 101.477
3803 6 70.6023 23.0187 101.477
3804 6 71.8482 25.1767 101.477
3805 6 73.0941 1.43867 101.477
3806 6 74.34 3.59667 101.477
3807 6 73.0941 5.75467 101.477
3808 6 74.34 7.91267 101.477
3809 6 73.0941 10.0707 101.477
3810 6 74.34 12.2287 101.477
3811 6 73.0941 14.3867 101.477
3812 6 74.34 16.5447 101.477
3813 6 73.0941 18.7027 101.477
3814 6 74.34 20.8607 101.477
3815 6 73.0941 23.0187 101.477
3816 6 74.34 25.1767 101.477
3817 6 75.5859 1.43867 101.477
3818 6 76.8319 3.59667 101.477
3819 6 75.5859 5.75467 101.477
3820 6 76.8319 7.91267 101.477
3821 6 75.5859 10.0707 101.477
3822 6 76.8319 12.2287 101.477
3823 6 75.5859 14.3867 101.477
3824 6 76.8319 16.5447 101.477
3825 6 75.5859 18.7027 101.477
3826 6 76.8319 20.8607 101.477
3827 6 75.5859 23.0187 101.477
3828 6 76.8319 25.1767 101.477
3829 6 78.0778 1.43867 101.477
3830 6 79.3237 3.59667 101.477
3831 6 78.0778 5.75467 101.477
3832 6 79.3237 7.91267 101.477
3833 6 78.0778 10.0707 101.477
3834 6 79.3237 12.2287 101.477
3835 6 78.0778 14.3867 101.477
3836 6 79.3237 16.5447 101.477
3837 6 78.0778 18.7027 101.477
3838 6 79.3237 20.8607 101.477
3839 6 78.0778 23.0187 101.477
3840 6 79.3237 25.1767 101.477
3841 7 28.2952 13.4706 21.4605
3842 7 33.4044 27.2458 18.439
3843 7 54.5306 21.399 17.7758
3844 7 45.4869 23.5107 22.493
3845 7 37.5189 9.67902 16.9557
3846 7 31.5382 13.9247 23.0028
3847 7 49.0785 13.4936 11.4055
3848 7 33.4505 15.2417 16.4304
3849 7 42.012 0.0645862 15.509
3850 7 43.1555 27.5867 17.9786
3851 7 34.207 13.0757 24.9516
3852 7 29.0424 8.43065 25.686
3853 7 37.2529 5.65992 23.2058
3854 7 53.7543 15.833 20.4073
3855 7 32.076 15.8679 19.2781
3856 7 34.747 16.1227 25.305
3857 7 33.2446 19.4533 13.1695
3858 7 39.3622 15.2533 14.6341
3859 7 47.0102 29.1305 17.9769
3860 7 44.8307 28.5605 15.5374
3861 7 34.1389 13.1841 20.2123
3862 7 25.8026 22.0699 10.7794
3863 7 54.2719 20.2102 23.6961
3864 7 41.5124 5.39121 21.1606
3865 7 41.1842 3.39668 28.2001
3866 7 47.838 6.93158 12.8677
3867 7 38.987 15.5215 20.5494
3868 7 53.0621 15.0696 22.9387
3869 7 26.7784 24.6021 22.2125
3870 7 53.674 22.9769 14.2821
3871 7 49.2341 2.15049 14.9127
3872 7 23.8335 19.6642 11.9022
3873 7 24.2355 28.7487 11.4293
3874 7 30.2063 7.87857 22.7346
3875 7 48.6723 26.7706 12.0071
3876 7 34.1839 27.6878 10.554
3877 7 43.8486 11.4051 18.1536
3878 7 54.2303 23.8772 18.937
3879 7 24.556 6.62916 19.4326
3880 7 35.4754 0.814008 22.5545
3881 7 61.4426 29.1192 8.25478
3882 7 34.5001 22.7564 22.7027
3883 7 39.8589 21.862 20.7371
3884 7 43.4223 9.51843 24.4739
3885 7 32.2235 23.6937 12.5497
3886 7 57.4381 16.7955 12.9265
3887 7 31.248 29.9007 17.7378
3888 7 25.4839 29.7109 19.4987
3889 7 37.4561 13.6536 13.4743
3890 7 42.9508 20.1142 10.6758
3891 7 53.8942 6.16544 10.9714
3892 7 45.2589 12.7052 14.7307
3893 7 28.7319 10.5902 10.4338
3894 7 24.3405 10.7668 13.8501
3895 7 49.2155 7.14528 23.4192
3896 7 33.8017 25.1144 16.2137
3897 7 42.2755 14.9058 13.0014
3898 7 39.7296 21.4712 10.7602
3899 7 35.6379 3.06103 17.8044
3900 7 24.4151 16.4538 13.6109
3901 7 46.132 2.22092 11.201
3902 7 50.371 11.1073 15.935
3903 7 50.9869 6.7076 15.9391
3904 7 26.218 18.5071 17.7627
3905 7 41.4509 13.4722 18.3372
3906 7 42.3194 12.8807 21.8581
3907 7 26.5907 21.8526 14.1098
3908 7 34.5696 27.4667 27.4897
3909 7 26.1539 15.8237 16.3329
3910 7 22.1021 25.7324 12.5366
3911 7 39.2863 6.35179 26.4354
3912 7 37.3975 20.585 27.3987
3913 7 37.6919 11.6469 27.0396
3914 7 46.1429 14.5024 26.0862
3915 7 28.372 18.3004 15.5539
3916 7 31.1327 6.28635 18.5242
3917 7 51.4868 26.0076 16.6327
3918 7 29.0882 29.1669 15.2397
3919 7 51.083 5.14224 18.3668
3920 7 36.2013 10.7963 11.3738
3921 7 45.7218 21.4488 15.6399
3922 7 40.9733 9.01141 22.5516
3923 7 44.6544 8.26013 22.5195
3924 7 25.8434 12.3101 11.2576
3925 7 47.7304 22.0156 19.8088
3926 7 42.7769 17.4817 11.0325
3927 7 43.2855 27.8785 7.49379
3928 7 56.9802 6.11702 10.9053
3929 7 51.9922 14.0636 10.9991
3930 7 38.4965 12.1108 21.8992
3931 7 56.96 9.13095 15.6976
3932 7 27.9728 20.8567 24.7583
3933 7 33.537 9.92986 24.0695
3934 7 42.4992 29.7335 10.9404
3935 7 35.7114 21.3352 20.3584
3936 7 36.5699 22.2035 24.6872
3937 7 58.2357 25.5434 11.7708
3938 7 24.1249 3.26742 20.9843
3939 7 58.1686 22.8311 10.7493
3940 7 47.2443 27.2506 21.8014
3941 7 32.794 5.82803 13.6392
3942 7 35.6248 14.771 10.8564
3943 7 44.4852 20.3492 18.424
3944 7 51.6371 14.3456 17.2296
3945 7 46.5106 29.6004 21.0067
3946 7 47.9766 19.5176 15.0144
3947 7 25.7282 27.2367 16.7459
3948 7 42.5062 15.4306 27.9956
3949 7 51.8557 4.33548 13.9736
3950 7 45.3368 18.2698 24.0402
3951 7 28.977 3.64563 20.4176
3952 7 45.1266 7.59214 10.6917
3953 7 45.1851 14.0958 17.3052
3954 7 37.1179 10.8239 19.9379
3955 7 30.8707 6.84763 15.4485
3956 7 53.235 25.1475 11.2398
3957 7 56.8651 10.4222 19.4354
3958 7 33.8292 21.9442 10.7753
3959 7 32.9016 28.1972 24.6834
3960 7 46.5321 5.35542 25.0713
3961 7 33.6297 11.0427 26.848
3962 7 28.2986 7.89719 11.0803
3963 7 37.1084 29.6252 25.0709
3964 7 46.3091 10.0205 20.7992
3965 7 32.2598 27.6523 15.5194
3966 7 33.5639 23.2056 19.1062
3967 7 50.9605 20.4536 22.3984
3968 7 36.6663 27.1924 6.45407
3969 7 36.0732 15.0851 18.7563
3970 7 42.2479 22.7834 23.9737
3971 7 36.3312 6.47078 27.4532
3972 7 28.9032 0.248022 12.5579
3973 7 39.9547 26.5207 20.9497
3974 7 38.8853 26.4222 15.5603
3975 7 39.4166 18.4485 27.0108
3976 7 46.8275 25.3962 25.3766
3977 7 37.0161 19.5255 11.5368
3978 7 44.2893 11.9785 24.9397
3979 7 24.1387 20.9768 20.884
3980 7 33.0445 3.43139 11.415
3981 7 48.3036 17.5448 10.745
3982 7 34.9521 26.1002 20.7754
3983 7 39.6311 5.23706 13.4256
3984 7 49.1778 12.5982 23.9218
3985 7 22.6576 23.4347 10.9644
3986 7 54.9223 15.8068 17.3963
3987 7 27.9451 13.8337 15.2014
3988 7 43.535 18.1349 14.0619
3989 7 44.281 24.032 11.0108
3990 7 51.4682 10.4403 11.3723
3991 7 43.0599 15.7028 19.4947
3992 7 37.4799 26.1727 26.3341
3993 7 46.7895 18.0242 20.1159
3994 7 40.392 28.2021 13.4736
3995 7 27.4316 20.9584 19.8874
3996 7 34.5803 7.62172 15.5382
3997 7 43.1212 2.32929 24.3479
3998 7 40.8318 13.1408 24.9834
3999 7 51.1334 0.488955 11.3875
4000 7 32.9509 8.62791 11.3638
4001 7 40.4617 2.27489 10.7612
4002 7 53.1811 17.6132 11.4585
4003 7 30.8089 21.1501 13.9189
4004 7 41.5461 10.0682 14.8112
4005 7 48.6202 4.58222 13.367
4006 7 28.5509 25.7188 13.9693
4007 7 34.1005 18.1805 22.9584
4008 7 27.6922 16.0658 10.951
4009 7 48.5862 13.6138 20.1204
4010 7 28.7723 22.4068 11.6918
4011 7 41.6365 22.509 16.7402
4012 7 53.5169 19.4323 14.5768
4013 7 56.8136 13.1414 10.894
4014 7 48.7129 10.1465 13.6655
4015 7 47.7937 19.4227 24.858
4016 7 33.9284 3.21694 15.1175
4017 7 53.5454 12.0535 17.7366
4018 7 52.9754 18.9217 19.4035
4019 7 45.1768 6.23663 13.7953
4020 7 45.3495 27.2934 10.7551
4021 7 39.2238 20.5788 25.2098
4022 7 40.1668 0.502934 26.0295
4023 7 41.8679 25.2841 22.8947
4024 7 56.3762 19.7975 15.7627
4025 7 40.2301 27.1098 27.2676
4026 7 41.4855 13.0347 10.9222
4027 7 29.4315 4.41933 10.899
4028 7 60.4093 20.6641 10.6053
4029 7 42.6095 23.8039 20.14
4030 7 32.1023 6.49952 24.7703
4031 7 56.3167 24.4448 15.8224
4032 7 32.0859 14.3469 13.6004
4033 7 47.5243 24.949 20.2786
4034 7 24.6805 24.3775 18.5108
4035 7 39.1573 24.3312 13.5866
4036 7 38.6789 10.4479 24.446
4037 7 51.1563 6.82926 12.2455
4038 7 46.6951 3.60655 22.7578
4039 7 37.6229 24.4483 10.783
4040 7 31.5346 25.2319 21.8026
4041 7 42.6884 27.4353 20.9257
4042 7 29.8673 2.80264 15.7927
4043 7 41.5864 3.1397 17.1173
4044 7 38.3298 13.1536 17.5015
4045 7 45.3152 3.39888 16.5008
4046 7 57.2824 27.9506 16.8054
4047 7 30.5838 18.8406 21.7288
4048 7 52.5634 29.6512 17.2081
4049 7 37.2243 23.2066 17.8633
4050 7 53.5997 26.0933 23.58
4051 7 23.1738 9.73666 18.6171
4052 7 57.2101 19.707 11.3123
4053 7 32.1208 0.197412 27.6667
4054 7 43.5048 3.35501 13.7213
4055 7 27.0625 3.7938 18.3246
4056 7 36.7445 1.02284 14.3807
4057 7 42.4667 19.7473 22.8064
4058 7 54.6379 27.5122 15.1381
4059 7 38.8263 17.9371 15.5026
4060 7 36.3559 9.19611 26.1065
4061 7 27.6417 27.7583 10.7375
4062 7 54.1359 4.60213 18.6615
4063 7 24.0776 3.82228 15.6788
4064 7 28.9179 26.102 20.0702
4065 7 55.5796 8.43009 13.2364
4066 7 31.1322 10.1191 16.8513
4067 7 28.4574 16.9078 22.5074
4068 7 42.9276 5.72414 23.7135
4069 7 37.9628 26.038 23.3632
4070 7 49.2991 27.2895 19.5542
4071 7 49.9427 4.72595 22.3467
4072 7 26.021 10.4508 16.7324
4073 7 50.8849 9.87268 21.1758
4074 7 46.5147 10.8658 10.9071
4075 7 42.5705 12.1803 13.2254
4076 7 31.9237 1.93421 20.7085
4077 7 28.9682 13.1971 11.88
4078 7 38.9129 9.76435 13.1207
4079 7 27.5407 15.3185 19.2117
4080 7 39.3966 4.63021 19.0886
4081 7 42.8814 18.3486 27.1363
4082 7 22.8378 28.3908 14.7934
4083 7 35.0611 12.7118 15.9359
4084 7 53.9529 1.5467 14.7818
4085 7 38.8488 7.02501 10.8447
4086 7 28.7914 1.583 17.9044
4087 7 41.9177 4.71013 11.3604
4088 7 42.9118 15.205 24.1431
4089 7 53.2841 29.0023 9.3179
4090 7 37.6475 17.1001 23.4523
4091 7 50.4178 24.3098 14.0482
4092 7 51.2855 8.26509 18.5207
4093 7 23.4395 14.5734 17.7805
4094 7 47.6237 10.0452 24.876
4095 7 24.6586 10.5598 21.2557
4096 7 39.0849 28.625 9.82862
4097 7 39.0682 10.98 10.4569
4098 7 25.57 8.57761 11.5806
4099 7 35.022 18.2356 27.4029
4100 7 44.9325 6.52247 16.5615
4101 7 49.1179 19.2166 20.4138
4102 7 30.1181 22.4531 22.6191
4103 7 24.8468 7.24952 15.2608
4104 7 43.0958 9.14006 16.7816
4105 7 28.3995 25.6337 17.1014
4106 7 36.4321 19.056 17.8627
4107 7 34.6625 5.59044 18.1146
4108 7 39.1577 18.5497 20.5023
4109 7 26.8128 28.6656 22.4549
4110 7 23.4158 20.3432 15.3764
4111 7 51.4595 23.3548 20.2525
4112 7 41.0013 12.3599 28.3808
4113 7 27.0256 7.30117 17.1964
4114 7 52.51 22.0792 24.1071
4115 7 50.1944 18.1488 13.2563
4116 7 57.1616 3.10729 11.827
4117 7 54.2013 12.1555 14.8064
4118 7 55.3215 4.2041 15.903
4119 7 23.7889 4.40125 10.7232
4120 7 29.8151 18.3111 18.1876
4121 7 26.8788 7.26131 21.8446
4122 7 35.3505 19.705 24.9511
4123 7 52.1584 2.66208 22.9021
4124 7 49.0456 24.7689 22.5809
4125 7 32.4683 17.202 10.8897
4126 7 45 14.9188 10.6225
4127 7 46.9479 16.9285 27.4532
4128 7 52.955 15.0203 13.4989
4129 7 42.5027 24.6784 13.8644
4130 7 38.8439 20.9231 16.6611
4131 7 44.3789 29.5031 23.1348
4132 7 51.4837 2.50936 16.8632
4133 7 35.6673 4.50099 13.2425
4134 7 48.5332 20.4657 10.8255
4135 7 33.0524 25.1821 25.2322
4136 7 42.1758 6.9418 13.8163
4137 7 26.629 18.4903 12.4372
4138 7 39.8255 2.56504 22.3419
4139 7 27.1185 5.05626 13.4226
4140 7 33.4474 6.50521 27.9835
4141 7 47.7725 6.53822 20.6696
4142 7 40.9454 20.9259 27.5773
4143 7 37.4218 6.31035 18.283
4144 7 57.4856 11.5685 14.3067
4145 7 43.7038 3.10939 21.3886
4146 7 43.7146 8.73755 19.7096
4147 7 47.5843 16.9654 16.2265
4148 7 46.3427 9.28217 27.8668
4149 7 30.8457 6.63902 11.4699
4150 7 29.8929 10.0672 13.9144
4151 7 37.8064 23.9305 21.3237
4152 7 51.7638 28.4227 13.5667
4153 7 30.48 0.403871 24.3476
4154 7 53.0454 8.90072 16.3546
4155 7 33.536 4.40229 22.3493
4156 7 22.3111 13.4967 15.506
4157 7 41.5552 16.5214 22.037
4158 7 29.6961 10.5865 22.7654
4159 7 32.3076 2.22421 25.4265
4160 7 25.9056 2.40197 11.6609
4161 7 40.9656 4.41523 25.0513
4162 7 56.3161 27.5997 7.813
4163 7 36.4592 28.915 20.0342
4164 7 25.8446 16.7982 21.0983
4165 7 48.019 15.1019 13.795
4166 7 51.4946 4.16022 10.9026
4167 7 31.4813 28.9826 10.0206
4168 7 32.2931 11.7768 11.7532
4169 7 40.276 8.26838 18.2752
4170 7 31.7963 14.4458 26.3439
4171 7 41.2787 0.972346 19.5826
4172 3 45.6184 25.5422 49.9721
4173 3 48.5241 29.1802 84.3205
4174 3 60.3255 11.3578 60.82
4175 3 7.76571 25.1253 14.6446
4176 3 2.40387 18.5944 29.929
4177 3 31.6954 16.6603 50.0795
4178 3 73.794 20.2724 33.7977
4179 3 24.3165 7.57979 36.2374
4180 3 1.18231 2.31567 77.4853
4181 3 69.7442 29.8963 33.5787
4182 3 47.3145 11.2654 43.304
4183 3 77.8889 6.36472 17.3023
4184 3 5.57454 1.21492 42.2767
4185 3 24.2596 15.7066 74.2779
4186 3 37.9216 14.1324 33.4029
4187 3 67.7811 28.6852 62.2569
4188 3 2.27051 1.78219 80.5526
4189 3 75.6787 21.2183 71.4203
4190 3 66.7895 8.15705 11.814
4191 3 41.8799 14.7039 78.1986
4192 3 70.138 1.23048 24.1728
4193 3 23.6289 13.0311 34.3338
4194 3 56.0873 27.1408 76.8402
4195 3 65.6786 15.6453 60.7368
4196 3 22.5909 5.12959 59.9304
4197 3 14.3779 22.4365 89.8817
4198 3 35.2409 22.328 38.9531
4199 3 4.07823 9.92482 12.131
4200 3 54.2015 4.65041 87.1444
4201 3 3.0838 9.93445 45.9561
4202 3 49.2981 10.5875 84.761
4203 3 70.5624 1.0633 14.1608
4204 3 61.3707 6.92538 64.5341
4205 3 52.8952 8.62934 37.1644
4206 3 31.2997 9.74045 45.6469
4207 3 68.847 9.45656 82.3385
4208 3 60.8601 25.5341 41.4985
4209 3 60.786 26.4598 56.6444
4210 3 6.08407 20.6057 33.8696
4211 3 72.6903 10.0836 21.2919
4212 3 32.5947 19.7742 78.5688
4213 3 11.2573 18.0625 65.0461
4214 3 40.0924 8.79449 74.3241
4215 3 48.8072 23.3208 51.5105
4216 3 67.5249 5.49897 18.4479
4217 3 28.9925 15.2161 27.9661
4218 3 4.58179 28.8847 83.5424
4219 3 62.7519 22.0283 11.6525
4220 3 23.3512 28.6536 56.7299
4221 3 8.87054 12.0006 69.9173
4222 3 12.868 18.9705 68.3267
4223 3 73.5259 17.5523 69.7148
4224 3 21.3411 22.9886 68.9126
4225 3 7.47573 29.8477 69.4182
4226 3 35.5251 18.7433 55.2657
4227 3 19.4394 16.1984 90.2381
4228 3 58.3504 26.5575 88.2701
4229 3 9.06262 8.33356 13.4584
4230 3 24.536 23.153 31.6779
4231 3 33.0711 13.7387 34.6463
4232 3 26.3575 19.7858 79.1329
4233 3 43.4282 0.62416 60.2046
4234 3 61.6042 19.3392 86.1439
4235 3 74.0548 9.71557 37.174
4236 3 14.6972 18.828 54.9536
4237 3 11.4698 13.5114 40.3195
4238 3 50.265 10.6561 47.2719
4239 3 79.915 3.49729 11.8468
4240 3 51.8733 29.7279 32.8857
4241 3 52.6548 27.9114 90.0872
4242 3 59.2584 14.1998 71.1455
4243 3 42.7591 16.3212 87.1195
4244 3 35.7851 20.888 82.6982
4245 3 77.3794 9.87749 72.2804
4246 3 20.4863 4.46021 21.922
4247 3 6.75938 1.80211 85.7384
4248 3 55.116 19.7241 72.3683
4249 3 0.914771 27.7381 32.2458
4250 3 42.4606 8.20534 58.6791
4251 3 6.05566 27.8147 60.034
4252 3 47.7794 0.554338 62.8266
4253 3 38.4993 21.908 69.9087
4254 3 38.963 6.41728 69.5667
4255 3 40.3747 26.1193 73.1323
4256 3 67.1793 28.7335 58.3403
4257 3 5.03481 2.6016 75.3099
4258 3 30.5636 5.44711 76.9999
4259 3 21.8186 4.97468 74.0938
4260 3 60.7523 23.6893 88.9886
4261 3 10.3768 7.34017 75.2522
4262 3 7.95619 3.24696 39.3287
4263 3 46.3649 20.1289 35.5505
4264 3 65.7791 26.4263 69.8765
4265 3 8.7637 22.7888 75.4195
4266 3 28.2768 3.33115 80.1549
4267 3 56.1393 20.5292 49.1357
4268 3 22.6345 11.3446 37.7582
4269 3 79.223 2.35286 28.8483
4270 3 13.5876 21.8792 14.7315
4271 3 6.8885 22.6899 46.3407
4272 3 11.3009 1.90509 34.1113
4273 3 71.0629 29.0665 58.1149
4274 3 65.2567 12.9669 21.5624
4275 3 68.0977 7.27433 53.1356
4276 3 78.3127 3.68855 88.315
4277 3 35.8503 25.1476 71.3235
4278 3 73.0627 7.87736 80.7937
4279 3 42.6143 4.75171 42.3793
4280 3 14.9134 18.9909 84.8809
4281 3 40.2754 10.3539 78.7366
4282 3 15.9482 12.4429 75.7249
4283 3 38.8626 11.0682 70.6091
4284 3 25.0085 5.67246 43.2274
4285 3 17.4829 20.1805 59.3809
4286 3 68.705 6.78136 42.7139
4287 3 9.05621 8.93367 40.8707
4288 3 5.60864 29.6534 36.7433
4289 3 73.5697 8.66854 33.5325
4290 3 60.7186 5.91502 11.1907
4291 3 17.7818 3.67486 39.8704
4292 3 69.9781 13.5711 56.7847
4293 3 50.1608 16.33 38.6256
4294 3 70.3914 11.6552 28.6028
4295 3 15.165 12.6975 36.4838
4296 3 49.6367 8.3959 35.677
4297 3 36.1636 27.1567 50.4275
4298 3 72.436 7.4414 26.562
4299 3 74.2665 22.3091 56.4199
4300 3 28.9058 22.5428 62.062
4301 3 4.68477 27.2287 88.8272
4302 3 77.7325 11.4822 37.4442
4303 3 69.3125 21.8743 75.2086
4304 3 34.2206 5.74511 68.6858
4305 3 29.526 19.0136 66.5963
4306 3 60.6394 21.0378 18.5193
4307 3 57.4188 1.58346 55.3276
4308 3 1.75454 13.3621 36.1667
4309 3 64.0519 15.3271 43.7758
4310 3 57.9895 12.7346 88.1375
4311 3 18.222 13.2209 27.9621
4312 3 49.1873 25.431 40.1762
4313 3 72.7879 9.85176 63.4148
4314 3 76.2956 15.1514 80.9967
4315 3 15.0543 29.679 49.7217
4316 3 18.7166 25.5508 52.2274
4317 3 5.95436 2.64494 71.8218
4318 3 33.0363 2.51542 73.9911
4319 3 71.1647 28.5268 46.6218
4320 3 13.3005 6.02832 49.2789
4321 3 4.12835 11.9927 61.5624
4322 3 12.9321 22.5921 65.5064
4323 3 13.2599 13.0309 54.8323
4324 3 26.5661 19.7803 58.4467
4325 3 69.4012 15.2293 23.937
4326 3 55.6922 21.8978 45.1887
4327 3 64.524 9.55709 36.8226
4328 3 50.5566 18.4768 43.1127
4329 3 6.68385 17.4712 25.407
4330 3 71.6848 10.1668 48.8192
4331 3 32.4697 28.6797 86.8155
4332 3 77.5541 7.85294 45.3653
4333 3 40.6303 10.0974 55.1384
4334 3 51.1411 23.3538 70.2714
4335 3 12.1705 1.25754 61.2209
4336 3 41.062 20.2314 35.5645
4337 3 32.2597 12.954 82.8102
4338 3 64.8773 20.1588 82.6705
4339 3 59.7155 5.24269 25.4871
4340 3 63.8201 20.6208 39.0436
4341 3 68.7843 20.0795 69.8878
4342 3 1.24747 0.0129561 53.0764
4343 3 62.2442 28.1954 21.752
4344 3 9.15716 20.6422 15.5204
4345 3 49.8609 7.07398 43.1567
4346 3 56.015 5.07668 23.6437
4347 3 29.1329 29.3615 52.6584
4348 3 69.6529 4.24322 12.0626
4349 3 73.1725 2.23996 33.5128
4350 3 24.263 25.123 56.5699
4351 3 35.0076 5.63353 32.1887
4352 3 57.4532 4.07634 64.3405
4353 3 24.9016 27.3041 67.4422
4354 3 54.9703 5.14847 49.6205
4355 3 29.166 5.48494 72.1013
4356 3 17.4316 3.84361 62.0665
4357 3 30.8631 0.977003 61.0216
4358 3 9.83829 0.345991 23.0526
4359 3 79.6673 20.5794 67.0427
4360 3 46.9293 7.06876 51.2547
4361 3 0.122278 24.5787 74.3572
4362 3 37.8094 4.62368 62.5986
4363 3 14.2892 22.6633 43.5112
4364 3 26.6281 25.5835 84.9276
4365 3 5.55566 16.393 65.7191
4366 3 31.0772 7.91268 28.7915
4367 3 18.3956 12.1728 44.0675
4368 3 18.4472 1.31184 59.6535
4369 3 17.7732 0.523143 43.7898
4370 3 0.197107 7.33261 86.6084
4371 3 64.9694 17.7944 30.8344
4372 3 47.4411 3.43204 36.4867
4373 3 52.9997 17.5421 58.631
4374 3 56.229 1.22088 89.6243
4375 3 41.2155 12.4138 41.3388
4376 3 7.58317 15.5134 32.8183
4377 3 24.9677 11.2972 27.6366
4378 3 70.0052 29.9396 77.1807
4379 3 16.5639 5.73425 33.3203
4380 3 21.3448 14.8815 40.8293
4381 3 27.1807 12.8073 72.073
4382 3 59.1572 3.45726 80.3485
4383 3 0.0956746 26.6993 51.1073
4384 3 64.9485 3.53937 46.8808
4385 3 67.9657 17.1117 75.8961
4386 3 32.3025 28.7 79.7499
4387 3 58.8641 23.3334 79.965
4388 3 7.1952 29.3329 74.8992
4389 3 39.2931 0.999732 34.2426
4390 3 71.1172 11.3268 40.8456
4391 3 57.1645 5.62723 72.0985
4392 3 2.64389 26.4221 13.0114
4393 3 56.4919 22.498 53.5157
4394 3 7.83416 4.01581 27.3436
4395 3 63.3619 19.3458 20.8316
4396 3 77.966 14.0416 63.7887
4397 3 14.7446 4.54602 46.5138
4398 3 28.0419 22.4009 27.3077
4399 3 20.1378 3.00929 45.916
4400 3 75.6334 16.9504 44.318
4401 3 27.4689 23.2238 75.4099
4402 3 76.9344 19.1028 11.4121
4403 3 12.6825 29.2505 87.3089
4404 3 42.3294 10.343 33.286
4405 3 1.52824 10.9284 81.046
4406 3 43.8021 28.1045 82.782
4407 3 11.6238 19.8161 43.4132
4408 3 77.7179 9.76699 58.3865
4409 3 41.7519 10.1944 49.7943
4410 3 67.4726 2.23624 89.3987
4411 3 41.2795 12.7503 46.1416
4412 3 38.074 7.02389 78.2329
4413 3 40.2209 2.95621 75.6528
4414 3 53.8132 24.6743 57.4287
4415 3 79.9495 1.45248 56.3005
4416 3 9.18905 16.4241 21.4097
4417 3 52.5887 29.323 85.1284
4418 3 46.51 26.5642 69.8573
4419 3 58.9924 14.9658 34.4196
4420 3 38.3409 15.8149 89.416
4421 3 72.3492 27.7458 68.2862
4422 3 35.755 23.9592 53.0851
4423 3 65.5704 19.9653 42.4615
4424 3 11.7214 23.0837 72.1247
4425 3 16.0884 25.8396 59.0866
4426 3 8.70943 20.3653 29.3112
4427 3 5.4011 25.4839 37.7941
4428 3 51.8614 8.48527 85.199
4429 3 31.8833 6.38123 35.3352
4430 3 11.9108 3.28664 89.2163
4431 3 68.5485 7.65421 34.6416
4432 3 68.2488 6.06197 85.4101
4433 3 76.9909 25.1088 27.6758
4434 3 8.52895 24.6636 21.9542
4435 3 9.32825 23.5364 38.2388
4436 3 23.2828 26.0033 61.4638
4437 3 18.2752 28.1929 90.3762
4438 3 8.35646 27.8848 51.3645
4439 3 51.3918 11.8003 60.2265
4440 3 76.5386 5.03444 26.3631
4441 3 74.0518 6.17271 54.3988
4442 3 32.7354 19.5959 73.7378
4443 3 5.05969 17.697 52.9034
4444 3 60.0577 20.0361 30.9866
4445 3 16.0655 4.2204 87.7286
4446 3 62.5556 26.9785 77.974
4447 3 72.7448 19.8154 81.2671
4448 3 43.541 19.5683 48.9669
4449 3 59.0891 20.082 36.0901
4450 3 51.5578 17.6129 51.0481
4451 3 64.6318 0.435743 39.3044
4452 3 59.3253 24.6209 45.9807
4453 3 17.9564 10.1116 83.023
4454 3 29.7852 3.33887 27.9455
4455 3 48.1103 16.1333 36.2004
4456 3 21.0736 28.2588 22.8432
4457 3 59.3991 29.9187 14.3638
4458 3 56.9765 26.0448 71.9078
4459 3 40.2642 2.8373 83.1933
4460 3 10.402 3.86418 53.9756
4461 3 5.75008 10.7331 65.9277
4462 3 75.3401 3.92535 57.894
4463 3 60.4435 7.71718 32.6109
4464 3 2.39672 11.9364 41.8547
4465 3 44.3549 16.9633 64.8897
4466 3 56.5479 28.8523 48.5971
4467 3 12.2797 7.65649 24.2224
4468 3 43.234 16.9075 54.7476
4469 3 28.3617 13.1989 90.9177
4470 3 74.2677 4.49529 84.9118
4471 3 41.1713 29.1941 69.2371
4472 3 69.8933 29.3396 43.5094
4473 3 74.9207 6.1511 37.6173
4474 3 59.4518 29.8539 28.3209
4475 3 7.00036 28.4727 30.3761
4476 3 30.8569 1.92767 40.0801
4477 3 44.5752 25.4352 34.2806
4478 3 59.8269 5.28274 54.9062
4479 3 51.774 6.95443 49.4564
4480 3 77.6471 0.735655 65.1035
4481 3 48.9159 19.6472 47.1299
4482 3 9.8668 27.3339 32.9547
4483 3 3.80593 20.3787 65.7033
4484 3 28.1005 22.3735 66.8114
4485 3 1.02272 18.091 21.9671
4486 3 60.1819 10.3375 16.6573
4487 3 1.79256 14.9468 84.7007
4488 3 64.5208 13.4227 71.7864
4489 3 3.10316 19.1307 50.1478
4490 3 25.6723 9.17769 81.143
4491 3 5.90815 11.0401 86.5931
4492 3 27.7459 10.4857 39.8696
4493 3 63.0819 17.1207 63.8566
4494 3 27.5568 19.4758 54.4398
4495 3 63.7641 11.7219 28.55
4496 3 14.0957 18.4746 23.4428
4497 3 67.4937 21.8046 33.0261
4498 3 41.8733 29.2497 42.989
4499 3 49.2347 8.55841 76.3856
4500 3 59.9906 5.26075 67.2272
4501 3 25.8008 8.67548 87.8411
4502 3 51.6863 20.6734 60.9602
4503 3 1.1615 5.42048 26.1407
4504 3 31.0055 13.2707 49.4416
4505 3 38.0121 0.862607 68.0858
4506 3 27.7409 29.1305 88.9133
4507 3 16.6299 7.72378 50.2531
4508 3 3.8582 17.6157 70.6197
4509 3 56.5979 1.42783 78.3812
4510 3 44.291 13.9728 89.8133
4511 3 75.2724 29.1049 88.3642
4512 3 32.5298 10.0334 74.888
4513 3 1.42631 27.4313 72.5406
4514 3 56.6465 7.1095 39.6312
4515 3 16.8472 8.72023 88.1318
4516 3 37.5617 7.2663 32.8146
4517 3 77.1755 11.6331 41.6388
4518 3 33.3207 1.66399 52.5952
4519 3 20.1324 3.63792 65.351
4520 3 69.1732 12.8773 32.7807
4521 3 13.033 13.01 51.5092
4522 3 64.405 0.285245 44.1054
4523 3 73.8125 10.4815 69.5973
4524 3 62.2588 15.8706 57.8479
4525 3 2.44263 12.777 89.2997
4526 3 10.6333 26.2942 67.5509
4527 3 69.2398 4.97791 48.8556
4528 3 2.7424 8.13265 59.4814
4529 3 53.9488 27.5745 41.3364
4530 3 34.3676 7.48995 59.0327
4531 3 31.5581 19.1087 30.8645
4532 3 62.3717 0.395299 88.4991
4533 3 40.6166 0.28423 79.2745
4534 3 23.9966 1.99394 40.3367
4535 3 70.9412 27.7163 11.9118
4536 3 78.9482 18.1297 35.7411
4537 3 20.3875 16.8458 21.1573
4538 3 5.59811 13.336 44.0619
4539 3 76.318 0.416784 26.1151
4540 3 47.756 13.6814 60.6581
4541 3 39.2546 19.2425 56.7978
4542 3 29.1605 29.3384 72.3014
4543 3 20.3108 5.57456 29.9519
4544 3 22.9218 19.9726 82.0101
4545 3 34.8117 21.5576 64.0087
4546 3 13.4877 9.84907 44.0176
4547 3 29.4279 17.0131 73.7472
4548 3 62.3372 25.5341 84.5643
4549 3 63.4155 12.6441 84.3999
4550 3 66.2371 0.270201 18.8908
4551 3 38.2234 12.8754 62.0124
4552 3 73.4733 3.64437 69.2561
4553 3 75.2387 24.483 45.1218
4554 3 5.24495 9.68742 90.3071
4555 3 1.07111 19.6334 76.5638
4556 3 46.9038 20.5457 65.2036
4557 3 62.2032 25.9229 12.0778
4558 3 26.3454 0.076179 59.6277
4559 3 18.9715 21.3379 71.5173
4560 3 45.2864 1.56642 85.0967
4561 3 42.6983 6.02823 84.5087
4562 3 70.9704 18.5465 73.194
4563 3 18.1364 22.314 54.4809
4564 3 7.5602 3.77881 34.9327
4565 3 74.0048 27.9959 20.6086
4566 3 69.0426 26.8352 24.6196
4567 3 15.7113 29.5284 81.2642
4568 3 75.5442 1.00985 17.8952
4569 3 42.399 17.8118 83.8936
4570 3 25.4764 4.92725 76.2371
4571 3 0.999498 2.8093 38.074
4572 3 27.123 19.0974 37.3042
4573 3 4.08507 29.7835 49.2516
4574 3 22.2884 28.0764 81.2698
4575 3 41.2868 4.58441 61.0547
4576 3 8.80773 12.2896 53.3571
4577 3 75.8547 12.043 25.8731
4578 3 46.5125 29.0081 58.1341
4579 3 64.4596 0.162787 83.103
4580 3 70.6647 15.6242 66.2107
4581 3 15.8945 13.7078 84.9244
4582 3 23.1594 20.4271 38.5107
4583 3 59.7846 1.31204 49.6675
4584 3 62.4104 16.7393 84.0719
4585 3 71.0377 21.977 60.9447
4586 3 53.6628 14.5839 66.072
4587 3 6.32254 10.2381 54.22
4588 3 35.1077 8.91664 54.7942
4589 3 78.3618 8.65819 12.69
4590 3 26.2798 1.63186 84.4648
4591 3 7.66376 13.7976 75.0019
4592 3 29.1658 20.7174 34.3015
4593 3 72.86 9.30197 76.7228
4594 3 74.9354 29.0021 39.8619
4595 3 68.3588 2.65162 72.4817
4596 3 1.3977 16.2993 44.3237
4597 3 31.2172 3.44895 44.3162
4598 3 64.0594 7.869 79.7448
4599 3 38.5755 16.1667 51.4351
4600 3 4.1882 12.4611 54.8691
4601 3 73.548 22.8725 11.7044
4602 3 43.9778 5.6248 73.8407
4603 3 1.67164 20.6818 38.8522
4604 3 56.7564 14.9457 38.9311
4605 3 48.3813 4.08636 48.3777
4606 3 66.7692 20.6773 52.1546
4607 3 78.858 26.3671 38.9616
4608 3 69.6566 19.3324 84.3252
4609 3 5.60709 25.447 19.3565
4610 3 57.7587 7.55526 90.1195
4611 3 64.9838 16.0725 50.5714
4612 3 53.1902 21.9753 88.804
4613 3 45.1491 25.8818 76.8218
4614 3 59.6589 9.96677 67.5388
4615 3 30.5979 26.7866 83.9948
4616 3 65.5634 10.3026 43.3839
4617 3 26.8151 4.87925 39.5269
4618 3 78.3754 25.4115 45.6698
4619 3 10.2849 25.2264 44.4967
4620 3 50.0957 15.1777 86.5035
4621 3 54.7424 28.5555 54.5246
4622 3 45.2568 19.5304 54.8555
4623 3 61.6878 14.7199 12.0092
4624 3 32.1753 23.9089 52.6491
4625 3 76.3834 15.7862 48.508
4626 3 12.6294 22.4565 35.3856
4627 3 64.855 17.7806 45.8737
4628 3 76.8503 8.27373 61.8781
4629 3 61.979 2.24599 34.7491
4630 3 72.6707 20.9729 15.9085
4631 3 18.614 25.7569 36.4466
4632 3 20.2638 7.18297 57.6737
4633 3 47.6529 3.1864 76.1094
4634 3 51.3062 17.754 65.7972
4635 3 27.4545 8.0226 53.5753
4636 3 64.1451 29.8827 73.8509
4637 3 25.0006 24.7557 47.6659
4638 3 3.77912 25.2521 59.2413
4639 3 53.5455 27.1184 72.5847
4640 3 63.5985 26.7517 33.2567
4641 3 0.521059 29.0926 45.2795
4642 3 19.6774 16.1702 81.4554
4643 3 49.1941 6.2987 72.3858
4644 3 43.5263 28.2221 29.835
4645 3 67.9055 1.28305 67.5401
4646 3 33.1117 28.2676 48.8598
4647 3 11.2676 22.3348 26.8907
4648 3 71.1669 2.57581 40.5471
4649 3 51.5711 10.2173 52.0333
4650 3 47.1393 9.46022 61.5812
4651 3 54.8219 3.33433 46.1293
4652 3 12.102 0.829791 27.1895
4653 3 74.691 28.1356 28.2247
4654 3 68.79 16.1305 52.4983
4655 3 46.6983 10.8211 53.018
4656 3 42.2146 29.421 64.6283
4657 3 17.9028 5.99479 43.6019
4658 3 51.8062 9.80236 74.2228
4659 3 48.4997 24.2555 43.3241
4660 3 3.82413 10.365 37.2993
4661 3 11.7146 20.014 47.3813
4662 3 26.3358 18.9662 47.2183
4663 3 39.9082 20.0956 89.9084
4664 3 58.3355 27.3834 53.4922
4665 3 55.5492 22.0118 30.6593
4666 3 18.0313 14.7044 61.7083
4667 3 71.7458 25.3918 88.4561
4668 3 75.7613 21.3453 51.7184
4669 3 7.68068 9.51503 33.6179
4670 3 52.1848 0.762148 67.7138
4671 3 62.8455 19.6152 15.4288
4672 3 59.8845 10.0062 29.1139
4673 3 43.2541 11.0491 77.1758
4674 3 13.7313 14.4414 71.7369
4675 3 63.1259 28.9011 15.6741
4676 3 6.76028 26.1537 67.2837
4677 3 16.1876 10.4745 55.4466
4678 3 10.446 14.8752 27.3341
4679 3 59.6048 23.2276 22.1247
4680 3 69.8627 22.4221 22.2536
4681 3 32.2745 19.525 88.2194
4682 3 46.3762 23.6359 57.7746
4683 3 20.5736 11.1478 21.788
4684 3 33.6298 23.4726 77.0701
4685 3 9.37975 10.9546 85.8951
4686 3 22.9295 12.2561 52.0476
4687 3 70.9138 20.178 65.8009
4688 3 69.8576 18.0698 30.8747
4689 3 9.78896 25.9901 87.6445
4690 3 79.5088 27.631 26.0636
4691 3 24.2119 23.2771 64.2444
4692 3 14.7567 26.4418 64.8841
4693 3 55.2516 14.6463 45.7099
4694 3 54.9495 7.33318 32.2405
4695 3 71.3058 22.7577 50.9093
4696 3 11.4109 0.04884 43.2849
4697 3 75.0985 1.88203 23.025
4698 3 21.76 13.6714 57.6448
4699 3 55.6042 2.38859 37.4928
4700 3 1.24016 12.7794 49.3456
4701 3 15.6092 3.64754 77.7427
4702 3 69.7122 0.745573 18.4688
4703 3 57.1357 1.21778 42.4651
4704 3 43.5078 26.1887 39.9636
4705 3 73.3167 8.32921 13.1797
4706 3 76.1778 16.2203 65.1439
4707 3 55.3235 14.9398 30.3269
4708 3 38.9522 26.1846 88.9528
4709 3 64.4457 21.7149 48.0325
4710 3 39.4286 6.49537 40.9729
4711 3 16.1483 25.8867 84.7338
4712 3 50.8761 8.63748 64.4261
4713 3 23.2286 8.48568 24.7988
4714 3 28.2268 22.0125 82.97
4715 3 67.6244 26.4195 38.3945
4716 3 75.5218 13.1372 76.0494
4717 3 64.6078 15.1084 37.7062
4718 3 21.489 20.7371 57.7991
4719 3 62.6661 28.8674 54.5983
4720 3 0.0784873 1.07349 19.1451
4721 3 15.2802 20.8828 12.06
4722 3 17.5787 24.677 24.8586
4723 3 20.6728 22.5293 30.0844
4724 3 63.249 10.1977 62.6901
4725 3 7.758 1.50978 18.9407
4726 3 19.2097 13.8933 65.5515
4727 3 55.5175 8.25559 67.4892
4728 3 25.0325 13.9061 42.1121
4729 3 19.9003 15.965 68.4746
4730 3 9.17 13.6582 63.5763
4731 3 51.468 13.9271 34.3791
4732 3 54.1014 21.273 66.746
4733 3 55.9529 18.8699 26.064
4734 3 21.7969 12.5654 81.386
4735 3 74.6621 17.9325 30.5384
4736 3 34.7409 5.13715 74.8725
4737 3 4.98653 17.5846 85.0289
4738 3 79.7679 12.9825 53.2628
4739 3 14.1295 28.8183 15.1753
4740 3 65.0352 3.45411 66.7315
4741 3 8.68169 22.4611 88.7636
4742 3 42.8452 29.1682 52.2174
4743 3 73.3528 27.4223 34.6734
4744 3 50.7151 13.6499 53.5683
4745 3 8.9023 1.94148 30.4493
4746 3 45.7273 27.967 45.6533
4747 3 29.9171 19.6671 40.2698
4748 3 60.176 20.5256 62.3708
4749 3 77.6151 1.90717 43.9517
4750 3 74.0439 3.29537 75.2909
4751 3 40.6371 21.431 81.4544
4752 3 76.8969 17.1061 72.5608
4753 3 62.8208 1.76711 77.4029
4754 3 6.20404 3.89881 53.0919
4755 3 77.8913 13.7416 56.1849
4756 3 11.7953 25.3738 17.8933
4757 3 41.8418 19.619 67.894
4758 3 46.7633 13.886 79.1262
4759 3 37.6288 28.1966 46.3741
4760 3 65.2483 4.84663 58.5416
4761 3 67.8337 3.45649 77.0305
4762 3 32.832 24.8148 37.0664
4763 3 66.1636 4.74001 27.7744
4764 3 75.9877 8.99054 89.0013
4765 3 72.3978 24.393 29.366
4766 3 64.0389 10.161 23.4286
4767 3 6.17892 16.6672 17.184
4768 3 43.6799 27.2939 88.7204
4769 3 27.4301 26.6975 80.7927
4770 3 11.448 27.8862 72.2802
4771 3 60.2752 9.99802 22.3798
4772 3 51.0522 27.1589 27.2091
4773 3 59.2473 23.9497 85.1754
4774 3 16.6238 2.59524 68.4791
4775 3 44.5747 2.37654 45.8266
4776 3 9.78355 15.644 57.7997
4777 3 27.1656 11.0647 52.7732
4778 3 36.0172 12.5525 66.065
4779 3 41.6615 16.511 31.4636
4780 3 4.61228 10.8309 26.7235
4781 3 29.5735 10.5953 86.7637
4782 3 17.1496 10.3701 40.8257
4783 3 62.5841 17.7783 53.0222
4784 3 32.4682 13.2151 70.9067
4785 3 9.76843 22.4977 84.996
4786 3 19.8796 22.5666 17.0076
4787 3 45.9558 4.67882 62.0428
4788 3 58.4462 20.1054 83.1761
4789 3 23.7532 19.7799 28.034
4790 3 77.9322 4.41069 76.4374
4791 3 19.9 17.4764 51.2264
4792 3 22.9684 21.8062 43.2705
4793 3 34.4819 21.5764 34.1678
4794 3 56.1644 18.6993 56.0347
4795 3 78.5516 13.2422 14.6058
4796 3 9.25813 16.9926 12.6111
4797 3 7.91853 4.13621 49.57
4798 3 43.6453 5.56977 48.8753
4799 3 63.1752 2.00465 51.8698
4800 3 41.9204 10.2796 63.8276
4801 3 18.3238 7.26838 36.7605
4802 3 0.284993 16.4151 69.7034
4803 3 72.9723 14.766 14.2524
4804 3 6.43214 28.758 45.4946
4805 3 7.85352 7.68199 18.086
4806 3 32.1907 24.6985 89.4696
4807 3 20.6462 26.0445 70.7646
4808 3 7.9279 16.0812 39.2308
4809 3 76.7111 17.834 61.8926
4810 3 5.15588 7.09865 65.132
4811 3 75.7089 23.5768 32.3919
4812 3 35.8997 25.242 66.3293
4813 3 4.21844 4.23042 15.5758
4814 3 4.90894 24.7181 83.1996
4815 3 37.4713 3.77862 48.8761
4816 3 11.8551 27.9789 53.8898
4817 3 2.04425 13.3483 11.0249
4818 3 20.5578 8.36578 65.8285
4819 3 10.6657 9.8808 47.1594
4820 3 78.8767 22.0024 21.75
4821 3 15.506 8.53517 67.347
4822 3 62.1783 24.5655 52.3344
4823 3 16.1725 21.7461 48.5043
4824 3 23.8243 26.8743 29.2589
4825 3 40.4854 2.59014 87.4135
4826 3 11.5202 8.92284 30.8685
4827 3 66.1189 24.6888 49.4097
4828 3 71.1116 6.33148 21.4783
4829 3 10.9448 9.94595 57.7402
4830 3 10.4518 13.8572 35.4187
4831 3 52.2004 12.8503 85.1051
4832 3 4.43387 29.2571 20.9937
4833 3 16.6861 0.0464834 23.1382
4834 3 50.8318 17.6027 78.9374
4835 3 47.7979 2.7193 67.2498
4836 3 68.5485 23.6741 46.7653
4837 3 73.1634 14.3647 68.3527
4838 3 79.4987 7.21215 35.9673
4839 3 11.5764 27.0643 37.194
4840 3 7.8396 19.3209 80.2499
4841 3 65.445 1.43008 30.5318
4842 3 61.7714 25.3607 28.54
4843 3 43.9482 1.72112 32.1126
4844 3 0.13145 1.33992 68.0256
4845 3 37.0762 18.147 33.1838
4846 3 66.6893 23.3141 81.6756
4847 3 59.4911 24.0915 17.539
4848 3 4.60982 11.5044 20.996
4849 3 57.5942 7.7161 60.1728
4850 3 66.9976 9.37754 78.2719
4851 3 38.1515 2.04238 42.5615
4852 3 78.5559 25.5321 70.2148
4853 3 28.6853 0.43605 65.7196
4854 3 31.9393 25.6501 59.1989
4855 3 50.3914 3.96044 61.48
4856 3 22.6233 4.16181 36.183
4857 3 66.5279 19.6795 16.2492
4858 3 30.9874 10.8259 40.8334
4859 3 78.3463 17.1 40.5284
4860 3 58.2468 27.6831 68.5751
4861 3 79.0738 4.96135 64.2089
4862 3 76.126 23.9178 39.2622
4863 3 60.9664 4.60103 44.1574
4864 3 29.9966 28.4923 42.943
4865 3 19.4895 23.4289 58.6459
4866 3 38.874 16.4439 70.8654
4867 3 56.9503 9.99702 48.9913
4868 3 64.2021 4.15165 73.5152
4869 3 17.0062 16.1731 32.9627
4870 3 23.4765 15.7178 64.6778
4871 3 31.5811 1.76376 68.5557
4872 3 37.6204 19.1055 60.6533
4873 3 42.0438 10.8397 87.5449
4874 3 79.2268 22.1923 35.473
4875 3 5.73094 25.8183 41.4543
4876 3 79.0323 26.9813 21.3776
4877 3 57.2623 10.6279 72.993
4878 3 8.8822 6.91814 30.9739
4879 3 9.04829 17.4895 50.6246
4880 3 79.7284 14.113 75.8947
4881 3 17.2625 20.2586 31.7441
4882 3 32.4321 8.37438 83.5962
4883 3 15.3478 16.2536 46.7093
4884 3 36.8984 13.1524 43.8288
4885 3 69.6498 16.8716 58.3735
4886 3 10.8076 25.8881 76.0613
4887 3 59.9429 10.0956 54.8764
4888 3 1.21639 19.4213 61.2726
4889 3 65.2595 19.6875 63.8827
4890 3 28.3637 12.8642 31.2725
4891 3 52.5623 11.4209 68.9702
4892 3 9.88068 23.6368 59.7866
4893 3 8.03443 6.7373 61.8199
4894 3 74.4057 16.0333 22.2577
4895 3 3.50748 21.9971 57.6265
4896 3 50.8443 26.8513 65.325
4897 3 76.496 10.1454 52.3015
4898 3 13.1418 4.42544 40.5396
4899 3 1.99085 17.269 16.7721
4900 3 19.2958 13.3541 13.2769
4901 3 2.34522 1.27535 61.4369
4902 3 61.3794 16.8596 90.0623
4903 3 23.5933 13.7626 86.1936
4904 3 13.2454 8.48992 39.216
4905 3 77.9975 18.6175 85.4598
4906 3 44.099 14.0171 50.3925
4907 3 60.8603 7.45091 74.0499
4908 3 23.614 3.16735 51.2481
4909 3 61.3858 13.9707 24.4516
4910 3 60.1478 16.4191 75.6108
4911 3 60.9301 20.1469 44.8557
4912 3 61.172 4.49597 21.4475
4913 3 44.2592 13.7346 30.6736
4914 3 70.4801 16.6473 43.4691
4915 3 10.4495 20.9943 50.9723
4916 3 34.4463 1.60195 56.6697
4917 3 26.868 13.4415 64.8137
4918 3 14.5035 21.4966 76.2595
4919 3 20.3392 9.85082 69.5343
4920 3 1.60735 22.1706 24.787
4921 3 57.1813 14.5622 77.5407
4922 3 4.59852 1.4479 90.7934
4923 3 51.6107 4.3694 57.682
4924 3 56.3778 21.612 39.0706
4925 3 38.2934 27.482 60.3769
4926 3 70.5207 5.97421 65.3653
4927 3 26.6601 8.67837 45.4275
4928 3 54.3614 17.7469 87.7017
4929 3 17.7499 13.3606 71.6554
4930 3 17.086 13.8985 54.3516
4931 3 0.357466 9.57886 27.387
4932 3 76.9804 11.3045 84.626
4933 3 20.1432 1.12184 49.5573
4934 3 26.9135 26.798 50.3683
4935 3 56.6131 27.3383 30.8439
4936 3 26.3903 26.9885 72.0538
4937 3 52.5195 25.1866 81.1787
4938 3 68.9262 14.2577 62.644
4939 3 46.467 5.37977 85.1284
4940 3 62.3498 13.6203 53.9404
4941 3 29.7769 0.313225 56.6334
4942 3 19.309 14.0534 76.3808
4943 3 57.5119 19.8217 20.3542
4944 3 34.9528 12.2918 89.5299
4945 3 49.5319 0.886127 27.6807
4946 3 64.7787 3.68288 62.8875
4947 3 53.0776 9.24775 44.2998
4948 4 11.4892 23.2536 76.5911
4949 4 45.7931 21.661 54.0015
4950 4 47.2911 22.025 42.8249
4951 4 29.8888 3.47921 42.151
4952 4 63.4758 9.9875 82.6719
4953 4 54.5241 26.7226 79.816
4954 4 74.155 18.1547 64.8501
4955 4 44.3874 4.13159 84.2211
4956 4 3.35737 3.56163 44.6765
4957 4 33.1162 19.9429 59.8444
4958 4 49.9893 28.7322 89.4458
4959 4 76.6781 3.05167 74.5228
4960 4 1.87521 27.3837 29.5745
4961 4 16.0412 1.72045 86.4222
4962 4 11.2469 25.7523 73.2122
4963 4 51.0311 14.2097 29.2409
4964 4 43.8738 29.5536 45.3771
4965 4 49.0001 19.1567 90.3393
4966 4 76.2511 9.45814 38.705
4967 4 43.4075 29.77 84.6079
4968 4 35.8783 12.5696 81.4546
4969 4 30.5348 1.50748 53.5697
4970 4 49.8736 0.115566 56.2613
4971 4 13.0714 26.7122 87.9361
4972 4 34.5093 7.77907 82.3425
4973 4 48.8366 11.2407 60.5349
4974 4 43.2916 1.05193 66.4445
4975 4 62.9556 29.3442 77.8058
4976 4 14.2609 18.6225 26.0263
4977 4 65.5197 12.6428 76.7854
4978 4 52.9734 19.8332 86.6226
4979 4 28.8394 24.5734 39.3451
4980 4 68.6459 3.50613 85.9229
4981 4 59.8724 8.63873 89.0554
4982 4 65.4374 1.4604 90.9182
4983 4 4.41719 20.4861 17.0563
4984 4 6.65797 12.5575 71.1653
4985 4 7.37081 26.8669 89.4407
4986 4 79.8903 18.6645 17.1701
4987 4 21.7515 18.4787 34.7659
4988 4 49.1531 23.3704 87.7423
4989 4 62.2726 23.2458 83.8694
4990 4 70.3788 28.004 26.885
4991 4 25.5425 27.1079 55.6349
4992 4 49.0044 11.3344 49.5073
4993 4 64.8929 22.5291 56.0645
4994 4 31.4116 20.339 85.5465
4995 4 41.6494 2.64343 45.9449
4996 4 49.3939 18.4138 31.2629
4997 4 59.0067 5.14908 23.0308
4998 4 35.9684 12.5299 61.0335
4999 4 79.3603 7.93073 62.9165
5000 4 32.074 26.1918 85.8411
5001 4 55.0854 27.8794 74.553
5002 4 40.2311 4.90259 63.393
5003 4 25.6186 29.3537 62.4682
5004 4 58.6512 7.20486 66.1302
5005 4 77.7106 15.2853 69.8478
5006 4 64.7183 6.05156 25.6296
5007 4 75.4783 20.0978 80.9826
5008 4 55.4757 4.92165 41.2687
5009 4 75.7094 21.0054 32.3482
5010 4 3.31472 11.5626 44.2239
5011 4 1.68674 3.44564 72.423
5012 4 13.1152 8.20083 71.2146
5013 4 17.0155 20.0272 55.9871
5014 4 47.8855 26.6635 48.6359
5015 4 69.011 9.74366 79.5882
5016 4 61.1668 9.00762 57.5687
5017 4 6.90305 13.5861 62.111
5018 4 73.4627 25.8743 52.2325
5019 4 55.5523 23.2113 88.9119
5020 4 35.008 20.3156 88.017
5021 4 79.7994 14.7258 40.3555
5022 4 16.6321 22.5638 44.5614
5023 4 29.9771 24.1164 54.1506
5024 4 35.8991 5.48411 71.1598
5025 4 5.28439 1.48311 20.4613
5026 4 3.65023 3.48386 62.4885
5027 4 16.6694 27.6325 57.2794
5028 4 60.336 10.8275 14.0463
5029 4 62.8382 2.75671 45.3444
5030 4 54.2486 27.8063 35.792
5031 4 9.61429 2.87667 47.7513
5032 4 32.0322 0.296516 58.6328
5033 4 73.6403 10.1192 89.1247
5034 4 21.5246 14.1816 33.9523
5035 4 31.86 20.4207 75.9297
5036 4 33.2059 21.6994 27.0527
5037 4 33.8793 25.8127 49.7236
5038 4 12.6001 2.80289 55.0969
5039 4 66.8456 10.3949 27.6748
5040 4 39.5666 16.1441 32.9451
5041 4 52.7921 9.2127 61.8249
5042 4 24.6434 6.72925 32.3822
5043 4 41.1654 12.4779 77.5527
5044 4 65.659 3.24776 18.8615
5045 4 62.3834 24.7921 39.039
5046 4 2.97932 1.68978 57.0586
5047 4 58.5765 22.2877 19.5815
5048 4 0.930584 15.4525 46.9707
5049 4 2.24816 14.4096 50.9612
5050 4 29.8641 12.4902 39.0709
5051 4 41.5518 8.60914 38.4658
5052 4 51.4963 23.2976 56.0045
5053 4 46.1607 23.6859 83.163
5054 4 7.41298 28.5688 66.6963
5055 4 23.2754 22.1467 29.3501
5056 4 13.2015 19.9699 13.0794
5057 4 28.6406 29.5862 58.8183
5058 4 26.5554 23.2431 84.2397
5059 4 10.2446 6.77191 87.5573
5060 4 61.4907 29.1785 31.6516
5061 4 66.9596 16.2969 46.9426
5062 4 57.1041 21.1272 57.0284
5063 4 63.6267 29.2638 51.2367
5064 4 54.9202 29.783 31.7169
5065 4 34.0416 29.4216 42.2168
5066 4 6.18597 19.96 84.2636
5067 4 30.2846 3.72751 70.4648
5068 4 4.02279 2.34376 50.4125
5069 4 59.8052 26.7675 84.3149
5070 4 58.2297 22.2986 30.4159
5071 4 0.0673229 3.1133 80.0467
5072 4 53.7566 11.5475 75.2814
5073 4 5.61134 8.25184 26.7639
5074 4 66.0296 4.41686 42.7592
5075 4 53.4605 27.6228 52.2047
5076 4 21.5116 13.6263 54.9672
5077 4 25.7387 9.68523 43.3856
5078 4 9.44124 1.33132 27.5022
5079 4 63.2268 0.955874 36.5027
5080 4 69.2159 28.1738 59.7081
5081 4 1.9571 22.4656 82.0191
5082 4 15.4997 11.9183 53.3854
5083 4 17.105 7.81815 24.436
5084 4 46.1638 22.5757 34.9254
5085 4 0.721645 3.40639 30.9338
5086 4 15.695 27.7187 62.6149
5087 4 59.4011 10.6705 48.2836
5088 4 38.3304 19.8452 35.4579
5089 4 74.9691 28.5639 65.0939
5090 4 75.2646 21.6701 48.8714
5091 4 78.966 14.9364 20.0928
5092 4 74.8804 25.6299 29.5187
5093 4 28.2721 16.37 66.0245
5094 4 62.1582 13.3694 26.7675
5095 4 70.198 3.40682 25.5183
5096 4 67.5887 17.8478 78.3708
5097 4 15.7254 27.249 82.4311
5098 4 15.8395 1.09628 79.0953
5099 4 8.17655 14.2753 56.4701
5100 4 76.8677 12.8458 66.0636
5101 4 43.6978 4.47992 60.7143
5102 4 23.0905 14.0898 79.511
5103 4 9.68395 18.8366 20.0571
5104 4 3.36679 15.2446 34.7857
5105 4 62.6227 19.486 18.2746
5106 4 6.14956 9.49117 35.7179
5107 4 66.5503 27.2227 50.021
5108 4 63.9046 20.3161 45.8323
5109 4 37.7701 26.0627 62.5488
5110 4 57.344 27.8083 51.0083
5111 4 49.8648 10.9437 41.3561
5112 4 50.065 12.8092 86.2121
5113 4 74.2697 17.5675 46.8559
5114 4 68.0947 0.51769 63.9915
5115 4 70.0329 26.2496 67.7758
5116 4 56.9252 1.01174 58.0744
5117 4 43.5038 0.0841214 41.0026
5118 4 34.8793 1.05778 35.3658
5119 4 38.352 0.819341 40.3516
5120 4 20.3639 22.5483 56.1636
5121 4 5.48359 22.2837 64.314
5122 4 31.6634 22.2366 35.8593
5123 4 27.405 14.4016 70.2194
5124 4 71.6087 27.8059 44.3072
5125 4 71.4051 8.10516 46.7215
5126 4 46.1668 5.59469 49.1557
5127 4 0.836123 21.1385 72.4818
5128 4 61.3869 27.1137 59.52
5129 4 61.8469 7.93028 61.8124
5130 4 11.0203 9.65087 42.7193
5131 4 70.0025 28.925 80.858
5132 4 5.99166 26.0667 31.2402
5133 4 65.5058 16.667 35.9142
5134 4 73.2667 15.526 31.7043
5135 4 37.035 19.4773 31.0029
5136 4 19.1602 14.6343 15.6703
5137 4 8.65877 17.7108 23.7092
5138 4 9.4047 19.3358 56.3351
5139 4 79.2954 22.1705 68.8829
5140 4 51.4563 22.396 36.9991
5141 4 13.6727 20.2298 44.73
5142 4 71.2463 7.07896 63.0341
5143 4 24.744 3.48172 54.6192
5144 4 78.4596 7.81932 67.8642
5145 4 29.9173 8.69994 75.1294
5146 4 8.83216 10.1696 55.13
5147 4 12.8268 21.4557 67.8664
5148 4 79.6672 4.77252 35.7999
5149 4 26.9929 4.53287 64.9003
5150 4 41.4659 27.853 31.3359
5151 4 5.64796 8.16818 67.2544
5152 4 49.155 28.7331 64.3804
5153 4 14.4504 18.9529 79.1072
5154 4 71.6607 1.18143 47.77
5155 4 39.6501 5.82724 75.6078
5156 4 19.927 13.9495 70.2449
5157 4 30.6502 3.11011 84.1027
5158 4 70.5618 23.4837 39.6429
5159 4 55.6193 11.3499 88.8981
5160 4 38.8124 15.4545 68.1676
5161 4 8.67979 7.89496 48.0467
5162 4 65.8066 22.2033 50.1628
5163 4 37.1825 9.54801 75.4416
5164 4 23.1113 22.6137 47.4092
5165 4 7.38215 27.4386 37.0886
5166 4 64.7503 1.56903 28.1658
5167 4 13.5079 10.8044 56.1839
5168 4 34.1085 7.15421 47.9397
5169 4 71.444 26.1762 23.2139
5170 4 22.0883 10.591 50.335
5171 4 14.884 14.5344 44.2605
5172 4 66.2248 21.6155 78.8375
5173 4 58.8258 1.49429 52.2792
5174 4 65.4607 17.4795 43.4893
5175 4 45.5966 10.9847 83.1833
5176 4 9.73187 1.36629 16.9434
5177 4 17.8035 23.1038 51.7249
5178 4 78.4212 25.144 36.5862
5179 4 10.3421 9.22629 25.1049
5180 4 14.4424 22.9399 57.5723
5181 4 71.1331 6.40928 11.9663
5182 4 73.7792 23.1906 83.6227
5183 4 2.70729 24.2357 56.946
5184 4 6.19844 3.45919 90.5772
5185 4 24.3434 5.46312 40.3491
5186 4 29.7201 27.757 79.8827
5187 4 13.077 4.45775 77.6512
5188 4 41.7451 16.7532 65.477
5189 4 8.28385 15.3493 18.9663
5190 4 7.22425 0.745455 82.362
5191 4 58.3655 7.87397 72.511
5192 4 41.0734 27.1412 70.9177
5193 4 52.6014 6.78136 44.7652
5194 4 68.6222 7.03802 37.2275
5195 4 26.0392 20.7471 56.1386
5196 4 44.185 18.1478 52.6077
5197 4 44.6656 4.29763 90.4452
5198 4 20.5451 26.6334 82.399
5199 4 11.1319 4.26026 38.5008
5200 4 54.7199 8.70525 57.1793
5201 4 56.4554 12.3223 49.9933
5202 4 59.1858 16.2887 45.143
5203 4 11.144 22.0043 48.7028
5204 4 37.2927 18.7887 58.1516
5205 4 56.8395 29.6966 83.3148
5206 4 15.3913 3.72939 48.7147
5207 4 38.6031 19.2199 70.2951
5208 4 11.9076 20.4826 64.276
5209 4 53.5152 13.727 82.0589
5210 4 39.9094 19.2367 87.0376
5211 4 34.339 1.43198 47.7406
5212 4 3.86115 27.8204 37.6228
5213 4 24.0084 0.290675 58.5912
5214 4 2.53953 12.5941 27.1041
5215 4 26.8021 27.256 69.2883
5216 4 73.925 7.34209 22.5213
5217 4 71.7063 3.25386 67.4993
5218 4 30.5868 10.4291 43.3395
5219 4 53.878 29.7821 89.0764
5220 4 15.8118 0.48369 45.4807
5221 4 62.3349 8.52547 76.2575
5222 4 60.6365 25.4424 87.3303
5223 4 21.4877 2.81598 72.2486
5224 4 3.81959 29.4854 79.4239
5225 4 52.1834 3.13106 63.7301
5226 4 26.5096 28.6822 78.2382
5227 4 75.3643 11.3096 56.9084
5228 4 24.203 15.6588 36.5287
5229 4 69.8337 17.8015 70.9401
5230 4 51.5 21.7498 43.3539
5231 4 72.6051 29.5655 38.4325
5232 4 6.50516 8.92432 63.7267
5233 4 0.56713 7.74235 58.0481
5234 4 15.203 7.25708 48.0557
5235 4 79.7652 2.23448 90.0548
5236 4 69.0739 28.8729 13.5625
5237 4 74.9291 6.89445 34.8251
5238 4 24.7758 17.6521 58.8886
5239 4 22.7864 29.9196 54.271
5240 4 53.0152 21.3308 32.8602
5241 4 11.0974 23.6155 87.0606
5242 4 13.9179 16.2952 20.4231
5243 4 14.4585 13.9087 88.8014
5244 4 61.0035 1.99899 20.451
5245 4 52.0769 28.8988 71.1244
5246 4 76.0959 14.9374 83.6614
5247 4 74.6869 20.7223 12.5231
5248 4 50.9215 7.50009 70.2614
5249 4 62.0494 9.93769 66.6819
5250 4 29.8185 5.60529 27.6916
5251 4 46.1897 12.1665 89.5027
5252 4 33.0965 7.70465 32.7903
5253 4 44.1394 9.12633 44.8609
5254 4 61.6452 29.1975 26.9659
5255 4 73.9077 29.2501 32.5963
5256 4 59.5131 13.601 86.097
5257 4 69.4074 24.4641 89.1835
5258 4 9.37378 15.3564 74.0296
5259 4 5.70656 16.0798 68.7487
5260 4 41.9235 12.9203 49.3573
5261 4 72.3856 18.5496 29.2129
5262 4 8.43527 27.012 45.8571
5263 4 19.8681 11.2456 19.2404
5264 4 38.3233 20.8549 80.8332
5265 4 58.0397 19.9755 60.5239
5266 4 63.188 25.2226 62.9771
5267 4 77.634 2.03671 57.53
5268 4 79.7126 18.4475 78.731
5269 4 56.6516 1.14736 21.555
5270 4 7.58618 15.9901 82.4446
5271 4 44.8014 17.6559 62.4539
5272 4 26.1359 16.1427 27.2269
5273 4 50.6667 13.2514 69.6351
5274 4 16.0045 24.8177 26.9582
5275 4 50.6364 23.6504 78.7734
5276 4 61.2106 22.6649 73.874
5277 4 63.7552 14.8288 64.9578
5278 4 61.134 3.96483 13.0204
5279 4 53.8417 21.5853 53.2987
5280 4 15.2276 5.01498 69.2208
5281 4 6.63389 5.6284 19.1738
5282 4 69.9672 20.8028 72.1426
5283 4 49.4124 11.5412 53.286
5284 4 18.5236 14.5223 83.2489
5285 4 69.5866 9.7981 86.4966
5286 4 41.5648 15.9771 59.0133
5287 4 57.2116 18.2471 48.4275
5288 4 76.3756 15.3887 35.8938
5289 4 58.1246 19.8373 38.3276
5290 4 8.96898 17.9893 47.5535
5291 4 52.4698 29.3431 27.4521
5292 4 15.0152 29.4409 38.7551
5293 4 4.17885 13.5865 23.4507
5294 4 27.2381 7.98968 38.9592
5295 4 2.86339 17.9059 64.9963
5296 4 52.3522 4.64573 50.8791
5297 4 37.3458 12.9093 88.3231
5298 4 6.56491 24.4369 81.072
5299 4 48.5079 22.5295 59.3625
5300 4 57.2059 10.4963 39.7355
5301 4 28.6195 29.2345 40.9293
5302 4 56.1785 7.57123 48.2542
5303 4 1.36239 15.0514 88.0007
5304 4 66.7863 4.25692 30.5662
5305 4 29.141 18.4356 32.1833
5306 4 64.6596 12.8059 43.7484
5307 4 59.1201 9.78293 52.6026
5308 4 28.2054 26.428 83.1435
5309 4 50.4305 26.6787 81.9714
5310 4 48.5032 17.5358 44.3139
5311 4 48.8792 6.57254 46.123
5312 4 4.44585 27.235 23.3905
5313 4 12.4895 10.6572 67.4521
5314 4 29.9096 11.5551 47.4384
5315 4 65.7628 17.6549 62.5565
5316 4 61.4801 3.4112 50.2597
5317 4 34.2354 26.7709 36.096
5318 4 61.5951 23.6658 13.2022
5319 4 58.7457 11.5203 58.093
5320 4 22.2885 18.2223 54.1768
5321 4 78.6245 23.3642 25.8405
5322 4 79.7574 12.762 11.8516
5323 4 53.4519 19.1072 79.1319
5324 4 74.328 26.1276 12.483
5325 4 45.6695 9.46174 51.1215
5326 4 79.05 25.0065 29.6092
5327 4 60.6848 27.6953 13.8967
5328 4 0.620482 4.97138 15.3148
5329 4 10.4804 28.0041 69.3339
5330 4 3.06196 5.41448 27.9617
5331 4 18.0998 12.8355 41.2401
5332 4 36.7885 3.28754 88.6693
5333 4 53.3408 19.4244 64.6278
5334 4 63.5812 3.6309 60.6205
5335 4 76.6846 27.5492 25.9946
5336 4 44.4589 11.3605 31.938
5337 4 10.0409 13.026 88.6033
5338 4 58.5364 22.7824 82.8259
5339 4 63.7962 24.8883 69.0736
5340 4 79.0417 26.5199 72.7981
5341 4 43.3151 24.9418 54.1402
5342 4 6.06731 28.5459 27.5655
5343 4 63.0021 15.7885 55.5265
5344 4 78.3872 23.5288 17.8381
5345 4 11.5214 12.1126 53.24
5346 4 67.3056 17.1351 29.9121
5347 4 11.2544 9.12983 79.421
5348 4 70.137 4.62387 71.8166
5349 4 14.7962 10.6797 39.4554
5350 4 79.2362 11.0035 22.3876
5351 4 52.7002 11.1414 46.1704
5352 4 22.4343 13.4263 21.5234
5353 4 53.1042 15.6715 56.6502
5354 4 57.4694 4.53439 74.4154
5355 4 43.3471 9.34915 61.8729
5356 4 14.6802 20.3377 16.5695
5357 4 26.8609 22.3852 63.7995
5358 4 26.2606 8.99121 51.4072
5359 4 5.70527 27.3889 73.002
5360 4 71.3144 15.7954 40.9852
5361 4 20.9186 26.7274 35.5614
5362 4 75.919 4.20914 86.9262
5363 4 75.3751 0.570772 20.8878
5364 4 22.1989 13.2151 88.6201
5365 4 16.4694 5.80069 63.9309
5366 4 52.0488 7.59544 27.2803
5367 4 64.9183 21.9696 40.891
5368 4 62.2231 9.56662 28.1831
5369 4 4.428 14.7084 10.8332
5370 4 23.8548 15.9845 45.0858
5371 4 36.6668 26.7012 88.0333
5372 4 22.354 8.31324 87.7399
5373 4 39.1003 21.0637 47.3665
5374 4 73.1814 7.69243 38.5333
5375 4 3.04421 11.6264 86.2891
5376 4 4.24585 29.9369 88.6027
5377 4 59.4132 23.1622 77.4663
5378 4 14.82 16.2216 34.4188
5379 4 68.6508 17.5561 56.0615
5380 4 16.491 20.7148 28.9132
5381 4 78.3748 28.8889 32.197
5382 4 24.0969 6.22731 74.23
5383 4 71.4491 6.39792 53.8832
5384 4 47.9959 5.96201 35.7837
5385 4 4.00445 14.9467 39.8125
5386 4 75.9779 21.8273 64.2067
5387 4 72.9992 29.327 17.7161
5388 4 71.3745 10.727 53.1876
5389 4 64.9145 19.0185 52.1876
5390 4 4.58749 17.5817 76.2182
5391 4 72.3241 7.89877 19.877
5392 4 22.8214 26.477 69.3442
5393 4 53.2939 16.2458 49.9422
5394 4 23.7676 22.5526 61.8518
5395 4 59.5561 24.2171 52.2354
5396 4 75.6631 25.0392 57.1396
5397 4 39.8621 1.31507 69.8878
5398 4 70.4583 13.9155 21.9153
5399 4 15.8485 6.58507 35.5892
5400 4 49.2366 27.9808 28.4155
5401 4 20.2939 5.81434 32.5831
5402 4 17.3407 21.8902 87.338
5403 4 26.5196 5.7003 45.0496
5404 4 43.9111 12.6018 75.1194
5405 4 20.2904 24.9131 88.3233
5406 4 57.4789 23.1487 43.8494
5407 4 3.77438 24.1348 12.5531
5408 4 65.7381 8.63574 20.1761
5409 4 53.561 9.92123 34.7936
5410 4 66.5758 13.9193 23.8177
5411 4 8.17399 7.08619 80.9556
5412 4 68.7685 1.78568 16.0551
5413 4 67.4952 10.9557 54.6739
5414 4 6.60654 22.9165 60.4917
5415 4 50.9868 5.90268 83.1129
5416 4 40.9095 6.61058 88.1058
5417 4 79.4631 19.8822 42.3359
5418 4 5.87604 17.4942 49.8261
5419 4 79.4738 10.3373 44.783
5420 4 50.1771 16.8408 71.5308
5421 4 74.5215 22.5558 76.1739
5422 4 6.46753 9.70726 18.9778
5423 4 46.3961 24.5759 68.3418
5424 4 12.8834 19.0057 75.8731
5425 4 53.3591 20.0327 58.9674
5426 4 9.54665 0.102566 86.9219
5427 4 65.5442 12.6248 11.8361
5428 4 10.426 23.166 42.7764
5429 4 35.2935 4.3043 64.3812
5430 4 0.253777 17.5286 85.2031
5431 4 73.7374 24.8103 89.7169
5432 4 41.613 15.9096 43.2927
5433 4 13.4412 17.9116 53
5434 4 0.356357 12.3189 57.3619
5435 4 2.10456 28.3501 50.8456
5436 4 7.57523 18.5001 28.1427
5437 4 19.3492 8.33948 76.4762
5438 4 62.5591 21.7266 87.9097
5439 4 10.9 24.6379 25.4513
5440 4 71.6847 0.41931 84.5376
5441 4 33.7845 26.2085 72.5344
5442 4 39.7137 4.09459 41.9759
5443 4 26.863 21.5684 80.8034
5444 4 33.3596 16.5582 64.0086
5445 4 19.6429 21.2521 60.0398
5446 4 18.5348 3.92252 67.6914
5447 4 24.2151 18.6483 80.1922
5448 4 75.8602 1.26953 79.8433
5449 4 77.966 7.42168 79.738
5450 4 63.2904 25.3971 20.1598
5451 4 50.1035 26.3197 43.0795
5452 4 42.1792 29.6276 58.2583
5453 4 21.3342 21.6059 41.4172
5454 4 62.7732 17.158 12.3928
5455 4 67.4682 4.93496 65.6755
5456 4 32.8023 6.72072 75.9825
5457 4 37.1209 7.11583 41.6116
5458 4 13.7256 26.7607 52.4553
5459 4 77.3298 21.2333 14.8428
5460 4 20.5891 13.4026 44.7041
5461 4 15.6935 26.8191 16.4593
5462 4 45.0646 25.558 59.5345
5463 4 16.7768 4.7308 18.9977
5464 4 2.86903 7.8701 54.8404
5465 4 4.96998 0.940001 73.297
5466 4 38.071 15.3881 42.7187
5467 4 57.5795 3.98117 82.7174
5468 4 41.3479 27.1906 87.4861
5469 4 21.1841 26.5353 28.8664
5470 4 72.0334 17.2441 79.9924
5471 4 6.84617 9.14058 87.6917
5472 4 33.1235 13.6233 90.967
5473 4 59.3675 12.1428 66.2689
5474 4 45.6571 2.76847 73.9111
5475 4 71.8678 9.40672 65.7809
5476 4 48.8074 10.2465 74.249
5477 4 49.0527 1.49141 77.8583
5478 4 4.2277 20.364 35.6623
5479 4 20.7554 5.22133 38.3616
5480 4 62.3584 26.1112 54.3531
5481 4 23.9538 0.903754 65.3925
5482 4 43.0227 16.1035 89.566
5483 4 29.7269 20.8844 42.785
5484 4 16.0681 24.1377 48.6536
5485 4 27.1223 1.68124 28.9002
5486 4 65.9557 23.657 46.5826
5487 4 51.6697 10.5594 83.6723
5488 4 75.0291 6.32625 46.8837
5489 4 70.9213 6.45876 34.0699
5490 4 78.8773 9.63544 75.4867
5491 4 62.1847 2.63261 73.6139
5492 4 0.842934 1.83294 65.3347
5493 4 34.1059 11.1631 67.5165
5494 4 0.352098 15.0016 54.9663
5495 4 44.9359 8.7902 55.1984
5496 4 3.45025 8.98334 40.5457
5497 4 73.0787 12.2993 60.9312
5498 4 20.7505 14.5302 11.1779
5499 4 40.1982 17.5153 47.4334
5500 4 57.5628 13.5219 81.4151
5501 4 2.91656 10.2345 89.7629
5502 4 67.3506 22.8574 29.9441
5503 4 52.9124 2.59081 36.4138
5504 4 16.7931 24.4153 22.4511
5505 4 15.7963 13.6516 73.1929
5506 4 17.2586 27.2997 41.7294
5507 4 63.2058 14.5796 60.1272
5508 4 28.9209 3.58242 77.6464
5509 4 45.6953 15.6091 81.1822
5510 4 78.2391 16.545 63.3115
5511 4 25.5647 26.8131 26.4001
5512 4 19.1927 29.3568 24.2722
5513 4 77.0477 19.9564 35.8823
5514 4 79.1578 2.81203 45.7828
5515 4 31.327 17.2319 46.122
5516 4 21.4418 9.33295 56.0352
5517 4 6.47314 12.7356 41.6244
5518 4 60.5459 11.3621 70.3637
5519 4 66.1629 25.349 23.9746
5520 4 31.9866 0.241141 76.6383
5521 4 29.2307 6.38316 34.8161
5522 4 1.5429 15.0531 74.5799
5523 4 33.928 8.58774 52.315
5524 4 59.4729 3.21373 68.3589
5525 4 10.563 24.0816 36.0674
5526 4 64.2128 20.3882 25.5836
5527 4 43.1758 1.64184 62.688
5528 4 18.4801 2.95232 88.4572
5529 4 35.9192 22.4376 55.1567
5530 4 46.1851 9.23574 67.7939
5531 4 1.4778 23.1743 87.7992
5532 4 20.0652 17.5313 66.1015
5533 4 71.0645 22.6661 47.4213
5534 4 73.828 20.0946 70.0472
5535 4 23.1715 12.5925 40.5052
5536 4 32.2416 17.6071 34.892
5537 4 6.21633 0.392486 47.8696
5538 4 20.7406 4.82121 58.5097
5539 4 60.4594 18.3364 83.7198
5540 4 67.7056 27.0992 43.9037
5541 4 39.7489 25.1326 75.8842
5542 4 31.2154 23.1753 58.5878
5543 4 73.5758 2.67323 72.5525
5544 4 27.2127 11.7729 78.7271
5545 4 41.7164 2.5912 81.118
5546 4 69.1045 29.3134 71.3256
5547 4 28.5092 8.6319 88.2512
5548 4 19.4575 9.46809 62.7512
5549 4 15.5321 16.1165 65.1093
5550 4 17.0913 17.4785 89.8268
5551 4 62.2198 21.2548 32.1305
5552 4 0.145794 10.3311 15.6696
5553 4 74.2755 9.69184 79.4972
5554 4 22.1749 26.6247 56.1302
5555 4 27.574 16.9134 55.0812
5556 4 72.3767 4.85751 76.7611
5557 4 48.2151 11.5359 36.7614
5558 4 78.042 8.57078 27.3659
5559 4 67.1318 6.11633 50.985
5560 4 77.033 25.922 43.5169
5561 4 75.1153 6.28656 56.9523
5562 4 10.6043 14.5058 24.8735
5563 4 63.9764 18.7157 84.887
5564 4 71.58 27.9597 89.0073
5565 4 75.4319 14.2825 63.3331
5566 4 10.092 8.48439 18.7617
5567 4 10.1561 4.8584 33.9189
5568 4 34.0916 28.9802 52.5573
5569 4 37.1221 21.943 74.8859
5570 4 28.0414 20.8657 46.4775
5571 4 37.4212 9.49317 31.2408
5572 4 41.8598 24.2253 61.4774
5573 4 13.2364 11.74 60.8999
5574 4 11.3006 13.6066 81.7354
5575 4 63.1968 13.435 35.708
5576 4 72.2605 2.45891 12.1746
5577 4 71.9929 20.9543 19.8433
5578 4 2.3834 5.09587 76.4595
5579 4 78.952 0.333298 26.5581
5580 4 52.5531 15.3366 85.7219
5581 4 40.8521 3.15845 56.1614
5582 4 2.48656 28.3315 19.5615
5583 4 6.76976 29.0538 42.8266
5584 4 78.5987 0.304013 52.5147
5585 4 77.5462 14.0097 74.7341
5586 4 30.8021 29.8131 48.7967
5587 4 62.2812 11.9678 22.3036
5588 4 33.0093 13.0711 46.3825
5589 4 5.25704 8.00168 58.641
5590 4 72.7065 2.60816 53.9673
5591 4 59.5147 16.2646 72.9747
5592 4 2.353 16.5632 28.3964
5593 4 52.4531 2.82844 55.2929
5594 4 76.7881 13.5917 47.1151
5595 4 78.8441 28.6317 69.1127
5596 4 74.59 3.27988 17.8841
5597 4 29.8715 14.8504 50.9587
5598 4 15.7679 18.1733 59.3554
5599 4 36.3856 2.27327 78.3576
5600 4 19.5289 15.464 78.8235
5601 4 47.1005 1.40491 46.5103
5602 4 56.7778 11.47 70.5682
5603 4 57.2508 15.5717 31.8429
5604 4 77.2676 1.29058 62.6328
5605 4 14.5127 6.16275 39.4081
5606 4 67.1312 4.79341 74.3451
5607 4 15.3412 18.3479 69.0121
5608 4 67.9656 0.43914 75.1863
5609 4 79.1302 18.7168 38.2309
5610 4 65.8986 26.1416 16.9628
5611 4 28.2604 12.9138 28.386
5612 4 13.2247 2.78804 28.3762
5613 4 31.4491 21.1944 70.799
5614 4 55.3513 7.81177 37.0214
5615 4 41.5837 23.8931 43.8904
5616 4 7.38693 20.453 31.5237
5617 4 75.3285 5.4716 60.9122
5618 4 27.7643 20.425 76.2068
5619 4 15.0037 26.8998 74.5189
5620 4 37.0283 10.1624 47.4172
5621 4 72.0465 21.9685 32.6153
5622 4 34.4247 4.26265 57.3473
5623 4 62.037 12.7693 17.9386
5624 4 63.3536 8.15066 14.3424
5625 4 40.7059 26.0908 38.6058
5626 4 16.2817 6.27832 89.3565
5627 4 40.7795 12.3562 33.7029
5628 4 12.7398 8.68844 33.4401
5629 4 58.9726 4.05814 46.3335
5630 4 17.1172 24.7454 65.1052
5631 4 48.2979 5.64364 86.8783
5632 4 63.0368 16.7533 39.0564
5633 4 44.5818 0.185372 29.092
5634 4 34.0293 27.5741 56.3811
5635 4 30.3076 21.5601 65.7885
5636 4 23.0012 23.9915 73.6954
5637 4 21.7679 13.836 61.5014
5638 4 8.04003 2.52453 32.6935
5639 4 74.6244 11.0449 34.0258
5640 4 51.9757 16.1033 62.6416
5641 4 10.7171 14.3692 66.0502
5642 4 76.9902 1.35338 41.2393
5643 4 10.1922 29.4126 78.1618
5644 4 34.9954 25.8392 68.8133
5645 4 41.7809 19.244 80.5972
5646 4 42.804 1.86297 52.0632
5647 4 39.4535 26.2607 81.1796
5648 4 34.7665 21.9539 51.7719
5649 4 26.416 20.9066 35.5769
5650 4 72.9331 11.625 24.6842
5651 4 6.9561 22.9647 38.1857
5652 4 4.59368 10.6776 52.2
5653 4 7.83071 6.6139 74.9374
5654 4 62.4992 8.13972 37.7127
5655 4 7.28473 24.0519 54.0832
5656 4 67.48 21.6866 62.8879
5657 4 7.61747 7.28754 15.4551
5658 4 40.2907 13.8246 39.2281
5659 4 8.42957 3.66922 52.0436
5660 4 75.5629 2.72688 25.4377
5661 4 63.1837 11.9844 56.1283
5662 4 6.02823 1.35877 39.5776
5663 4 20.2637 29.4636 89.211
5664 4 11.9328 28.087 16.4642
5665 4 21.1066 11.7226 67.8277
5666 4 17.0531 4.5843 28.4232
5667 4 23.0809 26.867 48.023
5668 4 37.2206 4.61767 51.3117
5669 4 57.8095 0.115131 40.3558
5670 4 55.1306 7.38746 89.9153
5671 4 66.7788 6.02582 87.5626
5672 4 42.1947 7.10714 50.0785
5673 4 0.928156 10.9721 36.4885
5674 4 14.1766 29.7544 67.7361
5675 4 79.1748 25.9888 79.0235
5676 4 11.5069 11.8778 48.8471
5677 4 72.4155 17.8723 88.7801
5678 4 59.0134 29.7237 64.192
5679 4 35.0793 1.87678 28.3964
5680 4 60.6923 25.7046 47.9545
5681 4 60.4714 16.814 23.3325
5682 4 54.5128 1.66356 68.4405
5683 4 22.2007 9.53893 36.1337
5684 4 9.22663 24.9324 16.7154
5685 4 31.748 3.73914 88.7268
5686 4 52.991 18.1482 42.401
5687 4 18.3966 10.4545 71.7678
5688 4 9.33106 9.86193 31.3448
5689 4 21.4937 1.85367 21.7873
5690 4 2.20842 27.8367 43.8367
5691 4 2.37552 22.5434 43.1444
5692 4 12.4901 25.4473 64.7504
5693 4 49.5694 2.125 40.78
5694 4 34.3819 18.6953 82.7279
5695 4 66.6842 5.80815 83.4476
5696 4 78.215 18.8586 49.9482
5697 4 69.2321 10.0168 33.3753
5698 4 8.90987 24.7809 68.2071
5699 4 40.8915 16.0798 85.3298
5700 4 54.5359 25.3734 71.161
5701 4 51.0157 24.6468 68.0935
5702 4 46.159 29.2953 51.8518
5703 4 48.0038 5.76554 75.1798
5704 4 26.6529 26.6298 87.3655
5705 4 45.8384 25.0612 42.7659
5706 4 62.5274 17.6197 77.4561
5707 4 58.3882 5.55277 79.048
5708 4 68.9275 19.8769 67.2806
5709 4 58.7604 27.8068 76.1415
5710 4 49.1276 18.1902 49.7914
5711 4 13.1948 16.7458 49.1323
5712 4 13.3102 5.56483 42.8242
5713 4 63.9546 15.6808 52.8233
5714 4 75.371 18.4261 59.7192
5715 4 29.4893 11.2898 82.4161
5716 4 27.1317 10.0207 85.7552
5717 4 18.3166 2.94554 43.4854
5718 4 50.6604 16.1442 35.765
5719 4 49.0015 13.4179 63.1021
5720 4 21.274 17.9741 90.3322
5721 4 66.5819 29.9621 38.0039
5722 4 49.0073 2.33636 34.6118
5723 4 76.1918 26.5239 39.0415
5724 1 57.3086 21.3545 79.3239
5725 2 56.3969 21.7503 79.2138
5726 2 57.2427 20.5071 79.8508
5727 1 1.91033 10.2336 58.0591
5728 2 1.34193 10.9852 57.7243
5729 2 1.34775 9.4145 58.1709
5730 1 61.4197 13.5531 78.9865
5731 2 61.1095 14.2331 79.6508
5732 2 61.7484 12.7414 79.4691
5733 1 72.9132 3.77267 80.7579
5734 2 72.4942 2.86535 80.7233
5735 2 73.7514 3.7322 81.3017
5736 1 42.0519 22.0615 41.9701
5737 2 41.7801 22.7402 42.6524
5738 2 42.4419 21.2639 42.4303
5739 1 60.4268 23.1412 31.4094
5740 2 61.013 22.4099 31.758
5741 2 59.5972 22.7448 31.0163
5742 1 23.8538 16.1001 67.5848
5743 2 23.9088 17.039 67.9245
5744 2 24.5549 15.543 68.03
5745 1 0.812754 27.5412 80.1135
5746 2 1.30219 28.1883 79.5289
5747 2 0.00210174 27.2058 79.6335
5748 1 77.141 23.9491 10.4442
5749 2 77.0496 23.9804 9.44884
5750 2 77.8892 23.3333 10.691
5751 1 77.8406 21.4586 11.7301
5752 2 78.6736 22.011 11.6992
5753 2 77.1702 21.8995 12.3269
5754 1 60.7322 11.9235 44.8196
5755 2 60.4321 11.2674 45.512
5756 2 60.7706 12.8383 45.2218
5757 1 67.0355 7.33472 29.2603
5758 2 66.2606 7.84976 29.6267
5759 2 67.1704 7.57444 28.2988
5760 1 65.5349 8.07184 52.1988
5761 2 64.5689 7.82509 52.2752
5762 2 65.9916 7.4405 51.572
5763 1 15.8439 23.18 34.2798
5764 2 16.8272 23.3471 34.207
5765 2 15.3957 23.9889 34.6603
5766 1 40.3891 17.5175 89.5167
5767 2 40.6353 17.9524 88.6505
5768 2 41.1077 16.8751 89.7832
5769 1 76.504 29.7916 60.6009
5770 2 76.3109 0.481396 59.9031
5771 2 76.8344 0.2406 61.4311
5772 1 77.5708 1.22768 83.932
5773 2 77.9788 0.357132 84.207
5774 2 76.6122 1.08366 83.6862
5775 1 75.6619 22.4093 41.8438
5776 2 76.27 21.9392 42.4835
5777 2 74.747 22.4763 42.2418
5778 1 78.1316 12.7549 71.8048
5779 2 78.1822 13.4387 71.077
5780 2 78.021 13.2139 72.6864
5781 1 47.1443 11.2381 86.7506
5782 2 47.1853 11.4523 87.7265
5783 2 47.5452 11.9899 86.2272
5784 1 11.4081 10.9622 73.9871
5785 2 12.1869 11.5668 74.1537
5786 2 11.4316 10.6416 73.0401
5787 1 62.3307 20.1827 64.0493
5788 2 63.1092 20.7979 64.1737
5789 2 61.586 20.4606 64.6561
5790 1 75.6401 23.8144 69.2902
5791 2 75.2354 23.5145 70.154
5792 2 75.5394 24.8053 69.2011
5793 1 27.2417 7.0265 57.5701
5794 2 26.6043 6.66787 56.8881
5795 2 28.1347 7.17603 57.1456
5796 1 76.3591 10.4236 28.3039
5797 2 76.696 11.3042 28.6372
5798 2 77.1343 9.82583 28.0996
5799 1 7.73282 0.984948 21.7402
5800 2 6.77524 0.80704 21.5135
5801 2 7.80443 1.85772 22.223
5802 1 57.2256 23.3219 86.6369
5803 2 56.9686 22.3905 86.3792
5804 2 56.6557 23.6257 87.4004
5805 1 70.8298 20.996 35.7458
5806 2 71.4896 20.2571 35.6092
5807 2 71.3098 21.8201 36.0466
5808 1 71.3551 13.1775 43.9332
5809 2 71.8176 13.6113 44.7064
5810 2 70.4344 13.5567 43.8402
5811 1 44.181 0.909896 48.363
5812 2 44.6083 0.013107 48.4777
5813 2 44.63 1.57225 48.9627
5814 1 77.2858 5.34277 46.4357
5815 2 76.3079 5.30145 46.6407
5816 2 77.7903 4.80003 47.1072
5817 1 37.9123 23.4964 37.5877
5818 2 38.6174 23.7199 36.9148
5819 2 38.3061 23.5283 38.5063
5820 1 70.0677 28.6744 16.6213
5821 2 71.0396 28.6088 16.3952
5822 2 69.5301 28.2063 15.92
5823 1 16.9194 29.7981 87.8966
5824 2 17.7065 29.4062 87.4204
5825 2 16.593 0.600417 87.3969
5826 1 38.1909 22.031 53.7629
5827 2 39.0418 22.22 54.253
5828 2 37.4165 22.1366 54.3868
5829 1 25.6947 3.28139 48.051
5830 2 26.567 3.70936 47.8146
5831 2 25.8331 2.3021 48.1988
5832 1 22.4135 2.55921 30.8268
5833 2 23.3233 2.14443 30.8375
5834 2 22.4627 3.48079 31.2118
5835 1 64.4609 24.8325 10.6751
5836 2 65.3803 24.9528 11.0495
5837 2 64.3815 25.3396 9.81683
5838 1 30.7037 8.24801 89.9144
5839 2 31.0145 7.30222 90.0086
5840 2 29.9643 8.29049 89.2425
5841 1 77.7417 14.6664 37.9544
5842 2 77.9791 15.471 38.4987
5843 2 77.059 14.9177 37.2682
5844 1 79.5951 25.498 27.2071
5845 2 79.4936 25.5114 28.2018
5846 2 79.4207 24.5741 26.8666
5847 1 71.65 12.0283 50.9895
5848 2 70.9343 12.7234 51.0561
5849 2 71.3942 11.2328 51.5389
5850 1 20.1647 29.422 66.163
5851 2 20.1788 29.9662 65.3242
5852 2 19.7814 29.9678 66.9081
5853 1 76.0191 24.4021 64.3566
5854 2 75.7687 24.5059 65.3192
5855 2 76.2063 23.439 64.163
5856 1 41.3933 7.84815 46.7878
5857 2 41.3405 6.88353 46.5295
5858 2 41.106 7.95453 47.7397
5859 1 34.4204 14.7613 79.6937
5860 2 34.337 14.0283 80.3688
5861 2 34.007 14.4689 78.8314
5862 1 13.4646 19.6381 86.8583
5863 2 13.9843 20.4925 86.8554
5864 2 13.0941 19.4765 87.7729
5865 1 59.8176 9.4464 42.3905
5866 2 58.9464 9.93055 42.4716
5867 2 59.726 8.52842 42.7764
5868 1 67.5023 14.4638 76.6308
5869 2 66.6483 13.9712 76.4633
5870 2 67.5493 14.7317 77.5931
5871 1 13.5478 4.13826 31.2058
5872 2 14.1551 4.93197 31.2409
5873 2 13.7215 3.62252 30.3669
5874 1 9.08707 13.8935 40.344
5875 2 8.8272 13.1137 39.7744
5876 2 8.77035 13.7425 41.2804
5877 1 27.9989 5.16121 47.2805
5878 2 27.5996 5.16953 46.3638
5879 2 27.7176 5.98419 47.7741
5880 1 78.004 9.84446 20.5034
5881 2 78.575 9.85141 21.3243
5882 2 77.811 10.7849 20.2237
5883 1 39.5484 19.7886 62.6624
5884 2 39.0524 20.6416 62.8249
5885 2 39.9032 19.439 63.5295
5886 1 77.8046 15.3337 30.4568
5887 2 78.5719 15.1946 31.0828
5888 2 77.1931 16.0319 30.8291
5889 1 22.0107 8.73299 62.8681
5890 2 21.065 9.04702 62.784
5891 2 22.2668 8.22282 62.047
5892 1 5.74092 2.4538 69.1769
5893 2 6.67964 2.77868 69.0617
5894 2 5.37706 2.16525 68.2913
5895 1 4.12448 4.08394 72.9983
5896 2 3.23406 3.62906 72.9829
5897 2 4.06707 4.91004 73.5589
5898 1 4.7919 15.4157 77.701
5899 2 3.79529 15.4917 77.6694
5900 2 5.1924 15.9835 76.9818
5901 1 24.5454 18.3464 73.6334
5902 2 25.0861 19.0939 73.2476
5903 2 24.2949 18.568 74.5758
5904 1 24.0532 13.771 69.6679
5905 2 23.2916 13.6908 70.3109
5906 2 24.5594 12.909 69.6416
5907 1 72.4669 17.0035 60.5003
5908 2 72.3691 16.0829 60.8783
5909 2 73.4376 17.2302 60.4215
5910 1 29.0293 23.6367 31.8198
5911 2 29.9034 24.0368 31.5443
5912 2 29.0366 23.4661 32.8051
5913 1 19.5047 16.2409 12.4174
5914 2 20.0411 15.6953 11.7735
5915 2 20.1005 16.5766 13.147
5916 1 39.6062 29.7293 72.4614
5917 2 40.2194 28.971 72.2405
5918 2 39.9316 0.562347 72.014
5919 1 49.3954 13.8986 37.1426
5920 2 50.2783 13.8012 36.6832
5921 2 49.0771 13.0007 37.4468
5922 1 35.1398 14.2526 38.0034
5923 2 35.3284 13.7845 38.8668
5924 2 35.4488 15.2017 38.0644
5925 1 34.8182 2.36278 85.3856
5926 2 34.0238 2.83536 85.7672
5927 2 34.9767 1.51505 85.8918
5928 1 66.8752 29.7818 72.6989
5929 2 67.1703 29.6972 73.6506
5930 2 67.6642 29.6732 72.0943
5931 1 68.168 16.5886 62.575
5932 2 67.2485 16.9796 62.5337
5933 2 68.7135 17.0899 63.2466
5934 1 66.5585 13.382 32.4155
5935 2 66.2145 14.2727 32.1182
5936 2 65.9482 13.0044 33.1118
5937 1 9.74744 14.9002 70.3823
5938 2 8.77675 15.1282 70.4582
5939 2 10.1732 14.9499 71.2858
5940 1 64.5725 27.5694 20.5024
5941 2 64.3085 26.6383 20.2504
5942 2 65.4965 27.5619 20.8847
5943 1 23.0619 1.79239 74.0528
5944 2 22.6136 2.28151 73.3046
5945 2 22.9948 2.3326 74.8916
5946 1 47.1568 1.68963 82.7242
5947 2 47.3905 1.43064 81.787
5948 2 47.5166 2.60244 82.9173
5949 1 44.7685 11.4507 58.8956
5950 2 43.7903 11.5787 58.7319
5951 2 45.1776 10.9764 58.1161
5952 1 16.2249 22.7383 16.0334
5953 2 16.476 23.4691 16.6682
5954 2 16.6327 21.8775 16.338
5955 1 30.8696 21.1506 25.7743
5956 2 30.8951 20.7208 24.8717
5957 2 31.8021 21.3526 26.0737
5958 1 44.9239 0.589276 43.2552
5959 2 44.1874 0.870681 42.64
5960 2 44.5324 0.164416 44.0714
5961 1 3.90247 10.1012 56.2848
5962 2 3.71424 9.39095 55.6065
5963 2 3.30046 9.97673 57.0735
5964 1 56.1878 1.15694 60.9995
5965 2 55.337 0.662093 61.1762
5966 2 56.4639 1.01627 60.0487
5967 1 20.9476 11.6274 11.055
5968 2 20.3952 11.3308 10.2759
5969 2 21.1311 12.6075 10.9795
5970 1 12.79 27.6471 50.2172
5971 2 13.1183 26.9185 49.616
5972 2 13.0979 27.4718 51.1523
5973 1 19.5073 8.70421 40.5857
5974 2 19.9927 8.32058 39.8001
5975 2 20.1699 9.03445 41.258
5976 1 74.2891 2.47188 78.1809
5977 2 74.3739 3.45516 78.342
5978 2 74.7903 1.9737 78.8884
5979 1 16.6864 20.5291 89.7655
5980 2 17.0139 19.6256 90.0421
5981 2 17.1647 20.8174 88.936
5982 1 11.2985 21.8283 11.5977
5983 2 12.0323 21.1757 11.7865
5984 2 10.4159 21.3608 11.6468
5985 1 4.85194 29.3532 66.8627
5986 2 4.76902 0.328957 66.6601
5987 2 5.81489 29.086 66.8266
5988 1 51.9687 23.6909 33.2466
5989 2 51.5269 23.6369 34.1421
5990 2 52.5853 22.9121 33.1317
5991 1 79.9114 0.996528 62.7963
5992 2 78.9384 1.13588 62.612
5993 2 0.0571383 0.926958 63.7831
5994 1 75.9775 1.86005 35.3288
5995 2 76.7184 1.26098 35.6325
5996 2 76.276 2.81294 35.3829
5997 1 75.5547 4.59751 20.3786
5998 2 74.8487 4.49202 21.0788
5999 2 75.1967 4.29344 19.4958
6000 1 65.7617 2.71651 69.018
6001 2 66.0949 3.54903 69.4606
6002 2 66.3481 1.94698 69.271
6003 1 5.46677 22.6986 21.3179
6004 2 5.00027 22.1751 22.0309
6005 2 4.85467 22.8156 20.5358
6006 1 21.8279 15.8269 52.6994
6007 2 22.6145 15.3107 53.0381
6008 2 21.5077 16.4519 53.4113
6009 1 3.28284 19.7226 55.9433
6010 2 3.95797 18.9972 55.8092
6011 2 2.42159 19.3226 56.2567
6012 1 14.9197 15.8883 90.4787
6013 2 14.8402 15.2168 89.7419
6014 2 15.7981 16.3605 90.406
6015 1 32.5628 5.76361 70.871
6016 2 32.9014 6.10598 71.7475
6017 2 31.8449 6.37098 70.5308
6018 1 65.0496 23.3236 71.3478
6019 2 66.0234 23.4603 71.5297
6020 2 64.853 23.5536 70.3947
6021 1 4.93916 15.9824 82.8372
6022 2 5.91474 16.1953 82.7831
6023 2 4.57206 15.8645 81.9145
6024 1 67.7175 17.3988 12.1643
6025 2 68.1644 17.3231 11.2729
6026 2 66.8471 16.907 12.1436
6027 1 33.3886 15.8502 33.0039
6028 2 34.1488 16.3707 32.6149
6029 2 32.8804 16.4287 33.6418
6030 1 61.7707 2.575 83.7941
6031 2 61.1576 3.10352 83.2069
6032 2 62.3698 3.19802 84.297
6033 1 44.8481 1.06528 57.2381
6034 2 45.1664 1.08675 56.2903
6035 2 43.8482 1.05633 57.2538
6036 1 12.4044 26.3673 47.307
6037 2 12.852 25.7029 47.9056
6038 2 13.0005 27.1609 47.1854
6039 1 62.9818 4.29614 11.4583
6040 2 63.7578 4.7977 11.8407
6041 2 62.2428 4.26178 12.1311
6042 1 41.7106 28.0796 80.6338
6043 2 41.3285 28.3953 81.5023
6044 2 41.3452 27.1741 80.4184
6045 1 73.2524 19.415 36.3225
6046 2 74.16 18.9956 36.3409
6047 2 73.2083 20.1445 37.0051
6048 1 6.11813 12.6532 52.4039
6049 2 5.50618 13.4436 52.4303
6050 2 5.61249 11.8506 52.0874
6051 1 39.2642 5.02638 53.2487
6052 2 39.8636 5.78523 53.5034
6053 2 38.96 5.14471 52.3035
6054 1 60.4974 15.1478 42.8313
6055 2 59.9236 15.5991 43.5147
6056 2 60.1551 15.36 41.916
6057 1 0.937838 23.2963 18.769
6058 2 1.12406 22.3154 18.8248
6059 2 79.9994 23.4401 18.455
6060 1 78.6605 7.08876 25.2604
6061 2 79.0775 7.76652 24.6548
6062 2 78.3498 7.53703 26.0986
6063 1 1.90666 8.02381 80.3622
6064 2 1.18713 7.33087 80.4082
6065 2 2.79441 7.59395 80.5269
6066 1 34.2454 4.46509 89.2646
6067 2 33.3597 4.06297 89.0327
6068 2 34.9542 3.76132 89.2153
6069 1 53.1799 29.1849 80.7367
6070 2 54.0012 28.9507 80.2165
6071 2 52.3692 28.8944 80.2283
6072 1 13.3531 12.7945 42.4346
6073 2 14.047 13.2609 42.9832
6074 2 12.5786 12.5472 43.0169
6075 1 78.5144 4.69527 78.8119
6076 2 78.8393 5.63254 78.9381
6077 2 78.9436 4.09943 79.4907
6078 1 41.1766 8.98345 89.6691
6079 2 41.8111 9.64411 90.0702
6080 2 41.596 8.56521 88.8635
6081 1 40.7904 24.3866 29.4771
6082 2 40.8459 25.3687 29.2966
6083 2 39.8329 24.0987 29.4628
6084 1 77.3445 11.1019 48.3498
6085 2 77.3484 10.1058 48.4382
6086 2 77.391 11.3508 47.3824
6087 1 6.59576 9.81846 72.5121
6088 2 6.37634 10.575 71.896
6089 2 6.67141 10.1621 73.4482
6090 1 14.2428 29.1854 27.2433
6091 2 14.4309 29.9774 27.8242
6092 2 14.7826 28.405 27.5588
6093 1 19.4931 12.6027 73.481
6094 2 18.6588 12.3455 73.9686
6095 2 19.9537 11.7787 73.1509
6096 1 13.3847 24.6851 86.2783
6097 2 13.5866 25.4171 86.9291
6098 2 12.5472 24.2143 86.5555
6099 1 5.28932 5.34388 46.6016
6100 2 4.30614 5.44436 46.4491
6101 2 5.44709 4.68077 47.3333
6102 1 35.6041 17.6957 80.0766
6103 2 35.0234 18.0054 80.8295
6104 2 36.1687 16.9298 80.3843
6105 1 54.3525 21.6339 50.7246
6106 2 54.1597 21.6379 51.7058
6107 2 53.7002 21.0358 50.2591
6108 1 70.9785 12.3709 81.9743
6109 2 70.8918 12.7539 82.8939
6110 2 71 13.1133 81.3047
6111 1 2.34275 28.5189 63.701
6112 2 2.06117 29.4057 64.0675
6113 2 2.54551 27.8953 64.456
6114 1 53.4346 13.3323 44.2631
6115 2 53.1465 12.5351 44.7937
6116 2 52.6567 13.686 43.7438
6117 1 23.8926 29.1478 71.7429
6118 2 22.9649 29.1239 72.1153
6119 2 23.8554 29.0476 70.7487
6120 1 72.2687 17.821 39.2743
6121 2 72.0402 16.992 39.7848
6122 2 71.7119 17.8657 38.4448
6123 1 62.3854 5.32323 31.1477
6124 2 62.7393 5.84217 30.3696
6125 2 63.1493 4.95872 31.6803
6126 1 50.5438 27.0027 24.0683
6127 2 50.8315 27.9604 24.0745
6128 2 50.5574 26.6567 23.1302
6129 1 36.6999 5.50918 59.4661
6130 2 36.995 6.11404 58.7265
6131 2 36.13 4.77788 59.0914
6132 1 78.8015 21.2723 24.3336
6133 2 79.1443 20.4807 24.8395
6134 2 78.8592 22.0871 24.9104
6135 1 64.1974 18.6276 28.3114
6136 2 64.2243 17.7053 27.9258
6137 2 64.1729 19.2982 27.57
6138 1 0.782532 1.50738 44.346
6139 2 0.192094 2.05904 44.9351
6140 2 1.69499 1.9152 44.3129
6141 1 72.3542 8.41038 71.1388
6142 2 72.1308 7.57026 70.6445
6143 2 72.8025 8.17981 72.0024
6144 1 10.4853 29.4666 11.5783
6145 2 10.2965 29.6592 12.5413
6146 2 11.2852 29.9897 11.2843
6147 1 44.9721 27.3715 56.6017
6148 2 45.6765 27.5579 55.9168
6149 2 44.7134 26.4065 56.5597
6150 1 67.6319 24.3635 71.2455
6151 2 68.386 24.4457 71.8971
6152 2 67.9021 23.7567 70.4979
6153 1 77.4784 8.46247 85.5101
6154 2 76.7135 9.10001 85.4185
6155 2 77.1287 7.55135 85.7281
6156 1 34.6993 9.81131 48.6159
6157 2 34.3665 8.87137 48.5401
6158 2 35.5379 9.91219 48.0806
6159 1 59.021 7.36158 82.4361
6160 2 59.8531 7.58723 81.9295
6161 2 58.3738 6.90343 81.827
6162 1 41.5167 13.5914 74.4988
6163 2 42.4963 13.4024 74.5671
6164 2 41.2676 14.302 75.1568
6165 1 39.3941 4.26275 34.4911
6166 2 39.5062 4.85895 35.286
6167 2 38.5837 3.6902 34.6154
6168 1 47.8569 2.53074 26.6057
6169 2 47.8376 3.27693 27.2712
6170 2 46.921 2.2536 26.3884
6171 1 16.9376 6.39985 39.1014
6172 2 15.9983 6.26368 38.7865
6173 2 16.9421 6.52229 40.0938
6174 1 52.612 2.06802 61.324
6175 2 52.7631 2.45298 62.2345
6176 2 52.7737 1.08147 61.3482
6177 1 28.9793 16.293 71.3199
6178 2 29.82 16.027 70.8483
6179 2 28.2079 15.783 70.9392
6180 1 76.0219 5.46594 51.6532
6181 2 76.8421 4.93162 51.8574
6182 2 75.568 5.08511 50.8476
6183 1 47.5938 29.8227 76.2065
6184 2 48.2607 0.503353 76.5099
6185 2 47.0837 29.4811 76.9958
6186 1 76.1035 15.8602 39.6392
6187 2 75.434 15.7955 38.8992
6188 2 76.3066 14.9444 39.9858
6189 1 2.72056 18.9895 74.769
6190 2 3.39702 19.7054 74.5961
6191 2 3.14375 18.2506 75.2935
6192 1 74.5751 3.5834 29.5842
6193 2 73.623 3.82142 29.7766
6194 2 75.0906 3.55302 30.4406
6195 1 58.2102 2.5069 39.0376
6196 2 58.1716 3.05314 39.8744
6197 2 57.8874 1.58006 39.2294
6198 1 25.38 6.73254 78.4077
6199 2 24.5939 7.33151 78.2551
6200 2 25.3471 6.37004 79.3391
6201 1 73.4372 8.58831 58.1551
6202 2 73.827 9.47692 57.9135
6203 2 73.9008 7.86909 57.6377
6204 1 19.1303 23.7446 70.4214
6205 2 18.6194 24.3049 71.0734
6206 2 18.5352 23.4967 69.657
6207 1 75.0226 26.8098 14.7645
6208 2 74.8006 26.6396 13.8044
6209 2 74.7938 26.0021 15.3078
6210 1 77.2588 21.8062 75.1282
6211 2 76.6481 22.3353 75.7174
6212 2 77.4413 20.9178 75.5495
6213 1 36.0802 0.475515 74.0733
6214 2 36.1769 29.4936 74.2359
6215 2 35.9424 0.945771 74.945
6216 1 23.9443 18.5642 45.925
6217 2 23.9107 17.5671 45.8573
6218 2 24.1761 18.9513 45.0326
6219 1 75.6429 7.06324 90.8148
6220 2 74.6652 7.22835 90.9438
6221 2 75.8167 6.07848 90.8088
6222 1 8.64297 28.8682 28.2903
6223 2 7.76483 28.6231 27.8795
6224 2 8.84185 29.8301 28.1025
6225 1 3.21626 22.5251 37.7984
6226 2 3.16424 23.4113 37.3382
6227 2 4.1271 22.408 38.1942
6228 1 36.4057 22.6896 88.4939
6229 2 37.2449 22.5162 87.9785
6230 2 35.79 21.907 88.4014
6231 1 42.4932 23.4302 68.5028
6232 2 42.678 22.6076 67.965
6233 2 43.0891 24.1714 68.1937
6234 1 65.7623 7.70329 15.1973
6235 2 64.841 7.91491 14.8711
6236 2 65.8409 6.71962 15.3592
6237 1 51.799 19.1692 46.2524
6238 2 52.3746 19.7566 45.6835
6239 2 51.902 18.2183 45.9605
6240 1 26.6488 0.318778 71.0639
6241 2 26.5639 0.973383 70.3127
6242 2 25.8202 29.7613 71.1154
6243 1 31.5401 2.89866 76.2184
6244 2 31.8701 1.96629 76.366
6245 2 30.6256 2.86859 75.815
6246 1 34.6999 5.30918 86.7408
6247 2 33.9467 5.16423 87.3825
6248 2 35.4789 4.74172 87.0075
6249 1 20.8353 29.5159 78.2744
6250 2 20.5475 29.559 79.2311
6251 2 20.3779 28.7499 77.8228
6252 1 32.2047 16.4429 57.8279
6253 2 31.3858 15.8892 57.6775
6254 2 32.1303 16.9164 58.7056
6255 1 13.6199 27.2226 29.9064
6256 2 14.2533 27.9724 30.0975
6257 2 14.0399 26.5889 29.2567
6258 1 36.772 17.4983 43.4174
6259 2 37.2424 17.6908 44.2786
6260 2 36.953 16.5539 43.1427
6261 1 20.9672 3.86601 67.7273
6262 2 21.3807 4.40073 68.4642
6263 2 19.9727 3.96478 67.7613
6264 1 0.399544 25.9678 44.0891
6265 2 1.1038 26.6765 44.0473
6266 2 0.383464 25.4626 43.2262
6267 1 73.0812 29.2265 42.9809
6268 2 74.0386 28.9384 43.0021
6269 2 72.541 28.6319 43.5764
6270 1 4.48493 3.51644 22.436
6271 2 4.80371 2.6252 22.1134
6272 2 5.26803 4.12612 22.5587
6273 1 72.8914 27.4902 30.7282
6274 2 73.7206 26.9843 30.4908
6275 2 73.1387 28.3187 31.2307
6276 1 72.6965 20.088 55.6721
6277 2 71.8356 20.5037 55.9655
6278 2 72.5041 19.2683 55.1327
6279 1 31.1307 22.3342 77.4569
6280 2 30.2578 22.7244 77.1642
6281 2 31.4176 21.6325 76.8046
6282 1 14.4644 0.244372 60.6139
6283 2 13.605 29.7415 60.5208
6284 2 15.2012 29.7291 60.1762
6285 1 28.3746 16.067 90.2417
6286 2 29.0286 16.5858 90.7925
6287 2 27.5271 16.5898 90.1506
6288 1 24.3618 1.72081 62.7453
6289 2 24.1457 1.91433 63.7023
6290 2 24.963 0.923318 62.6941
6291 1 30.0302 16.7743 83.2316
6292 2 30.3663 15.8628 82.9945
6293 2 30.596 17.159 83.9608
6294 1 72.38 7.35549 29.7238
6295 2 72.7928 8.26399 29.7888
6296 2 71.4229 7.40303 30.0096
6297 1 4.01168 11.041 23.7032
6298 2 3.93598 12.0363 23.6432
6299 2 3.19486 10.6202 23.3086
6300 1 46.7108 28.271 74.3613
6301 2 46.5763 29.0431 73.7402
6302 2 47.0129 28.609 75.2527
6303 1 30.1633 22.5381 45.7869
6304 2 29.5867 21.723 45.7316
6305 2 30.5138 22.6359 46.7184
6306 1 11.191 7.61775 64.8297
6307 2 10.3396 8.01058 64.4822
6308 2 11.3437 7.92966 65.7675
6309 1 35.8344 29.1466 60.9132
6310 2 35.3292 29.4288 60.0976
6311 2 35.2928 28.4813 61.4272
6312 1 64.2491 7.13729 11.8949
6313 2 63.6282 7.65123 11.3029
6314 2 64.0855 7.38959 12.8486
6315 1 13.9676 13.9693 59.625
6316 2 14.5828 14.4144 60.2757
6317 2 13.5884 13.1411 60.0378
6318 1 72.772 14.4162 62.4517
6319 2 72.7083 13.5362 61.981
6320 2 73.6943 14.5307 62.8207
6321 1 4.14612 12.4333 38.9514
6322 2 5.03396 12.4042 39.4106
6323 2 3.72553 13.329 39.0956
6324 1 11.1604 7.9149 67.5972
6325 2 12.0872 8.21374 67.8248
6326 2 10.6533 7.73116 68.4393
6327 1 73.3311 22.18 37.7236
6328 2 73.1112 22.3055 38.6911
6329 2 74.2227 22.5886 37.5288
6330 1 8.12765 11.1432 16.9638
6331 2 8.77776 11.5791 17.5862
6332 2 7.55375 10.5038 17.4755
6333 1 32.7676 1.0515 49.9689
6334 2 31.877 0.78034 49.6037
6335 2 33.2799 1.54479 49.2659
6336 1 20.7763 20.2642 62.5028
6337 2 21.4905 20.9604 62.5754
6338 2 20.1778 20.4798 61.7313
6339 1 68.6491 28.1357 51.0942
6340 2 68.2645 28.3018 52.0022
6341 2 67.9702 27.6728 50.5242
6342 1 28.2526 1.99981 61.1726
6343 2 28.5038 2.62893 61.9082
6344 2 27.6171 2.45386 60.5482
6345 1 48.3543 9.30602 45.8537
6346 2 47.4295 9.49886 46.1817
6347 2 48.4909 8.31662 45.8044
6348 1 24.9423 6.5819 51.7126
6349 2 25.5193 5.88852 51.2809
6350 2 25.2531 7.49195 51.4382
6351 1 5.11789 10.4149 68.3928
6352 2 5.03062 9.48062 68.0471
6353 2 6.06524 10.5821 68.6658
6354 1 76.2441 27.3984 86.4507
6355 2 77.1637 27.5941 86.7914
6356 2 76.2598 26.5544 85.9146
6357 1 10.5294 6.38462 49.004
6358 2 10.2967 6.03149 49.9102
6359 2 9.82064 7.02252 48.7028
6360 1 42.9846 21.4526 45.7497
6361 2 42.0022 21.6077 45.8533
6362 2 43.3819 22.1876 45.2001
6363 1 73.2714 26.0511 58.7321
6364 2 74.2388 26.0272 58.4799
6365 2 73.1428 26.6775 59.501
6366 1 66.5013 18.6457 84.1166
6367 2 65.7635 18.7522 84.7831
6368 2 66.3325 17.8325 83.5596
6369 1 53.6201 16.9227 40.0518
6370 2 52.9467 17.2351 40.7219
6371 2 54.4561 17.464 40.1422
6372 1 27.3175 27.5961 43.5425
6373 2 27.4577 27.5443 42.5537
6374 2 27.7542 26.8115 43.9826
6375 1 20.0478 5.4578 19.5247
6376 2 20.4059 5.92822 18.7182
6377 2 19.0519 5.39587 19.4596
6378 1 27.8803 13.4921 51.9384
6379 2 27.0677 13.7829 51.4334
6380 2 28.6961 13.8787 51.5084
6381 1 22.4898 4.28535 45.9548
6382 2 23.0109 3.85827 45.2158
6383 2 23.1166 4.58883 46.6724
6384 1 21.4399 1.57414 64.4882
6385 2 21.4257 1.54577 63.4887
6386 2 22.2554 1.10229 64.8235
6387 1 15.1284 9.56588 52.0054
6388 2 15.2955 10.4359 52.4691
6389 2 14.4647 9.70225 51.2699
6390 1 65.9869 11.7029 79.308
6391 2 66.086 12.5168 79.8804
6392 2 65.9244 11.9761 78.3481
6393 1 54.5453 1.41841 55.7024
6394 2 54.2696 1.02837 56.581
6395 2 53.837 2.04608 55.3794
6396 1 71.5138 22.0451 76.9284
6397 2 71.0359 22.145 77.8011
6398 2 72.3458 22.5998 76.9387
6399 1 78.8411 27.6803 60.0559
6400 2 78.2619 27.7726 60.8659
6401 2 78.7884 28.5172 59.5112
6402 1 10.054 19.805 31.9629
6403 2 10.3667 19.8187 32.9126
6404 2 9.12519 20.1722 31.9125
6405 1 22.4603 18.4847 78.2192
6406 2 23.169 18.3743 78.916
6407 2 21.6806 17.8993 78.4411
6408 1 62.8938 10.5944 14.9163
6409 2 63.1754 9.68251 14.6176
6410 2 62.0227 10.8317 14.4865
6411 1 75.6511 20.1312 58.0907
6412 2 75.6395 19.5226 58.8841
6413 2 75.5474 21.078 58.3954
6414 1 22.493 6.20711 34.4595
6415 2 23.2414 5.84117 33.9064
6416 2 21.6253 6.06139 33.9843
6417 1 71.8565 21.6759 40.8053
6418 2 72.4258 22.254 41.3898
6419 2 71.2777 22.2523 40.2286
6420 1 74.8023 24.6976 25.5989
6421 2 73.9257 24.7858 26.072
6422 2 74.9437 23.7436 25.3344
6423 1 18.7251 8.72906 55.7011
6424 2 19.7175 8.81697 55.7872
6425 2 18.2795 9.269 56.4152
6426 1 1.44893 3.88655 56.8028
6427 2 2.00529 3.0625 56.9096
6428 2 1.69522 4.54903 57.5102
6429 1 75.5368 22.6804 13.7893
6430 2 75.1392 21.8675 13.3637
6431 2 76.4313 22.4517 14.1736
6432 1 54.0117 8.98519 64.1482
6433 2 53.9554 8.38509 63.3503
6434 2 53.9512 9.93873 63.8531
6435 1 36.6932 12.368 69.8704
6436 2 35.725 12.1483 69.7509
6437 2 36.7817 13.1874 70.4368
6438 1 62.2805 22.6457 49.303
6439 2 62.6321 23.5731 49.4306
6440 2 61.9894 22.2753 50.1851
6441 1 79.9595 8.79507 23.7504
6442 2 79.7811 9.58691 23.1664
6443 2 0.91703 8.52181 23.6581
6444 1 26.6741 5.89404 36.6738
6445 2 26.9073 6.65461 37.2797
6446 2 27.3069 5.87858 35.8996
6447 1 50.2807 8.29579 33.0709
6448 2 50.1666 7.34641 33.3636
6449 2 49.9917 8.38784 32.118
6450 1 33.5059 21.7327 86.1646
6451 2 34.1044 21.2003 86.7632
6452 2 32.5947 21.3211 86.1527
6453 1 11.0102 29.2515 51.4208
6454 2 11.7329 28.8244 50.8774
6455 2 10.3043 29.6126 50.8114
6456 1 57.0777 4.56477 67.1839
6457 2 56.992 5.04897 68.0546
6458 2 56.8655 3.59685 67.3185
6459 1 7.93607 15.3158 24.4245
6460 2 8.4471 16.0906 24.0523
6461 2 8.56936 14.5742 24.6456
6462 1 21.0834 20.712 44.588
6463 2 20.7533 20.2396 43.7708
6464 2 20.4918 21.4943 44.7827
6465 1 51.7528 23.9926 52.0078
6466 2 52.2984 23.2021 52.2859
6467 2 52.3536 24.7795 51.8672
6468 1 57.7522 6.71785 68.6281
6469 2 58.2261 7.43596 69.1377
6470 2 58.1584 6.63131 67.7184
6471 1 58.1926 24.321 48.8912
6472 2 57.9605 24.4435 49.8561
6473 2 59.1852 24.2498 48.7935
6474 1 4.7485 5.72415 89.8036
6475 2 5.32687 4.95411 90.0729
6476 2 5.0517 6.07491 88.9176
6477 1 32.98 17.8917 90.5015
6478 2 33.7319 18.4781 90.8029
6479 2 33.3421 17.0023 90.2226
6480 1 37.3631 2.08592 83.4309
6481 2 36.7262 2.60622 83.9999
6482 2 36.8621 1.38066 82.9293
6483 1 12.3454 22.4062 55.4439
6484 2 11.8756 21.577 55.7467
6485 2 12.8169 22.8246 56.2203
6486 1 62.0799 7.74792 40.6537
6487 2 62.8358 8.22845 40.2091
6488 2 61.6641 8.34392 41.3406
6489 1 74.1059 4.62466 45.1328
6490 2 74.6914 4.60929 44.3223
6491 2 74.4859 5.25846 45.8065
6492 1 24.1493 6.66055 46.8041
6493 2 24.918 6.385 46.2268
6494 2 24.4931 6.97602 47.6886
6495 1 35.0114 19.8472 90.7346
6496 2 34.7571 20.1188 89.8063
6497 2 35.0161 20.6521 91.3279
6498 1 49.1634 20.7824 44.4756
6499 2 48.3172 21.0603 44.0209
6500 2 49.9239 21.3313 44.1288
6501 1 4.79261 27.0428 56.4997
6502 2 4.43451 26.4357 55.7903
6503 2 5.61015 27.5073 56.1594
6504 1 2.98766 25.0294 36.979
6505 2 2.79349 25.2752 37.9287
6506 2 2.63392 25.7406 36.3715
6507 1 73.6302 0.542991 66.8263
6508 2 74.1559 0.758487 67.6492
6509 2 74.1134 0.888799 66.022
6510 1 51.6838 11.7215 49.933
6511 2 50.746 11.8874 49.6279
6512 2 52.0413 12.5445 50.3745
6513 1 68.4084 14.0365 37.5809
6514 2 68.9099 13.323 38.0702
6515 2 67.8911 14.5885 38.2348
6516 1 18.0172 21.6268 11.8908
6517 2 18.0957 22.4721 11.3622
6518 2 18.7798 21.0206 11.6652
6519 1 69.7616 17.3702 25.4632
6520 2 70.1434 18.0251 26.1154
6521 2 68.7636 17.4341 25.4722
6522 1 57.8677 1.79713 29.8882
6523 2 58.2191 2.40967 30.5963
6524 2 56.989 2.14047 29.5564
6525 1 32.5372 10.2731 33.9721
6526 2 33.2738 10.6483 34.5348
6527 2 32.8397 9.41582 33.5555
6528 1 38.2415 4.62135 84.4587
6529 2 37.3313 4.85537 84.1168
6530 2 38.273 4.76456 85.4478
6531 1 17.5828 22.5308 37.2424
6532 2 18.4271 22.0117 37.3756
6533 2 17.2922 22.9241 38.1147
6534 1 54.4029 2.38865 50.2968
6535 2 54.0314 2.85508 51.0995
6536 2 54.2158 1.40864 50.3644
6537 1 79.9487 14.8543 59.0525
6538 2 79.7329 15.277 58.1723
6539 2 0.47658 14.0187 58.9004
6540 1 8.56778 8.90107 10.8152
6541 2 9.17925 9.69145 10.7777
6542 2 8.83173 8.24178 10.1111
6543 1 48.3558 4.42999 51.2662
6544 2 47.678 4.88812 50.6912
6545 2 48.0667 3.48788 51.4361
6546 1 11.4465 12.0188 79.6156
6547 2 11.3615 12.3789 80.5447
6548 2 11.1661 11.059 79.6032
6549 1 9.77442 29.5719 31.1175
6550 2 9.8349 29.0931 30.2417
6551 2 10.6953 29.7507 31.4639
6552 1 75.3438 24.8039 85.0179
6553 2 76.3365 24.7115 85.0962
6554 2 74.9751 24.0229 84.5139
6555 1 53.4023 20.9996 84.5249
6556 2 52.9897 20.5377 85.31
6557 2 53.6604 21.9304 84.7836
6558 1 75.6843 21.8228 45.3036
6559 2 74.9294 22.0588 45.9155
6560 2 76.3062 21.1931 45.7691
6561 1 67.1976 29.3446 34.886
6562 2 66.3243 29.1371 34.4451
6563 2 67.0304 29.8263 35.7462
6564 1 67.6282 12.0518 48.6361
6565 2 67.0935 11.4299 48.064
6566 2 67.0424 12.796 48.9571
6567 1 78.6592 17.4762 47.5912
6568 2 78.4707 17.8173 48.5122
6569 2 79.6348 17.5718 47.3936
6570 1 50.5541 29.947 42.2059
6571 2 50.5916 0.637798 41.4838
6572 2 49.6826 29.4592 42.1556
6573 1 47.9942 8.56831 64.201
6574 2 47.7458 9.53536 64.1453
6575 2 47.5227 8.14713 64.9758
6576 1 63.5245 27.4419 74.484
6577 2 64.3373 26.9024 74.7039
6578 2 62.7556 27.1286 75.0414
6579 1 68.143 1.47675 20.7542
6580 2 68.9975 1.91542 21.0323
6581 2 67.4052 1.76822 21.3631
6582 1 13.3952 14.1243 69.0106
6583 2 13.7603 14.188 68.0818
6584 2 12.4525 13.7923 68.9761
6585 1 59.1308 29.4734 71.1206
6586 2 59.2694 0.368741 70.6973
6587 2 58.31 29.498 71.6913
6588 1 4.1905 19.1691 46.3622
6589 2 5.10133 19.1558 46.7748
6590 2 3.66868 18.3777 46.6807
6591 1 8.53333 29.3103 59.8514
6592 2 9.51653 29.2256 59.6897
6593 2 8.37546 29.8989 60.6442
6594 1 44.1056 21.5934 28.0745
6595 2 44.1781 20.6414 28.3719
6596 2 43.2587 21.9898 28.4289
6597 1 65.9975 10.4776 25.2932
6598 2 66.301 10.4218 26.2445
6599 2 66.5909 11.1061 24.7904
6600 1 76.7998 12.1901 50.8379
6601 2 77.2138 11.9806 49.9521
6602 2 75.8203 12.3523 50.7181
6603 1 18.9573 27.5566 54.0575
6604 2 18.3747 27.2292 54.8013
6605 2 19.8226 27.8886 54.4332
6606 1 33.9494 2.74256 33.6609
6607 2 34.4543 2.32383 34.4157
6608 2 33.5743 2.02606 33.0727
6609 1 35.9878 29.4353 78.1752
6610 2 35.7427 0.403155 78.232
6611 2 36.8703 29.3415 77.7142
6612 1 21.7567 16.95 36.8371
6613 2 22.6964 16.608 36.838
6614 2 21.6762 17.7019 36.1828
6615 1 52.9179 6.37546 52.5641
6616 2 52.6719 5.59525 51.989
6617 2 53.8441 6.24887 52.9193
6618 1 16.6529 9.46614 80.5206
6619 2 15.8876 10.1088 80.5568
6620 2 16.3099 8.55105 80.3085
6621 1 12.4536 1.79856 49.9498
6622 2 11.8273 2.01847 50.6977
6623 2 11.9848 1.22112 49.2814
6624 1 1.55968 18.8806 70.5654
6625 2 1.6168 19.603 71.2545
6626 2 0.744359 19.0199 70.0033
6627 1 23.0854 24.9038 67.354
6628 2 23.0655 25.3143 68.2657
6629 2 22.4374 25.3803 66.7598
6630 1 5.90256 7.75806 54.9969
6631 2 5.45251 7.37706 54.1893
6632 2 5.33509 7.59311 55.8036
6633 1 62.0084 17.1638 49.6175
6634 2 62.1944 16.2176 49.3528
6635 2 61.0358 17.3598 49.4922
6636 1 44.0679 18.9312 46.3604
6637 2 43.9128 19.9191 46.3567
6638 2 43.2925 18.4705 45.9286
6639 1 67.518 3.83635 59.7879
6640 2 67.7672 3.51959 60.7031
6641 2 67.8979 4.74884 59.6361
6642 1 66.3061 20.5518 70.384
6643 2 65.3889 20.6424 69.996
6644 2 66.4225 21.2156 71.1228
6645 1 5.89239 21.7744 66.8794
6646 2 5.84936 21.9163 65.8905
6647 2 5.99758 22.6566 67.3385
6648 1 44.3954 15.5059 67.3537
6649 2 43.6669 15.0457 66.8463
6650 2 44.5315 15.0468 68.2316
6651 1 44.5115 19.6057 64.4409
6652 2 44.4432 19.1398 63.5587
6653 2 43.774 20.2762 64.5217
6654 1 43.3867 22.5946 77.2626
6655 2 43.6748 23.1687 78.029
6656 2 42.6018 22.0396 77.5384
6657 1 51.6111 14.9299 43.0422
6658 2 51.5731 15.4666 43.8851
6659 2 51.8889 15.5195 42.2838
6660 1 18.5499 15.3638 45.0592
6661 2 17.9949 15.2226 45.879
6662 2 19.5185 15.2832 45.2944
6663 1 66.7724 6.08731 90.4128
6664 2 66.8394 6.05511 89.4156
6665 2 67.2908 6.8703 90.7566
6666 1 66.0196 15.9902 22.1536
6667 2 66.8575 16.1942 21.6474
6668 2 66.2283 15.3647 22.9054
6669 1 19.9455 19.7819 11.0474
6670 2 20.2667 18.994 11.5726
6671 2 20.0538 19.5978 10.0704
6672 1 47.8493 13.5685 68.7059
6673 2 47.3829 13.9417 69.5079
6674 2 48.8218 13.4544 68.9089
6675 1 72.5266 29.0532 14.8656
6676 2 72.6889 28.0673 14.9081
6677 2 72.7188 29.4613 15.7581
6678 1 60.2021 6.73864 85.072
6679 2 59.3105 6.29262 85.1502
6680 2 60.1977 7.5874 85.6008
6681 1 21.9732 20.1486 32.6864
6682 2 21.9401 19.5163 33.4605
6683 2 22.9238 20.2848 32.4078
6684 1 60.2831 13.7537 36.7061
6685 2 60.5295 14.0538 37.6277
6686 2 61.0973 13.758 36.1254
6687 1 77.8837 1.03299 48.2946
6688 2 78.4773 1.63607 47.7617
6689 2 76.9875 0.973943 47.8551
6690 1 39.5072 18.4052 81.3771
6691 2 40.4063 18.7319 81.0857
6692 2 38.8895 19.1838 81.4878
6693 1 0.869901 3.15035 60.875
6694 2 0.0171007 3.14528 61.3972
6695 2 1.11239 4.09208 60.6419
6696 1 76.0947 22.2916 25.0819
6697 2 76.9742 22.6307 25.4159
6698 2 75.9309 22.6419 24.1597
6699 1 17.1284 8.96199 42.9559
6700 2 16.8995 9.36317 43.8429
6701 2 18.1148 8.80524 42.9056
6702 1 22.675 17.9269 22.5053
6703 2 22.1436 17.6467 23.3047
6704 2 23.2277 17.1571 22.186
6705 1 21.2232 14.1547 23.7625
6706 2 21.9133 13.9579 23.066
6707 2 20.4243 13.5719 23.6142
6708 1 62.2051 19.1197 47.2357
6709 2 62.9792 19.6573 46.9015
6710 2 62.3378 18.9109 48.2046
6711 1 41.5972 9.03389 43.9915
6712 2 40.7844 8.57934 44.3558
6713 2 42.3628 8.90303 44.6214
6714 1 31.5293 1.36052 36.1451
6715 2 32.3989 1.25722 36.6278
6716 2 31.565 0.856059 35.2824
6717 1 28.216 17.0377 29.9714
6718 2 27.2612 16.7406 29.9628
6719 2 28.4623 17.3412 30.8919
6720 1 49.4401 17.6872 81.5737
6721 2 48.7567 18.3054 81.9621
6722 2 50.1738 17.5422 82.2375
6723 1 57.6829 11.3746 60.4257
6724 2 56.7383 11.0505 60.4767
6725 2 58.0169 11.2821 59.4876
6726 1 32.7172 15.6486 82.595
6727 2 33.5407 16.0741 82.9703
6728 2 32.2774 16.2799 81.9562
6729 1 56.8617 10.9083 33.1844
6730 2 56.0637 11.1634 33.7304
6731 2 57.6645 11.4042 33.5155
6732 1 61.5131 8.73903 18.6548
6733 2 62.3096 8.9932 18.1061
6734 2 61.482 7.7447 18.7564
6735 1 35.893 15.3777 48.5556
6736 2 35.0013 15.8298 48.5757
6737 2 36.0546 14.9997 47.644
6738 1 29.4553 3.87038 74.5686
6739 2 28.6529 4.24917 75.0298
6740 2 29.2184 2.99064 74.1563
6741 1 32.0763 9.40396 64.4135
6742 2 32.2633 9.34092 63.4332
6743 2 32.2548 10.3364 64.7276
6744 1 74.6289 29.2463 73.1847
6745 2 74.7671 28.6452 73.9719
6746 2 75.5091 29.43 72.747
6747 1 16.3844 14.1217 79.3891
6748 2 15.7159 13.3781 79.372
6749 2 15.9077 14.9965 79.4752
6750 1 70.3933 1.08239 67.1893
6751 2 70.9419 0.451108 66.641
6752 2 70.9469 1.87817 67.4348
6753 1 27.4008 22.7257 48.3184
6754 2 26.6009 22.22 48.6417
6755 2 27.8258 22.2288 47.5618
6756 1 14.046 15.4117 55.3963
6757 2 13.4376 15.9019 54.7722
6758 2 14.1955 15.9626 56.2174
6759 1 57.3513 27.8957 35.3341
6760 2 57.7596 28.3913 36.1007
6761 2 56.4336 27.5889 35.5864
6762 1 31.732 27.0809 27.6984
6763 2 31.3676 26.2022 27.3897
6764 2 31.2796 27.8221 27.2024
6765 1 1.93533 8.00341 83.9388
6766 2 1.3689 7.9852 83.1149
6767 2 2.26535 8.93422 84.0959
6768 1 14.4742 9.46764 74.5229
6769 2 14.2292 8.62519 74.0431
6770 2 13.9172 9.55495 75.3488
6771 1 15.4683 2.39232 17.4176
6772 2 14.5709 1.95103 17.4185
6773 2 15.4525 3.18101 18.0322
6774 1 55.1929 12.4773 47.1698
6775 2 54.2123 12.3377 47.0326
6776 2 55.3357 13.1369 47.9077
6777 1 60.3103 26.6782 67.682
6778 2 60.41 27.045 66.7571
6779 2 61.1668 26.8005 68.1833
6780 1 53.1636 24.0604 40.6944
6781 2 52.3624 24.6545 40.767
6782 2 52.9013 23.1195 40.9084
6783 1 2.756 19.2672 53.1713
6784 2 1.9223 19.3233 52.6219
6785 2 2.75231 19.9942 53.8579
6786 1 43.5686 4.82648 63.2733
6787 2 43.671 4.45228 62.3516
6788 2 42.6337 4.67316 63.5933
6789 1 27.243 19.1561 40.0191
6790 2 27.1239 19.7343 40.8263
6791 2 26.6797 18.335 40.1113
6792 1 24.7939 24.6059 79.5706
6793 2 25.5134 24.1852 80.1231
6794 2 23.9002 24.3746 79.9549
6795 1 21.1496 3.08944 17.5476
6796 2 21.3853 3.83122 18.1755
6797 2 20.2631 3.27901 17.1256
6798 1 57.0225 1.19931 45.1917
6799 2 56.4406 0.649398 45.7908
6800 2 57.6917 1.6978 45.7428
6801 1 53.18 1.46236 30.2361
6802 2 52.7477 0.869352 29.5568
6803 2 53.5664 0.90282 30.9693
6804 1 42.2302 20.3624 90.4684
6805 2 43.0171 20.5941 89.8965
6806 2 42.5486 20.0614 91.3673
6807 1 38.0551 16.7188 48.987
6808 2 37.4626 16.0494 48.5389
6809 2 38.8482 16.9034 48.4066
6810 1 21.7997 24.6638 49.0039
6811 2 22.0593 23.8163 48.5411
6812 2 22.3977 25.4058 48.7009
6813 1 34.4019 23.1401 83.2546
6814 2 34.2246 23.836 82.5587
6815 2 34.6718 23.5843 84.1089
6816 1 60.4935 20.4407 42.2512
6817 2 61.4365 20.5835 41.9504
6818 2 59.9851 19.9598 41.5369
6819 1 57.0433 13.6317 66.5224
6820 2 57.3108 14.4751 66.9883
6821 2 57.7398 12.9307 66.676
6822 1 78.7434 28.1033 36.7821
6823 2 77.9388 28.5592 37.1627
6824 2 78.498 27.1764 36.498
6825 1 4.83841 15.1622 51.4011
6826 2 5.194 15.3418 50.4839
6827 2 3.94897 14.7105 51.3312
6828 1 68.3172 8.19027 23.8899
6829 2 67.8116 8.03242 24.7382
6830 2 68.8469 9.03467 23.9698
6831 1 42.3713 15.4495 40.3729
6832 2 41.4458 15.071 40.3635
6833 2 42.6558 15.6112 41.3178
6834 1 14.5459 23.1645 28.4832
6835 2 14.9097 22.2365 28.5638
6836 2 15.2137 23.745 28.0174
6837 1 44.022 13.6493 65.29
6838 2 44.8829 13.798 65.7765
6839 2 44.2038 13.1776 64.4272
6840 1 48.8072 5.61922 80.9686
6841 2 48.8226 4.80083 80.3941
6842 2 49.605 5.61822 81.5715
6843 1 28.7483 12.7594 68.6199
6844 2 29.3618 12.6107 69.3954
6845 2 28.0162 13.3851 68.8893
6846 1 24.6378 21.7947 45.3762
6847 2 24.0359 22.3239 45.9742
6848 2 25.5578 22.1859 45.3985
6849 1 13.3413 17.5632 82.8599
6850 2 12.7093 18.3289 82.9792
6851 2 12.826 16.7391 82.6247
6852 1 78.0801 28.4474 44.1806
6853 2 77.6749 28.5349 45.0906
6854 2 77.6373 27.6974 43.6892
6855 1 65.9841 11.7767 52.6883
6856 2 66.7441 11.3593 53.1864
6857 2 65.1984 11.8738 53.2992
6858 1 35.2338 20.3128 74.3054
6859 2 35.5742 19.6468 73.6417
6860 2 35.9576 20.9681 74.5212
6861 1 30.339 26.5467 34.3267
6862 2 29.5778 26.9169 34.8592
6863 2 31.1206 27.1675 34.3864
6864 1 3.54931 5.05557 83.2275
6865 2 3.49444 5.90575 83.7511
6866 2 3.37601 4.27915 83.8334
6867 1 20.0226 19.3053 83.1369
6868 2 20.8922 19.1131 83.5916
6869 2 19.3462 18.6204 83.4081
6870 1 76.3241 8.14728 48.0504
6871 2 75.8671 7.43057 47.5237
6872 2 76.3984 7.86262 49.0061
6873 1 61.502 9.61809 80.3015
6874 2 61.975 9.72427 81.1761
6875 2 60.6956 10.2092 80.2848
6876 1 60.9169 4.58131 18.0101
6877 2 60.5336 3.81538 18.5262
6878 2 60.6251 4.5193 17.0556
6879 1 4.30177 5.09914 12.6269
6880 2 5.22352 5.44899 12.7942
6881 2 4.35957 4.22305 12.1482
6882 1 69.7168 20.6579 25.4328
6883 2 69.5453 20.3477 26.3678
6884 2 68.8454 20.7913 24.9607
6885 1 79.9368 14.251 61.8965
6886 2 0.184229 13.4774 61.3132
6887 2 0.554226 15.0163 61.7149
6888 1 4.33629 15.0203 15.2282
6889 2 3.39834 14.7734 14.9848
6890 2 4.54907 15.9252 14.8595
6891 1 0.798672 28.9103 17.6232
6892 2 1.50946 28.6913 18.2917
6893 2 0.844264 28.2616 16.8636
6894 1 25.9304 16.4121 80.358
6895 2 25.3404 15.692 79.993
6896 2 25.3666 17.1288 80.7685
6897 1 10.6203 4.37538 28.2368
6898 2 11.4165 3.80099 28.4269
6899 2 10.1155 4.53649 29.0848
6900 1 3.54441 9.04718 34.8165
6901 2 4.46004 8.78824 35.124
6902 2 3.05099 8.23138 34.5148
6903 1 10.0489 27.2348 22.0322
6904 2 9.72728 26.8154 22.8812
6905 2 10.9354 26.8449 21.7829
6906 1 13.8468 22.368 85.0552
6907 2 14.7172 22.4252 84.5662
6908 2 13.5399 23.2882 85.2982
6909 1 71.8777 23.1917 85.8812
6910 2 71.748 24.1832 85.8661
6911 2 72.7899 22.9696 85.5368
6912 1 19.6119 28.2274 75.3346
6913 2 20.24 27.5216 75.0068
6914 2 19.4394 28.8862 74.6023
6915 1 16.0087 20.1837 14.5163
6916 2 15.4621 20.1796 15.3537
6917 2 16.8935 19.7529 14.6937
6918 1 77.4565 21.4223 78.7164
6919 2 77.4517 20.782 79.4846
6920 2 77.3981 22.3586 79.0626
6921 1 48.5489 3.13194 89.6477
6922 2 49.3585 2.96848 90.2115
6923 2 48.2242 4.06638 89.7938
6924 1 13.7387 17.1483 66.5671
6925 2 13.7642 16.6792 67.4499
6926 2 14.4553 16.7813 65.9739
6927 1 1.12282 13.088 70.1392
6928 2 1.94162 12.5711 69.8893
6929 2 0.635302 12.608 70.8685
6930 1 71.5546 24.0768 82.5453
6931 2 71.4368 24.9687 82.1087
6932 2 72.4115 24.0685 83.0607
6933 1 23.6138 18.3414 88.9539
6934 2 23.2963 19.2862 88.8729
6935 2 23.1268 17.889 89.701
6936 1 60.5379 7.83711 44.6325
6937 2 60.8802 8.43481 45.3575
6938 2 59.8406 7.22544 45.0063
6939 1 58.2214 29.3471 89.2184
6940 2 57.7621 29.586 88.3628
6941 2 58.4022 0.178901 89.7432
6942 1 42.5965 22.5615 30.1627
6943 2 43.1988 22.9302 30.8708
6944 2 41.8196 23.1775 30.0321
6945 1 11.4168 1.17254 65.3868
6946 2 11.8709 0.282719 65.3423
6947 2 10.5576 1.08341 65.8906
6948 1 8.96569 24.5858 72.1217
6949 2 9.41551 25.2826 72.6803
6950 2 8.43405 25.0292 71.4
6951 1 31.7675 27.8963 57.7919
6952 2 31.6886 28.8304 58.1401
6953 2 32.6553 27.7805 57.3465
6954 1 32.2318 14.5362 39.1176
6955 2 31.3672 14.0341 39.1326
6956 2 32.9546 13.9671 39.5095
6957 1 20.597 0.135585 45.0893
6958 2 20.6302 29.3995 44.4132
6959 2 20.6526 29.7464 46.0088
6960 1 10.6701 15.5609 83.5845
6961 2 11.0256 14.949 82.8779
6962 2 9.67089 15.5216 83.5875
6963 1 68.0237 20.5908 77.1134
6964 2 68.1639 19.9544 77.872
6965 2 67.2234 21.1606 77.2999
6966 1 34.0438 17.2856 46.3104
6967 2 34.3721 18.2243 46.4157
6968 2 33.0938 17.2978 45.9984
6969 1 67.0196 13.7387 81.3477
6970 2 66.5993 14.488 80.8359
6971 2 67.9516 13.5907 81.0169
6972 1 8.73612 13.1496 90.7563
6973 2 9.29952 13.7283 91.346
6974 2 9.24649 12.9217 89.9271
6975 1 19.2004 15.8279 42.1839
6976 2 19.0045 15.7098 43.1574
6977 2 18.5491 15.2931 41.6455
6978 1 36.8927 19.1826 78.4831
6979 2 36.4365 18.5312 79.0894
6980 2 37.268 19.9351 79.0243
6981 1 57.1553 1.38964 49.9554
6982 2 57.031 2.36668 50.1285
6983 2 56.708 0.863496 50.6787
6984 1 66.8502 25.1013 67.1043
6985 2 66.0441 25.2362 66.5281
6986 2 67.6706 25.3648 66.5967
6987 1 68.3432 23.9098 24.3221
6988 2 67.6142 24.5344 24.0418
6989 2 67.9409 23.0647 24.6741
6990 1 50.9765 1.34457 37.5017
6991 2 51.6176 2.07988 37.2819
6992 2 50.2795 1.28537 36.7871
6993 1 36.6642 2.89511 40.1463
6994 2 36.7713 3.47338 39.3375
6995 2 37.2427 2.0845 40.0554
6996 1 53.7036 16.9202 64.3967
6997 2 53.7134 17.9082 64.5509
6998 2 53.1583 16.7151 63.5839
6999 1 31.8394 23.9958 39.5954
7000 2 32.1461 24.6867 40.2501
7001 2 31.0165 24.3204 39.1291
7002 1 51.5448 16.017 47.9925
7003 2 50.7393 16.0321 48.5849
7004 2 52.3607 16.2195 48.534
7005 1 65.0864 0.943903 61.0826
7006 2 64.5381 0.121117 61.2321
7007 2 64.4857 1.70478 60.8372
7008 1 2.8904 9.01986 48.2884
7009 2 2.17623 8.32006 48.3041
7010 2 3.71959 8.6595 48.7157
7011 1 17.4312 8.06245 59.2838
7012 2 17.3974 8.8936 59.8389
7013 2 17.8095 7.31351 59.8279
7014 1 17.999 23.1569 31.5318
7015 2 18.8432 23.6907 31.5803
7016 2 17.6204 23.2149 30.6081
7017 1 8.89822 23.7426 48.1304
7018 2 8.92076 24.7415 48.0902
7019 2 9.82797 23.3925 48.2446
7020 1 61.2544 4.16911 77.5918
7021 2 61.1106 3.23652 77.9228
7022 2 60.4069 4.51382 77.188
7023 1 50.4636 16.8955 26.0283
7024 2 50.1078 17.7273 26.4544
7025 2 49.7735 16.1735 26.0793
7026 1 64.1566 15.9862 26.9518
7027 2 63.7801 15.4141 26.2232
7028 2 63.8883 15.614 27.8403
7029 1 12.6636 5.62191 87.7889
7030 2 13.3115 6.29287 87.4284
7031 2 11.7308 5.96232 87.6704
7032 1 64.492 25.3425 56.5167
7033 2 63.9699 25.6314 55.7143
7034 2 64.8135 24.4048 56.3852
7035 1 65.8026 18.9772 39.6432
7036 2 66.169 18.9566 38.713
7037 2 66.5337 18.7726 40.2941
7038 1 33.7836 9.11927 41.7793
7039 2 34.206 9.45468 42.6213
7040 2 33.0013 8.53935 42.0068
7041 1 16.3468 20.0997 26.3418
7042 2 16.3366 20.4546 27.2766
7043 2 15.4854 19.6272 26.1552
7044 1 45.4502 14.2728 73.945
7045 2 46.3031 13.7769 73.782
7046 2 44.8325 13.704 74.4882
7047 1 3.03544 9.97154 75.7907
7048 2 3.74172 9.73132 76.4566
7049 2 2.41265 9.19825 75.6717
7050 1 57.7464 18.2396 76.4406
7051 2 58.3902 18.9747 76.653
7052 2 57.9237 17.4581 77.0388
7053 1 41.7499 8.23119 41.2582
7054 2 41.5551 8.92792 41.9486
7055 2 41.7963 8.65984 40.3559
7056 1 60.9498 14.8878 46.3409
7057 2 60.5858 14.2986 47.0623
7058 2 60.2036 15.4116 45.9302
7059 1 50.6599 20.2534 50.4439
7060 2 50.2818 20.9343 49.8167
7061 2 50.4149 19.3368 50.1279
7062 1 59.4694 11.7193 39.1191
7063 2 58.631 11.3158 39.4855
7064 2 59.6022 12.6283 39.5142
7065 1 65.3932 2.49027 12.7172
7066 2 66.3496 2.21587 12.8172
7067 2 65.3465 3.36978 12.2436
7068 1 19.8324 13.57 47.596
7069 2 20.2355 14.3144 48.1282
7070 2 20.2003 13.5877 46.6663
7071 1 56.9994 29.7741 86.9236
7072 2 56.2208 29.6524 86.308
7073 2 57.7972 0.0689102 86.3977
7074 1 67.8179 1.03809 61.2129
7075 2 66.8447 1.11493 60.9958
7076 2 67.9396 1.04608 62.2054
7077 1 21.6413 14.0239 63.92
7078 2 21.6265 13.0769 64.2406
7079 2 21.5301 14.0412 62.9263
7080 1 78.9774 22.4347 28.5368
7081 2 78.6949 22.4189 27.5776
7082 2 79.1433 23.3793 28.8199
7083 1 29.1689 8.31624 85.0378
7084 2 28.9346 7.47071 84.5581
7085 2 28.3307 8.80157 85.2866
7086 1 42.046 8.29758 72.0211
7087 2 41.8034 7.33957 72.174
7088 2 43.0413 8.39432 72.0264
7089 1 2.08475 15.8598 41.5303
7090 2 1.31415 15.2398 41.3827
7091 2 2.71246 15.8021 40.754
7092 1 79.3608 11.7606 28.8895
7093 2 79.3821 12.7509 29.0269
7094 2 78.7489 11.3439 29.5617
7095 1 8.75144 26.0317 12.0886
7096 2 9.68077 26.0396 12.4578
7097 2 8.36201 26.9509 12.1462
7098 1 79.2896 19.5987 69.6482
7099 2 78.3927 19.1658 69.7384
7100 2 79.1752 20.589 69.5687
7101 1 68.8516 29.718 22.8708
7102 2 67.8855 29.5069 23.0193
7103 2 69.0357 29.7636 21.8889
7104 1 10.3269 17.0814 16.3884
7105 2 11.2296 16.6663 16.5019
7106 2 9.85584 17.1012 17.2703
7107 1 18.473 3.65073 72.8974
7108 2 18.3503 4.61388 73.1367
7109 2 19.3905 3.51438 72.5238
7110 1 5.89868 27.8199 34.9532
7111 2 6.42093 27.609 35.7795
7112 2 6.20257 27.228 34.2067
7113 1 72.3043 29.6504 53.6783
7114 2 72.2121 28.6722 53.8646
7115 2 72.0474 0.170482 54.4929
7116 1 26.7823 25.9492 46.1224
7117 2 26.8218 26.8131 45.6203
7118 2 27.6188 25.4276 45.9547
7119 1 72.5042 16.7399 54.8118
7120 2 73.4548 16.567 54.5541
7121 2 72.4646 17.0192 55.7712
7122 1 17.2848 16.1284 55.8418
7123 2 16.8304 15.9953 56.7226
7124 2 18.0626 16.746 55.958
7125 1 8.39259 25.8754 30.4521
7126 2 8.83345 24.9785 30.4179
7127 2 7.47068 25.7795 30.8275
7128 1 3.55499 20.1774 42.0057
7129 2 2.97952 19.408 42.2829
7130 2 3.12982 21.034 42.2981
7131 1 21.3716 17.4416 57.5515
7132 2 20.5363 17.8093 57.1427
7133 2 22.0738 17.3459 56.846
7134 1 21.9767 10.0029 80.4604
7135 2 21.8407 9.95319 79.471
7136 2 21.7851 9.11028 80.8685
7137 1 17.2852 18.2995 34.3487
7138 2 16.8255 19.1867 34.3871
7139 2 18.1118 18.3278 34.9107
7140 1 55.6642 16.0864 60.3353
7141 2 55.5833 15.6801 61.2454
7142 2 55.9501 17.0409 60.4206
7143 1 61.0137 2.97852 41.9469
7144 2 60.3265 2.38866 42.3709
7145 2 60.8329 3.04926 40.9659
7146 1 4.04698 17.3549 90.985
7147 2 3.27647 17.8193 90.5483
7148 2 4.09083 16.4086 90.6645
7149 1 43.7635 11.8415 28.9706
7150 2 43.1096 11.1473 28.6698
7151 2 44.3413 11.4639 29.6941
7152 1 55.4957 29.6834 64.7753
7153 2 55.7188 0.495731 65.3141
7154 2 54.7154 29.2136 65.188
7155 1 28.2604 22.0542 54.59
7156 2 27.7544 22.1549 55.4466
7157 2 29.0529 22.6641 54.5973
7158 1 61.5103 19.8053 36.3317
7159 2 61.6712 20.4749 37.0568
7160 2 62.3013 19.1979 36.2574
7161 1 6.37147 25.6587 76.857
7162 2 5.69965 25.1496 77.395
7163 2 7.02856 26.0956 77.4713
7164 1 55.6591 27.1314 69.1401
7165 2 54.9704 26.5795 69.6103
7166 2 55.3192 28.0654 69.0296
7167 1 18.691 27.2262 45.5974
7168 2 18.2751 26.5681 46.2251
7169 2 19.6846 27.1138 45.607
7170 1 43.7743 0.305422 54.4839
7171 2 43.1729 29.9501 55.1995
7172 2 43.5108 1.2444 54.2628
7173 1 3.4811 8.75272 73.2353
7174 2 3.70485 9.70273 73.453
7175 2 2.86889 8.38555 73.9356
7176 1 65.1984 12.5954 18.1357
7177 2 64.495 11.8893 18.2173
7178 2 65.4441 12.7113 17.1733
7179 1 16.6948 23.4908 71.7292
7180 2 15.8953 23.54 71.1306
7181 2 16.4738 23.8993 72.6148
7182 1 69.5132 21.9684 19.4756
7183 2 69.0517 21.131 19.1829
7184 2 70.4868 21.7832 19.6089
7185 1 25.4187 7.86882 59.5808
7186 2 26.1599 7.65112 58.9458
7187 2 25.252 8.85479 59.573
7188 1 16.9207 2.6791 80.8044
7189 2 16.1034 3.02047 81.2685
7190 2 16.6555 2.00441 80.1155
7191 1 26.7585 13.4109 62.0276
7192 2 26.3675 14.0508 61.366
7193 2 27.3648 12.7715 61.5546
7194 1 19.5491 13.1271 30.4166
7195 2 18.9653 13.6132 31.0668
7196 2 20.1668 13.7765 29.9731
7197 1 29.0955 23.7762 34.634
7198 2 29.8272 24.3135 34.2145
7199 2 29.1299 23.8847 35.6275
7200 1 13.5517 10.9047 22.2138
7201 2 13.895 11.5916 21.5733
7202 2 12.6217 11.1442 22.4926
7203 1 71.3151 19.7584 42.9495
7204 2 71.225 20.1172 42.0205
7205 2 70.8735 20.384 43.5927
7206 1 14.8091 18.7135 50.7106
7207 2 14.3633 18.5234 51.5853
7208 2 14.3076 18.258 49.975
7209 1 58.4915 18.2689 43.5866
7210 2 58.4298 19.1166 44.1134
7211 2 58.4467 17.4865 44.2076
7212 1 75.0802 18.7555 73.1968
7213 2 74.9292 18.3901 74.1153
7214 2 74.6119 19.6345 73.1066
7215 1 27.2815 1.81837 33.5222
7216 2 27.3196 2.78331 33.2625
7217 2 28.1768 1.39798 33.3752
7218 1 69.4381 16.4377 73.4335
7219 2 69.5267 15.4462 73.5287
7220 2 68.9497 16.649 72.5868
7221 1 54.0781 29.2552 69.1994
7222 2 53.2567 29.2345 69.7694
7223 2 54.2345 0.187765 68.874
7224 1 44.9368 24.1995 52.0563
7225 2 45.4103 23.3305 52.2004
7226 2 44.3505 24.394 52.8427
7227 1 19.4914 18.0147 18.5156
7228 2 20.0298 18.0898 17.6763
7229 2 18.687 17.4454 18.3457
7230 1 76.6926 28.709 10.9647
7231 2 77.259 28.6812 10.141
7232 2 76.6947 27.8093 11.4012
7233 1 57.7406 25.1238 76.4889
7234 2 58.3028 25.8915 76.1814
7235 2 58.3312 24.4 76.8455
7236 1 58.2189 8.96791 62.7797
7237 2 58.5636 9.71101 63.3533
7238 2 57.2872 9.17944 62.4844
7239 1 56.3666 21.5071 25.7676
7240 2 55.3803 21.4553 25.9239
7241 2 56.7063 22.3965 26.0735
7242 1 10.3098 3.85986 76.4116
7243 2 9.85995 3.84996 77.3046
7244 2 11.2695 4.11726 76.5246
7245 1 79.8612 9.48479 72.0157
7246 2 79.9272 8.86287 71.2354
7247 2 0.779283 9.70337 72.3464
7248 1 73.7368 15.8837 83.5035
7249 2 73.7212 16.8603 83.7183
7250 2 74.6819 15.5881 83.3645
7251 1 70.4311 22.5944 30.3397
7252 2 69.6442 23.1725 30.5554
7253 2 70.9104 22.3552 31.1842
7254 1 0.242322 10.3814 68.8737
7255 2 0.848917 10.2669 69.6605
7256 2 79.7238 9.53894 68.7273
7257 1 37.6146 19.1423 75.6797
7258 2 37.0503 18.6351 76.3311
7259 2 37.4689 20.1236 75.806
7260 1 74.0019 25.9644 63.2384
7261 2 74.7262 25.5817 63.8119
7262 2 73.6006 26.7589 63.6942
7263 1 71.9951 23.1066 27.0994
7264 2 71.8449 22.1298 27.252
7265 2 71.366 23.4345 26.3945
7266 1 2.89078 14.0171 29.4354
7267 2 2.98958 13.4021 28.6531
7268 2 3.17266 14.9396 29.1718
7269 1 25.7971 11.1225 73.5963
7270 2 24.912 10.6573 73.58
7271 2 26.2254 10.9929 74.4906
7272 1 2.36273 28.6829 89.8408
7273 2 2.98595 29.3801 89.4866
7274 2 1.51061 29.1159 90.1348
7275 1 5.09307 15.0023 32.7315
7276 2 4.81137 14.4475 31.9487
7277 2 4.31339 15.1357 33.3433
7278 1 44.0639 18.3366 67.3441
7279 2 44.0305 17.3406 67.4264
7280 2 44.8467 18.6875 67.858
7281 1 63.8744 22.5677 51.9379
7282 2 63.8801 21.984 52.7499
7283 2 64.6654 22.3507 51.3659
7284 1 56.9721 15.8071 82.4698
7285 2 57.1846 14.9017 82.1022
7286 2 56.0059 15.845 82.7246
7287 1 7.89626 2.73242 42.9158
7288 2 7.62496 3.69463 42.8923
7289 2 8.67307 2.62019 43.5355
7290 1 61.0336 0.415088 53.0452
7291 2 60.1561 0.783549 52.7381
7292 2 61.1061 29.4558 52.7723
7293 1 44.8542 1.57159 26.7576
7294 2 44.7756 0.94589 27.5337
7295 2 44.5178 2.47524 27.0226
7296 1 13.4913 23.6393 78.3696
7297 2 12.694 23.6122 77.7667
7298 2 14.2724 24.0172 77.8725
7299 1 31.9273 4.76292 73.7322
7300 2 31.8299 5.75524 73.8084
7301 2 31.1839 4.31587 74.2298
7302 1 68.191 11.0102 45.3851
7303 2 68.3639 10.0994 45.76
7304 2 68.944 11.6204 45.6313
7305 1 65.3464 25.7766 14.3643
7306 2 65.653 25.551 15.289
7307 2 64.4584 26.2343 14.4099
7308 1 47.2339 4.69459 72.9812
7309 2 47.5207 5.11023 73.8443
7310 2 46.5292 4.00792 73.1598
7311 1 64.1877 23.9726 29.7335
7312 2 63.7355 23.099 29.5532
7313 2 65.1673 23.8842 29.5533
7314 1 7.78263 17.278 69.6542
7315 2 7.05025 16.8775 69.1035
7316 2 7.70777 16.9516 70.5964
7317 1 4.28128 13.8774 68.9971
7318 2 4.50289 13.4535 69.8753
7319 2 4.52623 14.8465 69.0236
7320 1 0.517694 10.9669 47.4125
7321 2 0.39268 10.6042 46.489
7322 2 79.7259 11.5245 47.6616
7323 1 37.3342 17.0831 62.2471
7324 2 37.8642 16.898 63.0746
7325 2 37.0492 16.2185 61.8334
7326 1 20.3237 22.8924 66.3746
7327 2 19.9218 23.8005 66.2571
7328 2 19.8348 22.2348 65.8015
7329 1 17.8434 16.2451 58.4865
7330 2 17.0803 16.3725 59.1201
7331 2 18.5025 15.6059 58.8829
7332 1 74.9301 9.57146 85.4562
7333 2 74.6892 8.80679 86.0539
7334 2 74.7911 10.4329 85.9446
7335 1 50.2795 8.75349 60.5904
7336 2 51.2579 8.9603 60.5918
7337 2 49.7611 9.5951 60.4388
7338 1 38.6886 29.3202 75.0622
7339 2 39.5052 29.2047 75.6277
7340 2 38.9606 29.4964 74.1161
7341 1 21.7241 0.697863 51.8472
7342 2 22.3811 0.30598 52.4913
7343 2 20.8207 0.30111 52.0098
7344 1 66.167 24.2483 75.5623
7345 2 66.1741 25.2404 75.437
7346 2 65.2427 23.9489 75.7989
7347 1 77.7812 10.458 14.7433
7348 2 78.7115 10.5002 15.1076
7349 2 77.1642 10.1022 15.4453
7350 1 70.2363 2.33252 76.4293
7351 2 70.341 2.2109 75.4422
7352 2 70.727 3.15472 76.7177
7353 1 23.805 4.47541 71.6643
7354 2 23.0115 3.98008 72.0177
7355 2 23.7738 5.42369 71.9803
7356 1 19.5008 5.29446 79.5805
7357 2 19.0075 5.65366 80.3727
7358 2 19.4298 4.29707 79.5678
7359 1 48.9902 24.3906 72.5287
7360 2 48.7301 25.2894 72.8816
7361 2 48.3162 23.711 72.8183
7362 1 70.1133 12.6878 60.6124
7363 2 69.8555 11.7737 60.2994
7364 2 71.0872 12.7002 60.839
7365 1 47.6248 25.5746 56.8691
7366 2 48.3162 25.1727 56.2688
7367 2 47.9138 26.4919 57.1431
7368 1 29.4927 13.9476 82.6576
7369 2 29.4114 12.968 82.8415
7370 2 28.5967 14.3807 82.756
7371 1 4.81251 27.3671 43.5712
7372 2 5.3662 28.1759 43.373
7373 2 3.93839 27.6501 43.9659
7374 1 53.9812 23.3891 69.2712
7375 2 53.821 22.4268 69.491
7376 2 54.2373 23.8826 70.1024
7377 1 33.7962 20.5224 54.3288
7378 2 34.1007 21.2454 53.7086
7379 2 33.6714 20.9007 55.246
7380 1 41.7882 8.2876 79.5558
7381 2 42.778 8.42998 79.5583
7382 2 41.476 8.1008 80.4873
7383 1 45.9369 6.44295 80.2514
7384 2 46.9025 6.6848 80.3474
7385 2 45.4813 6.53212 81.1371
7386 1 2.07775 6.62399 38.0481
7387 2 1.35061 7.29839 38.1764
7388 2 2.76907 6.73941 38.7614
7389 1 68.1211 3.1675 27.0504
7390 2 68.966 3.33758 26.5431
7391 2 67.8513 2.21124 26.9374
7392 1 60.8922 14.9304 39.1504
7393 2 59.9531 15.2506 39.0264
7394 2 61.5278 15.616 38.7955
7395 1 26.6002 3.27144 71.8907
7396 2 26.4594 2.8823 72.801
7397 2 26.2168 4.1945 71.8598
7398 1 63.8902 5.62851 14.8349
7399 2 63.1082 5.01695 14.7149
7400 2 63.5843 6.57812 14.7667
7401 1 12.5301 0.931405 17.386
7402 2 12.7907 0.050785 16.9903
7403 2 11.5398 1.04965 17.3129
7404 1 20.1794 9.99113 14.9729
7405 2 20.8885 10.6497 15.2247
7406 2 19.2804 10.3669 15.198
7407 1 11.894 7.63949 44.196
7408 2 11.4562 6.7531 44.3464
7409 2 11.5161 8.06247 43.3724
7410 1 23.6668 3.15558 43.0578
7411 2 22.7353 2.83483 42.8865
7412 2 24.1455 2.49549 43.6367
7413 1 1.1569 8.13447 89.8057
7414 2 1.27259 7.14239 89.8546
7415 2 1.94038 8.58303 90.2357
7416 1 10.4365 0.913253 89.2072
7417 2 9.81871 1.66896 89.4245
7418 2 10.1675 0.502883 88.3358
7419 1 1.34576 19.5943 47.68
7420 2 0.401463 19.6998 47.9917
7421 2 1.39235 19.7616 46.6952
7422 1 30.1554 16.359 68.207
7423 2 29.3842 15.9164 67.7494
7424 2 30.9252 16.4267 67.5723
7425 1 6.90983 9.69303 23.1216
7426 2 6.22897 9.95643 23.805
7427 2 7.74667 9.39659 23.5818
7428 1 59.3752 21.2345 58.017
7429 2 58.4654 21.4004 57.6366
7430 2 59.288 20.8924 58.9526
7431 1 10.5772 9.07588 35.2744
7432 2 11.3793 8.98402 34.6843
7433 2 9.84623 8.48215 34.938
7434 1 55.491 9.57882 86.9521
7435 2 55.3161 9.94537 87.8659
7436 2 56.1135 10.1889 86.4618
7437 1 49.4945 10.0268 55.3836
7438 2 49.3512 10.8002 54.7661
7439 2 49.988 10.3362 56.1964
7440 1 34.4041 7.75273 90.8586
7441 2 35.2779 7.56002 90.4121
7442 2 33.781 6.98335 90.7178
7443 1 51.271 10.6283 87.009
7444 2 50.8654 11.4683 86.6486
7445 2 51.3852 10.7113 87.9989
7446 1 48.0442 25.152 46.463
7447 2 47.1992 24.6241 46.3775
7448 2 47.8693 25.9761 47.0018
7449 1 76.4501 5.14922 63.2153
7450 2 75.703 4.81314 63.7888
7451 2 76.1014 5.35665 62.3014
7452 1 34.622 19.4646 57.7311
7453 2 33.9694 19.4352 58.4882
7454 2 35.5538 19.4435 58.0933
7455 1 29.4384 22.2937 40.3099
7456 2 29.1944 21.9492 41.2164
7457 2 29.4205 23.2935 40.3174
7458 1 73.1597 17.8209 33.0231
7459 2 72.8926 17.0068 32.5076
7460 2 73.179 17.6057 33.9995
7461 1 33.1552 17.3452 55.1543
7462 2 32.6212 18.1789 55.0134
7463 2 32.8459 16.8883 55.9883
7464 1 6.04479 24.9788 33.8056
7465 2 6.09577 25.2987 32.8595
7466 2 5.15332 24.5554 33.9667
7467 1 39.7862 28.4084 34.7261
7468 2 39.2965 28.132 35.553
7469 2 39.8041 27.6463 34.0789
7470 1 50.3554 2.05229 51.506
7471 2 50.1282 2.12731 52.477
7472 2 50.9268 2.82748 51.2366
7473 1 69.0422 14.4729 15.1295
7474 2 68.2389 14.5758 15.7161
7475 2 69.4464 13.5696 15.2732
7476 1 14.4715 13.0558 20.9035
7477 2 14.6456 12.8059 19.951
7478 2 14.9362 13.9162 21.1126
7479 1 13.2827 28.6084 90.0902
7480 2 13.4641 27.6391 89.9246
7481 2 13.9564 29.162 89.6006
7482 1 15.6887 24.3269 74.5915
7483 2 15.9377 24.5093 75.5427
7484 2 15.2073 25.1185 74.2153
7485 1 44.6655 29.1877 76.2216
7486 2 44.6079 29.9949 76.809
7487 2 45.0884 29.4386 75.3508
7488 1 29.7918 11.999 55.8133
7489 2 30.2984 11.2655 56.2665
7490 2 29.8937 12.8461 56.3349
7491 1 10.8711 17.6212 52.5819
7492 2 11.8281 17.3694 52.726
7493 2 10.5915 18.2812 53.2792
7494 1 49.4811 1.99985 46.2291
7495 2 48.5227 1.72602 46.3096
7496 2 49.9957 1.64538 47.0098
7497 1 75.5124 11.2332 19.6901
7498 2 75.6935 10.3746 20.1697
7499 2 76.1787 11.9218 19.9763
7500 1 52.9393 0.63515 75.211
7501 2 53.7079 1.25535 75.3679
7502 2 52.4969 0.42544 76.0829
7503 1 66.9689 9.34585 18.0884
7504 2 66.4586 9.18604 18.9334
7505 2 67.3165 10.2834 18.0812
7506 1 39.9156 8.034 49.4185
7507 2 39.1641 7.40903 49.6297
7508 2 40.7516 7.71229 49.8632
7509 1 53.4558 27.6686 30.7856
7510 2 53.942 28.478 31.115
7511 2 53.5579 26.9261 31.4475
7512 1 12.4489 27.4791 33.8496
7513 2 13.2198 28.0629 34.1042
7514 2 12.711 26.8983 33.0789
7515 1 59.9627 13.1349 15.9133
7516 2 60.371 13.1385 15.0004
7517 2 60.6505 12.8599 16.585
7518 1 39.5624 27.2186 78.7488
7519 2 39.7769 26.3837 78.2419
7520 2 39.3133 26.9834 79.6883
7521 1 72.1761 14.6918 48.5761
7522 2 72.9686 14.9354 49.1353
7523 2 71.4846 15.4107 48.6469
7524 1 73.7359 22.5077 30.6203
7525 2 74.2846 21.7327 30.3067
7526 2 73.3155 22.2843 31.4997
7527 1 17.5681 10.1419 57.6568
7528 2 16.8015 10.6544 58.0436
7529 2 18.2032 9.89046 58.3872
7530 1 78.9105 25.308 41.3979
7531 2 78.233 25.7426 41.9914
7532 2 79.1509 24.4106 41.7678
7533 1 39.0368 22.0671 73.1963
7534 2 38.2231 21.9428 73.7641
7535 2 39.8332 22.2143 73.7829
7536 1 21.7555 3.63896 40.4534
7537 2 22.5943 4.17416 40.5535
7538 2 21.2396 3.97243 39.6643
7539 1 47.3977 27.8645 31.2673
7540 2 48.2021 28.415 31.0438
7541 2 47.6777 26.9203 31.4405
7542 1 18.6643 27.042 27.7321
7543 2 18.8519 28.0218 27.6627
7544 2 19.3712 26.606 28.2891
7545 1 63.097 24.6817 26.2613
7546 2 63.0891 23.8575 26.8276
7547 2 64.042 24.9348 26.0542
7548 1 38.61 1.23237 89.5378
7549 2 39.2125 1.95972 89.8665
7550 2 37.6842 1.59254 89.4237
7551 1 65.7278 24.4129 40.8373
7552 2 65.1572 24.9415 40.2088
7553 2 65.2298 23.5984 41.1348
7554 1 10.936 8.82255 85.6446
7555 2 10.3723 8.03194 85.8837
7556 2 11.6022 8.55823 84.9473
7557 1 59.8157 20.8031 71.2421
7558 2 60.6352 20.4114 70.8238
7559 2 59.7326 20.4752 72.1832
7560 1 23.7052 22.4375 71.3521
7561 2 23.4814 22.9313 72.1924
7562 2 24.5819 22.7628 70.9977
7563 1 17.0526 10.1343 25.6932
7564 2 17.1471 9.22838 25.2803
7565 2 16.558 10.7363 25.0664
7566 1 30.1385 19.9019 53.5103
7567 2 30.7821 20.052 52.7599
7568 2 30.6341 19.5708 54.3133
7569 1 13.8584 6.98504 69.0256
7570 2 14.4269 6.17155 69.1483
7571 2 13.5697 7.32775 69.9196
7572 1 10.0718 21.6558 57.9176
7573 2 10.6824 22.0584 57.2356
7574 2 9.57079 20.8935 57.5079
7575 1 5.43024 12.7792 29.9327
7576 2 5.76836 12.2956 29.1253
7577 2 4.43219 12.8303 29.8969
7578 1 13.2816 11.2036 35.5045
7579 2 13.6326 11.3376 34.5778
7580 2 13.0164 10.247 35.6254
7581 1 66.3993 16.9244 53.4251
7582 2 65.6114 16.3649 53.1678
7583 2 66.1522 17.892 53.3732
7584 1 13.3818 29.0323 36.6269
7585 2 13.8834 29.0339 37.4919
7586 2 14.0204 29.1764 35.871
7587 1 5.05974 28.9284 63.977
7588 2 4.84798 28.1783 64.6035
7589 2 4.36171 29.6396 64.0606
7590 1 9.4673 25.6267 64.9403
7591 2 10.3987 25.5543 64.5835
7592 2 9.18073 24.7412 65.306
7593 1 68.2285 12.2619 22.2404
7594 2 69.0666 12.7519 22.0006
7595 2 67.7014 12.8036 22.8951
7596 1 27.2944 6.41188 86.4644
7597 2 27.9813 7.08929 86.7278
7598 2 26.7354 6.1774 87.2597
7599 1 7.32349 14.3688 21.4056
7600 2 8.11774 13.8079 21.6391
7601 2 7.33831 14.577 20.4277
7602 1 32.503 26.5816 54.2365
7603 2 31.7311 26.293 54.8029
7604 2 33.256 26.8768 54.8247
7605 1 28.9624 8.92565 48.0519
7606 2 29.134 8.52386 48.9514
7607 2 29.5146 9.75255 47.9453
7608 1 60.4563 4.43438 64.278
7609 2 60.1321 3.49294 64.3707
7610 2 60.9433 4.53524 63.4104
7611 1 58.7473 21.5933 54.7648
7612 2 58.5829 21.6181 55.7509
7613 2 59.6851 21.8845 54.5758
7614 1 4.63065 6.88709 24.3424
7615 2 5.30802 6.53883 23.6944
7616 2 5.05466 7.57682 24.9293
7617 1 8.93894 28.4732 53.9827
7618 2 8.27084 29.2001 54.1416
7619 2 8.65907 27.6496 54.4761
7620 1 19.5581 24.9287 34.1226
7621 2 20.1816 25.7098 34.0871
7622 2 20.038 24.1052 33.82
7623 1 21.0681 24.1768 21.9933
7624 2 20.8233 25.1438 22.0644
7625 2 21.4872 23.8752 22.8497
7626 1 68.968 10.3453 50.0272
7627 2 68.3573 11.0025 49.5853
7628 2 68.6474 10.1656 50.9572
7629 1 6.85631 4.84831 25.2166
7630 2 6.02771 5.31336 25.5283
7631 2 7.49423 5.52031 24.8405
7632 1 37.6972 13.0406 57.1968
7633 2 36.8486 12.5816 56.9339
7634 2 37.6915 13.9775 56.8473
7635 1 8.76597 17.8383 41.6416
7636 2 8.16076 17.5583 42.3869
7637 2 8.70958 18.8294 41.5209
7638 1 23.0851 29.9594 32.6593
7639 2 22.5818 0.787676 32.4129
7640 2 22.9673 29.7757 33.6352
7641 1 0.589942 13.0898 85.9589
7642 2 1.36481 12.4656 85.8595
7643 2 0.479327 13.3331 86.9225
7644 1 32.7174 12.279 30.3544
7645 2 32.5641 11.2927 30.4148
7646 2 33.6622 12.4858 30.6085
7647 1 30.5409 24.1737 66.6876
7648 2 30.7845 23.3228 66.222
7649 2 30.5092 24.0163 67.6746
7650 1 68.9697 6.64241 72.9101
7651 2 69.4286 6.70297 72.0238
7652 2 69.0329 5.70586 73.2549
7653 1 60.472 1.66463 44.9422
7654 2 60.0081 2.12159 45.7012
7655 2 61.4486 1.8773 44.9719
7656 1 36.816 26.0773 34.6641
7657 2 37.271 26.6854 34.0135
7658 2 36.001 26.5282 35.0279
7659 1 13.6058 10.9088 31.8759
7660 2 13.5414 10.2081 32.5864
7661 2 13.9523 10.4977 31.0327
7662 1 37.3465 4.79452 31.394
7663 2 38.0762 5.37032 31.0252
7664 2 36.8524 4.35954 30.6412
7665 1 61.2845 21.0818 66.9003
7666 2 62.0856 20.6245 67.2862
7667 2 61.4846 22.0532 66.7725
7668 1 35.766 12.1108 46.2401
7669 2 34.8093 12.3952 46.3025
7670 2 35.8577 11.1735 46.5762
7671 1 46.4651 22.197 45.8748
7672 2 46.8997 21.3833 45.4887
7673 2 45.9993 22.7025 45.1486
7674 1 71.5135 6.9616 75.1848
7675 2 72.1049 6.19257 75.4275
7676 2 70.6971 6.94949 75.7622
7677 1 52.9976 13.3675 55.0818
7678 2 53.7937 13.4406 54.4811
7679 2 52.9802 14.1466 55.7085
7680 1 59.6104 11.931 63.618
7681 2 58.9347 11.7702 64.3375
7682 2 60.3564 12.4899 63.9802
7683 1 33.3648 12.1987 48.9088
7684 2 33.4859 12.4814 47.9573
7685 2 33.7853 11.3019 49.0463
7686 1 46.5594 17.0921 79.2115
7687 2 46.5403 18.0875 79.3055
7688 2 45.9625 16.6808 79.9004
7689 1 30.3309 14.8574 65.5354
7690 2 31.1902 15.2221 65.8941
7691 2 29.5771 15.4585 65.8006
7692 1 45.8605 8.88779 46.8898
7693 2 45.3231 8.99221 46.053
7694 2 45.7165 7.97265 47.2664
7695 1 74.9886 4.7355 89.7953
7696 2 74.0735 4.45206 90.0823
7697 2 75.2944 4.15788 89.0384
7698 1 71.8116 21.3381 83.2952
7699 2 72.0984 21.183 84.2406
7700 2 72.384 22.0483 82.8855
7701 1 20.6302 24.6365 78.0542
7702 2 21.2506 23.8524 78.0707
7703 2 20.2016 24.7413 78.9516
7704 1 51.7144 20.7351 29.6733
7705 2 51.1417 20.1307 29.1195
7706 2 51.1808 21.0881 30.4418
7707 1 15.0673 24.6922 67.4082
7708 2 15.8258 24.3682 66.8429
7709 2 15.366 25.4798 67.9472
7710 1 70.6504 12.5398 47.6398
7711 2 71.4635 12.9887 48.0106
7712 2 70.0666 13.2205 47.1973
7713 1 74.4623 29.3862 51.2911
7714 2 73.6972 29.5466 51.9148
7715 2 75.1538 0.0964491 51.4224
7716 1 52.3265 6.50293 65.7642
7717 2 53.2031 6.98075 65.7071
7718 2 52.391 5.76778 66.4391
7719 1 79.6346 22.694 42.7834
7720 2 79.61 21.6946 42.8064
7721 2 0.365266 23.0233 43.3814
7722 1 2.31485 5.45373 54.4677
7723 2 1.92746 5.07502 55.3082
7724 2 2.30465 6.45249 54.5164
7725 1 53.5742 5.65244 82.6906
7726 2 54.0477 6.45773 83.0474
7727 2 52.5892 5.75717 82.8273
7728 1 50.8829 11.2901 64.187
7729 2 51.4547 11.9641 63.7193
7730 2 49.9639 11.6634 64.3138
7731 1 32.0848 17.0387 87.1725
7732 2 32.1739 17.2811 86.2064
7733 2 32.0968 16.0434 87.269
7734 1 69.2186 23.0482 82.3925
7735 2 68.9559 22.8146 83.3287
7736 2 70.1471 23.4196 82.3898
7737 1 26.3303 23.2249 70.6301
7738 2 26.5866 23.107 69.6707
7739 2 26.0483 24.1716 70.7858
7740 1 6.06735 20.6541 25.3988
7741 2 6.63862 20.228 26.1003
7742 2 6.23639 20.2125 24.5177
7743 1 50.1602 22.9992 64.3271
7744 2 49.2186 22.8477 64.0262
7745 2 50.6596 23.5 63.6202
7746 1 23.7371 8.05996 43.7525
7747 2 23.9036 7.91944 44.7285
7748 2 24.2659 8.84663 43.434
7749 1 38.3651 20.1626 41.5688
7750 2 39.1414 20.4687 42.1198
7751 2 37.7501 19.6139 42.1351
7752 1 39.093 14.262 83.7001
7753 2 39.53 13.8257 82.9136
7754 2 39.6649 15.0159 84.0235
7755 1 35.0062 20.1018 49.8542
7756 2 35.9913 19.9719 49.7421
7757 2 34.8384 20.767 50.5818
7758 1 21.3293 25.9478 52.7639
7759 2 21.8739 25.1843 52.4169
7760 2 20.8443 25.6626 53.5906
7761 1 55.659 9.7924 44.9037
7762 2 55.4131 10.7346 45.1315
7763 2 55.5207 9.20903 45.704
7764 1 62.2939 8.65846 10.4443
7765 2 62.4828 9.56056 10.8322
7766 2 61.8136 8.76403 9.57355
7767 1 52.5934 27.0485 47.3128
7768 2 52.4422 26.7682 46.3649
7769 2 51.7554 27.4539 47.6782
7770 1 39.9328 10.8366 86.2234
7771 2 39.0972 11.3748 86.1132
7772 2 39.914 10.0593 85.5944
7773 1 75.3221 18.9362 38.5885
7774 2 74.7003 18.1806 38.7944
7775 2 75.9413 18.6668 37.8509
7776 1 71.2032 26.6891 81.6672
7777 2 70.6025 27.4816 81.5624
7778 2 71.9211 26.9003 82.3306
7779 1 56.6518 22.2549 68.0027
7780 2 57.3496 22.3796 67.2973
7781 2 56.4638 23.1321 68.4443
7782 1 19.6286 28.6059 80.6326
7783 2 19.8497 28.0737 81.4499
7784 2 19.1655 28.0193 79.9681
7785 1 57.1319 8.61044 23.6834
7786 2 56.7305 8.49331 22.775
7787 2 57.1388 9.58151 23.9221
7788 1 50.9839 23.3553 46.1667
7789 2 50.9795 22.8608 45.2975
7790 2 50.5252 24.2363 46.0513
7791 1 72.4262 8.31906 10.8316
7792 2 72.5811 8.18141 9.85329
7793 2 71.8625 7.5739 11.1879
7794 1 69.4053 10.1581 13.1558
7795 2 69.0745 10.9192 12.5979
7796 2 68.6527 9.52468 13.3355
7797 1 52.9923 16.3446 28.2626
7798 2 52.9721 17.1389 28.8697
7799 2 52.2945 15.6882 28.5492
7800 1 13.1363 1.61381 14.2971
7801 2 12.164 1.4832 14.4907
7802 2 13.3583 2.58758 14.3473
7803 1 36.0917 22.5672 66.8806
7804 2 35.9358 22.145 67.7736
7805 2 36.263 21.8545 66.2003
7806 1 51.7885 14.7849 39.863
7807 2 51.9127 14.2884 40.7222
7808 2 52.5066 15.4745 39.7697
7809 1 76.3991 15.3399 51.3904
7810 2 75.8971 16.182 51.1935
7811 2 75.7581 14.5741 51.4423
7812 1 17.2249 14.7706 12.6554
7813 2 16.9012 15.0479 13.56
7814 2 17.8596 15.4585 12.3032
7815 1 73.4182 28.4729 12.259
7816 2 73.8338 27.5653 12.3195
7817 2 73.3673 28.8777 13.172
7818 1 30.4836 12.6258 87.6865
7819 2 31.4639 12.8183 87.7311
7820 2 30.0866 12.7041 88.601
7821 1 78.4846 11.0993 55.7964
7822 2 78.9844 10.2815 55.5112
7823 2 79.0459 11.6278 56.4333
7824 1 37.1638 12.6413 48.7985
7825 2 36.4423 13.3331 48.7698
7826 2 36.9277 11.8878 48.185
7827 1 44.5162 23.0468 44.0493
7828 2 45.1308 23.6697 43.5654
7829 2 44.077 22.4344 43.392
7830 1 70.2158 17.1333 77.9531
7831 2 69.3971 17.5819 78.3116
7832 2 70.9103 17.0842 78.6709
7833 1 20.4981 19.0792 87.9359
7834 2 20.7348 20.0489 87.9958
7835 2 20.9056 18.5884 88.706
7836 1 66.6968 26.8956 74.7394
7837 2 67.1204 27.5237 75.3921
7838 2 67.3786 26.6006 74.0701
7839 1 11.0681 4.35157 73.5843
7840 2 10.7731 3.97159 74.461
7841 2 10.3313 4.90526 73.1962
7842 1 31.6462 14.1141 73.2978
7843 2 32.1285 13.6631 74.0488
7844 2 31.9894 15.0477 73.1942
7845 1 13.7554 17.5448 14.0322
7846 2 13.6529 18.5021 13.7617
7847 2 14.7272 17.3245 14.1162
7848 1 20.5402 16.0871 48.6874
7849 2 21.2285 15.9713 47.9712
7850 2 20.1485 17.0053 48.6279
7851 1 61.285 22.4533 55.8406
7852 2 62.0204 23.1111 56.0036
7853 2 61.0306 22.0172 56.7038
7854 1 39.0228 8.34698 44.6652
7855 2 38.584 7.71726 45.3062
7856 2 38.3371 8.96852 44.2864
7857 1 76.2678 22.4846 16.8794
7858 2 76.9946 22.9894 17.345
7859 2 76.612 22.1311 16.0096
7860 1 54.8334 17.0465 44.2201
7861 2 54.0044 17.3702 43.764
7862 2 55.0501 16.1235 43.902
7863 1 27.7461 0.4402 79.7588
7864 2 28.5508 29.8798 79.9551
7865 2 27.0317 29.8681 79.356
7866 1 65.1106 25.3177 52.271
7867 2 65.0892 26.0006 53.0012
7868 2 65.1021 24.4014 52.6712
7869 1 0.601318 25.7405 56.3826
7870 2 79.8268 25.455 56.9471
7871 2 1.42715 25.264 56.6842
7872 1 14.6101 18.0977 10.631
7873 2 14.3357 18.0873 9.66945
7874 2 15.5846 17.8852 10.7018
7875 1 51.6806 13.5135 62.6978
7876 2 50.6821 13.5666 62.7126
7877 2 52.0587 14.4108 62.4699
7878 1 25.6331 21.3131 65.8661
7879 2 26.1703 21.6652 65.0997
7880 2 25.4519 20.3396 65.7267
7881 1 75.9582 4.84138 41.5587
7882 2 76.1172 4.6201 40.5965
7883 2 76.6907 5.43643 41.8893
7884 1 64.8805 16.2668 18.1326
7885 2 64.3641 16.2914 17.2766
7886 2 64.2592 16.4196 18.9012
7887 1 1.74864 21.8511 13.9998
7888 2 1.57682 22.2302 13.0905
7889 2 0.964696 22.0372 14.5921
7890 1 12.829 5.30907 55.4267
7891 2 12.0811 5.74076 55.931
7892 2 12.8886 4.34367 55.6806
7893 1 23.2755 11.8027 55.9033
7894 2 22.9595 10.8731 56.0929
7895 2 22.5145 12.3483 55.5521
7896 1 67.0731 27.315 26.6551
7897 2 66.5586 26.5671 26.2355
7898 2 66.5053 27.7643 27.3449
7899 1 60.9724 19.6632 89.7823
7900 2 60.0061 19.902 89.6858
7901 2 61.5354 20.4651 89.5824
7902 1 5.64611 2.88271 48.159
7903 2 4.88841 3.02337 48.7962
7904 2 5.71366 1.91147 47.9306
7905 1 69.189 28.8575 83.396
7906 2 69.8115 29.53 83.7962
7907 2 69.4261 28.7142 82.4351
7908 1 65.6537 28.2403 55.3238
7909 2 66.1368 27.3789 55.4809
7910 2 65.6398 28.4408 54.3442
7911 1 65.4316 4.44152 76.6308
7912 2 65.4548 5.06295 77.4139
7913 2 66.1084 4.73228 75.9544
7914 1 27.5165 13.6435 40.5449
7915 2 28.4331 13.2478 40.4881
7916 2 27.5457 14.5966 40.2437
7917 1 24.9189 19.5085 70.5886
7918 2 24.1964 20.1995 70.5679
7919 2 25.4195 19.5753 71.4517
7920 1 38.4952 9.55376 34.1423
7921 2 39.0863 10.3602 34.1589
7922 2 37.5466 9.83854 34.0044
7923 1 45.0247 13.7881 62.4737
7924 2 45.7203 14.1282 63.1066
7925 2 44.4232 14.5401 62.204
7926 1 16.8092 18.7741 17.6578
7927 2 16.6671 18.0873 18.3706
7928 2 15.9359 18.9837 17.2181
7929 1 51.0799 11.9204 72.0106
7930 2 50.8825 12.5764 71.2821
7931 2 50.2259 11.6459 72.4524
7932 1 37.9226 13.8064 40.7318
7933 2 38.6978 13.5992 40.135
7934 2 38.2107 14.4496 41.4412
7935 1 40.066 17.9494 43.5722
7936 2 39.5231 17.8688 44.4081
7937 2 40.4953 17.0697 43.3675
7938 1 62.7659 18.2148 74.4398
7939 2 63.1516 17.9106 75.3109
7940 2 62.058 18.9003 74.6101
7941 1 20.1846 28.0181 50.6696
7942 2 21.1659 28.0249 50.8619
7943 2 19.9338 27.1474 50.2466
7944 1 51.242 14.9884 51.0533
7945 2 50.7936 14.5592 50.2692
7946 2 52.1646 15.2742 50.7944
7947 1 26.1514 15.3844 72.4577
7948 2 27.0588 15.4514 72.8727
7949 2 26.2441 15.156 71.4886
7950 1 19.4707 13.537 50.7137
7951 2 19.9816 13.0169 50.0292
7952 2 18.5584 13.7454 50.3613
7953 1 43.551 5.60305 78.9487
7954 2 43.1073 5.14209 79.7172
7955 2 44.517 5.75024 79.161
7956 1 53.4732 20.1707 74.7328
7957 2 54.1059 19.9566 75.477
7958 2 52.6565 19.5994 74.815
7959 1 39.333 13.872 50.0741
7960 2 40.1153 13.2732 49.9026
7961 2 38.5217 13.4973 49.6253
7962 1 22.1115 23.0044 24.2424
7963 2 22.5322 22.0976 24.2684
7964 2 22.7546 23.6806 24.6018
7965 1 55.9933 19.6692 53.6144
7966 2 55.2325 20.3167 53.5709
7967 2 55.8205 18.9094 52.9877
7968 1 12.5379 23.7641 33.3101
7969 2 12.5642 24.6763 32.9012
7970 2 13.0185 23.1187 32.7163
7971 1 1.08707 9.90281 87.4333
7972 2 1.74193 10.4139 86.8766
7973 2 1.43018 9.83127 88.3699
7974 1 10.0544 21.1759 73.3836
7975 2 10.783 20.4932 73.3276
7976 2 9.19913 20.7298 73.6471
7977 1 14.6849 25.0774 89.2516
7978 2 14.1234 25.7685 88.7964
7979 2 15.4961 24.8894 88.6978
7980 1 69.1119 2.01208 82.5921
7981 2 69.6892 1.39453 82.0579
7982 2 68.8438 1.5636 83.4447
7983 1 41.3543 7.03281 54.2293
7984 2 41.9512 7.39912 53.5154
7985 2 41.899 6.50413 54.8803
7986 1 0.52342 29.5658 21.0699
7987 2 1.09831 0.117227 21.6744
7988 2 1.09012 29.1508 20.3581
7989 1 6.53718 14.0722 39.4672
7990 2 6.32355 13.4464 40.2173
7991 2 5.71321 14.5766 39.209
7992 1 5.42173 24.7004 26.3247
7993 2 6.19704 25.0193 25.7796
7994 2 5.37762 25.2204 27.1777
7995 1 44.0438 11.3897 51.7224
7996 2 43.1755 11.3263 52.2143
7997 2 44.4621 10.4831 51.6664
7998 1 34.2631 4.37853 52.6818
7999 2 35.2499 4.36164 52.8433
8000 2 34.0598 5.00056 51.9257
8001 1 39.8047 17.2768 37.9703
8002 2 39.5109 18.2299 37.8975
8003 2 39.0086 16.6942 38.1343
8004 1 31.0915 21.5949 60.6458
8005 2 31.0908 22.3475 59.9873
8006 2 31.6418 20.8401 60.2888
8007 1 43.6272 24.6235 81.959
8008 2 44.346 24.1303 82.4491
8009 2 43.156 25.2397 82.59
8010 1 34.9902 8.02966 61.7509
8011 2 34.6479 8.89049 62.1275
8012 2 34.253 7.35415 61.7399
8013 1 26.461 2.45514 69.2272
8014 2 26.1887 3.11423 68.5262
8015 2 26.6111 2.93238 70.093
8016 1 75.8128 17.0404 85.7015
8017 2 74.9871 16.7406 86.1794
8018 2 76.2276 16.2611 85.2318
8019 1 50.9606 20.5453 63.9109
8020 2 50.5903 21.4133 64.2416
8021 2 51.7913 20.3215 64.4207
8022 1 78.767 5.06077 85.4534
8023 2 77.8308 4.72171 85.5462
8024 2 79.1642 4.71441 84.6036
8025 1 68.3955 11.4233 15.7329
8026 2 69.1867 10.9503 15.3454
8027 2 67.7705 11.6851 14.9974
8028 1 55.3593 6.71904 61.9135
8029 2 55.0589 5.81059 61.6229
8030 2 54.7279 7.40837 61.5583
8031 1 58.1835 10.4647 89.6377
8032 2 57.2764 10.4336 89.2179
8033 2 58.7851 9.80993 89.1802
8034 1 24.2819 25.5477 50.1375
8035 2 23.9675 25.4306 51.0795
8036 2 23.6139 26.0904 49.6282
8037 1 44.9143 26.1821 84.6731
8038 2 45.1913 25.2602 84.4022
8039 2 45.7279 26.7414 84.8319
8040 1 13.2796 16.9548 30.4613
8041 2 13.7024 16.9831 29.5555
8042 2 12.8843 16.0494 30.6165
8043 1 50.3958 28.1746 31.1769
8044 2 49.5867 28.066 30.5994
8045 2 50.9015 27.3124 31.2078
8046 1 3.73131 1.77529 84.1091
8047 2 4.17458 1.79951 83.2131
8048 2 2.74241 1.86975 83.9945
8049 1 46.5603 0.637669 38.0296
8050 2 45.9252 1.05665 38.6785
8051 2 46.7499 29.6964 38.3092
8052 1 56.3783 16.0555 79.3491
8053 2 56.7218 15.9869 80.2858
8054 2 55.4495 16.4258 79.361
8055 1 7.12823 11.2721 27.7848
8056 2 7.25272 10.7004 28.5957
8057 2 7.41097 10.7633 26.9717
8058 1 11.6509 17.2955 47.1721
8059 2 10.6596 17.4225 47.1358
8060 2 11.8801 16.674 47.9212
8061 1 12.593 1.26905 71.4968
8062 2 13.3932 1.84079 71.6783
8063 2 12.3005 1.3963 70.5491
8064 1 62.327 22.7902 40.7514
8065 2 62.3334 23.5741 40.1306
8066 2 63.2531 22.6272 41.0919
8067 1 79.5112 23.0534 15.6936
8068 2 79.0203 23.3458 16.5143
8069 2 78.9554 22.3912 15.191
8070 1 64.2248 21.7484 64.925
8071 2 64.9879 22.0926 65.4721
8072 2 63.6499 22.5139 64.6362
8073 1 71.7743 17.0924 75.6728
8074 2 71.1151 17.2395 76.4102
8075 2 72.626 17.5708 75.8868
8076 1 69.5564 10.7544 42.9201
8077 2 68.9711 10.0522 43.3255
8078 2 69.7828 11.4399 43.612
8079 1 18.8465 6.63912 63.257
8080 2 17.8831 6.37239 63.2855
8081 2 18.9275 7.61689 63.4504
8082 1 50.4999 19.0865 34.6976
8083 2 50.7775 18.1318 34.8053
8084 2 51.2478 19.6854 34.9841
8085 1 28.095 1.20019 76.5216
8086 2 28.5777 1.83678 77.1231
8087 2 27.8336 0.38557 77.0393
8088 1 26.5217 13.6122 47.5527
8089 2 26.8155 13.3393 48.4688
8090 2 26.6648 12.8536 46.917
8091 1 3.53121 20.2245 59.617
8092 2 3.91996 20.6822 60.4166
8093 2 4.22745 20.1526 58.9028
8094 1 28.8321 19.6315 83.2131
8095 2 29.7773 19.3463 83.3722
8096 2 28.3083 18.8614 82.8491
8097 1 51.0316 4.84796 32.199
8098 2 50.7241 4.90369 33.1489
8099 2 50.2825 4.51743 31.6249
8100 1 16.9179 12.1261 38.464
8101 2 16.1547 11.7003 38.9499
8102 2 17.5085 12.5976 39.1189
8103 1 63.6404 20.736 54.2321
8104 2 64.2684 19.9957 53.9923
8105 2 63.8131 21.0282 55.1727
8106 1 46.4849 22.9319 40.4845
8107 2 46.5832 23.899 40.2499
8108 2 46.4841 22.8286 41.4792
8109 1 60.5246 23.0467 28.7778
8110 2 60.511 23.4611 29.6877
8111 2 59.7371 22.4387 28.6765
8112 1 76.0738 29.7487 76.1314
8113 2 76.5676 0.171104 76.8915
8114 2 75.3641 0.373812 75.8065
8115 1 47.0118 23.5121 48.8198
8116 2 46.9554 22.7055 48.2315
8117 2 47.4885 24.2455 48.3351
8118 1 52.8199 9.87255 66.6884
8119 2 53.2459 9.47519 65.8756
8120 2 51.8311 9.93115 66.5516
8121 1 25.8056 14.0574 78.5883
8122 2 24.8579 13.9389 78.8845
8123 2 26.3194 13.2193 78.7714
8124 1 65.2643 24.7448 90.7577
8125 2 65.943 25.2195 91.3181
8126 2 65.5321 23.7874 90.6497
8127 1 39.6193 3.00965 39.6512
8128 2 39.9536 3.52946 40.4374
8129 2 39.221 2.14816 39.9663
8130 1 4.78967 20.0223 71.503
8131 2 5.75033 20.0555 71.2273
8132 2 4.47735 20.9436 71.7347
8133 1 70.7845 28.8223 73.2175
8134 2 70.0145 29.1347 72.6611
8135 2 70.9993 29.5137 73.9073
8136 1 22.4053 5.37707 78.9295
8137 2 22.5134 6.2066 78.3816
8138 2 21.5133 5.39001 79.3815
8139 1 68.8514 9.71967 52.5477
8140 2 68.5476 10.222 53.3572
8141 2 69.8225 9.49867 52.6375
8142 1 39.3353 2.98211 47.0654
8143 2 39.0522 2.02629 47.1445
8144 2 40.1898 3.03497 46.5486
8145 1 21.6553 9.36771 72.573
8146 2 21.2216 8.56011 72.1733
8147 2 22.3328 9.08136 73.2505
8148 1 49.2852 14.8883 84.0256
8149 2 48.6881 14.2662 84.532
8150 2 48.9548 14.9762 83.0858
8151 1 33.5012 23.6065 55.2042
8152 2 32.7143 23.2011 55.6693
8153 2 34.2767 22.9768 55.2508
8154 1 52.1329 8.25946 24.646
8155 2 52.0524 8.11541 25.6322
8156 2 52.1779 7.37452 24.1824
8157 1 77.3844 29.8397 70.8995
8158 2 78.0783 29.4426 70.2989
8159 2 77.5112 29.4944 71.8294
8160 1 46.883 19.1645 45.6269
8161 2 47.5011 18.704 44.9897
8162 2 46.0812 18.5891 45.7881
8163 1 41.9828 19.4847 52.1623
8164 2 42.2521 20.3822 52.5116
8165 2 42.7663 18.8643 52.1979
8166 1 8.42465 20.3566 22.768
8167 2 9.35105 20.6253 23.0318
8168 2 8.38205 19.3627 22.6665
8169 1 56.4075 28.6148 20.5392
8170 2 56.7082 29.4941 20.9084
8171 2 55.5601 28.3358 20.9909
8172 1 31.1802 1.37065 65.669
8173 2 30.6785 2.07442 65.166
8174 2 32.1511 1.42197 65.435
8175 1 51.4871 20.0082 37.716
8176 2 51.5362 20.9951 37.5621
8177 2 50.6473 19.6488 37.3091
8178 1 43.434 3.71795 72.3214
8179 2 44.1612 3.29052 72.8585
8180 2 43.2047 3.13152 71.5445
8181 1 19.0973 3.71953 36.6533
8182 2 18.2416 4.09324 37.0111
8183 2 19.791 3.72624 37.3735
8184 1 50.4078 18.1635 56.659
8185 2 51.227 18.7109 56.4885
8186 2 49.8453 18.1389 55.8325
8187 1 77.2793 21.9817 55.8119
8188 2 77.112 21.0014 55.707
8189 2 77.3229 22.2102 56.7844
8190 1 9.04607 23.2798 66.1435
8191 2 9.09249 23.6756 67.0607
8192 2 8.82983 22.3059 66.2114
8193 1 56.5803 19.4901 62.5295
8194 2 56.6319 18.5406 62.839
8195 2 57.1464 19.6059 61.7133
8196 1 72.1915 2.15316 44.7101
8197 2 72.9009 2.84615 44.8383
8198 2 71.5809 2.15073 45.502
8199 1 75.0049 12.5926 36.2616
8200 2 75.3368 13.5309 36.1648
8201 2 74.7257 12.2438 35.3669
8202 1 60.2473 28.4116 19.8642
8203 2 59.9408 29.3236 19.5914
8204 2 59.9213 28.2131 20.7885
8205 1 25.1635 22.4909 27.5044
8206 2 24.4044 22.5733 28.1501
8207 2 24.9878 23.0693 26.7078
8208 1 70.1432 10.0165 77.3082
8209 2 69.8472 9.92649 78.2592
8210 2 69.9888 10.9547 76.9984
8211 1 46.8745 4.69164 46.1503
8212 2 45.9669 5.07658 45.9829
8213 2 47.57 5.38732 45.9704
8214 1 13.7725 12.4258 77.7044
8215 2 12.7977 12.397 77.9258
8216 2 14.1518 13.308 77.9837
8217 1 64.5831 27.0766 80.4292
8218 2 65.5596 27.2829 80.4922
8219 2 64.0563 27.918 80.549
8220 1 20.0247 19.3367 24.3732
8221 2 19.8656 19.8122 23.508
8222 2 20.0239 18.3491 24.2159
8223 1 50.6495 27.942 86.7862
8224 2 49.9763 27.2153 86.9231
8225 2 50.4786 28.6816 87.4371
8226 1 34.4982 12.5845 42.7288
8227 2 33.8486 13.3403 42.6459
8228 2 34.0059 11.7153 42.6827
8229 1 4.65892 0.286666 23.7053
8230 2 4.76598 29.3951 24.1453
8231 2 5.34663 0.919082 24.0618
8232 1 1.15469 22.2254 65.29
8233 2 0.556433 21.7223 64.6663
8234 2 0.782411 23.1408 65.443
8235 1 30.2329 9.57307 66.5041
8236 2 30.6007 9.25898 65.6288
8237 2 29.9983 10.5429 66.4383
8238 1 4.42503 16.9456 18.9754
8239 2 3.89656 16.7056 19.7897
8240 2 4.46988 17.9408 18.8884
8241 1 26.3262 16.1701 64.2031
8242 2 27.0174 16.6528 64.7409
8243 2 26.463 16.3657 63.232
8244 1 25.4842 9.04946 64.3812
8245 2 25.4273 8.52506 63.5316
8246 2 25.4319 8.4264 65.1616
8247 1 17.4317 15.6076 73.67
8248 2 17.3953 15.9356 74.614
8249 2 16.669 14.9824 73.5048
8250 1 55.2168 24.7657 35.6776
8251 2 54.3422 24.2812 35.6918
8252 2 55.0525 25.7514 35.7172
8253 1 47.7291 25.4858 52.6777
8254 2 48.1976 26.245 53.1294
8255 2 46.8638 25.303 53.1443
8256 1 66.4789 7.68162 26.4584
8257 2 66.0637 8.59045 26.4174
8258 2 65.8037 6.99439 26.1901
8259 1 79.3178 19.6629 64.4295
8260 2 78.4072 19.2524 64.3826
8261 2 0.00905856 18.9403 64.4403
8262 1 27.9149 10.535 42.3886
8263 2 27.1653 10.3874 43.0338
8264 2 28.7887 10.4467 42.8669
8265 1 54.6393 6.76239 26.0857
8266 2 54.5863 6.21103 26.9182
8267 2 53.8609 7.38918 26.0509
8268 1 44.5668 3.08125 50.001
8269 2 45.5182 3.32199 50.1931
8270 2 43.9784 3.44641 50.7224
8271 1 46.4499 7.66863 83.0339
8272 2 47.3294 7.64516 83.5093
8273 2 46.154 8.61784 82.9271
8274 1 3.41662 1.3692 64.0587
8275 2 2.70958 1.80081 64.6189
8276 2 3.81696 2.04954 63.4448
8277 1 59.562 11.7891 34.6096
8278 2 59.9096 12.1185 35.4875
8279 2 59.3259 10.8205 34.6869
8280 1 52.8657 7.26738 34.2622
8281 2 53.2743 8.00933 34.7938
8282 2 52.331 7.65176 33.5097
8283 1 28.1025 22.6268 90.627
8284 2 27.603 22.665 89.7615
8285 2 28.0932 21.6899 90.9762
8286 1 24.5005 19.6904 31.5801
8287 2 24.3015 18.7251 31.7491
8288 2 25.3571 19.9383 32.0326
8289 1 4.5196 7.47883 29.6146
8290 2 3.96467 7.20938 28.8275
8291 2 4.02163 7.27752 30.4581
8292 1 35.185 16.9213 31.1688
8293 2 34.4984 16.2149 30.9969
8294 2 35.3584 17.4298 30.3253
8295 1 6.1203 21.2372 58.3408
8296 2 6.65961 21.4792 57.5342
8297 2 6.46946 21.7327 59.1361
8298 1 36.9418 1.49979 58.6414
8299 2 37.621 2.17462 58.3528
8300 2 37.2947 0.579181 58.4743
8301 1 60.0821 4.05204 72.9574
8302 2 60.9268 3.83271 73.4456
8303 2 59.3176 4.06205 73.602
8304 1 27.6014 21.1293 43.9606
8305 2 27.8699 21.3355 44.9016
8306 2 28.3935 21.229 43.3585
8307 1 6.49421 19.9808 20.6101
8308 2 6.84445 20.9077 20.7451
8309 2 7.22355 19.3977 20.2522
8310 1 31.5049 15.0234 47.4951
8311 2 31.982 14.3753 46.9016
8312 2 31.5328 15.9346 47.0841
8313 1 16.0594 5.83976 30.7569
8314 2 15.3217 6.30756 30.2701
8315 2 16.5974 5.30104 30.1085
8316 1 14.6438 22.9578 22.8807
8317 2 15.4892 23.4674 23.041
8318 2 14.2456 23.239 22.0076
8319 1 41.6912 2.52489 49.5887
8320 2 42.4103 2.34167 48.9183
8321 2 42.0189 2.28565 50.5027
8322 1 4.81527 11.9182 49.7181
8323 2 5.69911 12.3379 49.9247
8324 2 4.4068 11.5691 50.5615
8325 1 32.9856 26.242 63.9596
8326 2 32.9682 26.5103 64.9227
8327 2 32.746 27.0283 63.3901
8328 1 66.2154 16.9876 56.8274
8329 2 67.137 17.2301 56.5244
8330 2 65.8711 16.2294 56.2737
8331 1 54.1479 5.91485 68.4065
8332 2 54.2736 4.9239 68.4534
8333 2 53.7524 6.24166 69.2649
8334 1 9.44323 27.7378 35.7716
8335 2 9.44745 28.6338 35.3276
8336 2 8.56323 27.5944 36.2244
8337 1 76.2135 3.59537 38.7513
8338 2 77.1028 3.88235 38.3953
8339 2 76.2472 2.6247 38.9894
8340 1 72.821 16.3333 36.6867
8341 2 72.9809 15.6905 37.4359
8342 2 73.6616 16.4429 36.1564
8343 1 2.27823 28.3389 60.3051
8344 2 1.68802 27.6466 60.7204
8345 2 3.01229 28.5761 60.9414
8346 1 32.642 5.39661 55.4811
8347 2 33.1206 5.29075 54.6094
8348 2 33.1431 4.9112 56.1975
8349 1 18.1966 15.2764 26.3825
8350 2 18.8711 15.9722 26.6294
8351 2 17.4406 15.7056 25.8883
8352 1 18.8584 0.00854772 73.6665
8353 2 18.4923 0.933607 73.5651
8354 2 19.0388 29.6205 72.7627
8355 1 56.5688 15.175 55.1777
8356 2 56.6866 14.1835 55.1226
8357 2 56.8775 15.4981 56.0723
8358 1 3.91033 26.4689 61.8167
8359 2 3.0628 25.9985 62.0624
8360 2 4.43865 26.658 62.6444
8361 1 10.7603 0.721538 73.3784
8362 2 10.7271 1.3857 74.1253
8363 2 11.5418 0.922754 72.7879
8364 1 16.7051 0.746842 27.0811
8365 2 16.8515 29.7945 27.3488
8366 2 16.2433 1.23427 27.8221
8367 1 33.3483 9.55493 30.1392
8368 2 34.3263 9.73544 30.2441
8369 2 33.0648 8.8601 30.8001
8370 1 9.62916 7.48887 78.0568
8371 2 9.30572 6.76963 78.6717
8372 2 10.0419 8.22513 78.5931
8373 1 43.6226 2.60975 76.0798
8374 2 43.1904 3.50146 76.2142
8375 2 44.0438 2.57664 75.1735
8376 1 69.3753 1.30092 90.8221
8377 2 69.3516 1.37307 91.8192
8378 2 70.3101 1.44891 90.4993
8379 1 20.3371 1.52164 12.0816
8380 2 20.3377 0.603176 11.6861
8381 2 20.9037 1.53013 12.9056
8382 1 50.5072 23.9175 58.4063
8383 2 49.7699 23.3537 58.7788
8384 2 50.765 23.5748 57.503
8385 1 5.18082 28.2348 18.3637
8386 2 4.1896 28.2139 18.4942
8387 2 5.40169 27.9268 17.4383
8388 1 10.0416 9.84264 38.374
8389 2 10.1943 9.68224 37.3988
8390 2 10.8465 10.2854 38.769
8391 1 6.7575 2.80028 13.0438
8392 2 6.96358 3.75201 13.2713
8393 2 6.7233 2.25698 13.8826
8394 1 36.4814 17.2918 38.1701
8395 2 36.5681 17.3158 39.1661
8396 2 36.5993 18.2145 37.803
8397 1 43.8532 25.6214 70.8836
8398 2 43.0341 26.1945 70.9093
8399 2 43.7804 24.9046 71.577
8400 1 65.0769 10.8669 73.5395
8401 2 65.963 10.9694 73.9913
8402 2 64.6277 10.0372 73.8711
8403 1 10.1721 20.0871 53.6
8404 2 10.8395 20.8317 53.6049
8405 2 9.81809 19.9506 54.5252
8406 1 53.466 24.2071 49.2501
8407 2 54.1812 23.5384 49.4537
8408 2 52.6114 23.9242 49.6856
8409 1 73.0157 17.739 57.3882
8410 2 72.5104 18.6002 57.3334
8411 2 73.7089 17.8044 58.1059
8412 1 68.0046 27.7545 69.3759
8413 2 68.289 28.0669 70.2823
8414 2 68.5706 26.9784 69.0981
8415 1 19.2841 17.351 54.5602
8416 2 18.5991 17.77 53.9643
8417 2 19.9798 18.0293 54.7968
8418 1 11.6132 22.6931 39.3766
8419 2 12.2084 23.0893 40.0756
8420 2 11.5656 21.7022 39.5019
8421 1 5.07238 29.0521 69.8832
8422 2 4.38766 29.4227 69.2557
8423 2 4.74033 29.1309 70.8232
8424 1 19.3863 12.2066 62.6958
8425 2 19.1478 11.2506 62.8667
8426 2 20.1031 12.2521 62.0001
8427 1 14.504 29.163 34.0065
8428 2 14.4756 29.2613 33.0117
8429 2 15.4513 29.2256 34.3207
8430 1 32.1656 15.283 36.3871
8431 2 32.1817 16.1972 35.9822
8432 2 32.0412 15.3588 37.3765
8433 1 13.6132 6.69737 80.5222
8434 2 12.6528 6.60699 80.7859
8435 2 13.7388 7.54455 80.0059
8436 1 69.2756 13.9428 50.572
8437 2 68.9863 13.4119 49.7755
8438 2 68.7568 13.649 51.3748
8439 1 17.5692 13.6381 32.0801
8440 2 17.7942 12.6997 32.3425
8441 2 16.7449 13.6374 31.514
8442 1 14.7002 7.9923 23.6845
8443 2 15.5664 7.87557 24.1703
8444 2 14.7337 7.49329 22.8186
8445 1 1.61677 29.1453 69.0637
8446 2 0.694697 28.991 69.4187
8447 2 1.97135 28.2945 68.6759
8448 1 66.147 1.27967 57.1205
8449 2 66.7633 1.84242 57.6714
8450 2 66.434 1.31029 56.163
8451 1 72.7829 10.9235 56.8204
8452 2 72.5426 10.7559 55.8642
8453 2 73.7288 11.2431 56.8752
8454 1 77.6884 0.664208 68.0224
8455 2 76.7292 0.924403 68.1324
8456 2 77.887 29.8717 68.599
8457 1 25.2815 29.7161 76.1186
8458 2 25.7635 29.4945 76.9662
8459 2 24.3018 29.795 76.3031
8460 1 43.6806 24.4781 74.4785
8461 2 43.1616 23.6691 74.2025
8462 2 44.5285 24.5262 73.9505
8463 1 57.3305 1.86599 81.2814
8464 2 57.3898 2.70251 81.8261
8465 2 57.0338 1.10926 81.8639
8466 1 77.1669 6.27694 65.828
8467 2 76.2165 6.05966 66.0504
8468 2 77.6095 6.68978 66.624
8469 1 69.522 18.9464 52.6856
8470 2 69.3339 18.877 53.6653
8471 2 70.4669 19.2435 52.5479
8472 1 13.4156 0.079744 24.3138
8473 2 13.5637 29.3098 24.9345
8474 2 13.5146 29.7694 23.3683
8475 1 6.2391 24.6329 10.9887
8476 2 5.43793 24.3583 11.5204
8477 2 6.77602 25.2943 11.5124
8478 1 33.3524 21.0406 68.4863
8479 2 32.8229 20.9568 69.3305
8480 2 33.8954 21.8798 68.5154
8481 1 30.9603 3.87737 62.4541
8482 2 31.8134 3.97484 61.9415
8483 2 31.1331 4.04771 63.4242
8484 1 49.9227 23.7078 29.6075
8485 2 49.8639 23.0065 30.3179
8486 2 49.0237 24.1258 29.4767
8487 1 60.9862 18.2142 13.9781
8488 2 61.8804 17.9888 13.5913
8489 2 60.3239 17.5116 13.718
8490 1 23.6178 0.606284 84.253
8491 2 22.6668 0.711011 84.5438
8492 2 23.6698 29.9266 83.5213
8493 1 69.4342 24.7737 13.9692
8494 2 70.3527 24.7067 14.359
8495 2 68.7565 24.5725 14.6764
8496 1 55.2603 19.1722 30.9001
8497 2 54.402 19.0321 30.4064
8498 2 55.0638 19.5054 31.8223
8499 1 79.5773 8.40367 60.2598
8500 2 79.538 7.87961 61.1105
8501 2 79.7465 7.78347 59.4938
8502 1 68.6069 15.5107 21.0663
8503 2 68.8767 15.516 20.1034
8504 2 69.0849 14.7725 21.5423
8505 1 35.3878 12.2277 86.9386
8506 2 36.196 12.6818 87.3137
8507 2 35.611 11.2781 86.7186
8508 1 62.0759 17.3362 66.7244
8509 2 62.2039 17.6349 67.6701
8510 2 61.9738 16.3417 66.6999
8511 1 39.1863 28.5227 67.3896
8512 2 38.5351 27.8648 67.7678
8513 2 39.8649 28.0396 66.8363
8514 1 54.7947 4.18043 60.9927
8515 2 54.8624 3.6434 61.8335
8516 2 55.6447 4.09445 60.473
8517 1 56.2222 6.89594 65.3264
8518 2 57.1513 6.94562 65.6927
8519 2 56.2102 7.26461 64.3969
8520 1 19.7261 29.2522 41.5097
8521 2 18.9297 28.6742 41.3317
8522 2 20.4444 28.7063 41.9409
8523 1 56.1188 22.0686 60.2876
8524 2 57.0346 21.6715 60.2258
8525 2 55.4616 21.3546 60.5292
8526 1 1.3209 18.5205 67.5276
8527 2 1.73739 17.9924 66.7876
8528 2 2.03425 18.8407 68.151
8529 1 42.0069 17.5622 33.9863
8530 2 41.0172 17.5453 33.8438
8531 2 42.3042 16.6856 34.3645
8532 1 72.4181 26.9297 73.0767
8533 2 71.5798 27.4315 72.8635
8534 2 72.9888 27.4785 73.6876
8535 1 25.8992 1.98423 37.6768
8536 2 25.7622 1.24401 37.0186
8537 2 26.8787 2.13269 37.8124
8538 1 2.46859 2.78586 69.8671
8539 2 3.46513 2.76489 69.7867
8540 2 2.21465 2.98501 70.8136
8541 1 20.2034 3.29981 51.7014
8542 2 20.2233 4.19147 52.1537
8543 2 19.8406 2.61407 52.3323
8544 1 64.9162 22.4902 86.9665
8545 2 65.5609 21.9802 87.536
8546 2 63.9815 22.2889 87.2592
8547 1 5.26736 13.7021 66.5387
8548 2 4.82246 13.7983 67.4291
8549 2 6.2599 13.7306 66.6572
8550 1 21.6925 27.585 43.1204
8551 2 22.5834 27.5922 42.6664
8552 2 21.5398 26.6906 43.5408
8553 1 32.2416 13.1996 54.5053
8554 2 32.0705 12.9242 53.5593
8555 2 31.656 13.9763 54.7375
8556 1 61.1159 16.0225 60.8515
8557 2 61.8987 15.4674 60.5701
8558 2 60.2699 15.5196 60.6744
8559 1 2.41091 12.6239 52.7715
8560 2 2.26248 13.4572 52.2391
8561 2 2.51862 11.8468 52.1513
8562 1 7.59634 28.3298 82.936
8563 2 8.54552 28.0306 83.0337
8564 2 7.57337 29.3144 82.763
8565 1 56.8317 15.0389 71.212
8566 2 56.3686 14.847 72.0773
8567 2 56.5265 15.9237 70.8598
8568 1 16.7234 2.22264 53.2943
8569 2 16.5285 2.08307 52.3235
8570 2 17.1204 3.13078 53.4274
8571 1 28.4235 18.3898 85.9137
8572 2 28.1524 19.2047 85.4014
8573 2 27.7842 18.2426 86.6684
8574 1 11.1998 7.0566 39.3293
8575 2 11.7454 6.57624 40.016
8576 2 10.576 6.41136 38.8882
8577 1 34.6416 14.5132 68.0916
8578 2 35.0623 14.8499 67.2493
8579 2 33.6661 14.356 67.9373
8580 1 69.5288 4.38525 23.1101
8581 2 69.6507 3.9329 23.9936
8582 2 68.5632 4.3564 22.8513
8583 1 27.5893 3.47696 43.8459
8584 2 27.3449 4.24488 44.438
8585 2 28.4508 3.67684 43.3793
8586 1 37.4213 3.50484 80.928
8587 2 37.4395 2.74307 80.2804
8588 2 37.3716 3.14814 81.8609
8589 1 78.3754 1.22496 73.6155
8590 2 77.7609 2.00183 73.7526
8591 2 77.8585 0.372744 73.6962
8592 1 25.6402 8.61238 48.4888
8593 2 25.1259 9.40264 48.1557
8594 2 25.7128 8.65782 49.4851
8595 1 34.9179 29.6715 55.0697
8596 2 34.4675 29.063 55.7231
8597 2 34.7883 29.3198 54.1426
8598 1 44.2558 22.9533 55.6306
8599 2 44.082 23.8552 55.2351
8600 2 44.8258 22.4196 55.0058
8601 1 57.7364 13.2415 41.4129
8602 2 58.4436 12.5501 41.5606
8603 2 56.8515 12.8816 41.7084
8604 1 21.4512 28.9604 30.3589
8605 2 21.3591 28.1802 29.7401
8606 2 21.4724 28.6352 31.3043
8607 1 63.4323 9.01618 26.0475
8608 2 64.3889 9.01532 26.3388
8609 2 62.8648 9.41463 26.7681
8610 1 22.8883 7.01866 72.0702
8611 2 23.4253 7.66003 71.5223
8612 2 23.2645 6.97466 72.9957
8613 1 18.6835 3.89737 59.9073
8614 2 19.4352 3.97309 59.2522
8615 2 17.8349 4.20661 59.4781
8616 1 67.8858 29.8063 87.9307
8617 2 68.0538 28.9122 88.3459
8618 2 68.4542 29.9067 87.1141
8619 1 23.3502 3.14328 66.4713
8620 2 22.4178 3.19336 66.8295
8621 2 23.5741 2.19263 66.2566
8622 1 7.80367 27.028 48.7788
8623 2 7.39011 26.8122 47.8943
8624 2 8.79244 27.1291 48.6687
8625 1 79.8523 23.8269 11.6265
8626 2 79.9396 24.7804 11.9148
8627 2 0.564056 23.6146 10.9569
8628 1 47.3393 14.9565 58.2072
8629 2 46.7983 14.5451 58.9407
8630 2 47.3939 15.9451 58.3475
8631 1 19.9936 14.2262 20.6626
8632 2 20.9668 14.0743 20.8356
8633 2 19.747 13.8324 19.7772
8634 1 28.4243 22.3538 78.8901
8635 2 27.949 21.9941 79.693
8636 2 29.2467 21.8114 78.7188
8637 1 34.2463 14.7087 86.1166
8638 2 34.7733 13.8648 86.0165
8639 2 34.4707 15.3325 85.3679
8640 1 6.48659 1.17743 56.0983
8641 2 6.72286 0.870284 57.0202
8642 2 5.90542 1.98916 56.1561
8643 1 28.053 1.68039 26.4342
8644 2 28.1247 1.3323 27.3689
8645 2 27.5367 1.03133 25.8755
8646 1 78.1636 5.65834 20.012
8647 2 77.3045 5.339 20.412
8648 2 78.3404 6.59711 20.3078
8649 1 1.71836 20.2624 18.6717
8650 2 2.29721 20.0802 17.8769
8651 2 0.84784 19.7815 18.5673
8652 1 6.46413 23.869 68.9032
8653 2 7.35637 24.2702 68.6961
8654 2 6.58763 23.0613 69.4797
8655 1 45.7075 17.3803 37.1246
8656 2 45.3646 18.2571 36.7876
8657 2 45.4835 17.2854 38.0945
8658 1 50.1945 5.09107 28.4274
8659 2 51.1743 5.031 28.2366
8660 2 49.9336 6.0507 28.5326
8661 1 73.7951 22.1705 81.047
8662 2 74.1803 22.5107 81.9048
8663 2 74.4131 21.4921 80.6499
8664 1 7.33718 27.995 79.9117
8665 2 6.60695 27.4786 80.3591
8666 2 7.81678 28.5506 80.5909
8667 1 69.276 13.1172 79.3646
8668 2 70.0829 13.6394 79.0883
8669 2 69.497 12.142 79.373
8670 1 7.74759 25.4212 83.0829
8671 2 7.5555 26.3742 83.3172
8672 2 7.23457 25.1698 82.2622
8673 1 32.662 27.3063 42.5387
8674 2 32.9487 26.5694 43.1509
8675 2 33.1591 28.143 42.7686
8676 1 66.1219 13.1907 62.3167
8677 2 66.2068 12.2405 62.0168
8678 2 66.2321 13.2379 63.3095
8679 1 65.8476 28.1508 52.2806
8680 2 64.9019 28.4675 52.2066
8681 2 66.1631 27.8315 51.387
8682 1 57.0591 16.8738 52.6917
8683 2 56.8101 16.3548 51.874
8684 2 57.1185 16.2544 53.4745
8685 1 14.9338 12.5509 33.5991
8686 2 15.8877 12.2846 33.7376
8687 2 14.5763 12.0972 32.7828
8688 1 70.9741 23.3179 71.391
8689 2 71.4436 23.5041 72.2541
8690 2 70.9037 22.3296 71.2563
8691 1 60.1672 4.47577 82.6135
8692 2 59.1765 4.35869 82.6819
8693 2 60.3952 5.44533 82.7028
8694 1 23.2681 22.4333 36.7916
8695 2 24.2069 22.7138 36.5921
8696 2 22.7829 23.1858 37.237
8697 1 6.32926 6.86112 31.7347
8698 2 5.74684 6.8575 30.9219
8699 2 5.85822 7.33275 32.4802
8700 1 11.4161 19.8822 34.9978
8701 2 11.8779 19.9557 35.8818
8702 2 11.9364 19.2727 34.3996
8703 1 19.3159 16.381 84.7235
8704 2 18.7496 16.4778 85.542
8705 2 19.0354 15.5645 84.2188
8706 1 55.748 28.2027 88.5983
8707 2 56.211 28.5227 87.7718
8708 2 54.9202 28.7436 88.7474
8709 1 14.3131 6.5867 85.4155
8710 2 15.1282 7.0434 85.0591
8711 2 13.9001 6.03096 84.694
8712 1 7.87566 22.5363 28.3043
8713 2 8.04275 23.5182 28.3934
8714 2 7.11417 22.3835 27.6744
8715 1 14.9345 16.685 80.4224
8716 2 14.8365 16.7729 81.4137
8717 2 14.5467 17.4915 79.9763
8718 1 2.99015 22.6202 85.7394
8719 2 2.97905 22.8558 84.7676
8720 2 2.2416 23.0919 86.2054
8721 1 78.9442 20.7654 58.358
8722 2 79.539 20.542 57.5858
8723 2 78.241 20.0605 58.4519
8724 1 77.16 12.5188 58.4873
8725 2 76.5085 12.1556 57.8211
8726 2 76.6968 13.1753 59.0826
8727 1 33.3838 18.0182 48.9552
8728 2 33.3325 18.162 47.967
8729 2 33.886 18.7735 49.3763
8730 1 27.767 15.552 44.7056
8731 2 28.18 14.6479 44.5953
8732 2 28.3581 16.1209 45.2774
8733 1 70.588 16.5387 19.1994
8734 2 70.8696 17.0964 19.9803
8735 2 71.1543 15.7156 19.1561
8736 1 0.811626 24.747 66.475
8737 2 0.00429584 24.8493 67.0561
8738 2 1.63366 24.9468 67.0082
8739 1 79.9706 7.39309 65.7429
8740 2 79.5143 7.73926 64.9231
8741 2 79.7195 7.95892 66.5282
8742 1 46.112 2.76705 30.305
8743 2 45.8283 1.9898 29.7434
8744 2 47.11 2.83078 30.3061
8745 1 12.908 25.1198 15.5387
8746 2 12.5703 25.3835 14.6351
8747 2 13.8575 25.417 15.6395
8748 1 42.1591 24.9357 46.6539
8749 2 41.9564 24.7509 45.6922
8750 2 41.8284 24.1776 47.2158
8751 1 17.6214 17.9295 77.5803
8752 2 16.7408 17.7394 77.1461
8753 2 18.357 17.7889 76.9176
8754 1 10.2778 23.5798 82.6015
8755 2 10.2452 24.5582 82.3973
8756 2 10.2652 23.0603 81.7471
8757 1 32.0453 21.4679 83.3064
8758 2 32.8352 22.0419 83.5223
8759 2 31.7656 20.9646 84.124
8760 1 67.2392 11.3007 67.9814
8761 2 68.0067 10.66 68.0048
8762 2 66.4353 10.8439 67.6004
8763 1 53.7431 0.298434 72.4641
8764 2 53.5009 0.331655 73.4337
8765 2 52.9965 29.8785 71.9482
8766 1 62.0237 27.9096 47.0518
8767 2 61.2453 27.3879 47.4007
8768 2 62.875 27.4646 47.33
8769 1 17.6824 26.4718 74.2637
8770 2 16.7101 26.6927 74.3404
8771 2 18.2105 27.0829 74.8533
8772 1 62.3509 2.93736 65.7023
8773 2 61.3755 2.7389 65.7985
8774 2 62.8517 2.08429 65.556
8775 1 33.1002 9.16845 37.5402
8776 2 32.8424 10.0038 38.0258
8777 2 34.0525 9.23622 37.2428
8778 1 6.76579 1.04072 58.7559
8779 2 6.17653 1.20943 59.546
8780 2 7.41897 0.316171 58.9759
8781 1 46.6522 18.0679 87.1257
8782 2 47.2304 18.8492 86.8908
8783 2 46.6114 17.9704 88.1202
8784 1 53.3091 25.2644 65.415
8785 2 53.4897 24.9704 66.3536
8786 2 54.1762 25.427 64.944
8787 1 37.6175 11.5566 36.2464
8788 2 38.1451 12.2603 36.7222
8789 2 37.4366 10.7966 36.8706
8790 1 12.7869 26.7059 25.0457
8791 2 13.6825 26.2613 25.0271
8792 2 12.096 26.051 25.3521
8793 1 6.94981 16.1243 29.523
8794 2 7.18017 16.8838 28.9146
8795 2 6.00454 15.8416 29.36
8796 1 67.8748 19.0537 41.1107
8797 2 68.2239 18.2315 41.5603
8798 2 68.5711 19.4161 40.4912
8799 1 16.008 4.95376 42.1181
8800 2 15.6483 4.22812 42.7046
8801 2 15.4199 5.75965 42.1861
8802 1 24.8423 13.0105 54.1205
8803 2 25.338 13.7668 54.5473
8804 2 24.2251 12.5967 54.7897
8805 1 47.1297 15.2985 38.4868
8806 2 47.3113 14.3589 38.7769
8807 2 46.4382 15.7041 39.0845
8808 1 75.6327 15.3442 13.5963
8809 2 76.3734 15.8465 13.1501
8810 2 75.5245 15.6735 14.5343
8811 1 34.7506 24.2582 34.7303
8812 2 34.4849 25.1924 34.9683
8813 2 35.7036 24.2495 34.4275
8814 1 6.22802 24.4274 16.9911
8815 2 5.61036 23.6733 17.2144
8816 2 7.17524 24.1254 17.0987
8817 1 79.5546 22.8048 83.0243
8818 2 0.439688 22.672 82.5784
8819 2 79.1045 21.9196 83.1421
8820 1 16.1923 6.0507 60.9151
8821 2 15.5316 6.43531 60.2705
8822 2 16.0766 6.48363 61.809
8823 1 6.89803 10.6323 60.8346
8824 2 6.71062 10.0114 61.5958
8825 2 7.45004 10.1601 60.1474
8826 1 49.3292 11.6007 66.8244
8827 2 48.5424 12.1489 67.1079
8828 2 49.9693 11.5166 67.5881
8829 1 9.80669 16.7219 28.8663
8830 2 9.0513 17.3298 28.6218
8831 2 10.3035 17.1042 29.6455
8832 1 6.86617 28.0301 20.994
8833 2 6.98795 27.2558 21.615
8834 2 7.71757 28.5519 20.9409
8835 1 1.14786 22.7202 54.741
8836 2 1.19839 23.7 54.9345
8837 2 0.267441 22.3636 55.0536
8838 1 59.6415 13.0484 54.7634
8839 2 59.6142 13.5701 55.6161
8840 2 59.652 13.6788 53.9872
8841 1 78.6176 22.8167 64.5935
8842 2 78.462 23.0102 65.5622
8843 2 77.8723 22.2496 64.243
8844 1 62.1 22.8959 17.4236
8845 2 62.6201 23.7497 17.4012
8846 2 62.7122 22.1277 17.2364
8847 1 7.85656 16.8226 80.002
8848 2 7.84292 15.9853 79.4554
8849 2 7.73276 16.5926 80.9672
8850 1 52.6642 23.6384 63.5166
8851 2 52.8059 24.0805 64.4024
8852 2 53.3139 22.8855 63.4122
8853 1 14.7468 16.5117 57.738
8854 2 15.1818 17.2429 58.2633
8855 2 14.7143 15.6785 58.2901
8856 1 19.3214 4.44197 86.1635
8857 2 19.0936 3.9791 87.0202
8858 2 19.4116 3.76529 85.4328
8859 1 47.7193 27.0275 89.5289
8860 2 48.0957 27.8309 89.9903
8861 2 47.8509 26.2204 90.1046
8862 1 55.5541 20.1327 69.5357
8863 2 56.0901 20.7312 68.9402
8864 2 55.2524 19.3316 69.0187
8865 1 74.7093 1.87578 87.5381
8866 2 73.7195 1.75376 87.4644
8867 2 74.971 2.74173 87.112
8868 1 14.4136 25.0576 55.4669
8869 2 13.7813 25.8322 55.4501
8870 2 14.0705 24.3343 54.8676
8871 1 68.1537 1.91687 79.2673
8872 2 67.7049 1.04154 79.4473
8873 2 68.27 2.41479 80.1267
8874 1 67.0226 25.5144 12.1955
8875 2 66.384 25.6848 12.9459
8876 2 67.9605 25.557 12.5399
8877 1 62.6021 6.00378 55.5234
8878 2 62.5546 5.27622 56.2078
8879 2 62.6923 6.88769 55.9823
8880 1 13.4064 26.0868 69.725
8881 2 13.9264 26.8978 69.9932
8882 2 12.4332 26.3132 69.6849
8883 1 13.7593 15.2946 63.4832
8884 2 14.5404 15.5935 64.0314
8885 2 13.2634 14.5774 63.9728
8886 1 8.35129 6.21572 64.9176
8887 2 7.69424 6.34322 65.6606
8888 2 9.03729 5.54157 65.1914
8889 1 66.4769 2.13991 48.6355
8890 2 66.3889 2.02325 49.6248
8891 2 67.3436 1.74625 48.3293
8892 1 59.3017 23.2327 62.7609
8893 2 60.0809 23.8025 63.022
8894 2 59.1811 23.2674 61.7688
8895 1 60.2148 7.59592 21.7763
8896 2 61.0812 7.733 22.2566
8897 2 59.6759 6.90129 22.2528
8898 1 40.4153 14.1918 61.5137
8899 2 40.867 14.2091 62.4057
8900 2 40.8756 14.828 60.8945
8901 1 38.2233 21.8787 30.0078
8902 2 38.4255 22.2641 30.9081
8903 2 37.7277 21.0171 30.1178
8904 1 25.7307 7.55165 62.2901
8905 2 26.0606 6.65327 62.5801
8906 2 25.6119 7.55855 61.2972
8907 1 39.2038 24.7984 85.6591
8908 2 39.3126 25.7916 85.7004
8909 2 39.4751 24.4708 84.754
8910 1 23.5491 19.7084 75.7849
8911 2 22.8665 19.679 76.5151
8912 2 23.9366 20.6285 75.7276
8913 1 68.4561 8.03691 90.916
8914 2 69.3776 7.94514 91.2935
8915 2 68.5153 8.27031 89.9454
8916 1 46.0356 11.4793 66.7321
8917 2 46.818 12.0823 66.8877
8918 2 46.1522 10.6387 67.2611
8919 1 59.9462 13.2902 90.5715
8920 2 60.5463 12.7545 89.9775
8921 2 60.4472 13.5626 91.393
8922 1 51.5088 19.7721 67.6718
8923 2 51.0143 19.6394 68.5307
8924 2 51.0955 20.5268 67.1623
8925 1 8.58561 12.581 80.9537
8926 2 8.37598 11.6283 81.1736
8927 2 9.52449 12.7878 81.2289
8928 1 34.104 25.35 57.6951
8929 2 33.9924 26.3006 57.4055
8930 2 34.0995 24.7541 56.8921
8931 1 7.84199 3.45934 68.1413
8932 2 8.4105 3.93368 67.4691
8933 2 7.79123 4.00386 68.9785
8934 1 7.32976 21.9617 81.042
8935 2 7.41118 22.955 80.9598
8936 2 6.43844 21.7315 81.4326
8937 1 7.28379 14.0918 68.8185
8938 2 6.7203 13.5129 69.4078
8939 2 6.75704 14.8939 68.5372
8940 1 17.9909 26.4322 71.3286
8941 2 18.0299 26.1053 72.2729
8942 2 17.4631 27.2807 71.2911
8943 1 78.6492 3.84184 67.4053
8944 2 78.5562 3.42154 68.3079
8945 2 79.291 4.60684 67.4584
8946 1 28.5987 6.23157 83.4818
8947 2 27.6071 6.19624 83.3574
8948 2 28.9884 5.32654 83.3115
8949 1 5.51636 12.4381 12.3295
8950 2 6.46777 12.4224 12.637
8951 2 5.28556 13.3559 12.0065
8952 1 16.3507 26.5759 52.4424
8953 2 15.3898 26.6176 52.1688
8954 2 16.4121 26.5422 53.44
8955 1 49.7069 3.64957 38.7322
8956 2 50.5377 3.68379 38.1767
8957 2 49.7929 2.92523 39.4163
8958 1 59.294 18.6018 46.373
8959 2 59.4423 17.7033 45.9598
8960 2 58.5549 18.5423 47.044
8961 1 39.6518 9.99781 39.181
8962 2 40.3286 9.34518 38.8403
8963 2 39.6842 10.8306 38.6284
8964 1 2.77023 7.57374 76.9253
8965 2 2.66152 6.60825 76.6886
8966 2 2.60788 7.69728 77.9043
8967 1 73.4607 0.101692 57.6357
8968 2 74.2777 29.5997 57.9194
8969 2 73.6009 1.08003 57.7879
8970 1 38.3344 13.829 65.4099
8971 2 38.7263 14.0272 66.3083
8972 2 38.008 14.6778 64.994
8973 1 53.5629 20.1974 44.1573
8974 2 53.7401 19.5365 43.428
8975 2 52.9006 20.8756 43.8389
8976 1 44.689 29.7202 89.5925
8977 2 45.1998 0.212647 88.8878
8978 2 44.4759 0.342417 90.3458
8979 1 75.3891 15.7768 77.2483
8980 2 75.2775 15.5825 78.2229
8981 2 74.8293 16.5674 76.9999
8982 1 36.8419 4.81804 78.4484
8983 2 36.7972 3.82559 78.5626
8984 2 37.073 5.24411 79.3231
8985 1 50.427 22.4311 73.2172
8986 2 50.1024 23.3429 72.9659
8987 2 50.7274 22.4354 74.171
8988 1 52.819 11.0541 28.0529
8989 2 52.3471 10.4154 28.6607
8990 2 52.1792 11.7605 27.7502
8991 1 19.9899 8.76034 18.6534
8992 2 19.8317 9.73397 18.8178
8993 2 19.126 8.31844 18.4116
8994 1 13.325 6.06889 33.9516
8995 2 13.2927 7.06674 33.8946
8996 2 13.7951 5.79801 34.7916
8997 1 25.7709 23.988 36.1186
8998 2 25.8674 24.3518 37.045
8999 2 26.5181 23.3504 35.9313
9000 1 3.09674 25.8826 19.0968
9001 2 2.44923 25.1327 19.232
9002 2 2.62622 26.756 19.2227
9003 1 29.0296 18.6319 56.5681
9004 2 28.4099 17.9289 56.2192
9005 2 29.0878 18.5606 57.5638
9006 1 60.2647 11.3212 26.9121
9007 2 59.4645 11.9111 27.02
9008 2 61.0968 11.8647 27.0232
9009 1 69.2054 23.0787 58.4462
9010 2 68.4771 22.6117 58.9477
9011 2 69.6667 23.7254 59.0537
9012 1 52.1989 19.1397 53.277
9013 2 52.9025 19.231 53.9817
9014 2 52.1943 19.9581 52.7024
9015 1 60.1184 23.2948 42.8964
9016 2 59.1413 23.0906 42.9561
9017 2 60.6021 22.5035 42.5223
9018 1 57.1755 12.4699 79.0782
9019 2 57.4156 12.972 79.909
9020 2 57.8449 11.7435 78.9225
9021 1 71.0864 8.65573 88.5386
9022 2 70.4254 8.88255 87.8234
9023 2 71.9336 9.16359 88.3827
9024 1 23.2262 23.2886 59.3494
9025 2 23.5848 23.198 60.2785
9026 2 23.7121 22.6603 58.7418
9027 1 17.8327 16.2147 67.0628
9028 2 18.529 16.6847 66.5202
9029 2 16.9268 16.4203 66.6926
9030 1 42.3743 16.2996 36.8689
9031 2 42.4535 15.3511 36.5623
9032 2 41.8844 16.3284 37.7402
9033 1 13.7194 6.4451 62.2975
9034 2 14.3987 6.15548 62.9718
9035 2 13.4303 7.3815 62.4966
9036 1 33.8984 28.3561 76.3169
9037 2 33.1475 28.975 76.5477
9038 2 34.624 28.4434 76.9994
9039 1 30.7317 17.382 40.0945
9040 2 30.2022 17.0139 39.3302
9041 2 31.708 17.2795 39.9035
9042 1 12.9873 3.63415 69.5296
9043 2 13.6 4.40233 69.3437
9044 2 13.1712 2.89637 68.8801
9045 1 3.3694 16.1662 57.5977
9046 2 4.10729 16.1588 58.2726
9047 2 3.26953 15.2528 57.203
9048 1 69.6299 24.6032 18.4059
9049 2 69.6351 23.6462 18.696
9050 2 70.1509 25.1524 19.0594
9051 1 32.3124 16.608 42.8023
9052 2 32.3994 17.0457 43.6972
9053 2 31.7706 15.7722 42.8913
9054 1 12.4294 20.6535 90.5613
9055 2 11.5622 20.2591 90.2574
9056 2 13.1083 19.9266 90.6644
9057 1 31.3516 13.925 63.0499
9058 2 31.0964 14.3145 63.9348
9059 2 32.1299 14.4293 62.6758
9060 1 14.1643 8.37765 41.9904
9061 2 13.882 7.53738 42.4533
9062 2 14.649 8.14674 41.1467
9063 1 23.6183 25.0751 39.4026
9064 2 23.6591 25.0253 38.4047
9065 2 23.6472 26.0325 39.69
9066 1 20.1096 8.37194 32.6905
9067 2 20.8721 8.62481 33.2861
9068 2 19.9914 7.37904 32.7038
9069 1 6.94175 20.2863 47.3302
9070 2 7.6149 19.5531 47.4271
9071 2 6.76531 20.6971 48.2247
9072 1 9.70611 1.47301 39.928
9073 2 10.0888 0.949031 39.1671
9074 2 9.46205 0.850745 40.6718
9075 1 14.1304 26.2001 41.6428
9076 2 15.0453 26.3635 42.0118
9077 2 14.2059 25.7963 40.7311
9078 1 78.4117 19.263 90.1749
9079 2 79.2717 19.1244 90.666
9080 2 78.0903 20.1983 90.3229
9081 1 31.51 27.6725 36.67
9082 2 31.6851 27.6601 37.6545
9083 2 32.371 27.5481 36.1768
9084 1 9.96642 8.84386 89.6812
9085 2 10.0673 8.12635 88.992
9086 2 9.14677 9.38194 89.4846
9087 1 13.9717 3.89023 20.5053
9088 2 13.9187 4.0657 19.5223
9089 2 14.4973 4.61791 20.9459
9090 1 1.47887 22.2378 74.822
9091 2 1.62687 21.5035 74.1596
9092 2 1.23001 21.8435 75.7067
9093 1 48.0365 4.31364 32.59
9094 2 47.1818 4.60338 33.0208
9095 2 48.4056 3.52375 33.0797
9096 1 14.7954 11.7985 83.8288
9097 2 14.0699 11.9729 83.163
9098 2 14.389 11.6107 84.723
9099 1 50.8922 19.363 70.3541
9100 2 51.731 19.3466 70.8982
9101 2 50.4012 18.4999 70.4723
9102 1 35.2728 1.0203 88.1284
9103 2 35.3815 1.9933 87.9248
9104 2 36.1704 0.579766 88.1394
9105 1 79.109 25.2619 53.44
9106 2 78.9405 24.4018 52.9585
9107 2 78.8114 25.1755 54.3908
9108 1 58.4684 1.4894 90.9653
9109 2 59.2768 2.06744 91.0768
9110 2 58.1706 1.15671 91.8601
9111 1 60.107 4.44708 15.4392
9112 2 60.424 4.21274 14.5202
9113 2 60.0079 5.43929 15.5147
9114 1 0.457252 5.64709 49.237
9115 2 0.461795 4.71357 48.8785
9116 2 0.806094 5.64591 50.1742
9117 1 30.1369 25.0133 72.2826
9118 2 30.5031 25.9431 72.2464
9119 2 29.5621 24.9128 73.0946
9120 1 65.2209 7.63964 47.2734
9121 2 65.6173 6.84263 47.7291
9122 2 64.3778 7.37191 46.807
9123 1 6.87916 4.83293 16.6132
9124 2 7.44951 5.44443 16.0648
9125 2 7.06212 4.98792 17.5841
9126 1 67.9367 7.58933 63.4744
9127 2 67.5318 7.17107 62.6613
9128 2 68.6294 8.25506 63.1968
9129 1 67.7434 20.0897 37.6515
9130 2 68.4977 20.0325 38.3056
9131 2 67.9535 20.7809 36.9601
9132 1 46.8256 14.8516 64.4306
9133 2 47.5361 14.3441 63.943
9134 2 47.1406 15.0596 65.3566
9135 1 12.01 25.8532 31.6146
9136 2 12.4854 26.5507 31.0784
9137 2 11.3748 25.3547 31.0247
9138 1 6.6897 25.0051 58.8362
9139 2 6.80336 24.2522 59.4846
9140 2 6.89254 24.6823 57.9118
9141 1 70.9254 28.794 49.4955
9142 2 71.1252 29.7597 49.3298
9143 2 70.6158 28.6748 50.4389
9144 1 41.3433 10.4487 66.4427
9145 2 42.2973 10.1772 66.3161
9146 2 41.3055 11.2989 66.9677
9147 1 40.914 27.8283 75.9578
9148 2 41.7529 27.515 76.4028
9149 2 40.2254 27.1042 75.9972
9150 1 2.56706 7.65113 65.0028
9151 2 1.63223 7.39953 65.2534
9152 2 2.63375 7.73823 64.0088
9153 1 39.5803 23.3382 45.6543
9154 2 40.4246 23.2685 45.1229
9155 2 39.5605 22.6152 46.3448
9156 1 75.1235 13.6632 55.7249
9157 2 74.1966 13.5962 55.3557
9158 2 75.4181 12.765 56.0512
9159 1 46.8377 17.6761 64.9573
9160 2 47.288 17.1028 65.6418
9161 2 46.9646 17.2743 64.0504
9162 1 20.2407 4.15957 62.8187
9163 2 20.7307 3.43338 62.3364
9164 2 20.612 5.04809 62.5492
9165 1 4.14334 15.43 80.3465
9166 2 4.51087 15.9236 79.5583
9167 2 3.24033 15.7933 80.5759
9168 1 37.9299 0.618081 63.6004
9169 2 38.8492 1.00603 63.6676
9170 2 37.4039 1.12374 62.9166
9171 1 51.1315 27.4342 40.5827
9172 2 51.1768 28.4271 40.4727
9173 2 50.7024 27.2152 41.459
9174 1 36.9981 20.7521 85.2884
9175 2 36.1367 20.6361 85.783
9176 2 37.6638 21.2064 85.8804
9177 1 77.2232 0.3287 54.8711
9178 2 77.7395 0.116595 54.0414
9179 2 76.518 1.00583 54.6609
9180 1 57.2511 14.2786 51.4098
9181 2 57.1459 13.5934 50.689
9182 2 57.2427 13.8275 52.3022
9183 1 66.9179 28.7334 66.779
9184 2 67.5364 28.3164 66.113
9185 2 66.7003 28.0685 67.4936
9186 1 43.2092 2.08268 90.6343
9187 2 42.9964 1.91329 91.5966
9188 2 43.6951 2.95246 90.5485
9189 1 26.4427 29.5509 68.0364
9190 2 25.6121 0.105823 68.0832
9191 2 26.524 29.0018 68.8682
9192 1 58.8556 8.91513 34.5981
9193 2 58.2535 8.62086 33.8558
9194 2 58.4273 8.70657 35.4773
9195 1 68.7347 22.2653 50.1503
9196 2 68.4975 22.883 50.9001
9197 2 67.9975 22.2627 49.4747
9198 1 60.1265 7.68485 77.2257
9199 2 59.8402 7.13926 78.0133
9200 2 61.1165 7.60652 77.1082
9201 1 75.4485 26.5593 66.7459
9202 2 75.1405 27.2533 66.0952
9203 2 76.4079 26.7213 66.9767
9204 1 70.7367 7.24749 15.22
9205 2 69.9634 7.23325 15.8539
9206 2 71.055 6.31285 15.0614
9207 1 71.1545 3.33906 87.1688
9208 2 71.2511 2.39432 87.4821
9209 2 70.1843 3.55808 87.0647
9210 1 35.1941 28.5828 91.0028
9211 2 35.9253 28.1775 90.454
9212 2 34.5996 29.1302 90.4138
9213 1 19.9699 1.79769 76.1549
9214 2 19.2358 1.14101 76.3276
9215 2 20.0965 2.37572 76.961
9216 1 14.4071 5.5461 74.2237
9217 2 13.6502 5.60507 73.5728
9218 2 14.0559 5.65339 75.1539
9219 1 15.4016 25.5141 11.7407
9220 2 15.9579 26.0455 11.1019
9221 2 15.9313 25.3267 12.5679
9222 1 17.0817 8.39905 31.8697
9223 2 18.0744 8.27957 31.8583
9224 2 16.8073 8.98236 31.1052
9225 1 54.5508 15.0431 26.3488
9226 2 54.2536 15.9401 26.0215
9227 2 53.8866 14.6921 27.0088
9228 1 67.5485 19.2079 18.883
9229 2 67.1631 19.0085 19.7839
9230 2 68.4289 18.7435 18.7869
9231 1 47.5929 26.9853 83.3004
9232 2 47.8579 26.1848 83.8379
9233 2 47.9002 26.8693 82.3559
9234 1 65.8605 21.8839 44.198
9235 2 65.0014 21.5681 44.6008
9236 2 65.9962 22.85 44.4174
9237 1 68.8194 5.67397 69.6528
9238 2 68.9968 6.65712 69.6971
9239 2 69.3168 5.21214 70.3872
9240 1 10.4787 23.1054 23.3974
9241 2 10.5646 23.7626 24.1461
9242 2 11.1186 22.3506 23.5413
9243 1 35.5926 22.2905 31.7006
9244 2 34.9584 22.6663 31.0249
9245 2 36.3755 21.8817 31.2317
9246 1 7.61777 25.5187 43.579
9247 2 7.44832 26.1295 44.3524
9248 2 7.75621 24.5868 43.9142
9249 1 54.2918 12.651 34.6688
9250 2 54.432 11.6742 34.507
9251 2 54.7299 12.9126 35.5289
9252 1 71.7342 1.47058 51.5554
9253 2 71.949 1.1114 52.4636
9254 2 72.4812 2.05809 51.2441
9255 1 64.156 22.2516 14.4925
9256 2 65.0854 22.6019 14.6082
9257 2 63.5212 23.0177 14.3918
9258 1 67.0623 24.5097 44.1326
9259 2 67.2754 25.3243 43.5931
9260 2 66.6198 24.7821 44.987
9261 1 40.2727 1.97749 52.7674
9262 2 40.0758 2.49994 53.597
9263 2 41.2112 2.15939 52.4739
9264 1 58.6152 12.8117 21.3495
9265 2 57.7158 12.3917 21.4711
9266 2 58.5049 13.7345 20.9805
9267 1 72.5545 17.3889 26.7152
9268 2 72.4392 18.2305 26.1876
9269 2 72.6825 17.6157 27.6807
9270 1 30.264 22.0239 81.2636
9271 2 30.2869 22.9471 81.6472
9272 2 30.8305 21.4171 81.8212
9273 1 30.165 16.4906 33.6791
9274 2 29.7244 17.2548 33.2081
9275 2 30.8293 16.8436 34.3381
9276 1 53.2903 29.6134 47.0819
9277 2 52.9977 28.6638 47.1944
9278 2 52.7149 0.0606532 46.3971
9279 1 13.9921 24.7258 80.9367
9280 2 14.0006 25.6901 80.6719
9281 2 13.4369 24.2066 80.287
9282 1 59.9915 6.74086 56.9981
9283 2 59.1023 6.93393 56.5832
9284 2 60.3796 7.58696 57.3634
9285 1 4.07742 2.76608 54.2515
9286 2 3.37149 3.44967 54.4369
9287 2 3.82043 1.89795 54.6761
9288 1 16.3255 14.7049 40.3371
9289 2 16.5556 15.672 40.4451
9290 2 16.4865 14.2256 41.1998
9291 1 23.1287 5.25642 53.6582
9292 2 23.4691 6.0811 53.2065
9293 2 23.9017 4.69118 53.9465
9294 1 74.2263 8.13406 41.6344
9295 2 73.605 8.3585 40.8837
9296 2 75.1257 7.90128 41.2645
9297 1 8.50391 27.3627 77.5346
9298 2 9.18043 27.9875 77.9245
9299 2 7.58418 27.6883 77.754
9300 1 42.1629 23.0881 58.3486
9301 2 41.8376 23.9091 58.8177
9302 2 43.1304 22.9461 58.5575
9303 1 70.699 17.2745 68.4898
9304 2 70.5405 18.1028 67.9524
9305 2 70.5715 17.4775 69.4606
9306 1 36.1948 7.44817 30.4404
9307 2 36.9839 6.98494 30.0371
9308 2 36.4262 8.40395 30.6219
9309 1 19.8316 20.0408 31.2513
9310 2 19.9203 19.1921 30.73
9311 2 20.6235 20.1468 31.8528
9312 1 31.5682 10.7939 57.9773
9313 2 30.8707 11.4834 58.1727
9314 2 31.3126 9.9293 58.4098
9315 1 20.345 16.8636 39.292
9316 2 20.9721 17.3077 38.6521
9317 2 20.1715 17.4729 40.0657
9318 1 66.3957 1.11734 85.0515
9319 2 66.526 1.814 85.757
9320 2 67.146 0.457457 85.0921
9321 1 55.3196 9.98749 26.2049
9322 2 54.4411 9.51287 26.2601
9323 2 55.2077 10.8367 25.6888
9324 1 19.7398 22.2386 76.0158
9325 2 18.9163 21.9029 75.5584
9326 2 19.4898 22.9504 76.6722
9327 1 61.6501 16.5969 70.9935
9328 2 62.2742 16.1856 71.6578
9329 2 60.8692 16.997 71.4732
9330 1 33.2092 2.82861 59.4978
9331 2 33.6617 3.48782 58.8972
9332 2 32.8109 2.09493 58.9473
9333 1 73.7028 29.6093 48.2783
9334 2 72.954 0.23543 48.0606
9335 2 74.182 29.9337 49.0938
9336 1 70.3737 4.67395 51.4109
9337 2 71.0118 5.36935 51.7416
9338 2 69.6777 4.50182 52.108
9339 1 60.4526 2.81649 24.7184
9340 2 60.3185 2.00621 24.1479
9341 2 61.06 2.59097 25.4802
9342 1 7.57783 6.35515 67.7078
9343 2 7.26266 5.50913 68.1378
9344 2 6.90017 7.07587 67.8539
9345 1 63.7713 9.19635 17.1257
9346 2 64.6795 9.25309 17.5404
9347 2 63.8604 9.17334 16.1299
9348 1 54.6152 23.2131 38.4955
9349 2 53.9088 23.2614 39.2017
9350 2 54.2595 22.7202 37.7015
9351 1 7.20929 14.5813 78.4973
9352 2 7.36074 13.7861 79.0845
9353 2 6.24041 14.8283 78.514
9354 1 22.8877 8.37981 22.0441
9355 2 23.197 7.46128 21.7979
9356 2 21.8952 8.4374 21.9361
9357 1 11.3106 18.8974 40.8239
9358 2 10.3321 18.7953 40.6445
9359 2 11.7532 18.002 40.7773
9360 1 73.4991 5.01314 33.8018
9361 2 72.5923 5.32031 33.5131
9362 2 73.9863 5.77218 34.2337
9363 1 15.9479 9.19703 34.071
9364 2 16.2885 8.93484 33.168
9365 2 15.6677 8.37832 34.5722
9366 1 17.4096 17.941 28.2158
9367 2 17.0453 17.4976 27.3968
9368 2 17.3558 18.9338 28.1093
9369 1 8.05918 1.78687 74.4297
9370 2 8.89685 1.62598 74.9517
9371 2 7.92688 2.77041 74.3066
9372 1 69.2553 0.886276 85.5675
9373 2 70.1984 0.56042 85.5012
9374 2 69.2545 1.8671 85.7624
9375 1 18.901 15.6765 36.7625
9376 2 18.7948 15.0428 35.9962
9377 2 19.6569 15.3739 37.343
9378 1 39.0061 1.74672 49.9407
9379 2 39.9039 1.82543 49.5075
9380 2 39.0849 1.96589 50.9132
9381 1 28.6609 17.4242 52.2992
9382 2 28.1257 17.0632 53.0629
9383 2 28.9598 16.6694 51.7154
9384 1 79.5421 17.143 28.9664
9385 2 79.2476 16.476 29.6508
9386 2 0.456225 16.9034 28.6393
9387 1 71.9007 25.1072 56.5567
9388 2 72.1557 25.8077 55.8902
9389 2 72.4359 25.2316 57.3922
9390 1 58.6295 10.8644 24.3789
9391 2 59.2515 10.8768 25.1619
9392 2 58.4785 11.7995 24.0583
9393 1 54.1956 13.4194 50.4143
9394 2 54.0961 14.3491 50.0596
9395 2 55.1516 13.1353 50.3414
9396 1 2.50415 24.8758 27.6251
9397 2 2.87779 25.637 27.095
9398 2 1.89861 25.231 28.3372
9399 1 74.7153 1.12141 12.281
9400 2 74.4653 0.21511 11.9402
9401 2 73.9673 1.76147 12.1056
9402 1 40.5964 7.91346 33.3264
9403 2 41.129 7.2695 33.8756
9404 2 40.094 8.53131 33.9312
9405 1 48.7323 8.29518 87.6853
9406 2 48.0591 9.01463 87.8563
9407 2 48.3011 7.40057 87.8026
9408 1 26.7647 6.37396 71.0882
9409 2 26.2259 6.60204 71.8992
9410 2 26.5978 7.05457 70.3748
9411 1 28.7976 14.1925 73.7111
9412 2 29.7513 14.0152 73.4682
9413 2 28.5335 13.6044 74.4755
9414 1 71.6977 3.17131 37.5407
9415 2 72.5214 3.64347 37.2266
9416 2 71.6943 2.23597 37.1869
9417 1 22.5965 13.0581 49.673
9418 2 22.7741 13.2427 48.7063
9419 2 22.3075 12.1071 49.7831
9420 1 57.9748 26.6008 19.5334
9421 2 57.4105 27.3828 19.7979
9422 2 58.6917 26.9042 18.9057
9423 1 72.0771 12.9538 18.1727
9424 2 72.3611 12.9942 19.1307
9425 2 71.0843 12.844 18.1238
9426 1 72.7647 26.6557 17.1852
9427 2 73.4551 26.1384 17.691
9428 2 72.6813 27.5719 17.5771
9429 1 48.9914 20.8394 86.8055
9430 2 49.7042 20.2751 87.222
9431 2 49.1566 21.8009 87.0251
9432 1 10.2143 11.9664 27.8187
9433 2 9.73947 11.3274 27.2136
9434 2 9.67056 12.109 28.6458
9435 1 14.6589 21.9214 87.3711
9436 2 14.1179 22.3738 86.6621
9437 2 15.6274 21.957 87.1249
9438 1 21.0174 17.1017 31.2565
9439 2 21.9515 17.4361 31.1317
9440 2 21.0032 16.4164 31.9846
9441 1 73.9736 13.4958 51.4909
9442 2 73.1506 13.0168 51.1855
9443 2 74.4035 12.9803 52.2321
9444 1 72.8238 26.8415 54.6123
9445 2 73.6532 27.3449 54.8546
9446 2 72.959 26.378 53.7366
9447 1 4.24928 11.6664 59.0063
9448 2 4.71921 11.324 58.1927
9449 2 3.39079 11.1686 59.1296
9450 1 35.3547 6.61122 39.3349
9451 2 34.6064 7.26449 39.4498
9452 2 35.9634 6.65892 40.1269
9453 1 60.2726 20.2589 28.2102
9454 2 60.9069 19.4945 28.325
9455 2 60.1619 20.4568 27.2362
9456 1 62.7624 26.184 14.8166
9457 2 62.8316 25.559 15.5943
9458 2 61.7992 26.3741 14.6266
9459 1 21.5484 21.2173 18.8409
9460 2 22.415 21.1349 19.3331
9461 2 20.8037 21.3442 19.4962
9462 1 0.557849 14.2972 30.8575
9463 2 1.15599 14.0897 30.0834
9464 2 1.10152 14.3448 31.6954
9465 1 62.5374 10.9424 35.0114
9466 2 62.8883 11.8775 35.0619
9467 2 62.0158 10.7369 35.8394
9468 1 42.6964 21.9077 34.1587
9469 2 43.4541 21.6302 34.7494
9470 2 42.996 22.6491 33.5584
9471 1 75.5858 20.2286 29.991
9472 2 75.7182 20.7128 30.8559
9473 2 75.4084 20.8902 29.2624
9474 1 59.2283 17.6574 81.1809
9475 2 58.3069 17.3142 81.3632
9476 2 59.6831 17.8673 82.0464
9477 1 54.2391 7.67427 79.78
9478 2 53.8889 6.92277 80.3392
9479 2 53.4852 8.28024 79.5262
9480 1 35.6659 24.8645 43.2901
9481 2 35.7079 23.8737 43.4188
9482 2 35.1584 25.0707 42.4535
9483 1 41.5098 11.4631 43.7254
9484 2 41.6839 10.5224 44.0167
9485 2 40.5334 11.6625 43.8087
9486 1 57.0561 8.10351 84.3097
9487 2 57.1862 9.09499 84.316
9488 2 57.871 7.6628 83.9333
9489 1 66.3209 22.7022 53.8251
9490 2 67.2504 22.4996 54.1333
9491 2 65.6886 22.6179 54.5951
9492 1 13.982 14.4231 66.2727
9493 2 13.0237 14.7039 66.2192
9494 2 14.5584 15.1228 65.8505
9495 1 50.1381 9.54275 26.3592
9496 2 50.6325 8.74306 26.6999
9497 2 50.3227 9.65794 25.3832
9498 1 60.9637 19.4744 55.7116
9499 2 59.9756 19.5297 55.8554
9500 2 61.4202 20.174 56.2613
9501 1 29.3882 27.3008 70.7394
9502 2 29.986 26.4992 70.7427
9503 2 28.706 27.2049 70.0146
9504 1 8.64017 25.7486 19.4582
9505 2 8.89833 25.4183 18.5504
9506 2 9.13439 26.5947 19.6581
9507 1 23.5683 27.8933 23.9073
9508 2 24.1974 27.6028 24.6283
9509 2 23.8757 28.7663 23.5286
9510 1 78.9339 12.0179 39.8384
9511 2 79.8731 11.6756 39.8643
9512 2 78.9424 13.0173 39.8726
9513 1 74.6201 9.9462 50.483
9514 2 74.6786 8.95167 50.5695
9515 2 74.4794 10.1895 49.5233
9516 1 78.3151 28.434 46.9045
9517 2 77.9851 29.3513 47.1277
9518 2 77.6654 27.7542 47.2445
9519 1 39.0036 27.7947 32.1238
9520 2 38.3276 27.4465 31.4743
9521 2 39.9023 27.8236 31.686
9522 1 59.274 17.7837 64.3712
9523 2 59.4436 17.1299 65.1087
9524 2 58.2883 17.9001 64.2492
9525 1 72.5379 28.0482 60.4835
9526 2 73.3364 27.6439 60.9296
9527 2 72.2574 28.8686 60.9818
9528 1 76.8015 7.66749 40.8684
9529 2 77.7299 7.40607 41.1326
9530 2 76.8403 8.29282 40.0891
9531 1 35.1643 13.2828 40.3742
9532 2 36.0738 13.6897 40.2893
9533 2 35.0598 12.8877 41.2869
9534 1 1.44314 17.0285 59.7261
9535 2 2.21795 16.9499 60.3534
9536 2 0.919058 16.1769 59.7353
9537 1 8.92458 11.501 41.7563
9538 2 9.17596 10.916 42.5274
9539 2 7.99961 11.8551 41.8942
9540 1 21.3478 15.8323 45.5985
9541 2 21.1171 14.9001 45.3198
9542 2 22.2484 16.0749 45.2379
9543 1 4.51342 24.0795 44.3506
9544 2 3.78277 23.4174 44.1841
9545 2 4.158 25.0061 44.2274
9546 1 63.8684 17.2932 33.9024
9547 2 64.7703 17.0399 34.2523
9548 2 63.2767 17.5554 34.6647
9549 1 57.7988 22.6182 71.9289
9550 2 57.1709 22.2081 72.5903
9551 2 58.4369 21.9223 71.5993
9552 1 34.3374 21.7771 41.5087
9553 2 33.5915 21.7622 42.1746
9554 2 35.1319 22.2343 41.9083
9555 1 56.532 21.7114 35.6208
9556 2 56.614 21.22 36.4879
9557 2 55.6577 21.4855 35.1911
9558 1 48.8879 14.2989 27.7969
9559 2 48.2193 14.6321 28.4617
9560 2 49.7261 14.0317 28.2724
9561 1 50.5392 28.004 76.9455
9562 2 51.1332 27.7814 77.7186
9563 2 51.0845 28.0494 76.1085
9564 1 7.07607 6.50076 28.3857
9565 2 6.2426 6.18635 28.8401
9566 2 6.84684 7.2188 27.7285
9567 1 22.293 23.8935 80.5888
9568 2 22.1285 23.2034 79.8841
9569 2 21.4193 24.2696 80.8974
9570 1 68.0716 8.58976 88.3681
9571 2 67.5634 7.79602 88.0338
9572 2 68.5325 9.03728 87.6017
9573 1 57.9354 17.1229 38.8678
9574 2 58.068 18.06 38.5451
9575 2 57.7813 17.1293 39.8559
9576 1 75.6104 28.9054 30.3727
9577 2 76.196 29.6169 29.9843
9578 2 75.2679 29.205 31.2632
9579 1 70.1193 21.4028 14.7881
9580 2 69.9554 20.4298 14.6256
9581 2 70.5474 21.8082 13.9804
9582 1 57.8431 9.03864 56.5207
9583 2 58.5041 9.59342 57.026
9584 2 57.0601 9.605 56.2635
9585 1 72.6235 25.8397 85.6955
9586 2 72.2427 26.5799 85.1413
9587 2 73.4303 25.4634 85.2399
9588 1 74.5355 25.7597 32.2148
9589 2 74.8364 26.5824 32.6971
9590 2 74.5361 25.9318 31.2297
9591 1 71.861 29.2025 79.0808
9592 2 71.1935 29.1585 79.8241
9593 2 71.7761 28.3873 78.5079
9594 1 47.3305 8.31086 42.4428
9595 2 47.5941 8.05516 41.5127
9596 2 46.3772 8.05403 42.6016
9597 1 48.7901 10.8851 34.1231
9598 2 48.7347 10.8119 35.1189
9599 2 47.882 10.7471 33.7277
9600 1 66.2978 3.1615 87.0604
9601 2 67.2086 3.20419 86.6496
9602 2 66.1017 4.0241 87.5267
9603 1 15.5885 19.3152 43.0307
9604 2 16.4305 19.8355 43.1731
9605 2 14.9704 19.4636 43.8027
9606 1 57.9617 3.78444 41.3957
9607 2 57.0657 4.15291 41.6433
9608 2 58.6769 4.41175 41.7039
9609 1 68.2372 26.3954 41.0383
9610 2 68.1158 26.8564 41.9174
9611 2 67.6236 25.6074 40.9878
9612 1 35.8822 9.20006 86.8505
9613 2 36.17 9.14578 85.8943
9614 2 36.6857 9.15107 87.4437
9615 1 42.6762 10.5546 82.2199
9616 2 42.9289 9.60968 82.0119
9617 2 43.4537 11.0229 82.6397
9618 1 67.7294 6.95387 32.0063
9619 2 67.42 6.67204 31.0981
9620 2 68.613 6.5294 32.2041
9621 1 43.7887 7.06439 65.252
9622 2 43.6895 6.09195 65.041
9623 2 44.2076 7.53311 64.4742
9624 1 77.0274 7.82228 50.4146
9625 2 76.6318 7.06229 50.9303
9626 2 78.0137 7.68512 50.3228
9627 1 12.0787 16.4076 23.7664
9628 2 11.614 16.8363 22.9917
9629 2 11.577 15.5884 24.0444
9630 1 55.3995 11.376 41.7544
9631 2 56.1383 10.986 41.2049
9632 2 54.5721 10.8264 41.6387
9633 1 74.9563 25.0846 82.166
9634 2 74.6343 24.4185 82.8388
9635 2 74.1763 25.4462 81.6553
9636 1 69.3911 1.80635 48.8011
9637 2 69.4278 1.91024 49.795
9638 2 70.3178 1.69015 48.4437
9639 1 70.8029 13.8698 26.469
9640 2 71.4961 13.2041 26.1926
9641 2 71.0697 14.2878 27.3374
9642 1 68.5084 8.03217 21.0851
9643 2 68.3848 8.21705 22.0601
9644 2 67.6411 8.17055 20.607
9645 1 57.912 2.91644 87.6252
9646 2 57.7986 2.50072 86.7228
9647 2 58.4499 3.7552 87.5406
9648 1 70.1182 14.807 35.5314
9649 2 71.017 14.6849 35.9525
9650 2 69.4756 14.1466 35.9199
9651 1 15.2613 26.5939 22.4317
9652 2 15.7741 25.7359 22.4041
9653 2 14.7121 26.6273 23.2668
9654 1 75.4034 4.47471 49.1622
9655 2 75.5672 3.57343 48.7611
9656 2 75.2707 5.14523 48.4322
9657 1 44.575 24.0594 36.6301
9658 2 45.2637 23.4713 36.2062
9659 2 44.5666 23.9043 37.618
9660 1 70.8284 21.8207 12.0762
9661 2 70.4108 22.6497 11.7042
9662 2 70.2027 21.0498 11.9567
9663 1 71.2484 0.580099 20.8981
9664 2 71.9498 0.98486 20.3115
9665 2 71.6355 29.8016 21.3921
9666 1 2.42875 13.8712 56.6811
9667 2 1.98641 14.4113 55.9652
9668 2 1.77073 13.2228 57.064
9669 1 77.416 26.296 11.639
9670 2 76.7107 26.4491 12.3311
9671 2 77.3101 25.3799 11.2521
9672 1 62.9472 13.6096 20.3426
9673 2 62.6323 12.9389 21.0141
9674 2 62.6832 13.312 19.4252
9675 1 10.7678 14.1151 55.6523
9676 2 9.83383 14.4651 55.5798
9677 2 10.8699 13.3133 55.0636
9678 1 8.96371 21.56 77.8864
9679 2 9.46644 22.258 78.3964
9680 2 9.45613 20.6911 77.9366
9681 1 68.715 12.3525 90.2995
9682 2 69.4406 11.6909 90.4888
9683 2 68.3718 12.2141 89.3705
9684 1 33.2932 19.1459 66.4784
9685 2 33.2156 19.9282 67.0965
9686 2 32.4214 19.0038 66.0096
9687 1 47.8492 9.08679 49.6762
9688 2 47.2784 9.25751 50.4793
9689 2 48.3383 9.92381 49.4309
9690 1 48.5421 22.8791 33.5783
9691 2 48.7372 21.9386 33.3002
9692 2 47.6575 22.9124 34.0436
9693 1 78.531 17.4424 32.7435
9694 2 78.6989 18.4282 32.7529
9695 2 77.5758 17.2648 32.9801
9696 1 58.2064 10.9466 86.1531
9697 2 58.6998 10.0984 85.9602
9698 2 58.6009 11.6914 85.6148
9699 1 5.27654 19.9351 80.104
9700 2 4.90588 19.5464 80.9475
9701 2 4.96755 20.8814 80.0091
9702 1 38.5071 28.0291 51.2235
9703 2 39.188 28.3478 51.8829
9704 2 38.8624 28.1437 50.2958
9705 1 77.8694 7.548 73.6683
9706 2 78.8335 7.5157 73.4046
9707 2 77.7969 7.77926 74.6385
9708 1 69.7087 10.3686 24.2142
9709 2 70.6033 9.92287 24.2471
9710 2 69.7111 11.0684 23.4998
9711 1 25.2214 28.2803 85.9019
9712 2 24.2552 28.3694 86.1438
9713 2 25.6992 27.7734 86.6194
9714 1 16.2914 1.55197 12.6303
9715 2 15.78 2.38468 12.418
9716 2 16.4552 1.50352 13.6156
9717 1 26.6223 24.9932 63.2271
9718 2 26.6995 24.0003 63.136
9719 2 27.5365 25.395 63.2812
9720 1 20.4668 28.6739 56.2357
9721 2 20.5201 29.4918 55.6628
9722 2 21.2373 28.071 56.0283
9723 1 14.4406 10.4871 15.4628
9724 2 14.1297 11.089 16.1983
9725 2 14.4245 9.53859 15.779
9726 1 27.0161 10.5271 61.9388
9727 2 26.3992 11.0992 62.4793
9728 2 26.9037 9.57019 62.2066
9729 1 17.7602 12.0582 47.9399
9730 2 18.5962 12.5889 47.7999
9731 2 17.8856 11.4365 48.713
9732 1 55.0058 28.852 50.5479
9733 2 54.1505 28.4847 50.9135
9734 2 55.7652 28.2606 50.8189
9735 1 69.6866 18.3312 15.8646
9736 2 70.1728 18.6402 16.6819
9737 2 68.9016 17.7736 16.1346
9738 1 79.6791 18.8499 25.3185
9739 2 0.352122 18.2187 24.933
9740 2 78.884 18.3347 25.6384
9741 1 26.4855 5.17859 33.3512
9742 2 26.9182 5.82057 33.9841
9743 2 25.8302 5.66822 32.776
9744 1 65.6534 12.6276 34.939
9745 2 66.6078 12.9161 35.0155
9746 2 65.0882 13.1796 35.5521
9747 1 37.1882 15.127 81.6493
9748 2 37.6066 15.2576 82.5481
9749 2 36.6896 14.2602 81.6365
9750 1 13.7482 27.0545 13.2914
9751 2 14.2686 26.3317 12.8366
9752 2 13.6739 27.8448 12.6833
9753 1 78.1143 25.9843 65.6503
9754 2 77.6701 25.2948 65.0783
9755 2 78.8024 26.4709 65.1121
9756 1 36.9418 16.6889 66.8307
9757 2 37.6741 16.2185 67.3231
9758 2 37.298 17.5334 66.4309
9759 1 63.7699 16.6949 20.5256
9760 2 63.6191 16.6595 21.5136
9761 2 63.1979 16.0086 20.0764
9762 1 37.3887 23.2651 79.8245
9763 2 37.9028 23.186 78.9704
9764 2 37.807 22.6816 80.5206
9765 1 39.6807 3.15705 59.9936
9766 2 39.0337 2.84485 60.6892
9767 2 39.8158 2.43436 59.3158
9768 1 5.91159 0.136764 53.4118
9769 2 5.20869 0.533979 54.0018
9770 2 5.99607 0.684037 52.5791
9771 1 46.5581 29.1392 78.7023
9772 2 45.6788 28.813 79.0496
9773 2 47.2146 29.1923 79.4547
9774 1 36.2287 19.347 66.0199
9775 2 36.1855 19.3317 67.0188
9776 2 35.441 18.8586 65.6446
9777 1 65.1405 16.1759 12.3814
9778 2 65.0239 15.1857 12.4588
9779 2 64.2437 16.6124 12.3085
9780 1 76.5331 2.68047 27.9031
9781 2 76.2398 2.78942 26.9533
9782 2 75.8133 3.01002 28.5141
9783 1 53.0573 10.8795 81.5483
9784 2 53.6279 11.7007 81.5525
9785 2 52.5673 10.8096 82.4173
9786 1 63.5533 10.9531 53.7395
9787 2 63.3809 11.2445 54.6805
9788 2 62.9352 10.2031 53.5042
9789 1 57.2721 28.8452 59.6479
9790 2 57.2882 29.6279 59.0257
9791 2 57.2193 29.1709 60.5919
9792 1 23.8298 13.3294 47.205
9793 2 23.5587 13.7711 46.3498
9794 2 24.7717 13.582 47.4267
9795 1 69.0393 4.0021 14.7024
9796 2 68.9538 3.09222 15.1084
9797 2 68.4836 4.65198 15.2209
9798 1 20.3711 2.72753 78.763
9799 2 19.9503 2.24035 79.5283
9800 2 21.3441 2.50108 78.7183
9801 1 78.3029 3.72949 61.4283
9802 2 78.2562 2.79873 61.7909
9803 2 77.4349 4.19675 61.5966
9804 1 41.4414 16.5678 52.1783
9805 2 41.4184 16.4819 51.1822
9806 2 41.5352 17.5317 52.4276
9807 1 75.125 14.3873 45.0643
9808 2 74.2243 14.3296 45.4948
9809 2 75.8238 14.0824 45.7114
9810 1 71.9201 6.01746 67.7391
9811 2 71.7084 5.99638 68.7162
9812 2 72.0347 5.08276 67.4026
9813 1 3.46692 25.1585 67.8765
9814 2 3.70087 25.3881 68.8213
9815 2 3.6118 24.1807 67.7255
9816 1 4.64146 4.33589 80.511
9817 2 4.20457 5.16809 80.8524
9818 2 5.62186 4.49673 80.3973
9819 1 38.1225 3.55592 71.9254
9820 2 38.8144 3.20257 71.2958
9821 2 37.7117 4.38204 71.5397
9822 1 14.2058 26.5407 18.7231
9823 2 13.9928 27.5176 18.7378
9824 2 14.9053 26.3624 18.0311
9825 1 17.3094 7.04492 67.8334
9826 2 18.1909 6.98719 68.3021
9827 2 16.7196 6.29761 68.1394
9828 1 56.4622 7.38762 34.5713
9829 2 56.1598 7.57594 35.5057
9830 2 57.3032 6.84728 34.5957
9831 1 73.8316 13.1395 70.9657
9832 2 72.8981 13.1497 70.6073
9833 2 73.8367 12.7138 71.8705
9834 1 45.4155 5.4853 69.3046
9835 2 45.8897 6.33151 69.5477
9836 2 44.7836 5.66227 68.55
9837 1 65.2712 26.7667 58.5829
9838 2 64.791 26.279 57.8538
9839 2 64.7982 26.6176 59.4513
9840 1 26.5796 14.2683 59.5075
9841 2 27.0132 15.1688 59.5425
9842 2 25.8446 14.2784 58.8296
9843 1 6.70619 11.965 56.0704
9844 2 7.19239 12.689 56.5596
9845 2 7.02013 11.0733 56.3966
9846 1 51.7523 0.609475 45.2038
9847 2 50.8732 0.233356 44.911
9848 2 52.1208 1.19592 44.4825
9849 1 35.0072 13.3835 55.7701
9850 2 34.1053 13.5802 55.3856
9851 2 34.9675 13.4551 56.7668
9852 1 11.329 16.4668 59.8486
9853 2 11.9732 16.7245 60.5688
9854 2 11.7446 16.6336 58.9544
9855 1 29.781 19.7804 78.4746
9856 2 29.6159 18.8649 78.8414
9857 2 29.3077 19.8791 77.5993
9858 1 49.6827 19.2865 28.3078
9859 2 48.9771 18.8227 28.8436
9860 2 49.4909 20.2676 28.2824
9861 1 13.4526 8.35548 36.3692
9862 2 12.8541 7.55505 36.3362
9863 2 14.3876 8.08214 36.1429
9864 1 52.7187 10.2253 78.9037
9865 2 52.6242 10.4737 79.8678
9866 2 53.2185 10.9448 78.4216
9867 1 10.2959 9.74131 70.3554
9868 2 10.1348 9.29884 69.4732
9869 2 10.879 9.15698 70.9199
9870 1 13.1161 26.6656 60.7526
9871 2 12.935 25.7197 60.4835
9872 2 13.8351 26.6827 61.4474
9873 1 15.2259 6.39185 44.6259
9874 2 14.8019 7.14793 45.1244
9875 2 14.5721 6.01827 43.9679
9876 1 75.7276 11.8492 80.0642
9877 2 76.121 11.5038 80.9162
9878 2 75.1714 11.1345 79.6401
9879 1 71.7791 15.2675 58.2661
9880 2 72.1891 16.1235 58.581
9881 2 72.3963 14.5076 58.4698
9882 1 18.2424 17.6338 87.4897
9883 2 19.1089 18.1315 87.4491
9884 2 17.8771 17.6759 88.4196
9885 1 23.5619 11.8484 90.7237
9886 2 23.1038 12.6967 90.4584
9887 2 23.078 11.0694 90.3248
9888 1 10.9809 16.2705 68.2177
9889 2 10.9118 15.7813 69.0872
9890 2 10.7402 15.6537 67.4682
9891 1 78.5675 17.622 87.9405
9892 2 78.5568 18.4063 88.5608
9893 2 79.5138 17.3719 87.7357
9894 1 75.9176 24.7865 76.9988
9895 2 75.2888 24.4078 76.3197
9896 2 76.2276 24.0575 77.6091
9897 1 72.4003 1.72235 18.7735
9898 2 73.0498 2.4342 18.5065
9899 2 72.6064 0.879523 18.2764
9900 1 72.536 16.0905 51.968
9901 2 72.2578 16.3768 52.8848
9902 2 73.1935 15.3403 52.0382
9903 1 72.2534 28.608 22.3265
9904 2 72.907 29.032 22.9534
9905 2 71.71 27.9292 22.8204
9906 1 48.4678 1.23933 58.291
9907 2 48.9924 1.08272 57.4542
9908 2 47.7066 1.85789 58.0964
9909 1 68.7766 15.8888 82.085
9910 2 68.0707 15.2989 82.477
9911 2 68.4593 16.251 81.2085
9912 1 13.4906 14.5762 79.3916
9913 2 13.3316 15.5485 79.2204
9914 2 12.7846 14.2264 80.0073
9915 1 77.2772 28.6518 14.0742
9916 2 77.002 29.2009 13.285
9917 2 76.5714 27.9706 14.2687
9918 1 31.8462 15.8601 70.2155
9919 2 31.0991 15.9912 69.5638
9920 2 32.1466 16.7489 70.5615
9921 1 37.8931 7.82565 36.4131
9922 2 38.2845 7.21303 37.0998
9923 2 38.6152 8.40186 36.0302
9924 1 1.47604 11.5 21.1924
9925 2 1.42529 11.428 20.1962
9926 2 0.551806 11.4983 21.5742
9927 1 8.06947 25.109 27.2397
9928 2 7.20342 25.4533 27.6022
9929 2 8.8287 25.5156 27.7479
9930 1 11.2311 18.0374 73.456
9931 2 10.4254 18.3143 73.9795
9932 2 12.043 18.0987 74.0365
9933 1 10.713 15.7458 38.169
9934 2 11.1979 15.0228 37.677
9935 2 11.2082 16.6085 38.0668
9936 1 32.8012 22.5451 65.3026
9937 2 32.6949 23.5305 65.1696
9938 2 31.8994 22.12 65.3805
9939 1 14.029 12.7958 16.7985
9940 2 13.3362 13.0803 17.4611
9941 2 14.7829 13.4528 16.8015
9942 1 8.69394 3.02404 55.8849
9943 2 8.13565 3.79776 55.5854
9944 2 8.16259 2.18032 55.8086
9945 1 46.6795 15.3716 44.0037
9946 2 45.7116 15.5029 43.7897
9947 2 47.1428 16.2578 44.0094
9948 1 27.4363 19.7536 28.1646
9949 2 27.4628 20.2856 29.011
9950 2 26.8104 18.9817 28.2755
9951 1 47.7372 24.8731 60.5436
9952 2 47.7861 23.9849 60.0868
9953 2 46.8182 25.2527 60.4369
9954 1 11.0224 11.2032 23.0115
9955 2 10.8857 10.3181 23.4563
9956 2 10.8153 11.9369 23.6587
9957 1 19.6981 0.958587 33.9702
9958 2 19.7292 0.0617776 34.4115
9959 2 20.1571 1.63161 34.5502
9960 1 27.177 24.6506 25.7954
9961 2 26.6904 25.5061 25.9723
9962 2 27.5556 24.6677 24.87
9963 1 55.2906 14.7304 73.5368
9964 2 54.313 14.7591 73.3283
9965 2 55.4268 14.3258 74.4411
9966 1 76.4127 14.9901 67.5697
9967 2 76.758 14.1927 67.0749
9968 2 76.8058 15.0078 68.4891
9969 1 24.6824 22.4337 75.2816
9970 2 24.0236 23.116 74.9647
9971 2 24.7082 22.4344 76.2813
9972 1 5.24577 21.4813 28.5418
9973 2 5.86945 21.9338 29.1792
9974 2 4.84117 20.6804 28.9833
9975 1 50.3243 27.7748 48.1742
9976 2 49.4216 27.5288 48.5273
9977 2 50.4605 28.7612 48.2658
9978 1 77.4936 16.3201 17.7094
9979 2 78.0687 17.1313 17.8151
9980 2 77.7651 15.6293 18.3796
9981 1 7.22693 4.26932 73.8515
9982 2 7.65633 5.02706 74.3429
9983 2 6.34511 4.56656 73.4854
9984 1 25.4847 11.0921 40.6644
9985 2 25.7412 11.3421 41.5981
9986 2 24.5701 11.4436 40.4646
9987 1 54.2322 3.8407 77.2898
9988 2 54.4844 4.68919 77.7551
9989 2 54.8302 3.70324 76.5001
9990 1 21.6507 26.6505 32.6901
9991 2 22.5674 26.5048 32.318
9992 2 21.7211 27.0728 33.5939
9993 1 59.9901 25.7105 78.3408
9994 2 59.8708 24.9663 77.6836
9995 2 59.0939 26.0365 78.6416
9996 1 10.3919 26.2144 27.7326
9997 2 10.6667 25.8605 26.8386
9998 2 11.1252 26.7827 28.1059
9999 1 10.8774 6.84346 70.3268
10000 2 10.4251 6.95413 71.2118
10001 2 11.8326 7.12951 70.4027
10002 1 18.3299 21.6695 33.8759
10003 2 19.0626 21.894 34.5184
10004 2 18.3178 22.3421 33.136
10005 1 78.9439 3.0955 40.8784
10006 2 78.3239 2.38102 41.2026
10007 2 78.7777 3.93844 41.3901
10008 1 13.3248 9.14195 65.3868
10009 2 12.8535 9.61042 66.1341
10010 2 12.6856 8.52987 64.9213
10011 1 27.5576 5.04934 62.3307
10012 2 28.5224 4.78663 62.3137
10013 2 27.161 4.80422 63.2154
10014 1 50.5164 9.9962 69.2263
10015 2 50.7276 9.12127 69.6621
10016 2 49.9485 10.5454 69.8393
10017 1 18.2142 4.87958 90.2907
10018 2 18.232 4.10552 89.6578
10019 2 17.5221 5.53734 89.9934
10020 1 4.18921 1.15186 45.466
10021 2 4.40334 1.28138 46.4342
10022 2 3.83346 2.00578 45.0862
10023 1 14.4291 0.515043 57.5892
10024 2 15.0721 0.666389 56.8385
10025 2 14.8269 0.853113 58.4421
10026 1 56.253 22.7504 47.9589
10027 2 57.0385 23.3056 48.2325
10028 2 55.5489 23.3408 47.5641
10029 1 41.3239 5.14514 39.3691
10030 2 42.0422 5.53492 38.7928
10031 2 41.3674 4.14699 39.3266
10032 1 54.937 12.0895 38.7261
10033 2 54.1616 11.4691 38.8438
10034 2 55.7751 11.5569 38.6077
10035 1 25.9692 11.0969 59.0501
10036 2 25.8913 12.0421 58.7332
10037 2 26.0568 11.0854 60.0462
10038 1 59.3488 23.7695 37.8904
10039 2 58.5419 24.3355 38.0592
10040 2 60.1632 24.2405 38.2294
10041 1 19.4017 22.0349 39.516
10042 2 19.7664 21.73 40.3958
10043 2 19.3988 23.0344 39.4847
10044 1 3.57533 0.136762 29.6943
10045 2 2.72273 29.9401 29.2101
10046 2 3.38563 0.254115 30.6691
10047 1 38.1729 1.80754 86.0243
10048 2 37.9368 1.65267 85.065
10049 2 38.2445 2.79017 86.1955
10050 1 19.2847 3.21405 27.6687
10051 2 18.4693 3.78836 27.7422
10052 2 19.2896 2.75414 26.7808
10053 1 4.90384 25.1604 14.7995
10054 2 5.42145 24.7203 15.5332
10055 2 4.68408 24.4853 14.0953
10056 1 53.7412 11.6878 62.3832
10057 2 53.4217 10.8474 61.9454
10058 2 53.0045 12.364 62.3843
10059 1 44.833 24.4555 79.2479
10060 2 45.716 24.5988 79.6949
10061 2 44.1478 24.2112 79.934
10062 1 58.427 0.613959 68.1043
10063 2 58.4698 1.51503 68.5359
10064 2 59.3546 0.276259 67.9449
10065 1 57.6105 29.2929 32.4539
10066 2 57.9864 29.3796 33.3765
10067 2 56.8059 29.88 32.3653
10068 1 19.9575 22.1792 50.1519
10069 2 19.0732 22.436 50.542
10070 2 20.3069 22.932 49.594
10071 1 78.9112 22.8416 60.1926
10072 2 78.843 22.1455 59.4779
10073 2 79.3014 23.6778 59.8072
10074 1 69.4865 25.1732 60.0041
10075 2 70.3699 25.5833 60.2308
10076 2 69.0252 25.7342 59.3167
10077 1 24.6962 7.67875 38.9684
10078 2 25.6671 7.84913 39.1367
10079 2 24.4013 6.88201 39.4959
10080 1 17.674 4.76154 53.9575
10081 2 18.1852 5.6131 53.8415
10082 2 17.4053 4.66197 54.9156
10083 1 59.9428 2.5655 55.8496
10084 2 59.8785 2.66138 56.8429
10085 2 60.5076 1.7708 55.6272
10086 1 13.6759 2.90542 33.6938
10087 2 13.317 3.59798 33.0681
10088 2 14.6135 3.14113 33.9495
10089 1 52.8996 5.37825 46.8311
10090 2 52.1137 4.78188 46.9946
10091 2 52.7784 5.85866 45.9624
10092 1 2.49835 9.54168 14.9219
10093 2 3.18254 10.2539 15.079
10094 2 1.61268 9.84749 15.2713
10095 1 7.14078 13.5766 83.8935
10096 2 7.05283 14.0583 83.0215
10097 2 7.39019 12.6232 83.7239
10098 1 5.74651 14.6464 56.1219
10099 2 6.73285 14.486 56.0845
10100 2 5.52217 15.1503 56.9561
10101 1 51.9482 26.1948 35.8394
10102 2 51.2538 26.5638 35.2216
10103 2 52.8552 26.4806 35.5301
10104 1 41.0458 28.0352 45.2028
10105 2 41.7886 27.4 45.4145
10106 2 40.8226 28.5704 46.0175
10107 1 10.7606 28.3212 45.4966
10108 2 11.1452 27.6144 46.0904
10109 2 9.76456 28.3252 45.5851
10110 1 71.473 1.33451 55.8446
10111 2 71.7683 1.65689 56.744
10112 2 72.0445 1.75038 55.1372
10113 1 68.3305 10.5953 71.6023
10114 2 67.9368 9.79629 72.0568
10115 2 67.7663 10.8423 70.8145
10116 1 56.9778 24.8433 83.7681
10117 2 57.5538 25.6008 83.4608
10118 2 57.3039 23.9901 83.361
10119 1 42.8631 26.3228 49.325
10120 2 42.0885 26.2682 49.9551
10121 2 42.685 25.7471 48.5271
10122 1 65.4021 10.9899 30.9179
10123 2 65.7718 10.5126 30.1208
10124 2 66.1548 11.3297 31.4817
10125 1 45.5596 6.07329 53.3605
10126 2 45.2443 5.17345 53.6619
10127 2 44.8719 6.76179 53.5907
10128 1 19.9145 22.0708 20.9757
10129 2 19.4629 22.5604 20.2298
10130 2 20.4918 22.7054 21.4895
10131 1 2.37508 18.1085 38.4059
10132 2 2.53385 17.1482 38.6355
10133 2 3.12851 18.4451 37.841
10134 1 31.4321 7.92002 47.2423
10135 2 32.4131 7.78764 47.3839
10136 2 30.9273 7.50868 48.0012
10137 1 3.30052 0.492678 35.8999
10138 2 2.40308 0.635649 36.3172
10139 2 3.21799 29.8389 35.1477
10140 1 32.085 27.8835 30.1775
10141 2 32.504 28.7613 29.9451
10142 2 31.8607 27.3886 29.3381
10143 1 8.56549 22.3261 20.4115
10144 2 8.40164 21.8204 21.2585
10145 2 9.50874 22.18 20.1133
10146 1 13.8564 29.3194 44.0812
10147 2 14.6003 29.5471 44.7096
10148 2 13.6095 28.3568 44.192
10149 1 62.5561 14.5176 50.7555
10150 2 61.5803 14.5555 50.9708
10151 2 63.0843 14.8235 51.5475
10152 1 70.9761 0.516854 11.2017
10153 2 71.5473 1.24163 11.5871
10154 2 71.05 0.528899 10.2046
10155 1 78.1604 23.2104 71.1822
10156 2 78.2258 22.6523 72.0094
10157 2 78.8474 22.9083 70.5212
10158 1 53.9536 20.9021 27.3427
10159 2 53.4663 20.0444 27.5066
10160 2 53.3562 21.6726 27.5653
10161 1 10.1318 19.4068 90.5909
10162 2 9.13915 19.3847 90.4722
10163 2 10.4834 18.4716 90.6336
10164 1 70.6174 7.98485 84.5775
10165 2 71.0696 7.11674 84.7822
10166 2 70.409 8.46159 85.4315
10167 1 57.6972 13.3236 18.3691
10168 2 57.8693 13.3588 17.3846
10169 2 58.492 12.9321 18.8327
10170 1 63.0866 29.6723 80.3021
10171 2 62.193 29.5827 80.7421
10172 2 62.9743 29.6362 79.3091
10173 1 63.0014 8.71673 55.7616
10174 2 63.6627 9.41907 56.025
10175 2 62.2249 8.73702 56.3914
10176 1 12.9647 6.75591 52.9696
10177 2 12.9083 6.20561 53.8027
10178 2 12.0461 7.0401 52.6951
10179 1 55.0517 3.61764 81.8542
10180 2 56.0251 3.7507 82.041
10181 2 54.5331 4.38931 82.2224
10182 1 15.0125 11.8923 24.5344
10183 2 14.7284 12.8418 24.6679
10184 2 14.7505 11.5917 23.6174
10185 1 65.6186 8.92832 54.624
10186 2 65.7506 8.67954 53.6645
10187 2 66.2775 9.63608 54.8786
10188 1 42.3504 13.6114 58.1709
10189 2 42.0228 12.9748 58.8691
10190 2 42.2889 14.5472 58.5179
10191 1 9.98818 19.3839 75.8343
10192 2 10.9752 19.5417 75.8048
10193 2 9.53751 20.1698 76.2576
10194 1 38.7268 16.854 64.4719
10195 2 38.4813 17.7642 64.8055
10196 2 39.6772 16.6563 64.7116
10197 1 44.0106 19.7547 74.9505
10198 2 44.392 18.8469 75.1248
10199 2 44.7072 20.4491 75.1309
10200 1 77.5944 23.4717 67.3014
10201 2 78.1843 23.0259 67.9747
10202 2 76.7212 23.7078 67.7276
10203 1 17.7668 26.2675 61.9432
10204 2 17.4337 25.5432 62.5468
10205 2 17.1521 27.0545 61.9961
10206 1 57.9482 1.82048 73.3942
10207 2 58.4928 2.34672 72.7411
10208 2 57.7976 0.898898 73.0364
10209 1 27.0012 20.9332 68.8857
10210 2 26.4813 20.079 68.8844
10211 2 26.7325 21.4858 69.6746
10212 1 38.1258 7.14601 72.1724
10213 2 37.8491 7.94126 71.633
10214 2 37.3121 6.66595 72.5001
10215 1 7.27619 29.4938 90.004
10216 2 8.24864 29.7268 90.0128
10217 2 7.16992 28.5127 89.8427
10218 1 13.5377 23.9103 62.8461
10219 2 12.9531 24.511 63.3915
10220 2 12.9789 23.1999 62.4183
10221 1 46.5906 25.7568 40.4063
10222 2 46.4995 26.7522 40.3771
10223 2 46.4454 25.4362 41.3423
10224 1 8.73003 17.3013 31.5923
10225 2 8.26778 17.2937 30.7056
10226 2 9.24055 18.1551 31.6947
10227 1 63.6237 5.0317 49.5405
10228 2 63.7709 5.96925 49.8556
10229 2 62.6427 4.83944 49.513
10230 1 63.0725 11.9791 80.7235
10231 2 63.5242 11.7584 81.588
10232 2 62.8932 11.1361 80.2164
10233 1 8.34981 17.7008 18.2369
10234 2 8.84066 18.3267 18.843
10235 2 8.39852 16.7727 18.6059
10236 1 72.8784 23.3108 42.6697
10237 2 72.6883 24.1571 42.1722
10238 2 72.2431 23.2255 43.4373
10239 1 78.7056 20.3811 61.722
10240 2 79.1691 20.3694 62.608
10241 2 78.5537 21.3277 61.4377
10242 1 30.3858 4.10911 33.5425
10243 2 30.2718 3.33116 34.1604
10244 2 29.9538 4.91787 33.9416
10245 1 7.58323 9.23314 75.5022
10246 2 7.36458 9.28991 76.4763
10247 2 7.65465 8.27298 75.232
10248 1 78.1168 10.4206 10.8804
10249 2 78.1736 10.3404 9.88522
10250 2 78.4461 11.322 11.1614
10251 1 24.7805 2.00975 45.1403
10252 2 25.2232 2.76866 45.6179
10253 2 25.4051 1.22966 45.1031
10254 1 49.4266 2.2909 63.8096
10255 2 50.4197 2.30502 63.6928
10256 2 49.0955 3.22237 63.9603
10257 1 23.4429 3.26952 90.5921
10258 2 23.7074 3.10637 91.5426
10259 2 22.6659 3.89845 90.5656
10260 1 33.0292 8.22533 56.663
10261 2 32.1167 7.82489 56.7473
10262 2 32.9595 9.12616 56.2344
10263 1 56.0637 10.4674 30.3124
10264 2 55.6467 11.1088 29.6684
10265 2 55.3724 10.1499 30.9614
10266 1 70.3177 5.57076 46.7221
10267 2 70.7723 6.32341 47.1984
10268 2 70.9946 5.04499 46.207
10269 1 22.6346 28.6402 27.1439
10270 2 21.6998 28.9955 27.1403
10271 2 23.1445 29.036 26.3801
10272 1 51.3554 6.32576 60.9221
10273 2 50.8041 7.15972 60.9461
10274 2 52.1414 6.46297 60.3192
10275 1 61.2065 15.8256 17.6051
10276 2 60.7736 16.3207 18.3584
10277 2 61.4015 14.8875 17.8913
10278 1 58.7722 25.6114 29.6307
10279 2 58.8224 24.6154 29.557
10280 2 59.0875 25.8948 30.5364
10281 1 45.5768 12.2077 36.3454
10282 2 45.4458 11.301 35.9445
10283 2 46.5531 12.4226 36.3716
10284 1 19.8064 18.7337 14.9709
10285 2 20.4531 17.9932 15.1536
10286 2 19.0246 18.3753 14.4606
10287 1 41.7504 18.6014 29.8849
10288 2 41.7218 19.2372 30.6562
10289 2 41.4131 19.0597 29.0626
10290 1 67.3617 11.135 85.2033
10291 2 68.1892 11.1521 85.7645
10292 2 67.0868 10.1869 85.0436
10293 1 72.7298 2.85988 15.5073
10294 2 73.4919 3.11238 16.1035
10295 2 72.2776 3.68783 15.1757
10296 1 18.3072 27.7521 83.4328
10297 2 17.5968 27.2696 82.9204
10298 2 19.1272 27.1819 83.4831
10299 1 13.9782 2.11635 46.1684
10300 2 13.0108 1.97016 46.3754
10301 2 14.4221 1.23442 46.0098
10302 1 59.0661 2.56091 34.322
10303 2 58.4455 2.90158 33.6157
10304 2 58.5364 2.26838 35.1181
10305 1 26.8068 28.6943 83.0121
10306 2 25.8575 28.5174 82.7522
10307 2 27.1049 28.0065 83.6741
10308 1 63.6606 1.47386 71.8015
10309 2 62.9997 1.21918 71.0956
10310 2 63.1734 1.77994 72.6194
10311 1 59.8761 8.81075 59.9618
10312 2 60.578 8.55532 60.6267
10313 2 60.3106 9.04718 59.0927
10314 1 78.0861 0.258598 90.7945
10315 2 77.6373 0.577226 91.6294
10316 2 78.6816 0.979604 90.4402
10317 1 70.9886 7.38338 44.2626
10318 2 71.8942 7.0978 43.949
10319 2 71.0196 7.57077 45.2443
10320 1 32.6536 24.2192 28.0125
10321 2 33.6084 24.4458 28.2046
10322 2 32.6154 23.4655 27.3564
10323 1 62.9601 21.8477 72.1079
10324 2 63.6782 22.5426 72.0691
10325 2 62.1818 22.2014 72.6266
10326 1 23.9914 3.4955 38.3437
10327 2 24.8849 3.11656 38.1028
10328 2 24.1128 4.39631 38.7606
10329 1 29.8874 22.6925 51.2415
10330 2 29.9635 21.9829 51.9419
10331 2 30.7558 22.7723 50.752
10332 1 41.5557 24.5768 84.1666
10333 2 41.3362 23.6352 83.9115
10334 2 41.5407 24.6645 85.1626
10335 1 10.1359 12.6804 18.1775
10336 2 10.4479 13.169 17.3628
10337 2 9.76918 13.3349 18.8387
10338 1 63.3436 5.35783 65.4468
10339 2 62.9296 4.45052 65.3733
10340 2 63.2773 5.67897 66.3915
10341 1 46.3089 11.7229 49.426
10342 2 47.2536 11.6542 49.1054
10343 2 46.0548 10.8786 49.8978
10344 1 46.8501 14.5245 49.0699
10345 2 47.5384 14.465 49.7929
10346 2 46.2892 13.6966 49.0748
10347 1 5.915 12.2529 63.9818
10348 2 6.28795 12.8235 63.2502
10349 2 5.23489 12.7741 64.4973
10350 1 20.6747 25.4947 40.1945
10351 2 20.5407 25.5696 41.1826
10352 2 19.8005 25.6303 39.7284
10353 1 64.0616 7.56753 88.0979
10354 2 64.4423 7.51919 87.1744
10355 2 63.8887 8.52287 88.3375
10356 1 61.1783 12.3205 11.6343
10357 2 60.7035 11.7407 12.2965
10358 2 62.0562 11.9049 11.3965
10359 1 62.5166 0.109404 41.1742
10360 2 62.479 1.00578 41.6159
10361 2 61.7302 29.5628 41.4618
10362 1 13.9597 2.83326 81.61
10363 2 13.2253 2.54693 80.9946
10364 2 13.6314 3.57065 82.2003
10365 1 44.4343 13.6397 82.6268
10366 2 44.9416 12.7793 82.5785
10367 2 44.8397 14.3015 81.9961
10368 1 23.3996 8.62136 27.8224
10369 2 23.5341 7.65355 27.6097
10370 2 22.6447 8.71827 28.4711
10371 1 34.6107 29.415 58.4264
10372 2 33.6252 29.5819 58.4573
10373 2 34.792 28.5866 57.8966
10374 1 49.59 7.49945 67.6237
10375 2 48.7919 8.09814 67.5554
10376 2 49.9774 7.56409 68.5433
10377 1 56.6922 23.6446 57.899
10378 2 56.6775 22.8344 57.3129
10379 2 56.8837 23.3707 58.8415
10380 1 74.9694 22.4737 89.2852
10381 2 74.2239 21.8349 89.0951
10382 2 74.6046 23.4027 89.3475
10383 1 35.1055 13.386 58.63
10384 2 35.7931 12.901 59.1703
10385 2 34.2058 13.2647 59.0492
10386 1 66.2239 10.5694 21.9208
10387 2 67.1296 10.9915 21.9607
10388 2 66.2608 9.75524 21.3414
10389 1 11.5932 19.9647 25.1208
10390 2 12.3663 19.3841 25.3764
10391 2 11.7925 20.4228 24.2545
10392 1 70.2154 11.1003 38.273
10393 2 70.0316 10.2046 37.8681
10394 2 70.5616 11.7199 37.5685
10395 1 9.21335 28.8769 14.6583
10396 2 9.27968 29.6869 15.241
10397 2 9.78053 28.146 15.0378
10398 1 16.4091 16.4043 42.6285
10399 2 15.9505 15.9183 43.3725
10400 2 16.3097 17.3902 42.7632
10401 1 33.9018 9.24597 45.4702
10402 2 34.0086 8.37268 45.9455
10403 2 34.5887 9.89241 45.8023
10404 1 42.8992 28.0738 34.7934
10405 2 43.0987 29.0302 34.5802
10406 2 41.9541 27.8662 34.5412
10407 1 15.88 20.8378 67.815
10408 2 14.9349 21.1601 67.7602
10409 2 15.9463 20.1149 68.5027
10410 1 31.7171 22.2158 32.9919
10411 2 31.6103 22.0903 33.9782
10412 2 32.063 23.1359 32.8085
10413 1 75.252 27.425 55.5051
10414 2 76.0779 27.8282 55.1109
10415 2 75.4987 26.8695 56.2992
10416 1 20.2749 4.34009 24.6272
10417 2 21.2664 4.44321 24.7061
10418 2 20.0357 3.37028 24.6751
10419 1 15.6781 12.1993 50.5679
10420 2 16.007 13.0456 50.1488
10421 2 16.008 12.144 51.5103
10422 1 50.4616 17.7976 88.239
10423 2 51.4289 17.9094 88.0114
10424 2 50.2726 18.2377 89.1168
10425 1 51.8689 28.9653 20.483
10426 2 52.5506 28.3664 20.0628
10427 2 51.8423 29.836 19.9919
10428 1 17.0935 20.4248 50.4492
10429 2 16.503 19.6964 50.7968
10430 2 17.2229 21.1165 51.1597
10431 1 45.6066 28.4506 40.0186
10432 2 44.8453 29.0939 40.0995
10433 2 46.0757 28.3771 40.8987
10434 1 77.2541 16.7262 21.4719
10435 2 77.4692 16.6499 22.4454
10436 2 77.735 16.0094 20.967
10437 1 56.2725 18.9698 66.2539
10438 2 57.2194 18.7773 66.5118
10439 2 56.2421 19.7936 65.688
10440 1 10.7564 14.7229 43.5384
10441 2 10.5318 15.0991 44.4373
10442 2 11.5916 15.1534 43.196
10443 1 61.5407 20.7 79.2373
10444 2 62.1067 19.8864 79.1045
10445 2 61.3298 21.108 78.349
10446 1 59.8184 17.3493 51.747
10447 2 59.1939 17.7876 52.3934
10448 2 59.3118 17.0706 50.931
10449 1 5.68148 8.79665 39.0869
10450 2 4.91343 8.84373 39.7256
10451 2 6.3126 9.5508 39.2684
10452 1 24.6206 8.41305 90.1154
10453 2 23.6446 8.56486 89.9598
10454 2 24.8243 8.52381 91.0881
10455 1 31.257 8.99693 52.2463
10456 2 32.1663 8.62337 52.0629
10457 2 30.9981 9.62091 51.509
10458 1 57.0652 28.3119 62.5912
10459 2 56.2496 28.5499 63.1186
10460 2 57.8518 28.8155 62.9483
10461 1 57.8521 5.67702 49.6091
10462 2 57.5565 6.49344 49.1129
10463 2 58.8307 5.5334 49.4616
10464 1 15.84 3.87829 55.9738
10465 2 15.0527 3.62241 55.4129
10466 2 15.7941 4.85414 56.1873
10467 1 28.1833 6.91382 76.0102
10468 2 27.5191 6.99742 76.7531
10469 2 28.848 7.65831 76.072
10470 1 67.5567 18.2593 35.8129
10471 2 67.5304 18.8524 36.6176
10472 2 67.3688 17.3163 36.0876
10473 1 39.0475 6.77434 30.3823
10474 2 39.1089 7.69634 30
10475 2 39.9449 6.33522 30.3392
10476 1 51.3318 4.07014 48.5727
10477 2 51.1715 3.08448 48.5202
10478 2 51.8704 4.27714 49.3895
10479 1 36.1226 27.7579 65.5939
10480 2 35.2272 28.1995 65.5364
10481 2 36.8409 28.4478 65.5042
10482 1 54.8507 2.62836 72.1995
10483 2 54.5228 1.69732 72.0394
10484 2 55.5544 2.85431 71.5258
10485 1 20.5091 5.99436 52.1992
10486 2 21.3838 5.86096 52.6652
10487 2 20.0331 6.77658 52.6012
10488 1 28.9627 21.9872 57.5236
10489 2 29.774 22.5035 57.7975
10490 2 29.1245 21.5589 56.6346
10491 1 65.772 14.0256 14.1708
10492 2 65.1933 13.8376 14.9644
10493 2 65.4036 13.5532 13.3702
10494 1 2.38126 7.57501 23.1358
10495 2 3.20756 7.76684 23.6653
10496 2 2.61939 7.02883 22.3326
10497 1 26.6685 29.4254 73.666
10498 2 26.736 0.077833 72.9112
10499 2 26.1825 29.8492 74.4304
10500 1 39.9926 10.6304 46.8987
10501 2 39.2213 10.511 47.5239
10502 2 40.0851 9.81716 46.3242
10503 1 53.8099 21.9953 35.52
10504 2 52.9969 22.1671 36.0763
10505 2 53.5449 21.9115 34.5594
10506 1 70.8462 24.2739 53.1306
10507 2 69.8595 24.3671 52.9972
10508 2 71.2521 25.1788 53.2587
10509 1 69.3226 4.95104 53.9362
10510 2 68.851 5.16779 54.7909
10511 2 70.1848 5.45582 53.894
10512 1 40.8918 23.0692 55.8374
10513 2 41.4249 23.1857 56.6754
10514 2 41.3436 23.5492 55.0854
10515 1 5.88036 26.2351 28.6548
10516 2 5.96439 27.1396 28.2368
10517 2 5.68162 26.3355 29.6297
10518 1 67.4807 26.6954 80.2956
10519 2 68.4621 26.5496 80.1701
10520 2 66.9953 25.8319 80.1588
10521 1 39.4099 5.52264 36.9593
10522 2 39.5643 4.56927 37.2186
10523 2 40.1457 6.09138 37.3268
10524 1 4.28651 8.6465 42.9979
10525 2 3.9298 8.97009 42.1216
10526 2 3.695 7.92183 43.3515
10527 1 77.4704 24.2825 21.6421
10528 2 77.905 24.8339 22.3542
10529 2 76.6314 24.7331 21.3372
10530 1 12.1772 14.4357 29.4551
10531 2 12.9921 14.3853 28.8776
10532 2 11.7159 13.5485 29.4587
10533 1 48.8148 21.8537 36.3254
10534 2 48.1225 22.5663 36.2117
10535 2 49.7252 22.2534 36.218
10536 1 50.436 25.5821 55.2334
10537 2 50.6946 24.6197 55.317
10538 2 50.7133 25.9249 54.3358
10539 1 54.8828 13.0644 64.5139
10540 2 54.6423 12.566 63.6809
10541 2 55.866 13.2465 64.5212
10542 1 77.8773 4.77392 72.6865
10543 2 77.5123 4.21326 73.4297
10544 2 78.3055 5.59374 73.0667
10545 1 69.2654 26.1587 73.8187
10546 2 69.9754 25.456 73.8646
10547 2 69.6809 27.0377 73.5847
10548 1 53.8869 21.9992 72.7877
10549 2 53.6405 21.3188 73.4779
10550 2 54.2549 22.8127 73.2381
10551 1 66.3197 5.00592 23.8744
10552 2 65.6386 5.36299 24.5135
10553 2 66.8596 5.76255 23.5055
10554 1 69.4178 1.74672 42.8655
10555 2 69.3358 2.61164 42.3704
10556 2 69.353 1.91801 43.8486
10557 1 63.1739 23.7073 75.3531
10558 2 62.4336 23.4315 74.7399
10559 2 63.2948 23.0133 76.0629
10560 1 38.4196 22.2037 83.1608
10561 2 38.5408 21.639 83.9772
10562 2 38.1579 21.6231 82.3898
10563 1 1.47506 22.1538 22.139
10564 2 1.97878 22.9807 21.8891
10565 2 2.0739 21.3582 22.0472
10566 1 69.4255 13.6726 41.6525
10567 2 68.6319 13.4116 42.2021
10568 2 69.3858 14.6518 41.4535
10569 1 62.1369 29.9124 49.18
10570 2 62.637 29.8969 50.0458
10571 2 62.317 29.0677 48.6759
10572 1 23.7456 26.3294 74.8663
10573 2 23.319 27.1911 74.5914
10574 2 23.5401 25.6243 74.1875
10575 1 31.7027 13.0336 76.1514
10576 2 30.8167 13.415 75.8879
10577 2 32.0702 13.5486 76.9259
10578 1 35.6194 3.01203 37.5344
10579 2 35.1503 3.36928 38.3421
10580 2 35.2376 2.11934 37.2949
10581 1 27.7695 10.1347 31.8535
10582 2 28.7354 9.94821 32.0331
10583 2 27.232 9.92433 32.67
10584 1 67.1344 22.512 73.8505
10585 2 66.7708 23.4374 73.9569
10586 2 66.5316 21.8618 74.3129
10587 1 56.0411 18.8447 59.293
10588 2 55.4919 19.665 59.1331
10589 2 56.8686 19.0907 59.7977
10590 1 10.1043 10.3461 14.828
10591 2 10.7141 10.3784 15.6199
10592 2 9.18214 10.6147 15.1063
10593 1 36.7643 25.7162 80.8101
10594 2 36.7871 24.7696 80.4883
10595 2 37.6859 26.0006 81.0744
10596 1 20.5152 21.5458 14.7909
10597 2 20.3646 20.5945 15.0599
10598 2 20.2265 21.6736 13.8421
10599 1 61.9756 1.60883 17.7626
10600 2 61.8256 1.84677 18.7222
10601 2 62.629 2.24907 17.3586
10602 1 68.8745 15.9746 87.7856
10603 2 68.7492 16.9305 87.5197
10604 2 68.8871 15.905 88.783
10605 1 47.4942 17.9461 58.2186
10606 2 48.4398 18.1354 58.483
10607 2 46.9107 18.7082 58.4994
10608 1 40.1847 14.873 47.4661
10609 2 40.3134 14.551 48.404
10610 2 40.0458 15.8633 47.4698
10611 1 71.8411 26.1663 42.1114
10612 2 71.4657 26.3984 43.0087
10613 2 71.1833 26.4151 41.4004
10614 1 4.88384 19.7749 12.1719
10615 2 4.54371 20.6163 12.5919
10616 2 5.86521 19.6895 12.344
10617 1 62.6433 5.73893 38.9692
10618 2 62.1146 6.33177 39.5767
10619 2 63.0814 6.29284 38.2612
10620 1 2.33817 12.8352 82.6254
10621 2 2.06536 13.5554 81.9875
10622 2 3.16629 13.1159 83.1106
10623 1 27.0696 24.6315 68.189
10624 2 26.5198 24.7227 67.3587
10625 2 27.019 25.4792 68.717
10626 1 16.4568 16.4666 19.3078
10627 2 15.6389 16.2496 19.8407
10628 2 16.7918 15.6381 18.8591
10629 1 13.7335 7.08132 77.0688
10630 2 13.5766 6.15162 77.4021
10631 2 13.8763 7.69429 77.8459
10632 1 0.133747 25.5687 88.3658
10633 2 0.273971 25.9492 89.2799
10634 2 0.921797 25.0069 88.1141
10635 1 62.55 13.7271 76.3973
10636 2 62.3077 14.0232 77.3212
10637 2 63.389 13.184 76.4307
10638 1 6.82682 2.43913 61.2769
10639 2 7.26904 3.08885 60.6586
10640 2 7.4275 2.25841 62.0557
10641 1 51.0321 16.583 45.1344
10642 2 50.0703 16.8205 44.9981
10643 2 51.1846 16.3481 46.0943
10644 1 12.1088 27.2285 78.2349
10645 2 12.9093 27.1701 78.8313
10646 2 11.5738 28.0389 78.4735
10647 1 78.0544 9.30019 17.8971
10648 2 78.075 9.32985 18.8965
10649 2 78.1961 10.2208 17.5333
10650 1 38.6024 28.4989 90.6481
10651 2 38.4774 29.09 89.8512
10652 2 38.2893 28.9759 91.4693
10653 1 5.77833 19.0306 68.5998
10654 2 5.80322 18.0329 68.5369
10655 2 6.70654 19.3931 68.516
10656 1 79.5037 17.7427 12.6414
10657 2 79.2158 18.0601 13.5449
10658 2 0.179721 18.3765 12.2653
10659 1 69.5236 6.25667 87.6044
10660 2 68.8719 5.57027 87.9271
10661 2 69.5385 7.02757 88.2412
10662 1 35.9675 9.33039 37.4317
10663 2 36.0069 9.39984 38.4285
10664 2 36.5908 8.61203 37.1227
10665 1 57.5062 6.97782 25.5684
10666 2 56.6205 6.894 26.0251
10667 2 57.4454 7.66827 24.8476
10668 1 19.1607 1.53323 39.6781
10669 2 18.5931 0.740843 39.4546
10670 2 20.1137 1.33617 39.4478
10671 1 25.3146 17.9616 29.0247
10672 2 25.5095 17.25 28.3496
10673 2 24.7251 17.5887 29.7413
10674 1 62.8396 7.95407 52.9509
10675 2 63.4284 8.11855 53.7423
10676 2 61.9833 7.53558 53.2538
10677 1 4.68346 20.4489 76.0024
10678 2 4.65379 19.493 76.2946
10679 2 5.29236 20.9633 76.6062
10680 1 41.0474 27.3543 65.7917
10681 2 41.1715 26.512 66.3162
10682 2 40.8859 27.1282 64.8311
10683 1 16.8448 0.817853 37.4633
10684 2 16.0159 0.455126 37.8893
10685 2 16.6353 1.68524 37.0119
10686 1 40.6548 23.9824 89.3631
10687 2 41.3291 23.7477 90.0633
10688 2 41.0491 23.8314 88.4567
10689 1 51.3637 14.0558 78.0505
10690 2 51.0737 13.6263 78.9058
10691 2 52.3553 14.1843 78.0616
10692 1 18.083 10.3498 68.2442
10693 2 18.4649 10.9705 67.5595
10694 2 17.0853 10.4171 68.2356
10695 1 55.0449 3.17104 63.9673
10696 2 54.3343 3.72272 64.4039
10697 2 55.1884 2.33395 64.4953
10698 1 74.2508 14.9847 19.812
10699 2 74.0496 14.2398 20.4482
10700 2 74.9307 14.6792 19.1454
10701 1 76.286 22.5974 58.8423
10702 2 76.2 22.3959 59.818
10703 2 76.1946 23.5825 58.6961
10704 1 9.00045 11.157 62.85
10705 2 8.26998 11.5043 62.2619
10706 2 9.82817 11.0178 62.3063
10707 1 64.8709 28.0145 48.1043
10708 2 65.6443 27.6229 48.6029
10709 2 64.9259 29.0125 48.1343
10710 1 75.8652 19.6419 25.6586
10711 2 76.7079 19.8134 26.169
10712 2 75.4695 20.5126 25.3662
10713 1 77.3667 29.4898 57.6449
10714 2 77.2387 0.48126 57.6697
10715 2 77.0272 29.1315 56.7753
10716 1 4.70891 0.797624 81.6718
10717 2 5.70556 0.852184 81.6108
10718 2 4.35228 0.311567 80.8739
10719 1 11.214 28.5635 75.0354
10720 2 10.3915 29.1197 75.1539
10721 2 12.0242 29.1412 75.1345
10722 1 31.6506 6.42535 64.5052
10723 2 31.3302 7.35293 64.313
10724 2 30.8929 5.87794 64.8605
10725 1 23.8598 16.941 31.2341
10726 2 24.8516 17.0002 31.3472
10727 2 23.4371 16.7158 32.1119
10728 1 25.2155 18.4042 25.891
10729 2 26.061 18.9 25.6931
10730 2 25.4225 17.6026 26.4519
10731 1 31.7197 25.9515 45.6383
10732 2 31.5656 24.9658 45.7059
10733 2 32.6971 26.1289 45.5233
10734 1 54.6585 24.9968 46.7507
10735 2 53.9157 25.1045 47.4114
10736 2 54.2825 24.7061 45.8709
10737 1 21.0149 2.52984 43.1416
10738 2 21.1039 1.53414 43.1672
10739 2 20.06 2.77492 42.9738
10740 1 51.5073 24.6491 26.6256
10741 2 51.4884 24.5831 25.628
10742 2 50.8997 23.9579 27.0169
10743 1 19.5356 6.88263 60.6029
10744 2 19.2453 5.9303 60.6965
10745 2 19.6185 7.2965 61.5095
10746 1 2.33416 10.5193 50.5952
10747 2 2.87108 10.2425 51.3921
10748 2 2.69869 10.0748 49.777
10749 1 70.6116 7.5015 79.6747
10750 2 70.1803 8.3844 79.8605
10751 2 70.7626 7.01645 80.536
10752 1 22.8094 0.753336 19.8413
10753 2 23.436 1.38226 19.381
10754 2 22.3781 1.21873 20.6142
10755 1 52.7246 24.4534 72.7061
10756 2 52.894 23.939 73.5468
10757 2 53.5621 24.486 72.1608
10758 1 66.8277 25.625 83.1925
10759 2 67.5805 26.2538 82.9979
10760 2 66.7187 25.5316 84.1821
10761 1 67.245 14.4908 17.899
10762 2 66.7967 15.3843 17.8744
10763 2 66.6372 13.8247 18.3314
10764 1 9.45213 26.4666 38.7576
10765 2 8.74121 26.6409 38.0763
10766 2 9.64456 27.3087 39.2614
10767 1 22.54 21.2238 65.1464
10768 2 22.1168 20.4979 64.6042
10769 2 21.8305 21.8357 65.4959
10770 1 30.0837 12.9325 58.4823
10771 2 29.3383 13.2762 59.0534
10772 2 30.9168 13.4515 58.6737
10773 1 57.9024 15.9928 23.7609
10774 2 58.038 15.0027 23.7979
10775 2 58.7881 16.4473 23.6663
10776 1 1.3059 10.6982 39.5665
10777 2 1.8505 11.2241 38.9131
10778 2 1.82311 9.89454 39.8609
10779 1 19.9403 29.3179 86.5755
10780 2 19.9061 29.3667 87.5737
10781 2 19.6144 28.4217 86.2743
10782 1 47.61 19.1846 55.8032
10783 2 47.6318 18.6516 56.6491
10784 2 48.218 19.9737 55.8907
10785 1 56.4786 25.6138 61.5851
10786 2 56.5632 26.585 61.8078
10787 2 57.2067 25.3526 60.9514
10788 1 76.2259 20.787 86.6649
10789 2 75.402 20.669 86.1105
10790 2 76.0035 20.6378 87.6284
10791 1 79.3406 13.4485 46.3641
10792 2 78.5709 13.7116 46.9457
10793 2 0.0780922 14.1163 46.4649
10794 1 71.8594 20.6939 74.2961
10795 2 71.9628 21.3831 73.579
10796 2 72.4973 20.8897 75.041
10797 1 67.2979 3.45228 63.6234
10798 2 67.3177 4.10608 64.3798
10799 2 68.2319 3.26844 63.3171
10800 1 56.3477 1.79686 66.4457
10801 2 57.146 1.33112 66.8276
10802 2 55.6316 1.85548 67.1413
10803 1 18.5538 24.092 10.507
10804 2 18.7398 24.1506 9.52621
10805 2 18.8932 24.9162 10.9604
10806 1 75.5919 16.7987 10.8543
10807 2 74.6025 16.7056 10.9665
10808 2 76.0175 15.8944 10.8856
10809 1 19.6019 10.6344 50.2516
10810 2 20.5309 10.5763 50.6172
10811 2 19.0173 11.119 50.9024
10812 1 57.2865 23.2311 41.0607
10813 2 57.8628 23.9754 40.7233
10814 2 57.3546 23.1822 42.0571
10815 1 36.5892 15.1932 77.7954
10816 2 37.3458 15.7855 78.0723
10817 2 35.9359 15.113 78.5482
10818 1 8.01625 13.7487 66.4936
10819 2 8.98699 13.7637 66.254
10820 2 7.91278 13.9081 67.4754
10821 1 71.8264 14.3092 29.0271
10822 2 71.3197 15.0636 29.4442
10823 2 72.7108 14.2093 29.483
10824 1 64.9713 25.1499 86.1039
10825 2 64.8989 24.1603 86.2283
10826 2 65.6214 25.5223 86.7662
10827 1 56.4016 17.0687 63.9287
10828 2 56.536 16.161 64.3261
10829 2 55.9349 17.6563 64.5898
10830 1 21.2927 2.52316 14.4203
10831 2 20.9502 3.46233 14.3948
10832 2 22.1242 2.48654 14.9747
10833 1 50.8875 9.43819 29.7456
10834 2 50.3236 9.58208 30.5588
10835 2 50.3577 8.94513 29.0555
10836 1 21.4076 12.6063 77.9652
10837 2 22.098 13.2196 78.349
10838 2 20.5173 12.8103 78.3724
10839 1 29.4788 22.0628 85.2299
10840 2 28.7533 21.8178 85.8731
10841 2 30.235 21.4143 85.3178
10842 1 26.6923 18.2559 69.0397
10843 2 25.9489 18.5781 69.6259
10844 2 26.8418 17.2798 69.1972
10845 1 66.9035 24.1231 79.1249
10846 2 67.8136 24.2316 78.725
10847 2 66.6596 23.1534 79.1402
10848 1 41.6398 19.8608 58.1017
10849 2 41.493 20.8482 58.0422
10850 2 41.1189 19.4921 58.8716
10851 1 62.2507 23.6479 66.9086
10852 2 62.6983 23.7734 67.794
10853 2 61.9116 24.5289 66.5787
10854 1 33.1733 0.594564 40.0737
10855 2 33.7099 0.23028 40.8349
10856 2 33.4273 0.121286 39.2302
10857 1 5.87871 15.1081 48.7237
10858 2 5.41419 15.2327 47.8469
10859 2 5.93813 15.9869 49.1972
10860 1 52.7823 22.7317 80.1332
10861 2 51.8706 23.023 79.8434
10862 2 52.8531 21.7369 80.0608
10863 1 57.8488 8.69871 31.5621
10864 2 57.6236 9.51695 32.091
10865 2 57.2334 8.62959 30.7769
10866 1 75.5733 13.3891 61.028
10867 2 74.7624 12.8367 60.8346
10868 2 75.5239 13.7371 61.9642
10869 1 13.4567 21.7837 31.0617
10870 2 13.5909 22.2989 30.2152
10871 2 13.9564 20.9191 31.0085
10872 1 12.6821 14.7744 18.5917
10873 2 12.8614 15.1712 19.4919
10874 2 12.5679 15.5075 17.9211
10875 1 77.7291 28.6879 73.4801
10876 2 77.7604 28.7561 74.4773
10877 2 78.1044 27.8061 73.1944
10878 1 19.4035 25.7706 49.3753
10879 2 20.2438 25.2786 49.1477
10880 2 18.8077 25.8017 48.5727
10881 1 68.4286 8.08052 16.1463
10882 2 67.4743 7.99071 15.8614
10883 2 68.4671 8.48708 17.0592
10884 1 13.1883 22.8834 74.4607
10885 2 12.5034 22.8936 75.1893
10886 2 13.642 23.7734 74.4172
10887 1 17.338 19.7719 37.3992
10888 2 18.1452 19.234 37.1559
10889 2 17.4014 20.6768 36.9783
10890 1 13.9742 20.0503 28.3821
10891 2 14.9205 20.373 28.3638
10892 2 13.7524 19.6181 27.5079
10893 1 17.0152 7.0609 84.4736
10894 2 17.3196 7.29707 85.3964
10895 2 17.0279 6.06718 84.3625
10896 1 41.5646 5.58376 58.2886
10897 2 42.094 4.85565 57.8532
10898 2 40.6631 5.6425 57.8598
10899 1 59.1893 18.2877 19.2166
10900 2 59.5881 17.4954 19.6783
10901 2 59.8338 18.636 18.5359
10902 1 25.6165 4.15044 67.2029
10903 2 24.9305 3.44144 67.0394
10904 2 26.1396 4.30755 66.3652
10905 1 54.4316 27.4987 58.6611
10906 2 54.9462 28.2841 58.317
10907 2 54.2639 27.6131 59.6402
10908 1 17.3549 10.9683 86.4176
10909 2 16.5769 11.5559 86.6399
10910 2 18.2 11.4012 86.7313
10911 1 13.4495 20.3865 41.0402
10912 2 12.764 19.719 40.7493
10913 2 14.2731 19.9076 41.344
10914 1 61.6388 26.7657 72.152
10915 2 62.4858 26.5741 72.6479
10916 2 61.0832 25.9355 72.108
10917 1 29.131 7.90242 63.9045
10918 2 29.0461 7.25299 64.6602
10919 2 28.9892 7.42511 63.0373
10920 1 73.4024 4.3473 52.0547
10921 2 72.817 4.20158 51.2572
10922 2 73.2283 3.63168 52.7312
10923 1 71.8482 1.35185 90.1606
10924 2 72.1399 1.13228 89.2296
10925 2 71.9483 0.543464 90.7406
10926 1 33.6927 12.2318 74.3391
10927 2 33.6984 12.4054 75.3239
10928 2 34.6007 12.4159 73.9629
10929 1 43.0415 9.09941 53.0221
10930 2 43.5875 9.14822 53.8585
10931 2 43.6174 8.78958 52.2657
10932 1 65.8932 8.43469 58.5193
10933 2 65.7293 8.95184 57.6793
10934 2 65.4503 8.89729 59.2873
10935 1 50.6375 1.55657 90.2307
10936 2 50.2519 0.68779 89.92
10937 2 50.9609 1.46007 91.172
10938 1 59.7169 8.2693 26.8317
10939 2 60.6879 8.38594 27.0405
10940 2 59.6136 7.96926 25.8834
10941 1 74.8446 5.41233 82.2495
10942 2 75.3524 6.14975 82.6948
10943 2 75.2184 5.25491 81.3354
10944 1 16.9399 21.408 20.7688
10945 2 16.4417 21.0539 21.5603
10946 2 17.3478 22.2914 20.9997
10947 1 4.22315 29.4094 58.4889
10948 2 4.6496 0.297061 58.3148
10949 2 3.30807 29.3946 58.0859
10950 1 71.1166 6.9239 57.8874
10951 2 71.7974 7.64197 57.7428
10952 2 71.3102 6.44903 58.7459
10953 1 9.37612 19.3074 44.9684
10954 2 9.24326 18.9399 45.8889
10955 2 8.50559 19.2968 44.4764
10956 1 53.6354 9.48339 40.3487
10957 2 54.6106 9.27047 40.2877
10958 2 53.251 9.0542 41.166
10959 1 19.06 22.2698 25.2829
10960 2 19.9407 22.1356 24.8288
10961 2 18.4076 21.5873 24.9532
10962 1 55.0459 23.8721 24.3847
10963 2 55.2213 23.9437 25.3666
10964 2 55.4289 24.6697 23.9187
10965 1 67.6775 28.2789 18.0838
10966 2 67.1874 27.444 17.8332
10967 2 68.4585 28.4034 17.4719
10968 1 0.649298 14.4773 26.8729
10969 2 1.08563 15.2913 27.2565
10970 2 1.25363 13.6891 26.9891
10971 1 56.9123 25.8223 45.1125
10972 2 56.3138 25.0283 45.0059
10973 2 56.5425 26.4261 45.8187
10974 1 17.276 7.38534 46.3997
10975 2 17.3918 6.3952 46.4784
10976 2 16.7361 7.72022 47.1719
10977 1 28.5735 29.8911 30.179
10978 2 29.0264 0.316788 30.9624
10979 2 27.9095 0.529931 29.7903
10980 1 62.4377 7.24025 58.874
10981 2 62.371 7.59394 59.807
10982 2 62.1804 7.95753 58.2265
10983 1 42.1969 14.0159 69.2028
10984 2 42.2096 14.7232 68.496
10985 2 42.0251 14.4376 70.0932
10986 1 26.5102 13.7309 26.218
10987 2 26.1962 14.6295 26.5245
10988 2 27.2655 13.4259 26.798
10989 1 18.7255 21.7793 83.0781
10990 2 19.0494 20.8432 83.2152
10991 2 19.1849 22.1781 82.2844
10992 1 12.7644 17.5629 62.524
10993 2 13.4067 18.2253 62.1386
10994 2 13.2702 16.7801 62.8866
10995 1 78.5876 16.31 83.2924
10996 2 77.9412 16.0401 84.0059
10997 2 79.5004 16.4074 83.6891
10998 1 15.0112 11.1196 67.8093
10999 2 14.0168 11.0872 67.7084
11000 2 15.2477 11.1236 68.7809
11001 1 73.2688 0.810114 61.2492
11002 2 73.4512 0.154679 61.9821
11003 2 74.0741 1.38637 61.1094
11004 1 58.4042 7.56949 53.9688
11005 2 57.6177 7.68695 54.5751
11006 2 58.5099 8.38397 53.3983
11007 1 0.405232 11.8156 25.6239
11008 2 0.308262 11.9523 24.6381
11009 2 1.32795 12.0767 25.9075
11010 1 11.5419 7.73026 11.5579
11011 2 11.4624 8.72696 11.5741
11012 2 12.3145 7.46683 10.9802
11013 1 71.5343 1.65471 31.5517
11014 2 71.6488 0.687406 31.3254
11015 2 71.3923 2.17888 30.712
11016 1 71.0853 8.52713 32.3319
11017 2 71.1695 7.6392 32.7841
11018 2 70.3532 9.05341 32.7644
11019 1 6.07395 21.3383 54.4832
11020 2 6.983 21.7088 54.2925
11021 2 5.38966 22.0584 54.3681
11022 1 60.0759 17.9916 58.2223
11023 2 60.5263 18.3103 59.0563
11024 2 60.0932 18.7182 57.5356
11025 1 68.2703 11.6 64.0035
11026 2 68.656 10.6975 64.1952
11027 2 68.0526 12.0591 64.8648
11028 1 6.91254 1.17099 26.3103
11029 2 6.45 0.496394 26.8856
11030 2 7.67839 1.57 26.8146
11031 1 68.6483 13.0651 69.5677
11032 2 68.0956 12.42 69.0401
11033 2 68.0534 13.6027 70.1653
11034 1 18.4924 8.08568 70.702
11035 2 18.4717 9.05446 70.949
11036 2 17.5998 7.6751 70.8879
11037 1 63.0434 11.158 60.3588
11038 2 63.1404 10.5418 59.5773
11039 2 63.8769 11.7011 60.4606
11040 1 45.8672 27.8766 66.4883
11041 2 46.0124 27.2381 65.7324
11042 2 46.4873 27.6503 67.2395
11043 1 13.152 5.21405 37.1674
11044 2 13.7732 5.65806 37.8132
11045 2 12.3856 4.80972 37.6666
11046 1 79.4582 28.479 82.2734
11047 2 79.8817 28.2227 81.4046
11048 2 78.4739 28.3084 82.2276
11049 1 48.4112 19.686 76.4987
11050 2 49.1743 20.1054 76.9904
11051 2 48.6908 18.7914 76.1501
11052 1 78.4467 9.92664 35.3454
11053 2 79.3167 10.2892 35.6796
11054 2 78.1816 10.4117 34.5121
11055 1 71.9675 6.04036 36.8606
11056 2 72.1607 6.90539 37.3236
11057 2 71.3105 6.19655 36.123
11058 1 21.2924 16.5492 74.193
11059 2 20.659 17.2912 74.4127
11060 2 21.3714 16.4615 73.2
11061 1 2.99734 25.6683 54.5719
11062 2 3.03061 26.6562 54.7235
11063 2 2.715 25.211 55.4152
11064 1 23.2122 17.6617 42.54
11065 2 23.9295 18.3122 42.79
11066 2 23.1206 16.9736 43.2598
11067 1 20.9715 16.2645 14.5251
11068 2 21.8455 15.7833 14.4583
11069 2 20.3138 15.6942 15.0172
11070 1 38.1885 26.888 69.6401
11071 2 38.9768 26.3838 69.9927
11072 2 37.7543 27.3923 70.3866
11073 1 63.2384 21.4554 23.0817
11074 2 63.7729 22.2608 23.3379
11075 2 63.3428 20.7494 23.7822
11076 1 16.679 14.1486 46.6443
11077 2 17.2262 13.4117 47.0412
11078 2 16.0195 13.7635 45.9987
11079 1 55.7513 13.4548 86.8861
11080 2 55.7255 13.2933 85.8995
11081 2 54.973 12.9997 87.3187
11082 1 8.06013 3.71476 20.2889
11083 2 8.66962 4.12886 20.9649
11084 2 7.52689 4.43061 19.8381
11085 1 15.3051 21.4909 79.0648
11086 2 14.4384 21.9887 79.035
11087 2 15.1281 20.5243 79.2501
11088 1 42.4217 2.31191 69.9827
11089 2 42.6971 2.1724 69.0315
11090 2 41.4568 2.07202 70.089
11091 1 64.0419 3.75321 40.2281
11092 2 64.7205 4.03927 40.9046
11093 2 63.8213 4.52424 39.6307
11094 1 44.5431 22.144 47.9829
11095 2 45.0023 22.2555 48.8643
11096 2 45.1621 22.4195 47.2474
11097 1 32.4857 24.7089 32.4819
11098 2 33.3856 24.437 32.823
11099 2 32.2669 25.6266 32.8134
11100 1 68.1975 4.56117 38.178
11101 2 68.5231 5.44505 37.8422
11102 2 68.9798 3.96693 38.3649
11103 1 59.8201 11.8891 19.0597
11104 2 60.766 12.0001 18.7547
11105 2 59.7218 12.2607 19.9829
11106 1 56.4184 10.4803 35.8382
11107 2 56.3846 10.2503 36.8108
11108 2 56.3569 9.6427 35.2954
11109 1 62.8383 29.1611 12.4967
11110 2 62.6832 0.0833242 12.1425
11111 2 62.0052 28.8298 12.9398
11112 1 20.0561 7.34484 73.9536
11113 2 19.2152 7.39149 73.4144
11114 2 20.0144 8.01471 74.6949
11115 1 25.0505 28.6601 50.1616
11116 2 25.4416 28.9946 51.019
11117 2 24.2461 28.0996 50.3584
11118 1 57.8914 28.4002 66.1532
11119 2 58.3461 28.9356 65.4414
11120 2 57.2 27.8103 65.7361
11121 1 39.3805 10.7627 52.5159
11122 2 38.5008 10.3278 52.708
11123 2 39.4376 10.9835 51.5422
11124 1 34.7476 9.90895 59.4107
11125 2 34.5461 10.492 60.1978
11126 2 35.4695 10.329 58.8609
11127 1 14.8644 25.6056 45.8732
11128 2 15.631 25.2809 46.4271
11129 2 15.2087 26.1861 45.1353
11130 1 29.5297 13.7737 61.1833
11131 2 30.2841 13.8074 61.8388
11132 2 29.3017 14.702 60.8895
11133 1 23.4149 10.7217 87.3581
11134 2 22.7685 11.3189 87.8328
11135 2 22.9584 9.86766 87.1087
11136 1 61.2696 4.45101 33.6047
11137 2 61.3487 5.18722 32.9325
11138 2 60.3147 4.16132 33.6709
11139 1 75.7373 25.5878 34.902
11140 2 76.4958 25.2513 35.46
11141 2 76.046 26.3652 34.3539
11142 1 17.8419 21.6867 79.4729
11143 2 16.8559 21.6328 79.6309
11144 2 18.0131 22.0168 78.5446
11145 1 64.7624 19.7444 73.1194
11146 2 64.1997 20.5145 72.8188
11147 2 64.176 19.037 73.514
11148 1 50.8182 6.80279 74.324
11149 2 50.3453 6.14558 74.911
11150 2 51.8058 6.7154 74.4539
11151 1 36.3629 29.9757 52.0802
11152 2 35.4604 29.5484 52.1337
11153 2 37.0626 29.2668 51.9916
11154 1 60.0588 24.2553 72.2357
11155 2 59.3987 23.5968 71.8742
11156 2 60.6124 23.8176 72.9442
11157 1 30.154 26.2383 40.9417
11158 2 29.5312 25.6432 40.4337
11159 2 30.1153 26.0087 41.9142
11160 1 10.5323 23.1767 78.9694
11161 2 10.0614 24.0589 78.9673
11162 2 11.1254 23.1135 78.1667
11163 1 8.84014 2.45577 36.71
11164 2 9.55663 3.13794 36.5641
11165 2 9.25144 1.60529 37.0378
11166 1 77.9735 6.88892 76.9696
11167 2 78.1744 6.93015 77.9484
11168 2 77.4929 7.72095 76.6927
11169 1 19.1302 27.3258 78.0596
11170 2 18.9853 27.6494 77.1246
11171 2 19.4143 26.3671 78.0402
11172 1 51.7193 29.0339 35.3807
11173 2 52.5046 28.6748 35.885
11174 2 51.0286 29.3588 36.0266
11175 1 35.076 16.7173 84.3031
11176 2 35.4948 17.1531 85.0998
11177 2 34.9769 17.3893 83.5692
11178 1 77.9534 12.4245 17.344
11179 2 77.3206 12.8947 17.9591
11180 2 78.7397 12.0923 17.865
11181 1 0.878672 15.0665 81.9028
11182 2 79.8797 15.0204 81.9046
11183 2 1.18787 15.5629 81.0916
11184 1 53.7822 23.4398 54.8614
11185 2 52.885 23.5469 55.2899
11186 2 53.775 22.6334 54.2701
11187 1 75.5369 2.68765 60.283
11188 2 76.0379 2.10372 60.9218
11189 2 75.6408 3.6445 60.5544
11190 1 37.307 24.9572 51.0008
11191 2 37.8881 24.3082 50.5099
11192 2 37.7005 25.1419 51.9014
11193 1 53.5483 7.35059 70.9754
11194 2 52.6144 7.35579 70.6179
11195 2 53.5376 7.61618 71.9395
11196 1 53.4055 3.09584 27.6378
11197 2 52.5758 3.28354 27.1121
11198 2 53.179 2.52135 28.4243
11199 1 58.484 25.7609 42.8453
11200 2 58.6711 24.8132 43.1038
11201 2 57.7456 26.1221 43.4147
11202 1 2.8278 3.60671 66.2343
11203 2 2.06195 2.98215 66.0813
11204 2 2.63766 4.17799 67.0327
11205 1 10.6621 6.15768 62.401
11206 2 10.9481 6.47501 63.3052
11207 2 10.6258 5.15836 62.3946
11208 1 43.3758 4.74393 81.6933
11209 2 42.5509 4.20397 81.5261
11210 2 43.7412 4.52302 82.5975
11211 1 63.8926 15.1508 85.5084
11212 2 63.7216 14.4215 86.1708
11213 2 64.8587 15.4074 85.537
11214 1 4.38455 7.0467 80.5965
11215 2 4.89368 6.89886 81.4444
11216 2 4.81816 7.77845 80.0706
11217 1 72.5524 12.5658 89.4536
11218 2 72.6627 12.8621 90.4023
11219 2 72.869 11.6218 89.3604
11220 1 69.2298 7.3765 49.9857
11221 2 68.3958 6.89999 50.2639
11222 2 69.0713 8.3637 50.0032
11223 1 64.2535 28.3936 18.0097
11224 2 64.9111 27.8717 17.4663
11225 2 63.9964 27.8657 18.8191
11226 1 49.4621 25.7374 79.9256
11227 2 49.9835 24.9669 79.5589
11228 2 49.7639 25.9299 80.8593
11229 1 56.7188 6.77598 57.9748
11230 2 56.0265 7.3099 57.4894
11231 2 57.5993 6.8715 57.5107
11232 1 79.8856 14.5637 24.2427
11233 2 0.131995 14.4945 25.2094
11234 2 0.59369 14.129 23.6862
11235 1 72.0776 6.63688 60.3818
11236 2 71.8197 7.12098 61.218
11237 2 73.0686 6.68888 60.2587
11238 1 11.8996 13.7613 90.5046
11239 2 11.2278 13.4794 89.8196
11240 2 12.8096 13.7816 90.0904
11241 1 26.8667 11.8522 24.2151
11242 2 26.2564 12.6143 24.4313
11243 2 27.8161 12.1383 24.3447
11244 1 67.9955 23.4368 38.809
11245 2 68.8076 23.1182 39.2978
11246 2 67.1817 23.2556 39.3612
11247 1 6.1673 24.6796 65.4416
11248 2 5.69401 23.8435 65.1641
11249 2 7.13618 24.6084 65.2045
11250 1 60.3091 23.3884 35.202
11251 2 59.546 23.7387 35.745
11252 2 59.9543 22.8892 34.4115
11253 1 14.7511 12.2228 13.0974
11254 2 15.7145 12.0505 12.8918
11255 2 14.5473 11.9105 14.0253
11256 1 74.9777 19.5362 83.7929
11257 2 74.6781 20.4893 83.8354
11258 2 75.3545 19.3454 82.8865
11259 1 70.7567 3.28517 65.0613
11260 2 69.7884 3.04115 65.1147
11261 2 71.19 3.12578 65.9483
11262 1 69.2815 17.9593 64.7797
11263 2 69.2132 18.901 64.4502
11264 2 68.6951 17.8433 65.5814
11265 1 28.0163 11.5872 49.1438
11266 2 28.6356 11.6985 48.3666
11267 2 27.774 10.6219 49.2412
11268 1 6.50482 10.2059 47.3924
11269 2 6.4256 9.2481 47.1162
11270 2 6.24944 10.2975 48.3549
11271 1 75.7869 2.12424 66.03
11272 2 75.9548 2.86925 66.6755
11273 2 75.187 2.44657 65.2977
11274 1 75.5938 11.285 87.5838
11275 2 75.944 12.1264 87.9956
11276 2 74.758 11.0055 88.0563
11277 1 2.14343 6.16017 43.9294
11278 2 2.47615 5.55714 44.6544
11279 2 1.20242 5.91424 43.697
11280 1 53.7078 2.81613 84.174
11281 2 54.3354 3.43962 83.7077
11282 2 52.8174 2.83786 83.7195
11283 1 79.8149 11.1694 64.2284
11284 2 79.659 10.2004 64.037
11285 2 79.6403 11.3503 65.1963
11286 1 38.434 28.5371 55.4196
11287 2 37.8457 29.3439 55.3653
11288 2 37.87 27.7115 55.4014
11289 1 6.76369 24.4239 89.3762
11290 2 6.06608 24.1717 90.0469
11291 2 6.97941 25.3959 89.4692
11292 1 11.5194 6.38443 26.8242
11293 2 10.8652 5.87799 27.386
11294 2 11.8308 7.19342 27.3227
11295 1 50.0595 7.78438 57.7482
11296 2 50.9556 8.22096 57.6681
11297 2 49.4387 8.38698 58.2497
11298 1 70.6982 16.8485 83.6921
11299 2 71.5501 16.3788 83.9236
11300 2 70.1707 16.2872 83.0543
11301 1 55.1438 20.0354 77.2347
11302 2 54.5056 19.7544 77.9515
11303 2 56.0552 19.6799 77.4419
11304 1 10.4081 20.0691 86.0473
11305 2 10.7017 19.1542 85.7704
11306 2 11.1899 20.5732 86.4142
11307 1 11.9665 14.1534 11.4213
11308 2 12.9163 14.3154 11.1537
11309 2 11.7437 13.1872 11.2913
11310 1 43.0708 10.263 56.1472
11311 2 43.2574 11.2277 55.961
11312 2 43.8259 9.70498 55.8033
11313 1 61.2561 13.3344 67.2203
11314 2 60.5697 12.6892 66.8849
11315 2 61.0892 13.5258 68.1876
11316 1 1.46792 20.1471 79.8377
11317 2 0.99216 19.2811 79.6837
11318 2 1.43765 20.3756 80.8108
11319 1 1.53959 19.0946 43.7004
11320 2 1.91719 20.0203 43.7227
11321 2 0.715316 19.0844 43.1343
11322 1 31.0449 4.35911 81.1304
11323 2 31.2962 3.46977 81.5124
11324 2 31.8392 4.96624 81.1486
11325 1 37.6921 9.55665 78.2386
11326 2 37.0074 9.97532 78.8352
11327 2 37.4785 9.76985 77.2852
11328 1 43.3876 26.6546 43.0118
11329 2 42.6217 26.2177 43.4835
11330 2 44.1751 26.0382 43.013
11331 1 28.3052 9.21705 59.3549
11332 2 29.0108 9.92367 59.3021
11333 2 27.4219 9.60801 59.0961
11334 1 49.4568 12.8262 43.0437
11335 2 49.4555 12.1098 42.346
11336 2 49.5282 13.7209 42.6026
11337 1 78.1015 16.2692 26.4807
11338 2 77.931 15.2984 26.6492
11339 2 78.612 16.6562 27.2486
11340 1 69.6909 15.5641 32.4365
11341 2 68.7638 15.8137 32.7162
11342 2 70.218 15.2863 33.2396
11343 1 28.8444 16.6728 79.5848
11344 2 27.9127 16.6477 79.9471
11345 2 29.2161 15.7448 79.5563
11346 1 3.35145 16.6964 47.2256
11347 2 3.51138 16.868 48.1977
11348 2 2.65483 15.9864 47.1226
11349 1 14.0966 18.6247 90.4766
11350 2 14.374 17.7484 90.8703
11351 2 14.7597 18.9027 89.7816
11352 1 47.9742 9.28153 58.82
11353 2 47.7581 9.60083 57.8973
11354 2 48.1033 10.0685 59.4233
11355 1 75.6855 9.73207 43.5614
11356 2 75.1381 9.52631 44.3725
11357 2 75.3747 9.16668 42.7973
11358 1 46.2649 3.50429 57.6639
11359 2 46.5788 3.70301 56.7355
11360 2 45.694 2.68327 57.6542
11361 1 7.50595 6.62701 88.0436
11362 2 8.37903 6.35846 87.6366
11363 2 7.35718 7.60511 87.898
11364 1 67.4716 17.5702 59.9207
11365 2 66.9814 18.4013 59.6582
11366 2 67.8727 17.6924 60.8286
11367 1 33.2812 10.8272 55.7846
11368 2 32.8871 10.9272 56.6982
11369 2 33.2121 11.6963 55.2948
11370 1 8.64089 7.03094 24.7606
11371 2 8.80531 6.74594 23.8163
11372 2 9.18411 7.84597 24.9621
11373 1 41.5446 22.6563 74.76
11374 2 40.8238 23.2513 75.1155
11375 2 41.8333 22.019 75.4746
11376 1 26.1069 8.15758 33.8297
11377 2 27.0093 7.99689 33.4298
11378 2 25.4189 7.64374 33.3172
11379 1 27.6868 18.7846 64.6992
11380 2 28.205 17.9501 64.8862
11381 2 28.0144 19.197 63.8491
11382 1 48.5335 20.7108 52.223
11383 2 47.9274 20.0828 52.7113
11384 2 48.9136 20.2508 51.4206
11385 1 25.7418 9.66443 25.5234
11386 2 26.2665 8.81426 25.5678
11387 2 26.2277 10.3265 24.9529
11388 1 22.7149 0.542572 76.8565
11389 2 22.0332 0.149206 77.4735
11390 2 22.2586 1.12355 76.1826
11391 1 62.0635 18.099 40.887
11392 2 62.015 17.713 41.8083
11393 2 62.3197 17.3823 40.2384
11394 1 5.28748 8.02757 83.2316
11395 2 4.98294 8.65043 83.9522
11396 2 5.97989 7.40638 83.5986
11397 1 7.0614 13.2045 34.8077
11398 2 6.15172 13.4835 35.1154
11399 2 7.46499 12.5841 35.4802
11400 1 78.5223 22.8049 40.0444
11401 2 78.1603 22.5171 40.931
11402 2 79.3104 23.4042 40.1847
11403 1 28.8198 13.9359 78.9669
11404 2 27.9664 14.4561 78.9341
11405 2 28.6127 12.9592 79.0248
11406 1 51.9652 18.9453 90.847
11407 2 51.0087 19.2361 90.8668
11408 2 52.4821 19.4522 91.5368
11409 1 44.6003 6.67929 59.6078
11410 2 44.2732 5.88913 60.1262
11411 2 44.3535 6.57151 58.6448
11412 1 44.919 16.6792 39.6746
11413 2 44.9717 17.3322 40.4301
11414 2 44.2245 15.9891 39.8783
11415 1 44.9089 2.04349 88.0896
11416 2 44.1423 2.13352 88.7253
11417 2 45.5724 2.77153 88.2622
11418 1 77.7028 22.6628 53.1586
11419 2 78.3822 22.0607 53.5781
11420 2 76.9854 22.8702 53.8237
11421 1 10.7133 12.3896 32.8329
11422 2 11.5327 11.8195 32.7733
11423 2 9.90647 11.8363 32.6258
11424 1 11.6855 18.028 70.8412
11425 2 11.4779 17.8958 71.8104
11426 2 11.1082 17.4245 70.2913
11427 1 1.26011 24.4129 79.5138
11428 2 0.496128 25.0401 79.3622
11429 2 1.03486 23.7877 80.2611
11430 1 6.0034 12.369 80.4723
11431 2 6.98957 12.5305 80.4354
11432 2 5.53383 13.2231 80.6958
11433 1 48.1718 12.8553 73.1399
11434 2 48.2524 11.8726 73.3069
11435 2 49.0105 13.3133 73.4347
11436 1 53.7068 17.9494 70.9384
11437 2 54.4624 17.3366 71.1697
11438 2 52.842 17.5327 71.2186
11439 1 54.7253 28.331 28.4194
11440 2 54.0741 28.9055 27.9234
11441 2 54.2457 27.828 29.1384
11442 1 29.0958 19.3672 70.4541
11443 2 28.2909 19.0963 69.926
11444 2 29.5055 20.1815 70.0431
11445 1 10.5142 14.0171 21.3724
11446 2 11.3932 14.3352 21.0171
11447 2 10.6061 13.0747 21.6942
11448 1 63.8444 0.216639 67.2516
11449 2 64.7518 29.814 67.3714
11450 2 63.2785 0.00614754 68.0488
11451 1 11.995 29.8022 32.6407
11452 2 12.2635 28.9147 33.0152
11453 2 12.5426 0.000359261 31.8277
11454 1 31.6007 27.3431 76.9793
11455 2 32.5101 27.5979 76.6506
11456 2 31.0445 28.1665 77.0928
11457 1 47.5565 17.9625 73.692
11458 2 47.115 18.7528 74.1167
11459 2 48.335 18.2697 73.1448
11460 1 3.95132 22.7102 34.4484
11461 2 4.10408 21.9084 35.0261
11462 2 3.98711 23.5371 35.0096
11463 1 69.6608 23.668 64.0409
11464 2 68.8875 23.2212 63.5909
11465 2 69.3221 24.3744 64.6624
11466 1 23.8991 25.1598 83.0345
11467 2 22.9796 25.3793 82.7085
11468 2 24.213 24.3144 82.6023
11469 1 62.7076 22.1145 35.0992
11470 2 62.4816 22.0751 34.1259
11471 2 61.9011 22.3988 35.6176
11472 1 40.9457 19.5885 48.7074
11473 2 40.6611 18.6679 48.4402
11474 2 40.4621 20.2623 48.1487
11475 1 37.4974 25.456 74.388
11476 2 36.7628 25.9145 74.888
11477 2 38.2256 25.2018 75.0245
11478 1 60.0981 14.6439 52.0905
11479 2 60.2865 15.6156 52.2328
11480 2 59.1708 14.533 51.7329
11481 1 36.7194 2.48505 53.884
11482 2 37.3104 3.291 53.9182
11483 2 37.179 1.75598 53.3768
11484 1 59.3781 29.0467 83.2092
11485 2 58.4273 29.3548 83.2418
11486 2 59.4421 28.1226 83.586
11487 1 34.6792 28.7997 34.0255
11488 2 34.7812 28.0903 34.7229
11489 2 34.9678 29.6804 34.4013
11490 1 74.9421 10.9598 77.3337
11491 2 74.4918 10.5398 78.1216
11492 2 75.9029 10.6836 77.3126
11493 1 63.9876 28.5924 35.2574
11494 2 63.0245 28.3491 35.142
11495 2 64.0581 29.4179 35.8173
11496 1 22.4161 19.3521 84.7027
11497 2 22.6552 18.5662 85.2731
11498 2 22.4533 20.1865 85.2525
11499 1 16.0506 10.1064 45.2243
11500 2 16.4774 9.39572 45.7835
11501 2 15.5889 10.7654 45.8181
11502 1 64.9813 4.42456 51.779
11503 2 65.7084 5.10934 51.8284
11504 2 64.5884 4.42127 50.8594
11505 1 42.8659 20.7421 72.6233
11506 2 43.2192 20.1696 73.3631
11507 2 43.5662 20.8432 71.9165
11508 1 38.8703 21.9546 57.2895
11509 2 38.0674 22.4934 57.5446
11510 2 39.5964 22.5665 56.9759
11511 1 24.7355 10.0208 67.3244
11512 2 24.2359 10.0053 68.1906
11513 2 25.0088 10.9594 67.114
11514 1 38.2667 29.153 58.1006
11515 2 38.2335 28.9775 57.1167
11516 2 38.9782 29.8283 58.2949
11517 1 51.4427 16.9899 83.4298
11518 2 51.5221 16.1917 84.027
11519 2 52.0859 17.695 83.7284
11520 1 57.178 16.5384 57.6148
11521 2 56.404 16.8355 58.1738
11522 2 58.027 16.661 58.1288
11523 1 47.6053 25.5747 87.1643
11524 2 47.9569 24.6475 87.2939
11525 2 47.7571 26.1081 87.9964
11526 1 68.9237 23.1441 34.9654
11527 2 69.4924 22.3222 34.9352
11528 2 68.5532 23.2595 35.887
11529 1 54.2293 15.763 37.6149
11530 2 53.6735 15.1143 37.0949
11531 2 53.692 16.1274 38.3755
11532 1 8.64007 10.656 51.2182
11533 2 9.28575 10.1681 50.6308
11534 2 8.20411 11.3897 50.697
11535 1 12.2083 22.97 18.9569
11536 2 13.1347 22.7001 18.6946
11537 2 11.5634 22.2558 18.685
11538 1 66.9736 19.2637 54.7015
11539 2 67.4422 18.4787 55.1068
11540 2 66.071 19.3655 55.1199
11541 1 41.7138 0.231884 46.9023
11542 2 42.6966 0.121952 46.7535
11543 2 41.3485 0.889619 46.2436
11544 1 55.4115 20.0484 82.8089
11545 2 54.6222 19.9744 83.4184
11546 2 55.4719 20.9812 82.4536
11547 1 67.9447 1.84272 39.5057
11548 2 67.4778 2.6779 39.2151
11549 2 67.5408 1.0556 39.0396
11550 1 14.0847 14.521 82.0877
11551 2 13.2376 14.0561 81.83
11552 2 14.6315 14.6956 81.2689
11553 1 79.0035 5.0004 38.7671
11554 2 78.6912 4.52584 37.9441
11555 2 79.1998 4.33101 39.4836
11556 1 1.89401 18.6672 89.7823
11557 2 1.44796 17.8864 89.3449
11558 2 1.45362 19.5136 89.4827
11559 1 13.8898 13.39 38.9043
11560 2 14.2805 12.4907 39.1006
11561 2 14.509 14.1019 39.2356
11562 1 30.9121 11.9059 90.6581
11563 2 31.7522 12.3189 91.01
11564 2 31.1366 11.073 90.1523
11565 1 47.7599 13.3555 51.556
11566 2 48.2623 14.1508 51.2166
11567 2 48.3745 12.5681 51.6026
11568 1 24.4081 29.056 79.8101
11569 2 23.8061 29.6264 79.2514
11570 2 25.2055 28.7851 79.271
11571 1 11.8028 19.8144 22.3681
11572 2 12.4184 20.2515 21.7124
11573 2 11.1021 19.2989 21.8749
11574 1 39.4183 16.8384 73.3114
11575 2 39.2463 16.7475 74.2923
11576 2 39.9681 17.6568 73.1438
11577 1 37.0876 9.86455 89.9624
11578 2 38.0871 9.84123 89.9418
11579 2 36.7384 8.9637 90.2204
11580 1 60.5196 1.70396 31.1452
11581 2 59.532 1.58522 31.2487
11582 2 60.9811 0.837194 31.3341
11583 1 23.527 12.0713 29.9173
11584 2 23.2619 12.7924 30.5574
11585 2 23.6663 11.2166 30.4173
11586 1 19.6371 13.2199 80.154
11587 2 18.8335 13.1779 80.7478
11588 2 19.644 14.0914 79.6637
11589 1 62.8145 20.6492 29.6443
11590 2 63.5551 20.0074 29.4453
11591 2 62.6272 20.6478 30.6266
11592 1 14.9902 18.5552 36.2585
11593 2 15.8081 18.926 36.6986
11594 2 15.2601 17.9264 35.5293
11595 1 35.4919 24.6338 47.9356
11596 2 34.9653 25.0154 48.6952
11597 2 35.4896 23.6357 47.9966
11598 1 46.5042 13.2669 32.3209
11599 2 46.1671 12.3459 32.1257
11600 2 45.9155 13.6994 33.0039
11601 1 11.4905 24.7543 21.2457
11602 2 12.1514 24.3628 20.6053
11603 2 10.9876 24.0175 21.6976
11604 1 11.0626 5.80793 41.6608
11605 2 11.6955 5.81949 42.435
11606 2 10.8687 4.86142 41.4029
11607 1 76.3006 19.303 64.0406
11608 2 76.3069 20.2553 64.3457
11609 2 75.4222 18.8848 64.2717
11610 1 67.9279 22.4732 56.3325
11611 2 68.3118 22.6987 57.2279
11612 2 66.9304 22.4407 56.3961
11613 1 22.6156 5.28309 31.0839
11614 2 21.8848 5.84984 31.4642
11615 2 23.4975 5.59474 31.4377
11616 1 47.8113 8.46423 54.0039
11617 2 48.3783 8.88398 54.7127
11618 2 47.0341 8.0009 54.4298
11619 1 36.6367 26.4367 55.3892
11620 2 37.144 26.0291 56.1484
11621 2 35.9224 27.0366 55.7495
11622 1 46.8701 7.40997 31.4716
11623 2 46.0389 7.68953 30.991
11624 2 46.6814 6.59265 32.016
11625 1 69.3738 24.6572 86.3801
11626 2 69.269 25.6483 86.4617
11627 2 69.4273 24.2514 87.2925
11628 1 14.1334 4.20906 14.781
11629 2 14.066 5.17534 14.5325
11630 2 13.8477 4.08871 15.7318
11631 1 23.9077 13.1622 75.7197
11632 2 23.9739 13.6436 76.5937
11633 2 23.1051 13.4878 75.2199
11634 1 27.3064 28.7518 38.8632
11635 2 27.6486 29.3405 38.1308
11636 2 27.6484 29.0815 39.7431
11637 1 10.5885 24.2558 89.6431
11638 2 11.0864 24.4343 90.4918
11639 2 11.2311 23.9631 88.935
11640 1 28.947 0.77613 68.448
11641 2 28.4265 29.9656 68.7166
11642 2 28.3421 1.57228 68.4369
11643 1 51.8264 5.61581 55.5865
11644 2 51.7451 6.50832 55.1429
11645 2 51.7266 4.89324 54.9024
11646 1 26.5811 26.2341 75.0542
11647 2 25.5958 26.1738 75.2142
11648 2 27.0675 25.7585 75.787
11649 1 12.5217 4.01838 12.0012
11650 2 12.4804 3.24998 12.6398
11651 2 13.1337 4.72101 12.3643
11652 1 58.6482 29.3995 43.3073
11653 2 58.9032 0.076487 43.9978
11654 2 57.8599 28.8754 43.6296
11655 1 29.6621 14.9257 55.3935
11656 2 28.9216 15.5911 55.4878
11657 2 29.5734 14.4502 54.5182
11658 1 1.04887 4.03444 21.3438
11659 2 0.581029 4.91794 21.3671
11660 2 2.03804 4.18062 21.357
11661 1 7.68379 0.910192 63.4707
11662 2 7.06401 0.342743 64.0128
11663 2 8.42649 1.24203 64.0523
11664 1 27.5633 9.85309 67.868
11665 2 26.9547 9.2875 67.3114
11666 2 27.7168 10.7284 67.4094
11667 1 28.2558 13.0918 76.2651
11668 2 28.5638 13.5445 77.1018
11669 2 27.643 12.3374 76.5004
11670 1 66.097 1.55477 16.4465
11671 2 67.0741 1.56073 16.2338
11672 2 65.5833 1.24757 15.6454
11673 1 41.235 20.3051 76.1432
11674 2 42.0899 19.8062 76.0009
11675 2 40.7122 19.8685 76.8753
11676 1 27.051 24.5995 55.5205
11677 2 26.7383 25.5482 55.4734
11678 2 27.5817 24.3825 54.7012
11679 1 26.0192 22.3486 60.4313
11680 2 25.2344 22.4955 61.0335
11681 2 25.9133 22.9017 59.6049
11682 1 71.9838 12.2129 15.3071
11683 2 72.6131 12.5043 16.0276
11684 2 71.6178 11.3092 15.5295
11685 1 5.71993 12.7456 89.5148
11686 2 5.84054 13.7152 89.7276
11687 2 6.55053 12.3931 89.0837
11688 1 29.285 9.0725 34.6101
11689 2 30.1227 9.43393 34.2007
11690 2 29.3618 8.07999 34.7052
11691 1 78.8127 9.03311 88.5925
11692 2 78.9912 8.7889 89.5456
11693 2 79.479 9.71595 88.2929
11694 1 61.6768 25.9399 80.8185
11695 2 62.5089 26.0218 81.367
11696 2 61.6715 25.056 80.3509
11697 1 51.9692 28.6202 55.4073
11698 2 51.1727 29.0783 55.8019
11699 2 51.717 28.2085 54.5316
11700 1 1.70285 9.59992 29.8051
11701 2 2.50623 9.82301 30.3572
11702 2 0.92614 10.1518 30.1086
11703 1 4.42618 27.4686 80.9086
11704 2 4.5323 26.6461 80.3499
11705 2 4.11428 28.2246 80.333
11706 1 57.5357 15.4159 47.157
11707 2 58.0162 16.0809 46.5853
11708 2 57.9176 14.5049 47.0012
11709 1 4.72371 6.15636 53.0752
11710 2 3.81761 6.00769 53.4713
11711 2 4.64446 6.2334 52.0813
11712 1 34.614 2.77877 76.393
11713 2 33.8219 2.32032 76.7959
11714 2 35.2596 3.02542 77.1157
11715 1 52.2035 22.004 77.2125
11716 2 52.8914 22.5192 76.7013
11717 2 51.8824 22.5521 77.9849
11718 1 42.5339 25.4434 76.8428
11719 2 42.8347 24.7106 76.2326
11720 2 41.5478 25.5761 76.7436
11721 1 0.055495 28.9908 28.6224
11722 2 0.804402 28.379 28.877
11723 2 0.181825 29.2977 27.6791
11724 1 35.3139 7.82897 34.1845
11725 2 34.3961 7.81068 33.788
11726 2 35.2456 7.885 35.1806
11727 1 75.8188 1.95287 50.716
11728 2 76.7046 2.2939 51.0307
11729 2 75.1875 2.72007 50.6024
11730 1 23.734 28.237 37.6922
11731 2 23.7793 27.5212 36.9954
11732 2 24.4761 28.8913 37.5466
11733 1 0.288822 16.0357 67.2427
11734 2 79.8801 16.9395 67.1157
11735 2 0.287845 15.5441 66.3719
11736 1 8.88255 3.12846 90.2019
11737 2 9.15204 4.07679 90.0345
11738 2 7.89178 3.08095 90.3289
11739 1 51.655 5.07693 79.1129
11740 2 51.8732 4.11663 78.9391
11741 2 51.8946 5.30779 80.056
11742 1 31.4921 27.3706 73.3013
11743 2 32.3133 26.8752 73.0181
11744 2 31.1368 26.9715 74.1466
11745 1 39.2277 13.5843 71.9774
11746 2 40.1514 13.9674 71.9713
11747 2 38.9013 13.5165 72.9202
11748 1 43.4608 7.9118 30.4893
11749 2 43.5967 7.00954 30.0801
11750 2 43.0849 8.53544 29.8039
11751 1 74.52 11.7782 67.5205
11752 2 75.3167 12.3663 67.3811
11753 2 74.5632 11.0035 66.8897
11754 1 67.8683 1.4381 13.0181
11755 2 67.3821 1.32167 13.8842
11756 2 68.4545 0.644409 12.8556
11757 1 54.2178 24.5424 83.9949
11758 2 54.2827 24.9776 84.8929
11759 2 55.1309 24.2743 83.6877
11760 1 27.6116 16.2818 41.0154
11761 2 28.6115 16.2861 41.0301
11762 2 27.2668 17.0385 41.5708
11763 1 39.908 13.2839 31.2178
11764 2 40.1554 12.4405 30.7409
11765 2 40.1889 13.2201 32.1754
11766 1 61.2577 26.6633 75.71
11767 2 60.8836 25.7468 75.8517
11768 2 60.689 27.3329 76.1876
11769 1 20.8689 21.4971 47.5549
11770 2 20.6568 20.9928 48.3919
11771 2 21.8331 21.762 47.5605
11772 1 77.5889 12.6539 20.5689
11773 2 78.086 12.3565 21.3841
11774 2 78.079 13.4113 20.1374
11775 1 72.7494 14.0576 23.563
11776 2 72.9507 13.1457 23.9205
11777 2 72.0103 13.9968 22.8921
11778 1 28.7536 10.0389 70.5857
11779 2 29.5906 9.5123 70.4366
11780 2 28.115 9.86937 69.8352
11781 1 18.4922 10.8459 12.6235
11782 2 19.1102 10.2578 13.1453
11783 2 17.7326 10.3003 12.2693
11784 1 21.6092 22.93 32.9938
11785 2 22.252 23.3139 33.6567
11786 2 21.5881 21.9347 33.0879
11787 1 1.62235 19.9689 83.3874
11788 2 1.71435 20.8968 83.0263
11789 2 0.657886 19.7047 83.3858
11790 1 26.6202 11.096 36.1979
11791 2 27.5217 10.9889 35.7785
11792 2 26.6561 10.7876 37.1485
11793 1 12.6435 28.7977 84.6335
11794 2 12.1958 28.0271 84.1799
11795 2 11.994 29.5522 84.7275
11796 1 1.10779 16.5804 34.8233
11797 2 1.3016 17.5472 34.99
11798 2 1.96581 16.0672 34.8025
11799 1 22.872 25.714 88.2212
11800 2 22.5339 26.2968 87.4823
11801 2 22.0979 25.345 88.7356
11802 1 55.7368 19.281 46.4731
11803 2 56.2368 18.8374 47.2168
11804 2 55.2928 18.5852 45.9084
11805 1 16.2183 16.7398 85.7977
11806 2 17.0568 16.9505 86.3003
11807 2 15.4714 16.5871 86.4448
11808 1 49.9274 12.3795 56.877
11809 2 50.5808 12.8069 57.5019
11810 2 49.8265 12.9478 56.0604
11811 1 70.272 2.32725 28.9525
11812 2 70.5046 3.2853 28.7851
11813 2 70.3404 1.81328 28.0975
11814 1 43.3439 26.7411 37.3143
11815 2 43.2231 27.4701 36.6405
11816 2 42.4499 26.4527 37.6572
11817 1 21.5737 21.7041 53.9742
11818 2 22.0887 20.8913 54.2462
11819 2 20.8071 21.8386 54.6021
11820 1 56.4918 10.8111 67.3983
11821 2 56.9714 11.1228 68.2186
11822 2 55.952 11.5639 67.0215
11823 1 50.6926 21.5616 89.4167
11824 2 50.2445 22.3546 89.0041
11825 2 50.0065 20.868 89.6365
11826 1 1.16457 1.9396 83.5982
11827 2 0.897095 0.978347 83.5314
11828 2 0.407721 2.51807 83.2939
11829 1 3.03364 14.7242 25.4824
11830 2 3.43794 14.4232 24.6188
11831 2 2.92264 13.9381 26.0904
11832 1 5.18377 18.8643 29.8736
11833 2 5.57725 18.7037 28.9684
11834 2 5.83195 19.3824 30.4316
11835 1 21.4404 14.2355 67.2595
11836 2 21.9454 14.722 67.9725
11837 2 21.152 13.3427 67.6055
11838 1 32.8993 23.8845 73.9318
11839 2 32.3627 23.2873 73.3356
11840 2 33.1811 24.6978 73.4227
11841 1 59.4839 28.4079 49.2955
11842 2 58.9659 28.4834 50.1475
11843 2 59.5844 27.4435 49.0508
11844 1 55.9736 6.74136 52.4218
11845 2 56.5461 6.07867 51.939
11846 2 56.5555 7.37945 52.9261
11847 1 63.5524 1.03983 56.5268
11848 2 64.4323 1.31134 56.9167
11849 2 63.1141 0.370818 57.127
11850 1 8.18115 23.3071 51.5305
11851 2 7.9154 23.7613 52.3808
11852 2 9.01139 23.7327 51.1706
11853 1 55.254 4.17043 31.3091
11854 2 55.6547 3.26894 31.4728
11855 2 54.3123 4.18264 31.6451
11856 1 73.5971 24.5809 39.7399
11857 2 72.6174 24.4649 39.9034
11858 2 73.7885 25.5394 39.5283
11859 1 76.1074 3.51605 31.8856
11860 2 75.2683 4.04123 32.0276
11861 2 76.7232 3.65564 32.661
11862 1 40.5826 9.35965 83.5978
11863 2 39.8286 9.8913 83.2119
11864 2 41.4498 9.81282 83.3915
11865 1 29.8502 2.18724 86.6049
11866 2 30.2207 2.657 85.8036
11867 2 30.6021 1.83578 87.1626
11868 1 7.43838 7.37916 42.6899
11869 2 6.93392 8.13344 42.2697
11870 2 6.93472 7.04403 43.4862
11871 1 59.1937 16.9168 49.3186
11872 2 58.9512 16.0317 48.9213
11873 2 58.4737 17.5809 49.1173
11874 1 29.4264 19.5856 88.4024
11875 2 29.9197 18.951 87.8075
11876 2 28.4458 19.3965 88.3512
11877 1 79.1687 0.762221 34.8166
11878 2 79.6875 1.41468 34.2642
11879 2 79.0394 29.9162 34.2994
11880 1 3.24373 20.5595 68.3916
11881 2 4.142 20.2044 68.6505
11882 2 2.79642 20.9524 69.1951
11883 1 14.0006 8.99281 78.9615
11884 2 14.6232 9.70468 78.6365
11885 2 13.0672 9.35082 78.9832
11886 1 44.1255 4.35382 31.1536
11887 2 44.9717 3.90488 30.8664
11888 2 44.3343 5.05094 31.8395
11889 1 19.1993 14.645 52.9757
11890 2 19.5375 14.1791 52.1581
11891 2 19.9736 14.9412 53.5349
11892 1 6.64584 16.1255 11.4824
11893 2 6.01909 15.491 11.0301
11894 2 6.15923 16.6163 12.2052
11895 1 68.0288 13.6504 52.9581
11896 2 68.5079 13.485 53.8202
11897 2 67.1923 13.1032 52.9314
11898 1 73.8615 9.25884 60.9727
11899 2 73.5202 10.19 60.8448
11900 2 74.0952 8.86455 60.0839
11901 1 79.436 21.4143 37.8725
11902 2 79.1105 20.4727 37.9599
11903 2 78.8737 22.0154 38.4404
11904 1 17.4405 6.06461 77.5001
11905 2 18.2976 5.71855 77.8816
11906 2 17.638 6.79084 76.8416
11907 1 61.1734 20.5274 52.9125
11908 2 60.6245 19.8342 53.3796
11909 2 61.6754 21.0665 53.5889
11910 1 26.6558 16.2195 57.4559
11911 2 25.7135 16.5206 57.6025
11912 2 26.924 16.4115 56.5119
11913 1 49.5407 15.5731 74.3725
11914 2 50.2854 14.957 74.6291
11915 2 49.7858 16.0617 73.5351
11916 1 74.5191 11.7745 39.5743
11917 2 75.2232 11.1468 39.2423
11918 2 74.4035 11.6544 40.5603
11919 1 37.0339 12.5188 53.7779
11920 2 36.5035 12.9977 54.4773
11921 2 36.5419 11.6969 53.4909
11922 1 30.9755 24.917 29.9497
11923 2 31.5804 24.8706 29.1548
11924 2 31.5213 25.0546 30.7763
11925 1 48.3337 15.2044 81.4405
11926 2 48.6 16.1126 81.1175
11927 2 47.3433 15.176 81.5757
11928 1 19.448 2.25541 84.3105
11929 2 18.5837 1.84185 84.5967
11930 2 20.199 1.8556 84.8361
11931 1 16.6763 24.063 42.0012
11932 2 16.7503 23.2982 42.6413
11933 2 17.0131 24.897 42.438
11934 1 65.0983 13.0756 49.9962
11935 2 65.2113 12.5643 50.8482
11936 2 64.1238 13.1874 49.8014
11937 1 29.8252 17.8793 26.6892
11938 2 29.0082 18.4516 26.7609
11939 2 30.6412 18.4545 26.7469
11940 1 50.4814 21.2114 84.2377
11941 2 49.8294 21.0638 84.9814
11942 2 51.4101 21.0497 84.5717
11943 1 29.8171 22.7139 69.0333
11944 2 30.215 22.2369 69.8169
11945 2 28.8894 23.0107 69.2597
11946 1 76.1313 27.7619 83.4391
11947 2 76.2123 26.9326 82.8862
11948 2 75.3877 27.6516 84.0984
11949 1 25.7472 2.49999 74.8268
11950 2 25.7523 1.65516 75.3618
11951 2 24.91 2.54432 74.2817
11952 1 5.16191 16.8354 36.1288
11953 2 5.10099 17.8288 36.0317
11954 2 4.53867 16.3983 35.4803
11955 1 9.26359 16.4716 63.8942
11956 2 8.55836 16.6046 64.5906
11957 2 8.98231 16.9192 63.0453
11958 1 55.738 26.4656 53.7861
11959 2 55.3776 26.0377 54.6149
11960 2 55.035 26.4591 53.0749
11961 1 75.9923 18.2777 51.733
11962 2 76.8757 18.3457 51.2693
11963 2 75.2562 18.3493 51.0599
11964 1 1.66696 16.6035 49.8523
11965 2 1.06323 16.5239 49.0591
11966 2 1.85066 15.6935 50.224
11967 1 9.92346 22.0652 62.0272
11968 2 9.20703 22.7467 62.1763
11969 2 9.97263 21.4549 62.8179
11970 1 55.8102 17.404 23.7627
11971 2 56.6931 16.9752 23.9541
11972 2 55.1284 16.6957 23.5798
11973 1 64.0057 21.7608 80.9301
11974 2 64.1736 21.8748 79.9509
11975 2 63.0981 22.1146 81.1561
11976 1 74.941 17.2503 79.692
11977 2 75.3267 18.1041 80.0417
11978 2 73.9938 17.1616 80.0001
11979 1 59.8968 1.95078 70.5818
11980 2 60.5329 2.22499 71.303
11981 2 60.0487 2.51595 69.7709
11982 1 41.3138 17.5562 70.8217
11983 2 42.3106 17.6162 70.7687
11984 2 40.9934 18.0417 71.6351
11985 1 77.8671 22.2084 31.2981
11986 2 77.9768 22.6947 30.4313
11987 2 77.3297 21.3784 31.1489
11988 1 41.4744 16.3405 82.161
11989 2 41.9509 16.5661 81.3113
11990 2 40.7086 15.7291 81.9615
11991 1 56.5113 29.7068 38.2179
11992 2 55.516 29.7529 38.3029
11993 2 56.9152 29.5388 39.1172
11994 1 18.359 22.0777 68.5259
11995 2 17.469 21.7859 68.1758
11996 2 18.8814 22.5092 67.7904
11997 1 56.6902 24.0668 64.2052
11998 2 57.4887 23.5835 63.8464
11999 2 56.429 24.7952 63.5717
12000 1 48.9136 21.4102 61.6193
12001 2 48.0134 21.086 61.9099
12002 2 48.8262 21.9071 60.7559
12003 1 9.82082 6.40423 35.8953
12004 2 10.1585 5.74324 35.2251
12005 2 10.5953 6.82804 36.3649
12006 1 46.8932 22.4267 28.1601
12007 2 46.2527 23.1227 27.8357
12008 2 46.4472 21.5317 28.1479
12009 1 19.3796 8.12719 44.4381
12010 2 19.1978 8.56553 45.3184
12011 2 19.8196 7.24232 44.5909
12012 1 26.0958 16.6558 61.2472
12013 2 25.9332 17.3469 60.5429
12014 2 25.2203 16.3438 61.6163
12015 1 43.8939 13.7214 54.8791
12016 2 44.2459 13.286 54.0505
12017 2 42.96 13.4072 55.0497
12018 1 73.9826 11.9111 73.9902
12019 2 74.6933 11.257 74.2489
12020 2 73.3216 11.4641 73.3875
12021 1 31.9412 12.5438 68.2569
12022 2 32.7307 12.0053 67.9625
12023 2 31.2793 12.601 67.5094
12024 1 23.999 14.7783 58.6113
12025 2 23.7627 15.4752 57.9342
12026 2 24.1929 15.218 59.4883
12027 1 51.0134 25.2209 88.7752
12028 2 50.7325 25.3504 89.7262
12029 2 50.3349 24.6603 88.3006
12030 1 1.73681 11.6169 32.4992
12031 2 1.03505 12.2514 32.1753
12032 2 1.32616 10.9605 33.132
12033 1 67.1889 16.315 32.4088
12034 2 67.2038 17.1797 32.9109
12035 2 67.5909 16.4486 31.503
12036 1 78.7772 19.3605 21.2386
12037 2 78.121 19.671 20.5509
12038 2 78.3874 18.5942 21.7493
12039 1 1.79223 3.77571 42.5021
12040 2 2.3877 4.07957 43.2458
12041 2 2.34904 3.39685 41.7629
12042 1 38.4944 26.3272 48.534
12043 2 39.493 26.2868 48.4985
12044 2 38.1578 25.6679 49.2063
12045 1 72.6914 19.3635 13.6773
12046 2 72.999 18.4146 13.7483
12047 2 73.2755 19.8558 13.0319
12048 1 55.9884 4.53025 85.1542
12049 2 56.1583 3.93873 84.366
12050 2 56.3246 5.45141 84.9583
12051 1 63.368 13.1682 15.4743
12052 2 63.236 13.5361 16.3947
12053 2 63.0781 12.2114 15.453
12054 1 44.1585 12.8761 47.897
12055 2 43.2538 12.8169 48.3189
12056 2 44.7284 12.1219 48.2234
12057 1 79.5577 7.78487 30.9834
12058 2 0.349417 7.3253 30.5809
12059 2 79.2648 7.28942 31.8012
12060 1 77.9399 9.97719 30.7779
12061 2 77.9893 10.3404 31.7083
12062 2 78.5409 9.18194 30.6982
12063 1 40.5567 4.792 66.1451
12064 2 40.8248 3.88408 66.4673
12065 2 40.4291 4.76951 65.1536
12066 1 54.6717 10.4197 50.9476
12067 2 55.6584 10.5374 51.0596
12068 2 54.3054 11.1751 50.4044
12069 1 78.0992 16.3591 23.8694
12070 2 78.0762 16.7253 24.7996
12071 2 78.8122 15.661 23.8036
12072 1 46.3859 13.0691 84.7844
12073 2 46.2431 12.1389 84.4463
12074 2 45.5946 13.6339 84.5505
12075 1 29.2517 28.1537 50.084
12076 2 29.7565 28.9438 49.7366
12077 2 29.8221 27.3355 50.0117
12078 1 52.4375 16.412 53.5468
12079 2 53.405 16.2236 53.7157
12080 2 52.1769 17.2588 54.0105
12081 1 45.2365 2.52306 67.274
12082 2 45.0413 3.41806 67.6751
12083 2 44.3913 2.12726 66.9148
12084 1 52.1509 15.412 70.962
12085 2 51.4226 16.0879 71.0752
12086 2 51.7774 14.5875 70.5369
12087 1 71.3153 19.9824 79.1965
12088 2 71.3685 20.0443 78.1998
12089 2 71.5046 19.0431 79.4827
12090 1 40.4531 6.07013 72.9598
12091 2 39.5955 6.37667 72.5467
12092 2 40.3935 6.15626 73.9543
12093 1 31.994 7.84815 68.2575
12094 2 31.6404 8.48581 67.5732
12095 2 31.6804 8.12607 69.1655
12096 1 16.5958 4.20438 85.2064
12097 2 17.5225 4.05862 85.5528
12098 2 16.2202 3.33568 84.8835
12099 1 34.2778 15.7854 28.5179
12100 2 34.3257 15.4217 27.5877
12101 2 35.1962 15.8138 28.9125
12102 1 7.90361 20.4309 64.6877
12103 2 8.17164 20.0021 63.825
12104 2 7.26772 21.1805 64.5039
12105 1 14.5067 7.35699 10.68
12106 2 15.2942 7.08257 11.2318
12107 2 14.37 6.69588 9.94223
12108 1 40.2975 6.53215 83.4884
12109 2 39.4824 5.98821 83.6881
12110 2 40.0347 7.48648 83.3462
12111 1 61.7862 23.368 69.493
12112 2 61.8966 22.5863 70.1069
12113 2 62.6004 23.9467 69.5404
12114 1 65.226 6.40752 85.6189
12115 2 65.6712 6.04111 84.8019
12116 2 65.849 6.33706 86.3979
12117 1 61.049 21.7534 85.6969
12118 2 61.5458 21.7969 86.5636
12119 2 61.5305 22.2964 85.009
12120 1 51.1967 3.70904 42.1871
12121 2 50.9011 3.77419 43.1402
12122 2 50.4986 3.23184 41.6534
12123 1 65.0691 19.7431 49.3911
12124 2 64.9838 19.2539 50.2591
12125 2 65.39 20.6743 49.5635
12126 1 4.21569 22.7196 24.7987
12127 2 4.74879 22.0514 25.3175
12128 2 4.38184 23.6352 25.1649
12129 1 58.8101 16 90.2328
12130 2 58.7469 15.0313 90.4725
12131 2 57.9517 16.2965 89.8143
12132 1 8.53136 22.1791 40.9761
12133 2 7.59441 22.1861 41.3255
12134 2 9.1682 22.3567 41.7264
12135 1 72.1229 16.2286 90.8048
12136 2 72.922 15.6292 90.7599
12137 2 72.1218 16.8424 90.0153
12138 1 68.9742 27.0642 88.3091
12139 2 68.9119 26.1097 88.6009
12140 2 69.9264 27.2875 88.1004
12141 1 26.9465 21.8953 86.6796
12142 2 26.7423 22.4244 85.856
12143 2 26.6392 22.4012 87.4855
12144 1 57.1337 25.1482 90.0529
12145 2 56.2767 25.5631 90.3584
12146 2 56.9481 24.2428 89.671
12147 1 35.3775 15.0049 70.6518
12148 2 35.1406 15.9645 70.8036
12149 2 35.1296 14.7439 69.7188
12150 1 50.1967 10.9548 77.7574
12151 2 50.2754 11.8574 77.3341
12152 2 51.0542 10.7273 78.219
12153 1 13.5849 20.0723 20.43
12154 2 13.5458 19.4039 19.6872
12155 2 14.1496 20.8488 20.1502
12156 1 68.6662 18.4957 28.0444
12157 2 68.5341 19.4869 28.031
12158 2 68.0583 18.0876 28.7255
12159 1 60.7328 1.59525 78.9038
12160 2 61.1415 0.912169 79.5091
12161 2 59.8554 1.25688 78.5637
12162 1 19.8882 7.31554 88.9346
12163 2 20.7687 7.63211 88.5817
12164 2 20.0088 6.43212 89.3874
12165 1 50.0676 2.48042 74.6882
12166 2 50.6365 2.84947 73.9532
12167 2 50.6533 2.10228 75.4051
12168 1 41.494 7.02307 67.2951
12169 2 41.2896 6.14439 66.8637
12170 2 42.4604 7.05226 67.5503
12171 1 71.0137 22.9363 79.8377
12172 2 71.8375 23.2726 80.2941
12173 2 71.055 21.9396 79.7672
12174 1 40.0883 29.9496 84.237
12175 2 39.7561 29.2193 84.834
12176 2 40.9291 0.334659 84.6176
12177 1 43.8288 9.00535 67.1807
12178 2 43.8772 8.31951 66.4546
12179 2 44.7531 9.22867 67.4903
12180 1 59.5465 26.0459 33.0436
12181 2 59.915 25.1881 33.4018
12182 2 59.1463 26.575 33.7918
12183 1 40.85 1.52157 67.237
12184 2 41.7785 1.37315 66.8964
12185 2 40.8908 1.91307 68.1562
12186 1 16.886 13.4517 66.6809
12187 2 15.9248 13.5854 66.4395
12188 2 17.0776 13.9064 67.5506
12189 1 36.182 28.9862 39.9068
12190 2 35.2899 29.1299 40.3353
12191 2 36.8989 29.0468 40.6012
12192 1 70.8415 6.48974 39.6732
12193 2 71.6366 6.77151 39.1361
12194 2 70.0368 6.44898 39.081
12195 1 23.0922 9.76454 60.4376
12196 2 22.7376 9.856 61.3682
12197 2 23.0825 10.6577 59.988
12198 1 68.8445 7.19593 13.0274
12199 2 69.1177 7.63173 13.885
12200 2 69.6479 6.7962 12.586
12201 1 58.3305 18.2734 34.2119
12202 2 58.7694 18.5847 33.369
12203 2 57.4002 17.9673 34.0098
12204 1 78.1548 20.4864 72.4514
12205 2 78.1033 20.9774 73.321
12206 2 79.0912 20.5238 72.1024
12207 1 77.0171 19.7277 53.8147
12208 2 76.6406 19.4129 54.6859
12209 2 77.6354 19.0325 53.4481
12210 1 29.544 24.3478 82.9783
12211 2 29.7224 24.0493 83.9159
12212 2 29.0995 25.2435 82.9926
12213 1 62.8738 8.78338 33.4442
12214 2 62.9231 9.58631 34.0383
12215 2 62.5224 8.00498 33.9645
12216 1 47.9504 7.24652 39.9483
12217 2 47.8367 7.69883 39.0637
12218 2 47.8942 6.25566 39.8257
12219 1 70.244 10.8078 57.9068
12220 2 71.1806 11.0289 57.6349
12221 2 69.7402 10.4614 57.1155
12222 1 56.0775 4.0671 28.7679
12223 2 55.7571 3.94988 29.7079
12224 2 55.3062 3.97187 28.1385
12225 1 1.98033 22.4212 70.2236
12226 2 1.28729 22.7554 69.5848
12227 2 1.53611 22.1044 71.0616
12228 1 69.5905 1.75229 35.8042
12229 2 69.8553 2.66352 35.4888
12230 2 68.6187 1.75057 36.04
12231 1 44.0418 28.1797 63.1835
12232 2 45.028 28.0987 63.0391
12233 2 43.6484 27.2699 63.3154
12234 1 66.1502 1.77664 65.2762
12235 2 66.053 0.783113 65.2174
12236 2 66.8995 2.07385 64.6844
12237 1 65.3855 17.0972 72.9024
12238 2 64.7019 16.8703 73.5961
12239 2 65.3916 18.0857 72.7512
12240 1 66.4537 4.97247 48.3485
12241 2 66.1943 4.0067 48.3479
12242 2 66.4586 5.31569 49.2878
12243 1 20.3679 10.7472 53.5367
12244 2 20.8168 11.5299 53.9679
12245 2 20.0418 10.1191 54.2431
12246 1 73.1123 9.10327 17.6687
12247 2 72.6476 8.61276 18.4059
12248 2 73.6781 9.83064 18.0572
12249 1 49.8774 24.8317 49.2934
12250 2 50.5374 25.4925 49.6509
12251 2 49.0733 25.3166 48.9493
12252 1 2.04485 2.74629 28.3708
12253 2 2.72843 3.43821 28.1385
12254 2 1.76502 2.86104 29.3239
12255 1 69.8456 0.473321 26.7963
12256 2 68.996 0.332655 27.3046
12257 2 70.3606 29.6168 26.7644
12258 1 32.8602 7.46415 86.8586
12259 2 33.7906 7.10151 86.9107
12260 2 32.465 7.5011 87.7765
12261 1 58.2288 20.6998 32.8388
12262 2 57.2875 20.3741 32.9274
12263 2 58.2263 21.6862 32.6746
12264 1 12.9505 17.4095 43.5348
12265 2 13.3718 16.7064 42.962
12266 2 13.6579 18.0269 43.8791
12267 1 43.5747 7.76808 69.6919
12268 2 42.9988 8.22133 70.3723
12269 2 43.4872 8.23919 68.8142
12270 1 30.5088 3.71541 49.2129
12271 2 31.2037 4.14325 48.6349
12272 2 29.8309 3.25902 48.6367
12273 1 54.9611 13.341 53.4614
12274 2 55.7358 12.7218 53.5896
12275 2 54.6835 13.333 52.5007
12276 1 51.0148 17.0327 60.2381
12277 2 50.1707 17.5051 60.4918
12278 2 51.41 16.5985 61.0476
12279 1 73.9535 28.7549 70.4998
12280 2 73.9786 28.6977 71.4978
12281 2 73.6006 29.6496 70.226
12282 1 3.88524 2.89819 38.9706
12283 2 4.35128 3.60431 39.5038
12284 2 4.37373 2.03097 39.067
12285 1 63.9892 28.8385 62.8217
12286 2 64.5843 28.4004 63.4955
12287 2 63.7933 28.1951 62.0817
12288 1 31.5726 21.6719 29.4474
12289 2 32.226 21.4954 28.7114
12290 2 31.3459 22.6457 29.4655
12291 1 1.48026 21.2662 35.1823
12292 2 2.19548 20.7233 34.7422
12293 2 1.80077 21.5769 36.0772
12294 1 46.8843 8.30951 35.6016
12295 2 46.9504 8.53597 36.5734
12296 2 47.2691 7.39998 35.4444
12297 1 73.546 23.5198 16.9794
12298 2 74.4015 23.1183 17.3065
12299 2 73.0039 23.8308 17.7601
12300 1 73.9796 16.3761 49.5925
12301 2 73.3763 16.668 50.3348
12302 2 73.8517 16.9769 48.8034
12303 1 68.9155 26.0221 65.4111
12304 2 69.4314 26.1807 66.253
12305 2 69.3224 26.5509 64.6663
12306 1 0.737444 9.14854 33.8648
12307 2 1.26335 9.37864 34.6836
12308 2 1.16227 8.36943 33.4038
12309 1 79.1529 25.8967 18.927
12310 2 79.2205 25.4005 18.0614
12311 2 79.1861 25.2474 19.6868
12312 1 51.7406 19.3144 76.8574
12313 2 51.588 20.3026 76.8461
12314 2 52.5475 19.1081 77.4108
12315 1 41.1068 7.96154 60.9923
12316 2 41.7985 8.57446 61.3742
12317 2 40.2714 8.02007 61.5388
12318 1 5.36191 4.1393 87.4136
12319 2 5.90199 4.95316 87.6279
12320 2 5.89313 3.3202 87.6301
12321 1 38.6276 19.886 37.9128
12322 2 38.6194 19.921 36.9134
12323 2 37.7671 20.253 38.2662
12324 1 76.0275 26.9491 70.4208
12325 2 75.0648 26.8205 70.6585
12326 2 76.303 27.8849 70.6408
12327 1 37.9163 22.0525 63.228
12328 2 38.2577 22.4017 62.3553
12329 2 38.2548 22.6278 63.9726
12330 1 62.8432 13.1508 87.1934
12331 2 62.2549 12.4796 87.6443
12332 2 63.8015 12.9052 87.3389
12333 1 74.2478 11.5276 31.5479
12334 2 74.4295 11.5218 32.5312
12335 2 74.6869 12.3243 31.1325
12336 1 60.2571 7.32103 29.7811
12337 2 59.58 6.94022 29.1513
12338 2 61.1586 7.30901 29.3485
12339 1 53.3541 3.02848 52.6623
12340 2 52.8595 2.8053 53.5023
12341 2 52.7968 3.63898 52.0996
12342 1 72.1605 15.7795 86.8029
12343 2 71.192 15.5358 86.7519
12344 2 72.2679 16.6042 87.3581
12345 1 42.4285 22.1995 53.0774
12346 2 42.8016 23.0164 53.5172
12347 2 41.8214 22.4708 52.3305
12348 1 5.61049 16.9957 40.2975
12349 2 5.22109 17.7999 40.7464
12350 2 4.87926 16.3499 40.0776
12351 1 25.2515 18.8829 34.4041
12352 2 25.619 19.7303 34.7873
12353 2 24.3526 18.6994 34.8019
12354 1 58.4894 2.24005 19.9321
12355 2 59.3983 1.89765 20.1698
12356 2 57.8038 1.79217 20.5061
12357 1 44.0604 16.6433 43.4639
12358 2 43.2488 16.0618 43.5199
12359 2 44.1722 17.1431 44.3229
12360 1 27.4792 25.6183 77.4624
12361 2 28.2037 26.1377 77.9155
12362 2 26.6048 26.0871 77.5876
12363 1 48.6605 19.9292 66.9966
12364 2 49.5539 19.4833 66.9422
12365 2 48.7542 20.807 67.4663
12366 1 71.3539 12.491 69.1097
12367 2 71.4545 11.5423 69.4097
12368 2 70.4318 12.8125 69.3248
12369 1 1.06828 20.4932 28.8911
12370 2 0.251691 21.0496 28.7375
12371 2 1.85354 20.9238 28.4462
12372 1 28.9804 1.64068 38.0688
12373 2 29.223 0.694238 38.2819
12374 2 29.4021 1.90575 37.2017
12375 1 77.3662 24.0642 79.7507
12376 2 77.0212 24.3756 80.6361
12377 2 77.9607 24.7664 79.3589
12378 1 70.2565 6.22599 25.6078
12379 2 69.3665 6.31688 25.1609
12380 2 70.45 5.25866 25.7717
12381 1 48.5258 0.480557 80.4245
12382 2 48.6706 0.822415 79.496
12383 2 49.2431 29.8225 80.6531
12384 1 59.3983 0.725143 17.2711
12385 2 60.2146 1.28111 17.4279
12386 2 58.7554 0.856839 18.0256
12387 1 17.5998 18.0212 10.7095
12388 2 18.0594 18.6722 10.1054
12389 2 18.2011 17.7962 11.4762
12390 1 4.10888 10.4035 81.315
12391 2 4.59069 9.88305 82.0199
12392 2 4.75489 11.0045 80.8443
12393 1 59.8874 11.0044 83.9163
12394 2 59.3575 10.7735 83.1003
12395 2 60.1926 11.9548 83.8576
12396 1 37.6671 8.72031 69.6695
12397 2 36.6753 8.66203 69.5561
12398 2 38.0643 9.20125 68.8879
12399 1 62.2701 22.227 20.5702
12400 2 62.7388 22.2922 21.4511
12401 2 62.4552 23.0496 20.0325
12402 1 6.06031 20.4116 44.6001
12403 2 6.13079 20.349 45.5957
12404 2 5.3783 19.7577 44.2726
12405 1 76.685 25.7768 61.4291
12406 2 77.5203 25.3269 61.1132
12407 2 76.0962 25.1069 61.8815
12408 1 13.3283 9.04345 46.9896
12409 2 13.8033 8.19684 47.2295
12410 2 13.8474 9.82591 47.3334
12411 1 53.6785 1.58098 33.4055
12412 2 54.0537 2.47421 33.1578
12413 2 53.6102 1.51265 34.4008
12414 1 1.45225 25.7959 63.0895
12415 2 0.668965 26.3778 63.3084
12416 2 2.22879 26.0518 63.6652
12417 1 55.4614 20.0585 33.5267
12418 2 55.5524 19.6238 34.4226
12419 2 54.4922 20.1695 33.3069
12420 1 8.14979 28.4145 10.5041
12421 2 8.29349 27.6454 9.88136
12422 2 9.02389 28.8659 10.6835
12423 1 47.6945 28.8784 42.2946
12424 2 47.2307 29.7627 42.3483
12425 2 47.5458 28.3718 43.1439
12426 1 28.2108 28.5172 85.9692
12427 2 27.3358 28.9275 85.7122
12428 2 28.0463 27.6994 86.5207
12429 1 29.3469 2.15053 51.2311
12430 2 29.7825 2.02754 52.1228
12431 2 29.9146 2.74545 50.6621
12432 1 12.1596 4.44382 47.1637
12433 2 11.5077 3.78342 47.5362
12434 2 11.725 5.34223 47.1009
12435 1 55.1682 29.7442 23.2005
12436 2 55.8179 0.240522 22.6248
12437 2 54.493 0.383502 23.5686
12438 1 53.8036 26.4152 61.8587
12439 2 53.1836 25.6847 62.1452
12440 2 54.7318 26.0521 61.7778
12441 1 58.6696 26.8654 73.5399
12442 2 58.6217 27.2584 74.4581
12443 2 59.6235 26.6748 73.3082
12444 1 22.8544 16.8807 86.4289
12445 2 21.871 17.0438 86.5089
12446 2 23.3114 17.1816 87.2659
12447 1 26.9786 5.71909 50.06
12448 2 27.8634 6.18398 50.0926
12449 2 26.9848 4.94571 50.6939
12450 1 38.218 10.0977 60.8581
12451 2 37.8811 9.22385 61.2086
12452 2 37.5056 10.7928 60.9554
12453 1 60.9498 6.48212 90.3496
12454 2 61.853 6.72759 90.7017
12455 2 60.4797 7.30647 90.0344
12456 1 45.3152 11.2956 62.0697
12457 2 44.9525 12.2175 62.2063
12458 2 44.7023 10.7819 61.4692
12459 1 52.5862 7.59286 42.2725
12460 2 52.4839 7.19218 43.183
12461 2 53.2695 7.0767 41.756
12462 1 35.3285 12.9467 31.4188
12463 2 35.9447 12.4305 30.824
12464 2 35.7229 13.8461 31.6073
12465 1 66.5715 23.6667 21.5802
12466 2 66.4413 24.3726 20.884
12467 2 66.0577 23.9108 22.4026
12468 1 38.3343 18.9356 45.7976
12469 2 38.9417 18.3421 46.3257
12470 2 38.1983 19.7956 46.2894
12471 1 26.944 2.68519 41.1542
12472 2 26.6351 2.65576 42.1049
12473 2 27.9432 2.71514 41.1292
12474 1 69.9063 22.0883 90.2205
12475 2 69.3787 22.7453 89.6822
12476 2 70.302 22.5494 91.0147
12477 1 19.3889 5.97631 40.344
12478 2 19.9921 5.82517 39.5609
12479 2 19.3867 6.94796 40.5804
12480 1 68.4131 13.051 12.7413
12481 2 68.4238 13.7421 13.464
12482 2 67.4679 12.8605 12.4763
12483 1 38.3943 1.15513 36.8246
12484 2 37.8081 0.401795 37.1226
12485 2 38.5875 1.75463 37.6013
12486 1 19.6245 18.877 75.7077
12487 2 19.5265 19.459 74.9004
12488 2 19.4448 19.4158 76.5308
12489 1 13.9617 3.44014 60.7638
12490 2 14.0701 4.15401 60.072
12491 2 14.3188 3.767 61.6389
12492 1 65.6099 26.0448 77.4298
12493 2 66.0138 25.2428 77.8697
12494 2 66.2667 26.7987 77.4434
12495 1 33.0137 2.72829 82.7966
12496 2 32.0773 2.82613 83.1335
12497 2 33.6096 3.37197 83.2767
12498 1 22.0243 18.132 64.1864
12499 2 21.5924 17.9248 65.0642
12500 2 21.4628 18.7909 63.6859
12501 1 39.0291 10.7006 58.2272
12502 2 38.8539 11.6789 58.1167
12503 2 38.5736 10.3718 59.0545
12504 1 10.7809 19.4238 59.8178
12505 2 11.273 19.2921 58.9572
12506 2 10.0724 20.1184 59.6937
12507 1 16.3627 8.74593 90.9647
12508 2 15.5566 9.20147 90.5871
12509 2 16.3002 7.7625 90.7945
12510 1 45.0047 14.3705 59.6829
12511 2 44.3628 14.3236 58.9176
12512 2 44.5296 14.1368 60.5313
12513 1 11.7279 21.3541 80.7595
12514 2 12.5676 20.9179 80.4362
12515 2 11.2766 21.8155 79.9957
12516 1 18.9891 29.0821 13.7622
12517 2 18.7389 29.5269 14.6222
12518 2 19.134 29.7767 13.0575
12519 1 62.9925 10.4485 43.4475
12520 2 62.042 10.4898 43.1394
12521 2 63.1778 11.2162 44.0609
12522 1 49.3952 9.57534 38.9044
12523 2 49.7303 9.97976 39.7554
12524 2 49.6317 10.1708 38.1366
12525 1 19.7775 18.1205 79.091
12526 2 19.8391 17.2124 78.677
12527 2 18.8305 18.4396 79.0552
12528 1 23.0376 8.19303 77.9604
12529 2 22.1375 8.07134 78.3787
12530 2 23.3003 9.15667 78.0091
12531 1 46.7222 2.31283 43.7932
12532 2 47.1411 2.07935 44.6707
12533 2 46.1154 1.57176 43.5058
12534 1 44.2464 10.5507 85.8277
12535 2 45.0637 10.3424 86.3649
12536 2 44.4792 10.5564 84.8552
12537 1 32.4887 22.9068 50.0429
12538 2 33.3073 23.2072 49.5533
12539 2 32.7374 22.2011 50.7064
12540 1 47.21 12.5317 40.9049
12541 2 47.9643 13.0797 40.5432
12542 2 46.6172 12.2431 40.153
12543 1 23.625 16.5041 48.2662
12544 2 24.0148 16.4889 47.3454
12545 2 24.3549 16.3837 48.9391
12546 1 77.9384 28.5743 88.6058
12547 2 78.3803 27.7015 88.813
12548 2 78.0891 29.2119 89.3613
12549 1 15.3723 15.8059 61.0834
12550 2 15.1234 15.4688 61.9914
12551 2 15.7483 16.7291 61.1622
12552 1 74.5753 24.8355 72.8882
12553 2 75.4943 25.2233 72.9594
12554 2 73.9837 25.4692 72.3899
12555 1 63.8717 29.2941 29.7724
12556 2 63.8428 29.8556 28.9453
12557 2 62.9907 29.3475 30.2424
12558 1 43.2019 23.9411 65.5218
12559 2 43.7698 24.5417 66.0846
12560 2 42.2383 24.0886 65.7446
12561 1 77.1524 12.9815 78.023
12562 2 76.7934 12.6237 78.885
12563 2 77.8713 12.3747 77.6839
12564 1 16.1437 0.641491 55.6586
12565 2 15.9282 0.974697 54.7407
12566 2 16.9041 1.1706 56.0353
12567 1 21.0489 1.78346 88.1741
12568 2 20.9505 0.87048 88.5701
12569 2 20.1718 2.26186 88.2175
12570 1 24.5805 0.153324 47.864
12571 2 25.5021 0.152055 47.4758
12572 2 24.4973 29.4097 48.5273
12573 1 62.6835 11.7088 48.9906
12574 2 61.856 11.5954 49.5405
12575 2 63.2722 10.9086 49.1053
12576 1 17.3435 0.830673 20.4772
12577 2 17.294 29.8368 20.5764
12578 2 18.2834 1.09809 20.2649
12579 1 3.06905 6.4997 20.0632
12580 2 3.37095 5.58373 19.7989
12581 2 3.86673 7.08717 20.1995
12582 1 36.0115 6.72122 57.1042
12583 2 35.2171 6.15453 56.8854
12584 2 36.7308 6.56216 56.428
12585 1 15.1024 22.2778 60.4364
12586 2 14.258 21.943 60.8546
12587 2 15.0097 22.2633 59.4408
12588 1 35.4879 15.2887 65.2024
12589 2 35.9868 15.9242 65.7916
12590 2 34.6853 15.7476 64.8214
12591 1 0.0268738 6.779 11.7774
12592 2 79.5456 6.14463 12.3823
12593 2 1.01367 6.65462 11.8811
12594 1 28.7633 28.5729 36.3088
12595 2 28.7024 27.7229 36.832
12596 2 29.6762 28.9663 36.4171
12597 1 62.2754 0.837444 22.566
12598 2 62.1975 1.70461 23.0579
12599 2 62.0351 0.976457 21.6053
12600 1 67.4445 16.0629 49.4599
12601 2 68.2791 15.5134 49.4975
12602 2 67.2382 16.291 48.5084
12603 1 21.2905 20.4287 69.4735
12604 2 20.9337 19.6875 68.905
12605 2 21.717 20.0449 70.2926
12606 1 18.5014 7.41988 53.6297
12607 2 17.5342 7.59107 53.4417
12608 2 18.838 8.09528 54.2858
12609 1 28.5808 5.5336 29.9408
12610 2 29.1984 4.90283 30.4106
12611 2 29.019 5.87025 29.1073
12612 1 26.2764 0.291443 42.0603
12613 2 26.5835 1.05148 41.4875
12614 2 26.9923 29.5945 42.1012
12615 1 42.5845 2.83197 40.2601
12616 2 42.9867 2.37346 41.0526
12617 2 41.9275 2.22051 39.8192
12618 1 32.1946 19.8971 46.3209
12619 2 31.5125 20.367 45.7606
12620 2 31.8171 19.0312 46.6491
12621 1 68.6431 14.4867 59.2654
12622 2 67.655 14.3347 59.2408
12623 2 69.0762 13.7745 59.8178
12624 1 9.12689 28.7287 41.219
12625 2 8.21711 28.7046 41.6334
12626 2 9.72337 28.0761 41.6863
12627 1 6.15936 8.26064 79.0674
12628 2 6.34224 8.86854 78.2947
12629 2 7.02516 7.93787 79.4498
12630 1 15.7552 25.0784 30.5451
12631 2 15.1094 24.3734 30.8381
12632 2 16.3507 24.7093 29.8316
12633 1 71.0743 19.6351 58.7986
12634 2 70.4388 19.9961 58.1161
12635 2 71.9187 20.1706 58.784
12636 1 22.5934 20.353 72.999
12637 2 22.7028 19.9624 73.913
12638 2 23.4219 20.8541 72.7493
12639 1 13.8474 29.0301 70.2801
12640 2 13.9434 29.2146 69.302
12641 2 14.4692 29.6215 70.7936
12642 1 75.4099 17.7773 41.5602
12643 2 75.0862 17.1165 40.8831
12644 2 75.4316 18.6898 41.1516
12645 1 15.2976 9.26835 20.956
12646 2 14.58 9.61161 21.562
12647 2 14.956 9.24167 20.0165
12648 1 9.00407 0.498031 66.7649
12649 2 8.22245 29.8798 66.6822
12650 2 9.84636 29.9633 66.8324
12651 1 75.5872 7.30293 19.7253
12652 2 74.9842 7.96257 20.1739
12653 2 75.6544 6.47771 20.286
12654 1 62.6863 4.77682 23.8992
12655 2 63.1029 5.59799 24.2892
12656 2 63.2718 3.98703 24.082
12657 1 47.3186 15.6578 67.0111
12658 2 46.4024 15.8959 67.3333
12659 2 47.8058 15.1608 67.7292
12660 1 71.5096 24.6177 74.5125
12661 2 72.0464 25.12 73.8346
12662 2 71.9465 24.6968 75.4086
12663 1 53.345 2.89262 79.7547
12664 2 54.0769 2.94278 80.4343
12665 2 53.7307 3.01428 78.8401
12666 1 31.9037 23.6928 86.8897
12667 2 32.581 23.1295 86.4165
12668 2 32.078 24.658 86.6946
12669 1 19.3536 29.7228 61.6615
12670 2 18.613 29.2656 62.1539
12671 2 20.1759 29.1546 61.6938
12672 1 19.0732 16.3908 71.7736
12673 2 18.6571 16.1491 72.6502
12674 2 19.2185 15.5618 71.2337
12675 1 18.2899 20.7035 43.3005
12676 2 17.6367 20.7243 44.0575
12677 2 17.8346 20.366 42.4766
12678 1 48.8212 11.0061 89.742
12679 2 49.6718 11.5215 89.8455
12680 2 48.0459 11.6377 89.7483
12681 1 36.036 4.59145 35.1022
12682 2 36.4548 4.27766 34.2501
12683 2 36.3617 4.02745 35.8611
12684 1 32.9175 16.9156 77.5878
12685 2 32.1303 17.2481 78.1072
12686 2 33.6652 16.7014 78.2163
12687 1 13.0902 1.17254 39.6897
12688 2 13.9179 0.671599 39.4368
12689 2 13.0554 1.27869 40.6835
12690 1 72.1263 19.1672 51.1659
12691 2 72.5495 19.3899 50.2877
12692 2 71.9596 20.0094 51.6787
12693 1 74.4639 16.9112 67.1535
12694 2 75.2251 16.2723 67.2654
12695 2 74.3472 17.1239 66.1834
12696 1 46.0913 22.9686 66.1795
12697 2 46.2921 23.4439 67.0361
12698 2 45.762 23.6267 65.5024
12699 1 50.4266 18.6064 39.8976
12700 2 50.6336 19.3021 39.2098
12701 2 49.5838 18.8517 40.3767
12702 1 66.4286 18.8743 21.4813
12703 2 67.4035 19.0107 21.6574
12704 2 66.1682 17.9465 21.7484
12705 1 47.2577 1.18486 54.9267
12706 2 46.9234 0.245121 54.8547
12707 2 48.2495 1.19651 54.7997
12708 1 50.6362 7.01069 37.8287
12709 2 51.2778 6.24809 37.911
12710 2 50.1069 7.09364 38.6731
12711 1 38.5872 22.4093 86.9508
12712 2 38.5356 23.2767 86.4559
12713 2 39.524 22.2618 87.2683
12714 1 29.0098 15.5606 87.5649
12715 2 28.9624 15.6702 88.5577
12716 2 29.5794 16.2849 87.1764
12717 1 40.828 19.2232 73.2867
12718 2 40.2076 19.1473 74.0673
12719 2 41.2879 20.1108 73.3116
12720 1 73.3266 0.130157 76.9247
12721 2 72.875 29.647 77.6747
12722 2 73.8201 0.920912 77.2869
12723 1 22.7403 28.8015 74.5251
12724 2 22.0185 29.2512 75.0512
12725 2 23.5448 29.3943 74.4887
12726 1 71.9294 1.15372 71.2915
12727 2 72.5456 1.84102 71.676
12728 2 71.6648 0.506204 72.0061
12729 1 28.8154 9.53835 37.2259
12730 2 28.7789 9.06052 36.3482
12731 2 28.4706 8.9375 37.9471
12732 1 44.4446 19.0149 41.1277
12733 2 44.7216 19.2457 42.0605
12734 2 43.4493 18.927 41.0878
12735 1 15.6892 20.4577 23.1335
12736 2 15.1048 21.253 22.9723
12737 2 16.1735 20.5702 24.0011
12738 1 58.3776 12.3906 46.353
12739 2 58.4986 12.1177 45.3986
12740 2 58.7989 11.7086 46.9507
12741 1 42.4336 28.3873 56.0326
12742 2 43.1309 27.6827 56.164
12743 2 42.259 28.8496 56.902
12744 1 21.3672 10.1561 42.6642
12745 2 22.277 10.4715 42.9338
12746 2 20.9645 9.62421 43.4091
12747 1 13.6439 20.1119 57.1455
12748 2 13.8216 21.044 57.4611
12749 2 14.2115 19.4711 57.6625
12750 1 63.2269 2.91087 90.5682
12751 2 63.4672 3.86425 90.7508
12752 2 64.0173 2.32673 90.7527
12753 1 31.3694 10.3529 49.3973
12754 2 32.2534 10.0318 49.0574
12755 2 30.8339 10.7211 48.6373
12756 1 11.2082 9.00806 53.2145
12757 2 10.5864 9.59346 52.6942
12758 2 11.601 9.52929 53.9721
12759 1 1.51271 21.9201 62.1448
12760 2 1.06803 22.5637 62.7677
12761 2 2.45923 22.2042 61.9919
12762 1 45.0787 15.6342 52.322
12763 2 44.646 16.5356 52.336
12764 2 46.0706 15.7416 52.2546
12765 1 18.1564 29.6957 30.2028
12766 2 18.6925 29.1106 29.5943
12767 2 18.6018 0.587095 30.286
12768 1 57.3591 25.2342 67.4022
12769 2 58.2233 24.7349 67.4643
12770 2 56.9415 25.0679 66.5089
12771 1 60.6857 4.19693 87.7059
12772 2 60.5478 4.79993 86.9202
12773 2 61.6648 4.04573 87.8423
12774 1 29.8521 20.3292 37.0126
12775 2 30.5853 20.9229 36.681
12776 2 30.21 19.4068 37.1579
12777 1 9.35371 15.5118 48.8281
12778 2 9.81752 14.8586 48.2295
12779 2 8.80893 16.1421 48.275
12780 1 47.2863 10.3348 31.829
12781 2 47.566 9.3858 31.9743
12782 2 46.2959 10.3739 31.6969
12783 1 49.7739 21.0523 79.2791
12784 2 50.1248 21.9478 79.0052
12785 2 49.6448 21.0339 80.2705
12786 1 76.0971 7.65948 59.3441
12787 2 75.7459 7.49288 58.4228
12788 2 75.9312 6.85511 59.9146
12789 1 66.2201 19.3636 79.8981
12790 2 66.5348 18.8298 79.1133
12791 2 66.0735 20.3125 79.6186
12792 1 55.1481 16.4455 67.1927
12793 2 54.9607 17.4276 67.1753
12794 2 56.1148 16.2869 66.9918
12795 1 69.3968 4.13602 34.367
12796 2 68.451 4.43781 34.4868
12797 2 69.9587 4.90924 34.0731
12798 1 23.8143 24.8043 25.4771
12799 2 22.9312 24.9911 25.9077
12800 2 24.4581 25.5341 25.707
12801 1 78.7722 19.9567 80.9595
12802 2 77.8448 19.6144 81.1105
12803 2 79.103 19.6414 80.07
12804 1 46.6365 20.1249 79.4415
12805 2 47.5073 20.474 79.0954
12806 2 46.1202 20.8724 79.8594
12807 1 35.8054 24.6624 59.8329
12808 2 35.694 24.5963 58.8413
12809 2 36.6662 24.2297 60.1011
12810 1 25.7321 16.2975 43.1832
12811 2 26.6087 16.1252 43.6325
12812 2 24.9921 16.2042 43.8494
12813 1 3.91899 15.5261 43.5421
12814 2 4.29955 16.401 43.8419
12815 2 3.59645 15.6086 42.5992
12816 1 36.9003 2.42965 61.568
12817 2 36.6941 1.85115 60.7789
12818 2 36.1348 3.05109 61.7349
12819 1 1.79511 16.881 24.3545
12820 2 2.33982 17.7174 24.2928
12821 2 2.37979 16.123 24.6435
12822 1 56.8643 1.12673 35.8533
12823 2 57.2235 0.606366 36.6281
12824 2 56.7794 0.525599 35.0587
12825 1 22.9276 27.9068 51.8347
12826 2 22.7987 28.6239 52.5197
12827 2 22.3789 27.108 52.0811
12828 1 61.6902 19.2479 69.0987
12829 2 61.9435 18.4995 69.7117
12830 2 60.6986 19.252 68.9697
12831 1 31.3929 5.67147 90.6298
12832 2 31.6769 5.07335 89.8804
12833 2 30.7352 5.19029 91.2094
12834 1 45.171 14.5882 86.8853
12835 2 46.0006 15.0265 87.2311
12836 2 45.4138 13.7413 86.4123
12837 1 47.1339 16.3668 61.2569
12838 2 46.1989 16.6294 61.4952
12839 2 47.7626 17.0992 61.518
12840 1 10.5756 26.2607 14.6844
12841 2 11.4202 26.7425 14.9181
12842 2 10.2208 25.7971 15.4963
12843 1 59.9716 25.0006 14.8621
12844 2 59.7372 25.909 14.516
12845 2 60.6232 24.5652 14.2409
12846 1 33.5538 12.4144 37.1903
12847 2 32.6113 12.6306 37.445
12848 2 34.1792 13.0208 37.6813
12849 1 3.91493 26.6841 65.3679
12850 2 4.01774 25.8222 65.8645
12851 2 4.04324 27.4495 65.9985
12852 1 44.0096 21.1179 67.1067
12853 2 44.5528 21.841 66.6802
12854 2 44.4965 20.2475 67.0327
12855 1 8.02298 29.9343 37.723
12856 2 7.91935 28.9543 37.553
12857 2 7.28326 0.249505 38.3175
12858 1 73.2782 4.77285 25.5543
12859 2 72.3902 4.31603 25.6071
12860 2 73.7923 4.41305 24.7757
12861 1 69.6957 25.9146 35.5099
12862 2 69.3592 26.4994 36.248
12863 2 70.041 25.0584 35.8941
12864 1 34.8876 1.71868 43.4684
12865 2 34.0807 2.29981 43.3626
12866 2 34.7281 0.841274 43.0159
12867 1 26.3354 25.8243 28.7466
12868 2 26.154 26.2201 27.8464
12869 2 27.0726 26.3325 29.1918
12870 1 48.8062 14.2368 76.8889
12871 2 49.628 14.0656 77.4322
12872 2 49.0517 14.2902 75.9209
12873 1 19.7449 16.3085 33.7241
12874 2 20.1926 17.1798 33.9249
12875 2 20.3752 15.5571 33.9194
12876 1 26.5803 19.675 61.4412
12877 2 26.4052 20.6218 61.7112
12878 2 26.2275 19.0573 62.144
12879 1 29.6399 28.9293 82.281
12880 2 28.8615 28.9204 82.9086
12881 2 29.3812 28.4861 81.4227
12882 1 74.4315 5.61474 66.3481
12883 2 73.982 5.62778 67.2413
12884 2 73.7695 5.35393 65.6455
12885 1 38.0632 13.9792 74.6114
12886 2 37.9433 13.362 75.389
12887 2 38.8092 14.6168 74.8038
12888 1 28.899 25.9319 59.8713
12889 2 28.165 26.6064 59.7918
12890 2 28.6637 25.119 59.3386
12891 1 79.3526 5.61795 57.0454
12892 2 78.8893 5.10648 57.769
12893 2 79.6297 6.513 57.3948
12894 1 79.7019 5.05551 43.6215
12895 2 79.4647 4.84818 44.5706
12896 2 0.136471 4.25722 43.2045
12897 1 3.16858 22.4899 79.226
12898 2 2.40042 23.1128 79.3737
12899 2 2.85931 21.546 79.3419
12900 1 15.3978 23.743 82.8831
12901 2 15.9631 22.9474 82.6655
12902 2 14.9233 24.0503 82.0582
12903 1 6.64133 1.29846 77.6929
12904 2 6.36765 2.04464 78.2998
12905 2 7.5899 1.0452 77.8828
12906 1 52.3996 20.2707 56.223
12907 2 52.1922 21.2438 56.3233
12908 2 53.1182 20.0147 56.8697
12909 1 60.8998 20.1007 74.9255
12910 2 60.4467 20.0252 75.8137
12911 2 60.9498 21.0628 74.6575
12912 1 23.1606 2.47256 23.7506
12913 2 22.6272 2.22259 22.9425
12914 2 22.5658 2.47659 24.5544
12915 1 13.9795 16.6465 27.6489
12916 2 13.7867 15.8992 27.0131
12917 2 14.3171 17.4384 27.14
12918 1 72.7722 8.69362 68.0031
12919 2 72.4419 7.75441 67.9094
12920 2 72.4304 9.24471 67.2419
12921 1 44.6923 3.30436 53.3439
12922 2 44.0491 2.63893 52.9652
12923 2 45.5782 3.20698 52.8903
12924 1 32.5679 3.19098 86.3016
12925 2 32.3035 3.43992 87.2333
12926 2 31.9125 3.57976 85.654
12927 1 17.2087 29.2924 40.167
12928 2 16.5583 29.1618 39.4188
12929 2 17.1556 28.5154 40.7943
12930 1 19.3239 1.80699 25.5064
12931 2 18.351 1.89605 25.2933
12932 2 19.7535 1.18669 24.8501
12933 1 67.7621 21.9995 88.3047
12934 2 68.0338 22.9618 88.3149
12935 2 68.573 21.4254 88.1908
12936 1 20.9788 25.3077 75.0329
12937 2 21.8161 24.8137 74.7985
12938 2 20.6084 24.9483 75.8894
12939 1 35.5261 19.6909 68.7291
12940 2 35.9512 19.234 69.5105
12941 2 34.7463 20.2324 69.0434
12942 1 64.0338 24.9431 82.558
12943 2 63.7987 23.9954 82.774
12944 2 65.0176 25.0777 82.6764
12945 1 0.766832 17.5729 63.289
12946 2 79.8026 17.3147 63.3488
12947 2 1.31499 16.9448 63.8412
12948 1 41.4551 5.3508 45.1282
12949 2 40.7383 5.38753 44.432
12950 2 41.5462 4.41316 45.4637
12951 1 24.584 1.14526 53.2244
12952 2 24.8363 1.98449 53.7061
12953 2 23.9918 0.590584 53.8089
12954 1 53.5393 26.1365 55.1712
12955 2 53.5141 25.1854 54.8634
12956 2 52.6565 26.5694 54.9886
12957 1 73.5729 0.550782 63.9342
12958 2 74.3193 0.0397041 64.3606
12959 2 72.7415 0.443847 64.4795
12960 1 22.0921 12.8334 71.2995
12961 2 21.8981 12.3921 72.1756
12962 2 21.2384 13.1626 70.8959
12963 1 16.4408 1.53741 41.2079
12964 2 17.2305 0.952333 41.0232
12965 2 15.6428 1.18414 40.7197
12966 1 78.1294 0.872939 86.7
12967 2 77.8507 0.649018 85.7661
12968 2 78.1096 0.0454853 87.2612
12969 1 73.5751 23.0166 62.833
12970 2 73.6194 23.9698 63.1321
12971 2 74.4465 22.5658 63.0264
12972 1 7.98997 17.5411 73.9154
12973 2 7.14191 17.0997 74.2086
12974 2 8.73784 16.8778 73.9433
12975 1 76.5695 25.5977 89.3616
12976 2 75.8312 25.1757 89.8878
12977 2 76.617 25.1756 88.4563
12978 1 28.8448 3.11222 66.5703
12979 2 29.1011 3.82258 65.9148
12980 2 27.8485 3.07404 66.6478
12981 1 58.4146 15.8165 84.6744
12982 2 58.2774 15.6646 83.6955
12983 2 58.4355 14.9364 85.1486
12984 1 32.6489 3.76878 64.5345
12985 2 32.6912 4.36747 65.3344
12986 2 33.5529 3.71515 64.1102
12987 1 75.304 4.35275 72.0422
12988 2 74.7514 3.55172 72.2725
12989 2 76.2147 4.25612 72.4438
12990 1 79.4448 7.64166 14.9589
12991 2 0.0705338 6.91242 15.2357
12992 2 79.7431 8.50733 15.3609
12993 1 46.6883 10.5268 70.1343
12994 2 46.7553 11.4885 69.8686
12995 2 46.5953 9.9604 69.3154
12996 1 73.4027 8.4753 73.9924
12997 2 74.0907 8.04122 73.4108
12998 2 72.675 7.81972 74.194
12999 1 36.8047 22.3996 46.3384
13000 2 36.6113 23.2731 46.785
13001 2 37.4914 21.9 46.8664
13002 1 25.6599 8.03827 73.0251
13003 2 25.2805 8.95906 72.9345
13004 2 25.068 7.49058 73.6164
13005 1 75.5565 9.54627 12.3482
13006 2 75.6532 10.2108 13.0892
13007 2 75.9251 9.93342 11.5031
13008 1 14.632 29.4055 52.4233
13009 2 13.9846 0.148215 52.5945
13010 2 14.7634 28.8779 53.2626
13011 1 47.4192 17.9647 41.737
13012 2 47.0324 17.4038 42.469
13013 2 47.1537 18.9192 41.8729
13014 1 44.4162 10.7778 64.7305
13015 2 45.1297 10.599 64.0531
13016 2 44.8287 11.1659 65.5546
13017 1 57.5286 3.43416 70.1549
13018 2 58.2142 3.57127 69.44
13019 2 57.3514 2.45601 70.2635
13020 1 66.9256 22.1978 27.5121
13021 2 66.9588 22.6385 28.4091
13022 2 66.0187 21.8016 27.3687
13023 1 26.2982 15.8751 38.0973
13024 2 25.3979 15.7746 37.6737
13025 2 26.2309 15.6745 39.0747
13026 1 75.6039 0.220359 46.3375
13027 2 75.0045 0.714556 45.7078
13028 2 75.0548 29.8 47.0598
13029 1 8.10137 29.9942 33.9779
13030 2 7.11534 0.00141748 34.1443
13031 2 8.34464 0.760595 33.3833
13032 1 21.5168 7.76523 48.7395
13033 2 21.1414 8.34921 49.4592
13034 2 21.7826 8.32905 47.9575
13035 1 64.357 19.2585 87.73
13036 2 63.8762 20.1271 87.6108
13037 2 64.6075 18.8905 86.8346
13038 1 79.0826 3.37891 82.8778
13039 2 78.5139 2.64105 83.2414
13040 2 79.1088 3.31879 81.8799
13041 1 29.3428 5.034 40.0661
13042 2 29.6974 4.42796 40.7781
13043 2 29.7266 5.94959 40.1862
13044 1 6.24687 0.541605 50.585
13045 2 6.76429 0.783061 49.764
13046 2 5.55121 1.23892 50.7577
13047 1 51.7123 18.646 73.0201
13048 2 51.2072 17.8956 72.5937
13049 2 51.0704 19.2658 73.4716
13050 1 37.3066 4.9351 74.9607
13051 2 37.5699 4.55316 74.0748
13052 2 38.0537 5.49625 75.317
13053 1 20.4015 7.47915 24.542
13054 2 20.0169 6.8713 25.2367
13055 2 19.8759 7.39262 23.6957
13056 1 36.1895 5.63327 54.5425
13057 2 36.5006 6.06485 53.6958
13058 2 36.3847 4.6531 54.5083
13059 1 44.7782 8.64298 72.565
13060 2 45.0285 8.83623 71.6163
13061 2 44.8603 9.47856 73.1082
13062 1 23.1258 5.67592 22.7891
13063 2 23.2208 4.84214 22.2452
13064 2 23.5038 5.52313 23.7022
13065 1 32.211 18.1074 84.6628
13066 2 31.9303 18.9764 85.0703
13067 2 32.7674 18.2843 83.851
13068 1 11.1747 10.4649 17.3764
13069 2 10.8205 9.65451 17.8432
13070 2 10.8946 11.2855 17.8744
13071 1 45.0546 15.744 46.6487
13072 2 45.3081 14.9072 47.134
13073 2 44.3018 15.5496 46.0198
13074 1 25.7358 18.915 83.2776
13075 2 25.5906 18.9995 84.2634
13076 2 26.3104 19.6691 82.9595
13077 1 23.7206 20.4507 59.137
13078 2 24.1174 20.8332 59.9714
13079 2 23.7858 19.4532 59.1638
13080 1 76.4774 26.1906 19.2288
13081 2 76.4704 26.8229 18.4541
13082 2 77.2172 25.5281 19.1116
13083 1 42.0625 10.6145 74.0957
13084 2 41.7406 10.8741 73.1852
13085 2 42.3526 11.4325 74.5924
13086 1 16.945 13.9884 88.2392
13087 2 15.9844 13.7493 88.3807
13088 2 17.2173 14.6828 88.9052
13089 1 10.1094 6.59144 56.3709
13090 2 9.26152 6.6212 55.8415
13091 2 9.92739 6.88747 57.3086
13092 1 74.4718 14.7102 91.0988
13093 2 74.5544 14.7784 92.093
13094 2 75.2292 15.2 90.667
13095 1 7.163 27.8213 62.5278
13096 2 6.36929 27.9979 63.1099
13097 2 7.99441 27.8401 63.0831
13098 1 41.5211 2.48656 43.096
13099 2 41.5032 2.54766 44.094
13100 2 40.8233 3.09147 42.7125
13101 1 38.8611 13.9234 36.576
13102 2 39.6164 14.1552 35.963
13103 2 39.1803 13.9504 37.5233
13104 1 5.39513 29.1226 77.0593
13105 2 6.0137 29.9084 77.0584
13106 2 4.88857 29.0981 77.9211
13107 1 42.0816 4.82582 86.8472
13108 2 41.756 5.59059 87.4032
13109 2 42.8252 4.35879 87.3257
13110 1 72.5438 0.625958 74.4026
13111 2 72.7881 0.348674 75.3318
13112 2 73.2944 0.40395 73.7802
13113 1 69.4313 7.32993 55.3784
13114 2 69.8034 7.58921 56.2696
13115 2 70.1562 6.92871 54.8184
13116 1 45.3843 17.3258 75.4401
13117 2 45.9365 16.8363 74.7652
13118 2 45.9796 17.6924 76.1551
13119 1 6.81304 16.9309 46.5784
13120 2 7.66707 17.2928 46.9522
13121 2 6.97331 16.0171 46.2051
13122 1 11.6037 6.23667 16.0168
13123 2 10.8888 6.70785 16.5335
13124 2 12.2568 5.82408 16.6518
13125 1 63.754 10.0176 88.8596
13126 2 64.3459 10.0509 89.6649
13127 2 62.7989 9.95977 89.1501
13128 1 72.2629 14.7786 80.8586
13129 2 72.1917 15.6756 80.4223
13130 2 71.8171 14.8068 81.7533
13131 1 51.8286 5.07439 76.1276
13132 2 52.4688 4.40268 76.5004
13133 2 51.1746 5.34032 76.8358
13134 1 66.6328 21.5694 24.4557
13135 2 66.5208 21.3971 23.4771
13136 2 65.7951 21.3122 24.9374
13137 1 60.8686 27.8875 65.3846
13138 2 60.2226 28.4865 64.9115
13139 2 61.6961 28.4017 65.6102
13140 1 0.315198 27.558 54.1704
13141 2 0.50591 27.0749 55.0249
13142 2 79.5526 27.1143 53.6997
13143 1 58.5464 1.73835 62.6394
13144 2 57.6719 1.4899 62.2228
13145 2 58.684 1.20085 63.4714
13146 1 12.2149 10.9306 82.2725
13147 2 11.7155 10.2244 81.7708
13148 2 11.5647 11.5416 82.724
13149 1 3.5922 3.20665 78.0957
13150 2 3.55925 4.02362 77.5199
13151 2 4.23504 3.35428 78.8473
13152 1 31.3334 28.3011 52.2249
13153 2 32.2465 28.5719 51.9201
13154 2 31.4123 27.6955 53.0168
13155 1 58.9806 6.11684 34.7487
13156 2 59.5498 6.88536 35.0408
13157 2 59.168 5.32388 35.3284
13158 1 70.8446 17.9594 35.0113
13159 2 69.9317 17.6983 35.3253
13160 2 71.5301 17.4007 35.4782
13161 1 65.4811 6.56303 64.0261
13162 2 64.8244 6.19352 64.6835
13163 2 66.3908 6.58648 64.4409
13164 1 20.554 21.879 86.6147
13165 2 19.5707 21.762 86.4751
13166 2 20.7106 22.4503 87.4204
13167 1 44.3541 27.2702 79.9743
13168 2 44.2837 26.2771 79.8805
13169 2 43.4669 27.6873 79.7773
13170 1 3.71556 29.6798 55.4482
13171 2 3.96017 28.9911 56.1307
13172 2 3.51223 0.545251 55.906
13173 1 5.4774 0.761264 33.4424
13174 2 4.95231 1.5717 33.1826
13175 2 5.10862 29.96 32.9712
13176 1 25.4777 22.8451 42.7931
13177 2 26.0963 22.2078 43.2528
13178 2 25.8931 23.1541 41.9375
13179 1 19.3456 18.3218 36.1329
13180 2 20.1801 18.4354 35.5937
13181 2 19.3269 17.4036 36.5286
13182 1 55.6824 27.1211 84.3313
13183 2 56.4774 27.7253 84.2763
13184 2 55.9866 26.1685 84.3226
13185 1 2.91912 6.29247 40.7731
13186 2 3.45623 7.10941 40.9832
13187 2 2.46321 5.97083 41.603
13188 1 73.1838 15.3817 11.1117
13189 2 73.0781 14.4439 11.4425
13190 2 72.2827 15.7718 10.9222
13191 1 14.1438 23.608 70.9714
13192 2 13.8802 24.4254 71.4837
13193 2 13.9406 23.7424 70.0016
13194 1 57.3719 4.71304 20.9447
13195 2 58.071 5.08763 21.5538
13196 2 57.7153 3.87638 20.518
13197 1 25.6528 14.9075 34.4832
13198 2 24.9325 15.0229 35.1671
13199 2 26.4397 15.4735 34.7291
13200 1 20.814 7.89131 38.1011
13201 2 20.8476 6.89208 38.0807
13202 2 21.3122 8.2576 37.3152
13203 1 59.8124 15.3993 29.7611
13204 2 59.2128 16.1964 29.8323
13205 2 59.4432 14.6538 30.316
13206 1 77.61 1.86844 11.654
13207 2 76.8214 1.98192 12.2584
13208 2 77.3479 2.0994 10.717
13209 1 62.4326 20.9706 58.2545
13210 2 63.224 21.5582 58.4231
13211 2 61.6772 21.2507 58.8468
13212 1 63.5631 11.6281 65.1127
13213 2 62.9301 11.0351 65.6104
13214 2 63.3346 12.5849 65.2923
13215 1 60.0386 11.7552 50.7963
13216 2 59.9578 11.1389 51.5797
13217 2 59.5055 11.3937 50.0314
13218 1 0.608791 25.4096 33.3962
13219 2 79.7379 25.5823 33.8564
13220 2 0.559176 24.5404 32.9042
13221 1 22.0405 0.0140432 36.2714
13222 2 21.0617 0.156588 36.4185
13223 2 22.4339 29.5548 37.0679
13224 1 13.8344 5.03294 83.1641
13225 2 14.1448 5.08872 82.2151
13226 2 13.0849 5.6791 83.3081
13227 1 60.8007 21.5511 24.3599
13228 2 60.7805 22.1582 25.1542
13229 2 61.745 21.2823 24.1697
13230 1 35.2964 27.4467 74.1144
13231 2 34.819 26.9292 73.4043
13232 2 34.7048 27.5372 74.9155
13233 1 28.5788 25.4764 48.5441
13234 2 28.2562 24.5555 48.3253
13235 2 29.3203 25.4197 49.2126
13236 1 37.1094 2.44604 33.7813
13237 2 36.5551 2.12891 34.5508
13238 2 36.523 2.58583 32.9834
13239 1 79.4211 9.42642 80.4718
13240 2 0.194821 9.46061 79.8392
13241 2 78.7142 8.8238 80.1015
13242 1 47.894 11.1974 63.6755
13243 2 47.0471 11.4138 64.1613
13244 2 48.4149 12.0374 63.5235
13245 1 72.499 25.3073 10.789
13246 2 72.7706 25.499 9.8459
13247 2 73.1957 25.6586 11.4145
13248 1 65.1549 14.0272 74.2667
13249 2 65.219 14.9881 74.5362
13250 2 65.4716 13.4484 75.0181
13251 1 65.7232 10.1477 13.5362
13252 2 65.7325 10.8464 12.8208
13253 2 64.7776 9.93908 13.7859
13254 1 36.7036 14.7187 29.1646
13255 2 37.3985 15.3627 29.4846
13256 2 37.1122 13.8119 29.0607
13257 1 21.4169 10.2345 76.1361
13258 2 21.3214 10.9504 76.8278
13259 2 20.6426 9.60484 76.199
13260 1 78.1531 25.9231 58.1702
13261 2 77.2904 25.8093 57.6775
13262 2 78.1519 26.8028 58.6458
13263 1 71.2453 24.2676 44.7978
13264 2 70.559 23.8864 44.1783
13265 2 70.9922 24.0612 45.743
13266 1 17.4374 17.4715 15.3447
13267 2 17.3232 17.8993 16.2413
13268 2 16.986 16.5792 15.3412
13269 1 76.9543 28.3979 21.2988
13270 2 76.529 29.2123 20.9039
13271 2 76.5488 28.2108 22.1936
13272 1 20.4204 5.47552 14.8405
13273 2 20.5813 6.10783 15.5984
13274 2 19.9877 5.96548 14.0838
13275 1 33.4998 11.323 40.2226
13276 2 34.1959 12.0069 40.0044
13277 2 33.9299 10.5428 40.6768
13278 1 2.94055 11.1109 66.8087
13279 2 3.52996 11.193 67.6123
13280 2 2.015 11.4088 67.0422
13281 1 66.2746 19.4691 66.2836
13282 2 66.037 18.5043 66.1705
13283 2 67.2012 19.5432 66.6523
13284 1 16.3043 6.73677 56.7814
13285 2 16.4335 7.27805 57.6122
13286 2 15.953 7.32407 56.0522
13287 1 66.6795 22.0495 18.8788
13288 2 66.6769 22.4264 19.805
13289 2 67.5642 22.2288 18.4484
13290 1 57.6299 26.5516 58.081
13291 2 58.062 25.6506 58.1194
13292 2 56.7805 26.5367 58.6085
13293 1 4.07393 24.9994 70.8874
13294 2 4.11433 24.0009 70.8488
13295 2 4.65169 25.3277 71.6347
13296 1 1.71912 24.7252 15.0769
13297 2 0.885239 24.5505 15.6004
13298 2 2.19415 23.8614 14.9087
13299 1 47.5055 29.9922 66.1554
13300 2 48.0208 29.5406 65.4271
13301 2 46.6194 29.5419 66.2654
13302 1 31.6985 0.471419 84.9684
13303 2 32.2358 1.11399 85.5147
13304 2 31.6652 0.786803 84.0201
13305 1 23.3992 20.3296 55.4165
13306 2 23.3364 19.3679 55.1497
13307 2 24.3217 20.5234 55.7502
13308 1 74.0323 8.69782 46.0114
13309 2 74.231 7.76907 46.3244
13310 2 73.0438 8.84842 46.0206
13311 1 70.1248 25.664 30.5418
13312 2 70.8936 25.9482 31.1147
13313 2 69.4233 25.2375 31.1128
13314 1 47.3615 2.87396 86.728
13315 2 47.7337 2.16021 87.3213
13316 2 47.8551 3.72925 86.8854
13317 1 2.87161 7.68803 12.8868
13318 2 2.40776 8.14368 13.6466
13319 2 3.72639 7.28384 13.2124
13320 1 75.1725 7.6789 64.3256
13321 2 75.8591 7.31251 64.9535
13322 2 74.3329 7.14066 64.3988
13323 1 69.6025 4.00786 61.8414
13324 2 70.3248 3.46621 61.4113
13325 2 70.0124 4.7595 62.3581
13326 1 24.9765 1.99474 30.8655
13327 2 25.5847 1.60525 31.5572
13328 2 25.5218 2.38064 30.1215
13329 1 35.6725 10.7175 52.292
13330 2 35.0541 9.96713 52.0586
13331 2 35.328 11.5687 51.896
13332 1 15.4306 1.8567 29.2324
13333 2 16.1622 2.51981 29.3903
13334 2 14.7214 2.27217 28.6627
13335 1 65.0216 10.5699 70.9926
13336 2 65.248 10.5421 71.9662
13337 2 64.03 10.508 70.879
13338 1 67.1131 6.24738 78.2206
13339 2 67.0709 6.50182 79.1867
13340 2 68.0691 6.17835 77.9355
13341 1 31.241 8.0414 39.2785
13342 2 32.0153 8.29263 38.6978
13343 2 31.4842 7.24494 39.8322
13344 1 19.8588 19.0697 72.2773
13345 2 20.7844 19.2686 72.5993
13346 2 19.8557 18.1962 71.7904
13347 1 15.7734 2.84749 72.3352
13348 2 16.712 3.1926 72.334
13349 2 15.2506 3.30623 73.0537
13350 1 18.8337 18.6692 57.3088
13351 2 18.4667 17.7706 57.5492
13352 2 18.1085 19.229 56.9078
13353 1 30.336 28.1788 64.8092
13354 2 29.9957 28.4626 63.9127
13355 2 29.6098 27.704 65.3063
13356 1 13.4226 29.9276 78.7667
13357 2 13.16 0.0536537 77.8101
13358 2 14.1477 0.575069 79.0014
13359 1 44.7327 17.5014 59.5874
13360 2 45.4579 16.8213 59.4797
13361 2 44.6992 17.8051 60.5396
13362 1 17.0744 24.3238 39.2858
13363 2 16.8988 24.0576 40.2335
13364 2 17.3148 25.2938 39.2511
13365 1 39.2512 28.1683 63.7106
13366 2 38.7606 27.3077 63.5737
13367 2 38.6304 28.9353 63.5485
13368 1 73.0623 20.4462 88.9037
13369 2 72.3176 20.7523 89.4967
13370 2 73.0263 19.4512 88.8101
13371 1 0.50578 22.9267 31.9294
13372 2 79.713 22.5415 31.457
13373 2 1.3369 22.7091 31.4177
13374 1 20.0195 23.2325 42.995
13375 2 19.0496 23.0158 42.8842
13376 2 20.5517 22.7416 42.3052
13377 1 4.95002 3.28213 27.6319
13378 2 4.34629 3.83972 27.0622
13379 2 4.84173 2.31829 27.3885
13380 1 20.8402 22.8666 72.8911
13381 2 21.0819 22.167 73.5635
13382 2 21.3738 23.6943 73.0648
13383 1 11.2323 19.2734 83.2214
13384 2 11.3891 20.0558 82.6187
13385 2 10.2489 19.1349 83.3389
13386 1 40.7809 22.5258 78.9935
13387 2 39.8964 22.4914 78.5281
13388 2 40.751 23.2173 79.7152
13389 1 71.0079 29.1511 29.8167
13390 2 70.172 28.8563 29.3536
13391 2 71.4862 28.3524 30.1816
13392 1 41.7255 13.2236 90.1293
13393 2 41.0501 13.2862 90.864
13394 2 41.269 12.9649 89.278
13395 1 61.5958 18.6261 60.9069
13396 2 60.9549 17.8656 61.0106
13397 2 62.4694 18.2814 60.5636
13398 1 7.71657 4.43283 30.7588
13399 2 6.76688 4.50895 30.455
13400 2 7.74475 3.99854 31.6591
13401 1 19.968 17.9247 44.7123
13402 2 20.3107 18.8083 45.0315
13403 2 20.544 17.1927 45.0761
13404 1 60.2671 16.8609 78.6934
13405 2 61.1708 17.2069 78.4416
13406 2 60.0582 17.1279 79.6342
13407 1 70.1914 24.2683 11.4929
13408 2 69.8788 24.6342 12.3695
13409 2 71.0487 24.7127 11.2329
13410 1 65.819 21.9137 90.7164
13411 2 65.9798 21.398 89.8749
13412 2 66.5921 21.7871 91.3378
13413 1 34.6882 28.5079 46.8007
13414 2 34.5211 27.7142 46.2158
13415 2 35.2821 29.1551 46.3228
13416 1 7.24123 21.5767 71.2453
13417 2 6.3984 22.0507 71.5001
13418 2 7.96 21.7971 71.9047
13419 1 7.34369 4.73984 81.3931
13420 2 7.55454 5.65837 81.0586
13421 2 8.12448 4.13742 81.2274
13422 1 63.8919 6.35283 90.6304
13423 2 63.8551 6.80608 89.7398
13424 2 64.8245 6.03741 90.8056
13425 1 52.62 23.1898 60.3284
13426 2 53.5353 23.5878 60.3901
13427 2 52.1445 23.5689 59.5346
13428 1 56.857 29.288 72.4325
13429 2 56.1519 29.8441 71.9926
13430 2 56.5053 28.9251 73.2954
13431 1 63.7978 4.52871 20.897
13432 2 64.3343 3.8864 21.4444
13433 2 64.3127 4.77903 20.0772
13434 1 67.3605 21.2363 46.7985
13435 2 67.7911 20.9485 45.9431
13436 2 66.6174 21.8751 46.5992
13437 1 24.7475 21.7156 49.1857
13438 2 24.0602 21.9285 48.4913
13439 2 24.3331 21.1577 49.9048
13440 1 62.7846 7.09629 46.4614
13441 2 62.538 7.87039 47.0444
13442 2 62.273 6.28647 46.7485
13443 1 15.7322 26.4053 32.9369
13444 2 16.4583 27.0929 32.9327
13445 2 15.8144 25.8288 32.124
13446 1 71.2748 18.4282 21.0602
13447 2 71.7779 19.2446 20.7767
13448 2 71.7727 17.9683 21.7955
13449 1 51.4791 8.14767 46.8699
13450 2 50.8968 7.62272 46.2492
13451 2 52.439 7.99738 46.6334
13452 1 66.313 16.9074 69.728
13453 2 65.6015 16.3658 70.1757
13454 2 66.0077 17.8562 69.6462
13455 1 76.5502 15.9599 89.3957
13456 2 77.1572 16.1363 88.6208
13457 2 76.5801 16.7357 90.0259
13458 1 58.4148 11.0541 81.4501
13459 2 57.6173 10.5273 81.1558
13460 2 58.2341 12.0298 81.3259
13461 1 14.6553 19.5112 64.5224
13462 2 15.1172 18.7075 64.8975
13463 2 13.7114 19.5372 64.8518
13464 1 55.6681 6.05431 46.0689
13465 2 55.7742 6.52583 46.9443
13466 2 54.9284 6.48059 45.5482
13467 1 11.4749 18.1886 57.0502
13468 2 12.2996 18.752 57.0998
13469 2 10.7027 18.753 56.7584
13470 1 16.2514 16.4294 53.4954
13471 2 15.296 16.1826 53.658
13472 2 16.7814 16.2783 54.3298
13473 1 69.2293 9.9319 30.2155
13474 2 69.2663 9.35748 29.3978
13475 2 68.8396 9.40839 30.9732
13476 1 56.4829 9.09917 75.3064
13477 2 55.7809 8.82972 75.9656
13478 2 56.995 8.29092 75.0158
13479 1 15.8162 6.47385 71.3007
13480 2 15.6597 5.90627 70.4924
13481 2 14.9488 6.86837 71.604
13482 1 18.0317 16.3033 63.968
13483 2 17.1528 16.2003 64.4338
13484 2 18.6391 16.8706 64.5239
13485 1 69.3337 3.67232 17.7124
13486 2 69.0782 3.08132 16.9473
13487 2 70.3039 3.90478 17.6445
13488 1 4.09567 12.2689 35.4834
13489 2 4.69059 12.2267 34.6807
13490 2 3.97927 13.2221 35.7623
13491 1 1.45787 25.4954 70.3334
13492 2 1.78444 24.6231 70.6972
13493 2 2.23824 26.046 70.037
13494 1 6.59345 5.75291 22.4541
13495 2 6.33685 6.10099 21.5525
13496 2 7.5261 6.042 22.67
13497 1 34.5369 20.9345 71.558
13498 2 34.8813 21.632 72.1864
13499 2 33.5871 21.1391 71.3211
13500 1 19.4021 10.306 46.3146
13501 2 19.2459 10.4919 47.2847
13502 2 20.3786 10.1601 46.1561
13503 1 29.9952 23.9493 37.1204
13504 2 29.4348 23.7132 37.9142
13505 2 30.5487 23.1595 36.8563
13506 1 7.62515 21.8684 17.7967
13507 2 6.7858 21.3299 17.8708
13508 2 8.0979 21.8718 18.6779
13509 1 72.9902 17.6047 44.5536
13510 2 73.5992 17.7342 45.3361
13511 2 72.5446 18.4717 44.3309
13512 1 65.4803 12.8469 86.4462
13513 2 65.9702 13.6917 86.2309
13514 2 65.9454 12.0731 86.0161
13515 1 34.3226 19.6767 30.5152
13516 2 35.2303 19.2932 30.6855
13517 2 34.4117 20.6329 30.2364
13518 1 9.37517 6.33791 52.0722
13519 2 9.28662 5.3722 51.8281
13520 2 8.82372 6.52837 52.8843
13521 1 74.8515 1.76495 56.0898
13522 2 74.5797 2.20088 55.2318
13523 2 74.367 0.89594 56.1902
13524 1 20.2206 14.0243 17.9089
13525 2 20.4152 13.0552 18.0605
13526 2 19.9644 14.1673 16.953
13527 1 4.24148 5.66933 57.0393
13528 2 3.61776 6.09129 56.3813
13529 2 4.68844 6.38238 57.5794
13530 1 32.1175 3.94019 35.9451
13531 2 33.0468 3.93847 35.5758
13532 2 31.7357 3.01754 35.891
13533 1 57.5312 9.7005 27.6341
13534 2 58.2472 9.05222 27.3752
13535 2 56.7193 9.54236 27.072
13536 1 78.9353 13.3937 35.7254
13537 2 78.4963 14.2262 36.0633
13538 2 78.8569 13.3562 34.7292
13539 1 21.662 0.555888 40.2905
13540 2 22.1853 29.7037 40.2921
13541 2 20.8033 0.420636 40.7847
13542 1 12.0035 2.27015 36.8769
13543 2 12.6562 1.93042 37.5541
13544 2 11.7288 3.20132 37.1166
13545 1 17.5565 27.9999 50.2163
13546 2 17.1017 27.6412 51.0315
13547 2 18.5418 28.0502 50.3793
13548 1 24.3011 5.79563 27.6466
13549 2 24.9031 6.20696 28.331
13550 2 24.5527 4.83685 27.5145
13551 1 26.5504 28.2185 57.916
13552 2 27.4292 28.6463 58.1268
13553 2 26.6177 27.7297 57.0462
13554 1 61.4802 4.04574 29.0542
13555 2 61.0205 3.15969 28.9948
13556 2 61.6109 4.28966 30.0152
13557 1 13.9347 26.0274 72.3478
13558 2 12.9458 26.1651 72.4036
13559 2 14.3723 26.4217 73.156
13560 1 73.7204 13.1226 86.4876
13561 2 73.4964 12.9887 87.453
13562 2 73.5545 14.0761 86.2361
13563 1 41.7497 8.57333 85.9109
13564 2 41.3445 8.72895 85.01
13565 2 41.1376 8.00179 86.4574
13566 1 7.33385 29.2901 72.0444
13567 2 7.15141 0.178322 72.4661
13568 2 6.49681 28.743 72.0444
13569 1 58.7997 20.1661 25.3612
13570 2 58.0776 20.7501 25.7319
13571 2 59.5537 20.7355 25.0337
13572 1 14.8587 3.54552 63.2532
13573 2 15.3812 4.2856 63.6767
13574 2 14.4214 2.9964 63.9654
13575 1 22.913 10.8647 69.6985
13576 2 22.3385 11.0704 68.9062
13577 2 22.6143 11.4145 70.4786
13578 1 75.0875 28.8145 80.0951
13579 2 75.2235 28.891 81.0828
13580 2 74.9954 29.7283 79.6995
13581 1 74.6963 19.7936 23.216
13582 2 75.0706 19.361 24.0362
13583 2 74.114 20.5623 23.4808
13584 1 3.19642 16.7125 21.3511
13585 2 3.90079 16.366 21.9706
13586 2 2.42941 16.0713 21.3265
13587 1 63.439 26.7887 50.3745
13588 2 63.4528 27.7836 50.2742
13589 2 64.2997 26.4827 50.7813
13590 1 59.9278 20.2297 15.8035
13591 2 59.2454 20.9053 15.5243
13592 2 60.2069 19.6901 15.0092
13593 1 22.2924 5.19735 64.5288
13594 2 22.2554 6.08042 64.9966
13595 2 22.9041 4.5821 65.026
13596 1 74.2542 20.4543 77.5754
13597 2 74.815 20.2857 78.386
13598 2 74.3913 21.3949 77.2649
13599 1 57.1565 12.868 56.5047
13600 2 57.6491 12.1563 57.0055
13601 2 56.5966 13.3974 57.1422
13602 1 65.6651 1.84804 42.0188
13603 2 65.432 2.79231 42.2512
13604 2 66.4374 1.54791 42.5788
13605 1 11.5662 9.41975 76.5312
13606 2 11.4308 10.2025 75.9237
13607 2 11.2758 9.6621 77.4569
13608 1 72.9434 12.9401 20.957
13609 2 73.4706 12.9825 21.8056
13610 2 72.0508 13.3685 21.0974
13611 1 75.5828 15.2742 73.8468
13612 2 76.3703 14.6952 74.0578
13613 2 75.304 15.7703 74.6691
13614 1 54.2812 13.3671 79.186
13615 2 55.2577 13.1524 79.1654
13616 2 54.0037 13.5673 80.1256
13617 1 13.8655 13.0658 27.5542
13618 2 14.6729 12.6511 27.1346
13619 2 13.0428 12.7378 27.0899
13620 1 21.5176 2.07543 61.4499
13621 2 21.3304 1.37548 60.7607
13622 2 22.4934 2.29394 61.4466
13623 1 77.4194 13.0429 23.8056
13624 2 78.2427 13.5916 23.9512
13625 2 77.6514 12.2281 23.2743
13626 1 42.7584 7.76364 74.8348
13627 2 43.185 7.84873 75.7352
13628 2 42.8995 8.60801 74.3179
13629 1 67.4305 25.4171 34.0039
13630 2 68.05 26.1725 33.7899
13631 2 67.7923 24.8987 34.7787
13632 1 35.0957 13.1026 76.9426
13633 2 35.7247 13.879 76.9027
13634 2 35.3826 12.4782 77.6691
13635 1 30.0743 0.987322 74.8395
13636 2 30.6588 0.503112 75.4905
13637 2 29.2131 1.23369 75.2839
13638 1 11.0251 15.9788 79.4548
13639 2 10.7208 15.4214 80.2273
13640 2 10.2394 16.4497 79.0536
13641 1 23.4686 18.9805 67.6162
13642 2 23.7209 19.6444 66.9122
13643 2 22.729 18.3994 67.2766
13644 1 19.8453 25.1801 30.8176
13645 2 20.035 25.5055 31.7439
13646 2 20.4737 25.6185 30.175
13647 1 5.83448 16.0964 59.2997
13648 2 6.1365 15.157 59.462
13649 2 6.61832 16.6571 59.033
13650 1 53.007 7.18169 58.9468
13651 2 53.6558 6.42073 58.9427
13652 2 53.2099 7.79681 58.185
13653 1 17.4076 24.9368 17.2408
13654 2 18.2552 25.0255 16.7176
13655 2 16.749 25.6206 16.9269
13656 1 34.7752 10.6196 62.4478
13657 2 33.8951 10.7724 62.8974
13658 2 35.118 11.4853 62.0831
13659 1 13.6835 15.6263 51.7211
13660 2 13.7634 16.437 52.3012
13661 2 13.7355 15.8977 50.7601
13662 1 75.0102 27.7606 60.8118
13663 2 75.5557 28.5 60.4172
13664 2 75.6142 27.1096 61.2715
13665 1 14.0032 14.2304 24.1691
13666 2 14.7739 14.7901 24.4737
13667 2 13.3914 14.7847 23.6047
13668 1 40.8998 23.9944 81.2161
13669 2 40.2777 24.7541 81.0268
13670 2 41.8048 24.3535 81.4442
13671 1 11.0733 10.6935 11.9247
13672 2 10.6917 10.5937 12.8436
13673 2 12.0163 10.3606 11.9174
13674 1 3.89278 6.93768 68.8161
13675 2 3.02596 7.41807 68.6824
13676 2 4.58337 7.31901 68.2015
13677 1 56.4893 29.6422 53.0247
13678 2 57.3245 0.188857 52.9643
13679 2 56.2959 29.2296 52.1346
13680 1 48.8849 5.13067 57.4899
13681 2 49.0646 6.10409 57.3478
13682 2 48.5782 4.71962 56.6314
13683 1 36.852 7.15069 52.2742
13684 2 35.8757 7.3345 52.1603
13685 2 37.0415 6.19751 52.0385
13686 1 44.1758 6.7231 56.8567
13687 2 44.4175 7.25612 56.0459
13688 2 43.948 5.78801 56.5852
13689 1 35.0068 4.16545 61.7333
13690 2 34.9347 4.28274 62.7238
13691 2 34.1179 4.34271 61.3111
13692 1 72.53 13.2203 65.807
13693 2 72.7881 13.1027 64.8481
13694 2 72.3326 12.3271 66.211
13695 1 67.1522 7.18987 80.7476
13696 2 66.7056 7.94122 81.2334
13697 2 67.2172 6.3949 81.3508
13698 1 50.0315 27.0933 59.614
13699 2 50.6651 26.6865 60.2721
13700 2 49.6559 26.3767 59.0262
13701 1 24.3773 11.004 83.1916
13702 2 25.364 10.923 83.3328
13703 2 24.1973 11.678 82.4752
13704 1 60.027 0.9853 87.4123
13705 2 59.4765 1.67934 87.8763
13706 2 60.6152 1.42524 86.7338
13707 1 9.90438 5.75879 12.659
13708 2 10.6169 6.35882 12.2952
13709 2 10.3205 4.91566 12.9995
13710 1 67.0625 6.55356 40.9007
13711 2 66.4764 7.19348 40.4038
13712 2 66.5067 5.80595 41.2643
13713 1 57.8199 25.1933 22.1166
13714 2 57.8728 25.6393 21.2231
13715 2 57.7605 25.8884 22.8331
13716 1 61.9348 0.0643206 83.1775
13717 2 60.9825 29.7759 83.2775
13718 2 62.005 1.0472 83.3479
13719 1 60.6561 25.8708 90.9897
13720 2 60.1953 26.7291 91.2155
13721 2 61.5088 26.0675 90.5058
13722 1 57.3366 12.325 53.4255
13723 2 57.8156 11.5519 53.0097
13724 2 57.9132 12.7325 54.1337
13725 1 54.2844 29.345 77.3571
13726 2 54.2899 29.1963 76.3682
13727 2 53.3823 29.6709 77.6401
13728 1 14.3866 25.5648 35.1726
13729 2 13.4436 25.2751 35.0089
13730 2 14.8011 25.8535 34.3096
13731 1 19.0676 21.6315 28.3102
13732 2 18.965 22.0878 27.4263
13733 2 18.1644 21.4105 28.6781
13734 1 20.2864 1.51848 56.903
13735 2 19.4695 2.08658 57.0031
13736 2 20.932 1.96882 56.2863
13737 1 63.1146 26.7607 91.0446
13738 2 63.9749 26.2918 90.8448
13739 2 63.2963 27.7268 91.2281
13740 1 4.79905 4.81274 50.7751
13741 2 4.77362 3.81435 50.7243
13742 2 3.98988 5.19012 50.3247
13743 1 4.95058 0.710093 13.76
13744 2 4.8212 1.52525 13.1954
13745 2 5.73591 0.191576 13.4218
13746 1 42.99 21.2262 82.7876
13747 2 43.7807 21.5567 82.2723
13748 2 43.2903 20.8911 83.6806
13749 1 4.56423 18.0224 15.7102
13750 2 4.64808 18.7505 16.3905
13751 2 4.4948 18.4254 14.7976
13752 1 61.5092 7.90435 24.5699
13753 2 62.1143 8.3057 25.2575
13754 2 61.7948 6.9645 24.3824
13755 1 18.3245 28.5005 68.5644
13756 2 18.9332 28.231 67.8182
13757 2 18.851 28.9768 69.2686
13758 1 1.85402 5.0054 10.4021
13759 2 2.69505 5.38479 10.7878
13760 2 1.82221 5.19496 9.42078
13761 1 78.0079 25.0708 84.8056
13762 2 78.4626 24.4223 84.1951
13763 2 78.551 25.182 85.6379
13764 1 16.2617 28.6943 59.7003
13765 2 17.0216 28.6782 60.3502
13766 2 16.5811 28.3809 58.8061
13767 1 59.4018 28.5163 30.5612
13768 2 60.3685 28.5737 30.8105
13769 2 58.8395 28.6098 31.3829
13770 1 34.0588 6.9954 65.9471
13771 2 33.1389 6.95661 65.5569
13772 2 34.6142 6.25652 65.5655
13773 1 11.0437 19.907 28.0761
13774 2 11.7686 19.5327 28.6543
13775 2 10.7513 19.2137 27.4174
13776 1 20.2767 5.11282 76.0187
13777 2 19.5256 4.45805 75.9342
13778 2 19.9523 6.02584 75.7713
13779 1 74.1388 0.721693 28.2458
13780 2 73.1489 0.787623 28.1198
13781 2 74.457 1.49415 28.7954
13782 1 17.0735 0.588987 34.5956
13783 2 17.8883 0.248573 34.1264
13784 2 17.1913 0.48853 35.5835
13785 1 61.546 16.6284 36.5867
13786 2 62.0963 16.9478 37.3581
13787 2 62.1486 16.2771 35.8702
13788 1 53.2221 15.4222 88.218
13789 2 53.1999 15.2052 87.2421
13790 2 53.2447 14.5743 88.7476
13791 1 58.444 6.30925 45.1197
13792 2 57.7242 6.7559 45.651
13793 2 58.8327 5.55675 45.6514
13794 1 20.4928 20.6711 90.7518
13795 2 20.834 19.7444 90.5945
13796 2 19.805 20.6544 91.4775
13797 1 62.4145 8.04413 49.9909
13798 2 62.8468 8.44146 50.8004
13799 2 61.4362 7.92469 50.1602
13800 1 13.5654 29.0099 21.7939
13801 2 14.0505 29.6122 21.16
13802 2 13.9864 28.1029 21.78
13803 1 79.4827 23.5203 50.7332
13804 2 0.279247 23.0917 51.1595
13805 2 78.7403 22.8534 50.6679
13806 1 66.8343 14.0826 45.3463
13807 2 65.9801 13.5709 45.254
13808 2 66.6398 14.9926 45.7125
13809 1 9.57902 27.187 90.9753
13810 2 8.71225 27.0453 90.4972
13811 2 10.2912 27.4187 90.3127
13812 1 59.0612 25.4175 81.4394
13813 2 58.4836 26.2209 81.5839
13814 2 59.9934 25.6186 81.7403
13815 1 37.9026 19.5693 49.2885
13816 2 38.4387 20.2084 48.737
13817 2 38.1391 18.6311 49.0357
13818 1 5.44693 13.4536 73.3775
13819 2 5.3541 14.442 73.4974
13820 2 5.64341 13.2512 72.4181
13821 1 5.28055 8.46699 21.2202
13822 2 5.53134 8.76263 20.2985
13823 2 6.09078 8.47933 21.8062
13824 1 0.662493 8.99472 55.6125
13825 2 1.59369 8.83884 55.2829
13826 2 0.441953 8.3222 56.3189
13827 1 19.3701 1.98782 30.0713
13828 2 20.3012 1.97382 30.4357
13829 2 19.3767 2.38897 29.1553
13830 1 30.2575 28.0459 60.7396
13831 2 30.0725 28.536 59.8878
13832 2 29.9202 27.1075 60.6642
13833 1 39.1525 23.9824 61.6626
13834 2 38.5884 24.7612 61.937
13835 2 40.1184 24.2116 61.7831
13836 1 75.5334 18.6848 18.3146
13837 2 76.0576 17.8988 18.6423
13838 2 75.1116 19.1516 19.0919
13839 1 7.36506 5.24319 55.0967
13840 2 7.16051 6.16685 54.7727
13841 2 6.88035 5.07623 55.9553
13842 1 77.0338 10.1797 68.4151
13843 2 77.7148 9.52357 68.0899
13844 2 77.2535 11.0898 68.0639
13845 1 51.0627 1.15473 48.8774
13846 2 50.6745 1.03226 49.7908
13847 2 51.7947 0.488566 48.7343
13848 1 68.4598 29.0997 10.0766
13849 2 67.7711 28.3975 10.2573
13850 2 68.8109 29.4532 10.9437
13851 1 10.962 3.03328 63.3918
13852 2 10.9894 2.38257 64.1506
13853 2 11.4808 3.85246 63.6363
13854 1 79.3871 0.922203 76.1368
13855 2 79.7156 29.9966 75.9487
13856 2 79.0463 1.33311 75.2912
13857 1 72.5122 14.8075 46.0309
13858 2 72.3431 15.7883 45.9339
13859 2 72.7115 14.5967 46.9879
13860 1 38.4049 11.5484 42.0123
13861 2 37.9559 12.2477 41.4562
13862 2 38.1016 10.6423 41.7171
13863 1 35.0936 16.4275 58.8265
13864 2 34.5568 15.87 58.1933
13865 2 35.5986 17.1217 58.3136
13866 1 71.5465 20.9204 53.161
13867 2 71.7544 20.542 54.063
13868 2 72.0333 21.7859 53.0423
13869 1 45.2645 1.7847 34.413
13870 2 46.1289 1.3956 34.7315
13871 2 44.872 2.35805 35.1321
13872 1 25.5929 19.475 43.5925
13873 2 25.9511 20.2453 44.1201
13874 2 26.3457 19.0142 43.1225
13875 1 17.2747 28.317 21.3115
13876 2 18.1447 27.9527 21.6439
13877 2 16.5226 27.7674 21.675
13878 1 35.6242 25.2049 37.6678
13879 2 35.6265 25.9408 36.9907
13880 2 36.4584 24.6618 37.5726
13881 1 57.6635 13.409 24.7883
13882 2 58.1744 13.7498 25.5775
13883 2 56.7369 13.1626 25.0723
13884 1 57.3519 4.80041 55.5628
13885 2 56.8427 5.32082 54.8773
13886 2 56.713 4.40049 56.22
13887 1 3.72673 10.3553 84.2822
13888 2 3.85405 11.0942 83.6205
13889 2 3.26963 10.7124 85.0967
13890 1 2.38683 9.80752 70.7264
13891 2 2.49975 9.12491 71.4484
13892 2 3.26762 10.2417 70.5375
13893 1 65.8058 12.8994 83.5454
13894 2 66.3685 12.401 84.2049
13895 2 66.3276 13.0449 82.7048
13896 1 46.9855 24.6873 80.7393
13897 2 46.673 24.2142 81.5631
13898 2 47.9794 24.6056 80.6648
13899 1 75.1718 28.2595 17.1885
13900 2 75.0222 27.9613 16.2458
13901 2 74.3868 28.7969 17.4966
13902 1 33.637 0.703029 71.7414
13903 2 34.4328 1.24883 72.0035
13904 2 33.5953 29.8807 72.3089
13905 1 79.6529 1.60367 16.2002
13906 2 0.31399 0.853387 16.1979
13907 2 79.9785 2.33668 15.603
13908 1 63.5427 24.8076 45.6679
13909 2 64.4838 24.5587 45.4392
13910 2 63.4554 24.9058 46.6592
13911 1 38.2375 28.1161 85.1224
13912 2 37.9912 28.793 85.8161
13913 2 37.6012 27.3459 85.1674
13914 1 2.30084 19.6901 24.0159
13915 2 2.69961 19.4377 24.8975
13916 2 2.9553 19.494 23.2857
13917 1 50.2135 24.4822 37.9379
13918 2 50.8992 23.7546 37.9555
13919 2 50.5865 25.2803 37.4646
13920 1 1.46995 27.3591 15.5643
13921 2 0.48614 27.2016 15.4786
13922 2 1.95863 26.4976 15.4261
13923 1 17.9343 28.1025 32.7757
13924 2 18.5366 27.8034 33.5159
13925 2 18.4731 28.2483 31.946
13926 1 70.9911 26.115 50.9927
13927 2 71.0622 27.0256 50.5856
13928 2 71.8161 25.922 51.5238
13929 1 4.65302 1.33383 17.1388
13930 2 3.99905 0.809529 16.5934
13931 2 4.54556 1.09875 18.1048
13932 1 64.1486 18.046 55.4794
13933 2 64.8234 17.8803 56.1985
13934 2 63.6625 17.1961 55.2762
13935 1 2.71787 1.53162 19.3961
13936 2 3.40071 1.67631 20.1122
13937 2 2.65103 2.35226 18.8286
13938 1 74.1716 25.5949 78.9639
13939 2 74.9644 26.1986 78.88
13940 2 74.3325 24.7586 78.4397
13941 1 76.2058 13.8765 33.6764
13942 2 75.4473 13.2289 33.6038
13943 2 76.1375 14.3743 34.5409
13944 1 74.243 17.9806 76.5882
13945 2 74.5553 18.0486 77.5357
13946 2 74.194 18.8952 76.1869
13947 1 8.62636 23.0673 31.5229
13948 2 8.81689 23.6752 32.2936
13949 2 8.23883 22.2102 31.8623
13950 1 78.4648 16.9826 53.0408
13951 2 77.5273 16.6368 53.0789
13952 2 79.0437 16.4442 53.6532
13953 1 4.34039 21.1849 14.5427
13954 2 4.38957 21.0352 15.5302
13955 2 3.42386 21.502 14.2989
13956 1 7.85729 24.5936 86.124
13957 2 7.75634 24.9248 85.1859
13958 2 7.23449 23.826 86.2754
13959 1 10.0372 1.11311 76.1574
13960 2 10.5363 1.97037 76.2836
13961 2 10.002 0.616986 77.0249
13962 1 19.3944 12.8664 56.0589
13963 2 19.5847 11.8949 56.2003
13964 2 20.0237 13.2329 55.3735
13965 1 22.8027 9.65453 33.226
13966 2 23.1999 9.24144 34.0454
13967 2 21.9811 10.167 33.4758
13968 1 54.3284 1.26735 58.5498
13969 2 54.1466 1.96503 59.2427
13970 2 55.3054 1.25603 58.3365
13971 1 66.1899 13.3703 64.9963
13972 2 65.9147 12.832 65.7929
13973 2 65.5791 14.1559 64.8977
13974 1 67.0824 9.39162 37.6714
13975 2 67.4995 8.48288 37.6559
13976 2 67.3906 9.88597 38.4842
13977 1 37.9856 12.1951 85.1182
13978 2 37.4823 12.4042 85.9566
13979 2 38.4214 13.027 84.7747
13980 1 40.7044 22.9496 51.2952
13981 2 40.3535 22.4409 50.5089
13982 2 40.5345 23.9262 51.1631
13983 1 38.2496 23.8879 40.2815
13984 2 38.4832 23.2184 40.9866
13985 2 38.4092 24.8107 40.6321
13986 1 1.08223 5.56276 51.9731
13987 2 0.130676 5.86984 51.9571
13988 2 1.28395 5.1487 52.8607
13989 1 7.21094 5.69768 12.7277
13990 2 7.19183 6.35913 13.4775
13991 2 8.14635 5.60864 12.3855
13992 1 52.2633 3.78862 90.6478
13993 2 51.7233 4.62345 90.7547
13994 2 51.7446 3.12244 90.1119
13995 1 50.671 16.446 32.8497
13996 2 50.1281 17.1969 32.4737
13997 2 50.6178 16.4636 33.8481
13998 1 24.3966 3.39878 34.09
13999 2 24.9053 2.54265 34.1812
14000 2 24.9971 4.10482 33.7145
14001 1 11.1603 11.8774 65.3258
14002 2 10.8566 12.7923 65.5918
14003 2 11.5934 11.4294 66.1079
14004 1 41.2545 22.2603 86.6569
14005 2 42.2192 22.3767 86.4207
14006 2 40.9677 21.3278 86.4371
14007 1 79.0004 14.4121 51.4174
14008 2 78.1498 14.9 51.2213
14009 2 79.7776 14.9591 51.1065
14010 1 23.5432 15.8418 61.6366
14011 2 22.9424 15.044 61.5853
14012 2 23.014 16.67 61.4526
14013 1 20.3545 7.75684 79.0022
14014 2 19.8181 7.00865 79.3927
14015 2 19.8747 8.13252 78.2094
14016 1 25.5803 22.292 77.999
14017 2 26.456 22.4267 78.4626
14018 2 24.9637 23.046 78.2256
14019 1 1.46451 5.2406 81.1089
14020 2 2.15205 5.07643 81.8162
14021 2 1.24649 4.37943 80.6497
14022 1 32.4713 29.5758 73.9254
14023 2 31.9139 28.7796 73.6899
14024 2 32.3848 29.7657 74.9034
14025 1 20.7522 4.43216 11.5048
14026 2 21.7302 4.27312 11.6399
14027 2 20.2688 3.55675 11.5063
14028 1 3.25075 6.77904 17.0888
14029 2 3.34373 6.28939 17.9558
14030 2 2.28476 6.82622 16.8346
14031 1 5.92815 7.24113 70.9976
14032 2 5.75964 7.83954 71.7809
14033 2 5.09832 7.17584 70.4434
14034 1 58.4522 6.48732 17.6957
14035 2 57.7451 6.81306 18.3234
14036 2 59.1108 5.92669 18.1976
14037 1 64.7192 5.96404 81.5487
14038 2 64.7513 5.06916 81.1035
14039 2 65.3886 5.9913 82.291
14040 1 61.9048 28.1409 24.5724
14041 2 62.3507 27.2691 24.7756
14042 2 61.6319 28.5828 25.4269
14043 1 39.0271 14.4938 53.3419
14044 2 38.4802 13.663 53.4452
14045 2 39.8841 14.2729 52.8763
14046 1 0.768279 22.1212 46.183
14047 2 79.9348 21.5689 46.1994
14048 2 0.933712 22.4475 45.2523
14049 1 20.5044 22.4021 36.167
14050 2 20.6487 23.3641 36.3992
14051 2 21.3582 21.8971 36.2932
14052 1 12.2831 5.11813 64.652
14053 2 12.3419 4.8359 65.6095
14054 2 12.3219 6.11579 64.5956
14055 1 45.6236 4.06335 64.7906
14056 2 44.7139 4.3384 64.4794
14057 2 45.6572 3.06827 64.8838
14058 1 50.3028 4.22249 85.4135
14059 2 49.5187 4.78277 85.6804
14060 2 50.7449 4.62751 84.6132
14061 1 39.9894 24.0341 35.5108
14062 2 40.9414 24.1883 35.7752
14063 2 39.4607 24.8684 35.6673
14064 1 70.5834 9.96524 16.1997
14065 2 70.9522 9.97145 17.1291
14066 2 70.3332 9.0307 15.9466
14067 1 13.6783 9.61652 12.7937
14068 2 14.3691 9.45498 12.0889
14069 2 13.9855 10.3502 13.3997
14070 1 64.3372 26.6377 67.1425
14071 2 63.9865 25.9072 67.7284
14072 2 64.74 26.2396 66.3183
14073 1 50.6883 9.76428 43.5696
14074 2 50.1732 10.1776 42.8188
14075 2 50.8459 10.4482 44.282
14076 1 5.81961 5.45798 37.1393
14077 2 5.2951 5.03507 36.4003
14078 2 5.59177 6.43004 37.1957
14079 1 32.7039 6.91331 43.2264
14080 2 32.2552 6.73506 44.1022
14081 2 33.6524 6.59926 43.2678
14082 1 14.5722 23.1772 40.0395
14083 2 14.8254 22.47 40.6996
14084 2 15.3729 23.4267 39.4948
14085 1 11.7671 2.04012 23.792
14086 2 11.8024 2.78416 24.4592
14087 2 12.5204 1.40466 23.9612
14088 1 71.694 15.3466 70.5588
14089 2 71.8663 14.9747 71.4709
14090 2 71.0469 16.1061 70.6253
14091 1 44.5961 11.3736 43.9475
14092 2 44.4275 10.4476 44.2853
14093 2 43.7231 11.8356 43.7912
14094 1 74.8623 9.29431 26.5013
14095 2 75.09 9.81633 25.6793
14096 2 75.4429 9.59436 27.2582
14097 1 25.671 28.8241 65.059
14098 2 24.9459 29.493 65.223
14099 2 25.9288 28.8421 64.093
14100 1 61.8302 7.13563 67.4388
14101 2 62.0431 8.09704 67.2645
14102 2 62.5391 6.73757 68.0211
14103 1 32.393 13.9992 88.6302
14104 2 33.2755 13.784 88.212
14105 2 32.479 13.9653 89.6259
14106 1 72.963 3.02725 58.1823
14107 2 72.514 3.78096 57.7024
14108 2 72.8462 3.14341 59.1686
14109 1 62.585 4.82898 58.002
14110 2 62.6622 4.19929 58.775
14111 2 62.4505 5.75961 58.3423
14112 1 27.0578 13.5255 56.4477
14113 2 26.7654 14.3251 56.9723
14114 2 28.012 13.6393 56.1708
14115 1 63.8541 21.3775 76.9576
14116 2 64.0714 20.4202 77.1484
14117 2 64.5844 21.9619 77.3112
14118 1 16.2232 9.79634 11.4486
14119 2 16.537 8.91551 11.8032
14120 2 15.9231 9.68647 10.5011
14121 1 68.3308 27.0713 53.7539
14122 2 68.6492 26.5085 54.5168
14123 2 68.4457 28.0381 53.9823
14124 1 74.2859 26.88 45.4249
14125 2 73.7818 27.7366 45.3154
14126 2 74.2771 26.3753 44.5617
14127 1 75.948 21.5327 37.9544
14128 2 76.1745 21.3678 36.9945
14129 2 75.6813 20.6713 38.3867
14130 1 51.4327 0.770955 58.2168
14131 2 51.1666 0.235808 57.4151
14132 2 52.3962 1.02758 58.1414
14133 1 40.1365 5.81574 90.4903
14134 2 40.5263 5.96567 89.5817
14135 2 40.0472 6.69219 90.9635
14136 1 78.0614 7.54072 70.6723
14137 2 77.9899 7.54797 69.6749
14138 2 78.8827 7.039 70.944
14139 1 7.81106 26.5348 74.5765
14140 2 7.14723 26.6399 73.836
14141 2 7.32999 26.3295 75.4288
14142 1 78.71 17.7673 58.5483
14143 2 78.7604 17.3048 59.4335
14144 2 79.1883 17.2222 57.8597
14145 1 63.4935 18.4909 80.1087
14146 2 64.2913 19.0938 80.1066
14147 2 63.3011 18.1893 79.1748
14148 1 60.9657 7.2837 13.3482
14149 2 61.7977 7.81918 13.2031
14150 2 60.2149 7.89535 13.5976
14151 1 12.8009 21.4746 61.9978
14152 2 12.9867 21.1386 62.9212
14153 2 11.8128 21.505 61.8468
14154 1 39.9279 23.1551 68.1357
14155 2 40.9068 23.1971 68.3359
14156 2 39.7822 23.2877 67.1553
14157 1 59.4409 20.2063 50.2536
14158 2 59.2033 19.2355 50.2854
14159 2 60.4359 20.306 50.2496
14160 1 31.8544 0.937908 43.5207
14161 2 32.1659 0.968544 44.4704
14162 2 32.3692 0.239555 43.0234
14163 1 50.7521 12.2093 26.2972
14164 2 50.4427 12.8474 27.0022
14165 2 50.5149 11.2756 26.5655
14166 1 59.7645 1.62756 12.1987
14167 2 60.3441 2.42322 12.3747
14168 2 59.6993 1.47419 11.2127
14169 1 2.51233 25.0859 51.9925
14170 2 3.33022 25.438 51.5374
14171 2 2.67082 25.0462 52.9791
14172 1 26.6104 27.2563 90.0209
14173 2 25.7634 27.0553 90.5131
14174 2 26.5137 26.9802 89.0646
14175 1 55.3233 3.03902 74.7862
14176 2 55.355 3.01147 73.7871
14177 2 56.2063 3.34835 75.1393
14178 1 16.0241 2.33904 24.0089
14179 2 15.0281 2.27559 24.0711
14180 2 16.3087 3.28392 24.1709
14181 1 54.2825 4.62258 56.3627
14182 2 54.5499 5.38366 55.7717
14183 2 53.6718 4.00978 55.8612
14184 1 26.1561 11.819 91.1043
14185 2 25.2193 11.782 90.7564
14186 2 26.2541 11.1793 91.8667
14187 1 59.8007 19.1218 67.1844
14188 2 59.9925 20.0756 66.9529
14189 2 60.6303 18.5764 67.0643
14190 1 47.6716 4.0034 69.6173
14191 2 47.6345 3.56456 70.5151
14192 2 46.8703 4.58994 69.4996
14193 1 20.4959 20.608 79.9779
14194 2 20.5377 19.6667 79.643
14195 2 19.5402 20.8786 80.0934
14196 1 55.0541 0.343122 85.0125
14197 2 54.5602 1.13406 84.6513
14198 2 55.6256 29.9497 84.2923
14199 1 39.0327 25.9512 44.8574
14200 2 39.1156 25.0169 45.2039
14201 2 39.9309 26.3908 44.866
14202 1 47.8114 20.8869 73.3833
14203 2 48.4405 21.0225 74.1488
14204 2 46.8916 21.1714 73.6534
14205 1 15.8934 9.87401 77.2522
14206 2 15.4791 9.23342 76.6057
14207 2 16.5345 9.38374 77.8427
14208 1 55.0556 15.5566 48.0461
14209 2 56.0449 15.6972 48.0851
14210 2 54.6056 16.1737 48.6916
14211 1 34.9843 0.69222 67.3869
14212 2 34.4713 0.172779 68.0703
14213 2 34.7519 0.360485 66.4726
14214 1 50.5593 8.31703 53.6358
14215 2 50.2949 8.72828 54.5081
14216 2 49.7395 8.11953 53.0983
14217 1 71.2686 4.44354 56.4425
14218 2 71.5346 4.38811 55.4801
14219 2 71.081 5.39611 56.6821
14220 1 1.33749 19.3174 57.6152
14221 2 1.92078 19.2807 58.4267
14222 2 1.01833 18.3963 57.3922
14223 1 35.8477 19.8595 39.8653
14224 2 35.3398 19.0712 40.2127
14225 2 36.6728 19.9926 40.4143
14226 1 69.7821 16.1432 47.0374
14227 2 68.7861 16.2107 47.0961
14228 2 70.1774 16.244 47.9503
14229 1 0.176303 7.43941 41.7153
14230 2 1.1358 7.511 41.4428
14231 2 0.04369 6.60662 42.2528
14232 1 2.36191 1.79688 48.4429
14233 2 1.36455 1.83519 48.5046
14234 2 2.75534 1.86116 49.36
14235 1 55.5202 20.6136 88.8511
14236 2 55.707 21.5802 89.0263
14237 2 56.3359 20.1806 88.4677
14238 1 58.3537 6.21002 62.6304
14239 2 59.0094 5.64404 62.1308
14240 2 58.4123 7.15387 62.3053
14241 1 38.7692 22.2998 33.9388
14242 2 38.4313 21.5493 34.5068
14243 2 39.0605 23.0561 34.5246
14244 1 27.305 0.604903 55.9362
14245 2 26.5499 29.9546 55.8538
14246 2 26.957 1.4783 56.2769
14247 1 19.9125 12.6925 86.8219
14248 2 19.2075 13.2824 87.2155
14249 2 20.6756 12.6116 87.4631
14250 1 34.6543 3.22979 71.9897
14251 2 33.9492 3.10752 71.2913
14252 2 35.1946 4.04444 71.7789
14253 1 40.9545 20.3962 70.5457
14254 2 40.1731 19.7723 70.5528
14255 2 41.3418 20.4559 71.4657
14256 1 54.8424 21.8308 41.8656
14257 2 54.2573 21.3455 41.2159
14258 2 55.4082 21.1719 42.3613
14259 1 52.2615 13.9783 58.3781
14260 2 52.3751 14.9561 58.202
14261 2 53.0901 13.4914 58.1017
14262 1 77.6903 19.4954 28.4624
14263 2 76.7739 19.6296 28.8397
14264 2 78.0041 18.5691 28.6709
14265 1 79.1519 28.1556 76.0258
14266 2 78.8721 27.1955 76.025
14267 2 79.2618 28.47 76.9687
14268 1 29.936 12.2338 36.4522
14269 2 30.0965 11.3238 36.0698
14270 2 29.7311 12.154 37.4277
14271 1 55.4312 17.2009 74.8713
14272 2 55.6998 16.3054 74.5163
14273 2 56.1594 17.5599 75.4552
14274 1 17.057 13.8161 18.4097
14275 2 17.8772 14.0531 17.8891
14276 2 17.2374 13.0041 18.9647
14277 1 45.3431 7.7041 61.8444
14278 2 44.5124 8.20872 62.0795
14279 2 45.3537 7.51879 60.8618
14280 1 74.9399 6.90109 86.6847
14281 2 75.3975 6.02742 86.8499
14282 2 73.9941 6.84779 87.005
14283 1 46.5607 19.8278 62.0927
14284 2 46.5766 20.0153 61.1105
14285 2 45.8302 19.1758 62.2958
14286 1 70.2687 10.0517 20.1447
14287 2 69.7757 9.18584 20.2297
14288 2 69.7616 10.6661 19.5403
14289 1 71.6982 9.32132 82.4169
14290 2 71.8215 10.2612 82.7353
14291 2 71.4385 8.73959 83.1877
14292 1 61.2997 24.6879 23.5879
14293 2 62.2074 24.6763 23.1685
14294 2 61.0584 25.6266 23.8343
14295 1 9.06351 28.1707 64.6943
14296 2 9.60447 27.3808 64.9832
14297 2 8.23303 28.2266 65.2486
14298 1 76.1454 16.8293 28.6208
14299 2 76.8707 16.1449 28.5464
14300 2 75.2637 16.4043 28.4156
14301 1 17.8247 13.5266 59.2256
14302 2 17.6402 12.5677 59.4413
14303 2 18.7986 13.6431 59.0309
14304 1 0.115344 1.52696 50.1283
14305 2 79.9855 0.748255 49.5144
14306 2 79.5084 1.43399 50.9176
14307 1 0.069726 5.2987 33.3552
14308 2 79.7836 4.96562 34.2537
14309 2 0.209852 4.52214 32.741
14310 1 9.08779 5.09232 45.7018
14311 2 8.45199 5.84926 45.5507
14312 2 9.34301 5.05915 46.6681
14313 1 8.29354 22.9838 44.2097
14314 2 9.18777 22.9675 43.7623
14315 2 7.82582 22.1142 44.0514
14316 1 40.674 26.0847 67.9751
14317 2 40.0111 25.3864 68.2452
14318 2 41.1633 26.4104 68.7841
14319 1 46.617 29.0942 86.635
14320 2 46.8423 29.859 87.2386
14321 2 47.0648 28.2642 86.9672
14322 1 36.2514 0.3487 81.8138
14323 2 36.4543 29.6952 81.0846
14324 2 35.526 29.9829 82.3969
14325 1 66.1945 0.440846 26.3535
14326 2 65.7778 0.691806 27.2273
14327 2 66.0089 29.4774 26.1603
14328 1 59.8096 15.9388 20.8275
14329 2 60.0939 16.5245 21.5866
14330 2 58.8342 15.735 20.9109
14331 1 25.7022 25.3388 65.7453
14332 2 26.384 25.0898 65.0574
14333 2 24.8432 25.577 65.2922
14334 1 60.4109 28.836 34.0605
14335 2 60.9578 28.0974 34.4547
14336 2 60.8255 29.1356 33.2012
14337 1 21.8568 24.993 37.1427
14338 2 21.7255 25.3492 38.0679
14339 2 21.686 25.7204 36.4782
14340 1 40.569 3.09934 90.208
14341 2 41.546 2.9723 90.3794
14342 2 40.3403 4.06967 90.2863
14343 1 32.078 14.5951 44.5885
14344 2 32.2976 15.5133 44.9182
14345 2 32.525 13.916 45.1708
14346 1 1.57388 6.98906 47.1876
14347 2 0.920121 6.84357 47.9302
14348 2 1.13125 7.49691 46.4486
14349 1 45.1102 24.9951 89.7892
14350 2 45.5978 24.2031 89.4217
14351 2 45.7636 25.6195 90.2172
14352 1 6.67581 19.7893 61.6026
14353 2 7.3786 20.416 61.266
14354 2 6.07766 20.2719 62.2424
14355 1 12.8935 25.5083 43.7584
14356 2 13.5156 25.8174 43.0391
14357 2 13.388 25.4532 44.6258
14358 1 25.2986 3.16826 27.578
14359 2 26.2389 2.84928 27.6967
14360 2 24.6856 2.61649 28.1434
14361 1 16.5907 15.0988 15.3061
14362 2 16.1497 14.3113 15.7367
14363 2 17.5832 14.9782 15.328
14364 1 24.9528 21.93 82.3877
14365 2 25.5821 21.584 81.6918
14366 2 25.473 22.3819 83.1123
14367 1 73.3622 23.9914 66.7131
14368 2 72.8446 23.1359 66.6956
14369 2 74.2062 23.8597 67.2329
14370 1 19.7584 18.324 69.3095
14371 2 19.2814 18.8346 68.5943
14372 2 19.0901 17.9364 69.9445
14373 1 72.5525 5.58918 87.4242
14374 2 71.8874 6.14852 87.919
14375 2 72.1997 4.65842 87.3284
14376 1 55.9171 4.65354 36.043
14377 2 56.1157 5.26493 36.8091
14378 2 55.1495 5.01812 35.5159
14379 1 17.6504 24.2647 28.7884
14380 2 18.5426 24.7053 28.6895
14381 2 17.1732 24.2772 27.9097
14382 1 77.8787 29.9281 17.4284
14383 2 78.4443 29.1326 17.2107
14384 2 78.198 0.717563 16.9042
14385 1 16.3697 14.892 36.1387
14386 2 16.9868 15.5143 36.6203
14387 2 15.8279 15.4074 35.4749
14388 1 32.5274 21.6828 57.0894
14389 2 32.0262 22.3429 57.6489
14390 2 32.9048 20.9667 57.6765
14391 1 4.31369 3.90629 18.5035
14392 2 5.07118 4.40621 18.9233
14393 2 4.60438 2.97184 18.2978
14394 1 44.0909 7.27237 38.2198
14395 2 44.5528 7.69035 39.0021
14396 2 43.2121 7.72564 38.0704
14397 1 58.7516 10.097 77.3414
14398 2 59.2131 9.21055 77.3062
14399 2 57.8393 10.0139 76.9404
14400 1 29.0371 28.3092 77.4332
14401 2 28.0469 28.2976 77.2935
14402 2 29.2374 28.2071 78.4076
14403 1 26.0726 9.75982 29.3041
14404 2 25.6949 8.83708 29.3807
14405 2 26.6463 9.95224 30.1002
14406 1 1.37196 5.07754 68.1412
14407 2 1.88992 4.90948 68.9799
14408 2 1.48879 6.03083 67.8626
14409 1 7.46613 19.4402 39.6629
14410 2 6.62392 19.5303 39.1313
14411 2 7.49105 20.1466 40.3702
14412 1 7.20528 15.8925 53.2589
14413 2 7.00997 15.306 54.045
14414 2 7.41141 16.818 53.5766
14415 1 63.449 27.621 9.9941
14416 2 63.8254 27.7977 10.9036
14417 2 63.4296 28.4725 9.47018
14418 1 30.5145 22.7164 48.3471
14419 2 29.6701 22.8172 48.8733
14420 2 31.2893 22.6306 48.9734
14421 1 37.7341 6.50048 49.514
14422 2 37.6438 5.92319 50.3255
14423 2 37.4735 7.4387 49.7417
14424 1 12.1892 27.6197 40.2406
14425 2 12.7894 28.3864 40.0126
14426 2 12.6997 26.9432 40.7714
14427 1 49.6734 20.9562 55.5882
14428 2 49.7224 20.8353 54.5968
14429 2 50.5242 21.3668 55.9164
14430 1 25.5396 6.86964 25.082
14431 2 24.8975 6.15484 24.8051
14432 2 26.4722 6.50996 25.0515
14433 1 8.86404 18.0063 87.7789
14434 2 9.73077 17.6277 87.4542
14435 2 8.51396 18.6603 87.1083
14436 1 46.7452 10.7572 80.6045
14437 2 47.7208 10.6424 80.4171
14438 2 46.6045 10.8564 81.5896
14439 1 36.2234 6.44581 46.5166
14440 2 35.4115 6.70464 47.0398
14441 2 37.0443 6.71578 47.0198
14442 1 22.4523 17.4958 71.6099
14443 2 23.35 17.5624 72.0453
14444 2 22.5428 17.6753 70.6303
14445 1 36.6744 22.3607 43.7945
14446 2 37.2649 22.607 44.5629
14447 2 36.8053 21.3951 43.5697
14448 1 53.542 21.7931 46.7685
14449 2 52.5783 22.0471 46.6871
14450 2 53.7157 21.4337 47.6854
14451 1 27.3748 1.22002 87.4596
14452 2 26.4868 1.63604 87.6557
14453 2 28.0319 1.93456 87.2196
14454 1 11.8501 8.6148 50.143
14455 2 11.371 7.74232 50.0466
14456 2 12.2735 8.66441 51.0476
14457 1 51.701 12.9217 67.0419
14458 2 50.9498 12.442 66.5884
14459 2 51.3299 13.5594 67.7169
14460 1 31.967 16.6477 29.9076
14461 2 31.1645 16.0647 30.0348
14462 2 32.6486 16.1618 29.3605
14463 1 32.4318 20.9627 39.8401
14464 2 32.1347 21.8981 40.0317
14465 2 33.1781 20.7167 40.4586
14466 1 19.826 20.2447 52.0364
14467 2 19.9151 20.9907 51.3764
14468 2 20.6338 20.2227 52.6255
14469 1 61.3796 10.2397 90.251
14470 2 60.7235 10.6788 90.8648
14471 2 60.8989 9.59883 89.6525
14472 1 41.752 13.8856 52.0737
14473 2 41.6466 13.5523 51.1368
14474 2 41.4483 14.837 52.1252
14475 1 10.9078 14.0731 46.7791
14476 2 11.2598 13.3385 47.3591
14477 2 9.93363 13.9251 46.6083
14478 1 29.0864 25.5412 44.159
14479 2 29.7086 25.7766 44.9057
14480 2 29.3675 24.672 43.7523
14481 1 53.6016 4.61668 33.8756
14482 2 53.223 4.11719 34.6548
14483 2 53.1666 5.51485 33.8122
14484 1 10.2377 4.70102 79.249
14485 2 11.1053 4.74026 78.7534
14486 2 10.1991 3.85914 79.7873
14487 1 58.8029 14.6298 60.2588
14488 2 58.1242 15.0147 59.6333
14489 2 58.4097 13.8427 60.7341
14490 1 26.2406 3.83267 51.8102
14491 2 26.452 3.00001 51.2983
14492 2 25.9118 3.58866 52.7225
14493 1 26.2927 17.6229 90.6804
14494 2 25.5352 17.5351 91.3274
14495 2 26.1344 18.4121 90.087
14496 1 63.7323 18.5783 90.2021
14497 2 63.9293 18.8673 89.2652
14498 2 64.0607 19.2736 90.8414
14499 1 39.5383 18.8014 51.3734
14500 2 38.9385 19.3715 50.812
14501 2 40.2113 19.3793 51.835
14502 1 1.43314 28.0093 40.4397
14503 2 1.29203 27.9275 41.4263
14504 2 2.37436 28.2955 40.2602
14505 1 41.4761 27.4473 83.3711
14506 2 40.6395 27.1996 82.8825
14507 2 41.622 26.8091 84.127
14508 1 53.8586 25.3395 89.1014
14509 2 54.4048 24.5297 88.8871
14510 2 52.8869 25.1163 89.0233
14511 1 37.2356 6.36293 64.7222
14512 2 36.8221 5.54893 65.1301
14513 2 37.5805 6.96007 65.4464
14514 1 29.4304 9.98121 53.7187
14515 2 30.1692 9.56299 53.1903
14516 2 29.6959 10.9069 53.9881
14517 1 10.5676 14.0668 61.2627
14518 2 11.5009 14.0157 60.9074
14519 2 10.0241 14.6762 60.6855
14520 1 25.1161 19.9544 85.6896
14521 2 24.3146 20.3968 86.0919
14522 2 25.9361 20.4796 85.917
14523 1 33.9247 26.7596 60.6582
14524 2 33.9899 26.1562 61.4529
14525 2 34.6535 26.5377 60.0104
14526 1 45.5183 21.6627 81.712
14527 2 45.5594 20.8464 82.2881
14528 2 46.0503 22.3963 82.1349
14529 1 12.0054 24.069 68.0554
14530 2 12.7914 24.6666 67.8969
14531 2 12.3046 23.1149 68.0445
14532 1 47.5377 20.2414 49.5303
14533 2 47.9848 19.3539 49.6422
14534 2 46.9234 20.4048 50.3023
14535 1 73.2797 25.0464 36.2731
14536 2 72.5781 24.5636 36.7972
14537 2 73.5344 25.8865 36.7519
14538 1 20.0922 5.93081 46.0792
14539 2 19.8778 5.51837 46.9646
14540 2 21.0845 5.99434 45.9727
14541 1 44.848 10.1319 34.4899
14542 2 45.1897 10.628 33.6916
14543 2 45.5131 9.43547 34.7593
14544 1 72.6587 19.1394 67.6006
14545 2 73.3532 18.7819 66.9764
14546 2 73.1049 19.5534 68.394
14547 1 29.7355 25.0639 75.6866
14548 2 29.5262 26.0204 75.4832
14549 2 30.6312 25.0052 76.1272
14550 1 75.9699 9.15748 81.4703
14551 2 76.4426 8.30683 81.2402
14552 2 75.3218 9.38569 80.7438
14553 1 50.4007 26.9084 70.201
14554 2 51.1121 27.5998 70.3273
14555 2 50.7984 26.0945 69.7774
14556 1 69.4476 0.0571275 53.6381
14557 2 69.0233 0.960121 53.7053
14558 2 70.3743 0.150595 53.274
14559 1 16.3678 1.01184 47.9569
14560 2 15.9927 0.677343 47.0923
14561 2 15.9815 1.91114 48.162
14562 1 19.8364 1.02182 71.0656
14563 2 18.9914 1.5171 70.8643
14564 2 20.4584 1.61689 71.5746
14565 1 7.05055 21.185 86.9396
14566 2 7.19426 20.5558 86.1758
14567 2 6.07964 21.2032 87.1784
14568 1 36.6194 1.01726 70.7003
14569 2 36.5383 1.67463 71.4495
14570 2 37.0715 0.188883 71.0312
14571 1 33.2441 15.5513 61.5986
14572 2 33.4982 15.8599 62.5153
14573 2 33.9788 15.772 60.9571
14574 1 56.5712 22.3524 22.1703
14575 2 57.1294 23.16 21.98
14576 2 56.1443 22.4467 23.0697
14577 1 18.5552 19.2422 21.7174
14578 2 18.9224 19.9619 21.1281
14579 2 17.5669 19.1722 21.5815
14580 1 35.3033 8.59533 68.0566
14581 2 35.3273 9.5307 67.7038
14582 2 34.5208 8.11134 67.6649
14583 1 65.5936 0.100099 79.2672
14584 2 66.0693 29.9872 80.1396
14585 2 64.8369 29.4485 79.2135
14586 1 47.6796 25.9203 77.2269
14587 2 47.9629 26.8747 77.132
14588 2 47.7096 25.6581 78.1914
14589 1 17.2959 23.7983 60.3367
14590 2 17.5957 23.7349 61.2886
14591 2 16.4255 23.3178 60.2287
14592 1 15.1964 22.4448 52.4743
14593 2 16.1593 22.6965 52.3773
14594 2 14.6832 22.7792 51.6838
14595 1 56.2843 21.1782 64.7215
14596 2 55.9051 20.9232 63.832
14597 2 56.7078 22.0817 64.6567
14598 1 12.4197 1.28857 10.603
14599 2 12.559 2.2734 10.4996
14600 2 13.2093 0.799502 10.2325
14601 1 16.3789 29.6978 64.174
14602 2 15.983 29.0916 63.4841
14603 2 16.5066 29.1927 65.0276
14604 1 23.5651 22.4091 40.1585
14605 2 22.8982 22.0508 40.8117
14606 2 23.5733 23.408 40.2044
14607 1 11.0082 3.54995 31.4337
14608 2 12.0029 3.58948 31.3392
14609 2 10.7281 4.0796 32.2344
14610 1 17.9119 10.7853 89.7366
14611 2 17.3933 11.6367 89.8159
14612 2 17.3718 10.0302 90.108
14613 1 69.1989 4.31325 90.0906
14614 2 69.8336 4.79447 89.4859
14615 2 68.3978 4.88786 90.2583
14616 1 6.81427 23.6429 23.7956
14617 2 7.45491 23.8259 24.5413
14618 2 6.18408 22.916 24.0685
14619 1 26.6232 29.101 52.9957
14620 2 26.38 28.8731 53.9385
14621 2 26.4221 0.0652467 52.8234
14622 1 43.6239 7.99423 81.6574
14623 2 44.4581 7.83277 82.1848
14624 2 43.196 7.11843 81.4342
14625 1 9.47702 3.12705 58.7455
14626 2 9.11576 3.29695 57.8287
14627 2 10.4401 3.39405 58.7791
14628 1 64.1844 13.1724 24.8457
14629 2 65.1088 13.2353 24.4695
14630 2 64.2358 13.0239 25.8333
14631 1 16.4213 6.94988 27.151
14632 2 16.7359 6.03447 27.4022
14633 2 16.6032 7.11037 26.1809
14634 1 63.0214 22.1827 27.1268
14635 2 62.4705 21.6923 27.8021
14636 2 63.6661 21.5492 26.699
14637 1 53.649 27.0969 38.7506
14638 2 53.5291 26.4549 37.9933
14639 2 53.0372 27.8779 38.6255
14640 1 79.0669 25.7108 90.8792
14641 2 79.075 25.4291 91.8386
14642 2 78.189 25.4664 90.4673
14643 1 48.0352 18.5627 34.2656
14644 2 47.8927 18.1713 33.3565
14645 2 48.946 18.9727 34.3129
14646 1 18.9744 17.4145 61.2582
14647 2 18.6174 18.1573 61.8246
14648 2 19.9716 17.4769 61.2164
14649 1 56.2619 19.8459 43.1682
14650 2 56.276 18.8493 43.2486
14651 2 56.833 20.1262 42.3966
14652 1 35.4909 6.32428 43.9221
14653 2 35.9371 6.54708 44.7889
14654 2 36.14 6.44804 43.1716
14655 1 29.111 7.33056 61.3131
14656 2 28.9835 7.75164 60.4151
14657 2 28.4218 6.6187 61.4483
14658 1 56.3059 2.36603 23.85
14659 2 55.7705 1.7325 24.4086
14660 2 56.6289 1.89525 23.029
14661 1 46.9435 2.04537 52.4261
14662 2 47.0326 1.84399 53.4015
14663 2 46.8766 1.1892 51.9137
14664 1 1.81346 21.8044 51.6299
14665 2 1.3286 21.9504 52.4922
14666 2 2.424 22.577 51.4559
14667 1 17.303 10.2813 22.487
14668 2 16.4912 9.83818 22.1067
14669 2 17.5668 9.82225 23.3353
14670 1 32.4359 14.1312 59.236
14671 2 32.5189 15.0806 58.9332
14672 2 32.4906 14.0934 60.2337
14673 1 40.0892 2.24376 63.3689
14674 2 40.1276 3.22853 63.5384
14675 2 40.8678 1.97232 62.8031
14676 1 28.6186 5.00085 68.8485
14677 2 29.0509 4.53352 69.6196
14678 2 28.6148 4.39619 68.052
14679 1 29.7636 13.1821 44.8889
14680 2 29.4691 13.3285 45.8333
14681 2 30.7041 13.5035 44.7794
14682 1 49.3099 8.08908 79.607
14683 2 49.5506 8.8732 80.1791
14684 2 49.1246 7.29678 80.1883
14685 1 60.9107 11.2264 31.3345
14686 2 61.1923 11.3482 32.2863
14687 2 60.7526 12.1211 30.9166
14688 1 52.5962 6.92312 30.894
14689 2 51.9143 6.25068 31.1818
14690 2 52.6753 6.91203 29.8972
14691 1 16.2459 5.18475 24.159
14692 2 15.3586 5.23586 24.6175
14693 2 16.7109 6.0669 24.2336
14694 1 40.184 1.34177 57.8418
14695 2 40.2979 1.9693 57.0716
14696 2 40.9997 0.769887 57.9293
14697 1 35.0727 25.0652 85.4808
14698 2 34.3815 25.7431 85.731
14699 2 35.57 24.7784 86.2996
14700 1 8.29156 18.9683 83.3585
14701 2 7.52839 19.5178 83.6985
14702 2 7.94058 18.1212 82.9594
14703 1 32.4956 0.607165 55.2783
14704 2 33.1445 29.9179 54.9562
14705 2 31.8434 0.817148 54.5499
14706 1 7.31905 1.34265 15.5757
14707 2 6.44662 1.61369 15.9824
14708 2 8.06996 1.75041 16.0952
14709 1 1.84464 10.7083 10.7156
14710 2 1.17261 10.4826 11.4209
14711 2 1.42543 10.6121 9.81281
14712 1 50.3756 6.22819 63.6283
14713 2 50.9037 6.23977 62.7792
14714 2 50.9869 6.04702 64.3986
14715 1 16.7069 11.1444 30.9226
14716 2 17.6226 10.7865 31.1059
14717 2 16.4933 11.0324 29.9522
14718 1 17.381 28.6978 16.7219
14719 2 16.6341 28.0341 16.6814
14720 2 18.2114 28.2457 17.0476
14721 1 26.8935 10.6071 83.35
14722 2 27.0819 10.316 84.2879
14723 2 27.7541 10.8218 82.8883
14724 1 6.76815 22.7947 13.9274
14725 2 5.90297 22.3173 14.0808
14726 2 7.0182 22.7293 12.9614
14727 1 63.1948 16.7547 15.9085
14728 2 62.3741 16.4628 16.3997
14729 2 63.3192 16.1827 15.0978
14730 1 73.5821 11.793 42.122
14731 2 73.6715 11.4057 43.0396
14732 2 73.7229 12.7822 42.1626
14733 1 77.2285 5.65488 23.3933
14734 2 77.9594 6.13928 23.8741
14735 2 76.4733 6.2851 23.2131
14736 1 18.1036 20.9437 46.3038
14737 2 18.9144 21.3466 46.7286
14738 2 17.5152 21.6716 45.9518
14739 1 38.5384 11.065 80.9257
14740 2 39.114 11.8823 80.8978
14741 2 37.6084 11.3212 81.1895
14742 1 34.7576 18.1329 34.5151
14743 2 35.2643 17.3183 34.7972
14744 2 33.7782 17.9775 34.6442
14745 1 78.7604 20.4491 33.4813
14746 2 78.925 21.1714 32.8096
14747 2 77.7897 20.4316 33.7209
14748 1 34.6925 26.0704 52.2569
14749 2 34.3139 26.9026 52.6619
14750 2 34.2536 25.8996 51.3747
14751 1 38.1376 16.0561 57.8607
14752 2 38.6143 15.5373 58.5702
14753 2 38.0217 17.0029 58.161
14754 1 71.5276 22.5857 55.8106
14755 2 71.4323 23.4932 56.2196
14756 2 70.6461 22.1141 55.8367
14757 1 75.3264 17.9007 35.9248
14758 2 76.0204 18.6072 35.7861
14759 2 75.7723 17.0126 36.0357
14760 1 56.7075 26.4082 48.0347
14761 2 57.5308 25.9347 48.3475
14762 2 56.1028 25.7574 47.5757
14763 1 32.6369 27.1917 89.974
14764 2 33.5436 26.7845 90.0843
14765 2 32.3936 27.6934 90.8041
14766 1 33.2033 6.80808 50.7064
14767 2 33.7484 6.93626 49.8779
14768 2 33.5018 7.45784 51.4055
14769 1 63.7665 20.9251 68.9715
14770 2 62.9871 20.2986 68.9715
14771 2 63.5374 21.7419 68.4419
14772 1 5.20076 1.38408 10.9645
14773 2 5.53014 2.29977 11.1947
14774 2 5.98099 0.772986 10.831
14775 1 6.71199 21.9697 11.056
14776 2 6.64526 22.9248 10.7674
14777 2 5.99885 21.4342 10.6036
14778 1 67.9365 18.6631 87.9459
14779 2 67.3475 19.4528 87.7738
14780 2 68.7539 18.9585 88.4405
14781 1 48.5312 14.5336 33.9322
14782 2 48.9359 14.9471 33.1166
14783 2 47.9095 13.7992 33.6602
14784 1 20.6892 19.8808 38.1281
14785 2 20.2222 19.4305 37.3671
14786 2 20.0856 20.5703 38.5284
14787 1 74.9465 29.1441 24.1654
14788 2 74.0674 28.9283 24.5905
14789 2 75.5569 28.3559 24.2437
14790 1 72.6115 19.8889 25.4413
14791 2 71.6649 20.1899 25.3262
14792 2 72.8997 20.0489 26.3854
14793 1 38.7982 10.6355 49.7819
14794 2 38.1743 11.0492 49.1188
14795 2 38.7319 9.63934 49.7254
14796 1 78.1258 21.1846 46.9238
14797 2 77.9871 20.2149 47.1246
14798 2 77.8763 21.7298 47.7242
14799 1 62.0561 13.4223 62.5669
14800 2 62.3078 13.6437 61.6247
14801 2 62.8189 13.6401 63.1757
14802 1 11.0015 16.9922 86.3016
14803 2 11.0892 16.2651 85.6208
14804 2 11.6561 16.8367 87.0415
14805 1 68.2321 20.6406 60.3403
14806 2 67.7694 20.9925 61.154
14807 2 67.5513 20.3112 59.6861
14808 1 75.2867 19.901 15.9147
14809 2 76.0742 20.4837 15.7141
14810 2 75.3065 19.6339 16.8782
14811 1 43.399 9.49349 47.8214
14812 2 44.2082 9.26079 48.3609
14813 2 43.2069 8.75621 47.1737
14814 1 14.6634 9.70743 29.4849
14815 2 14.7754 8.91225 30.0808
14816 2 13.8367 9.59664 28.9332
14817 1 79.5318 7.49437 38.7138
14818 2 79.9377 7.42509 39.625
14819 2 79.2868 6.58131 38.3877
14820 1 8.23009 10.2326 68.0917
14821 2 7.9103 9.28528 68.1114
14822 2 8.62176 10.4336 67.1938
14823 1 31.6102 17.6733 60.4348
14824 2 32.1544 18.5089 60.5086
14825 2 32.1043 16.915 60.86
14826 1 34.5918 22.7354 79.5104
14827 2 35.5697 22.9121 79.6217
14828 2 34.2747 22.1395 80.2483
14829 1 20.4407 27.0632 62.0007
14830 2 20.601 26.9956 62.9855
14831 2 19.5672 26.6321 61.7749
14832 1 10.2957 18.6913 67.5301
14833 2 9.54586 18.9797 68.1255
14834 2 10.6297 17.796 67.8246
14835 1 1.15863 1.25817 40.7539
14836 2 0.481486 0.563743 40.5105
14837 2 1.71066 0.931036 41.5209
14838 1 11.2912 13.2024 86.4002
14839 2 12.1843 13.6442 86.4856
14840 2 10.7644 13.3512 87.237
14841 1 78.7708 9.92801 83.1891
14842 2 78.512 9.28615 83.911
14843 2 78.6945 9.47763 82.2995
14844 1 1.11994 22.7739 40.6299
14845 2 1.38388 23.0389 41.5573
14846 2 0.699479 21.8668 40.6494
14847 1 34.3763 1.07113 80.0136
14848 2 35.0859 1.57243 79.5184
14849 2 34.7211 0.808651 80.9149
14850 1 6.16355 1.11884 29.7893
14851 2 5.93205 1.78395 30.4992
14852 2 5.35773 0.939691 29.2248
14853 1 71.1946 25.8765 48.01
14854 2 70.7929 25.9842 48.9194
14855 2 71.5487 24.9467 47.91
14856 1 54.5858 6.83152 21.3086
14857 2 55.2795 6.56873 20.6381
14858 2 53.6855 6.53337 20.9912
14859 1 66.7517 14.6477 71.9421
14860 2 67.1051 14.0414 72.6545
14861 2 66.8854 15.5996 72.2179
14862 1 3.07789 1.26981 32.3411
14863 2 2.47396 2.05124 32.1842
14864 2 2.60211 0.586841 32.8954
14865 1 22.6369 12.7855 25.9451
14866 2 23.186 12.8378 25.111
14867 2 22.83 13.5794 26.5216
14868 1 58.8372 29.9183 25.4745
14869 2 58.7214 29.6414 24.5206
14870 2 59.121 0.876513 25.5113
14871 1 7.64212 6.5983 58.2772
14872 2 7.60485 5.7557 57.7399
14873 2 6.72496 6.99092 58.3454
14874 1 55.8554 17.739 21.0073
14875 2 56.0302 17.8578 21.9847
14876 2 55.0027 18.2005 20.7627
14877 1 64.8924 8.97967 84.9567
14878 2 64.351 9.30481 84.1813
14879 2 64.6346 8.03764 85.1715
14880 1 68.3092 22.8431 68.7788
14881 2 67.9229 23.5856 68.2315
14882 2 69.0215 22.3777 68.2534
14883 1 0.3541 22.3671 77.4777
14884 2 0.686911 23.2775 77.7237
14885 2 79.5225 22.1652 77.9952
14886 1 58.6893 24.947 54.5859
14887 2 58.9381 24.7928 53.6297
14888 2 58.8321 24.1058 55.1073
14889 1 59.4386 2.10875 58.5271
14890 2 58.4705 1.858 58.5272
14891 2 59.9459 1.47967 59.1161
14892 1 5.691 4.34584 40.699
14893 2 5.91566 5.20632 40.2418
14894 2 5.64795 4.49472 41.687
14895 1 27.7793 16.6135 35.5234
14896 2 28.694 16.5378 35.1264
14897 2 27.5557 15.7682 36.0087
14898 1 25.1482 5.95206 56.0985
14899 2 24.362 6.53771 56.2958
14900 2 24.8482 4.99989 56.0402
14901 1 40.5167 28.8862 60.0883
14902 2 41.0375 28.3705 60.7686
14903 2 41.1348 29.2145 59.3741
14904 1 65.5692 1.09117 50.9666
14905 2 66.2671 1.02932 51.6801
14906 2 64.9984 0.270285 50.9866
14907 1 24.2888 24.8093 44.6921
14908 2 24.903 24.1559 44.2496
14909 2 24.3306 25.6848 44.2107
14910 1 67.2844 11.1305 75.6006
14911 2 66.6206 11.4762 76.2638
14912 2 68.1715 11.5637 75.76
14913 1 24.0718 3.04585 86.61
14914 2 23.5356 2.23429 86.3781
14915 2 24.4 2.9706 87.5516
14916 1 64.162 27.8213 27.098
14917 2 63.3369 28.3744 26.9822
14918 2 64.3454 27.6964 28.073
14919 1 76.2523 26.4019 47.0389
14920 2 76.0492 25.9404 47.9025
14921 2 75.421 26.4546 46.4856
14922 1 66.9817 13.5147 42.8368
14923 2 67.3126 13.983 43.6561
14924 2 66.0335 13.2292 42.9761
14925 1 72.7605 23.8461 60.1366
14926 2 73.2606 23.4528 60.9081
14927 2 73.3342 24.5253 59.6788
14928 1 31.7913 9.0577 61.9189
14929 2 31.3819 9.7903 61.3752
14930 2 31.0827 8.40422 62.185
14931 1 53.1802 17.4108 25.7348
14932 2 52.2292 17.2395 25.4773
14933 2 53.3194 17.1483 26.6896
14934 1 54.3718 21.9595 57.3574
14935 2 53.8863 21.5559 58.133
14936 2 55.3398 21.7131 57.4054
14937 1 73.0079 10.2965 28.7699
14938 2 73.4763 9.92144 27.97
14939 2 73.6843 10.583 29.4484
14940 1 31.5457 17.1789 52.6427
14941 2 30.6673 16.7109 52.7393
14942 2 32.2449 16.6857 53.1603
14943 1 15.0336 4.35895 51.0859
14944 2 14.5299 3.6148 51.5247
14945 2 15.204 4.1268 50.1283
14946 1 41.6781 29.9682 86.6826
14947 2 41.3557 29.1072 87.076
14948 2 42.3086 29.7756 85.9306
14949 1 37.3989 27.9219 82.3428
14950 2 37.9404 27.9476 83.1831
14951 2 37.8695 27.363 81.66
14952 1 1.39897 25.2116 24.5843
14953 2 1.83329 25.5847 23.7645
14954 2 1.97892 25.3897 25.3792
14955 1 60.1903 4.18054 52.2731
14956 2 59.5281 3.443 52.1407
14957 2 60.9921 4.01569 51.6987
14958 1 27.2222 1.18488 50.605
14959 2 28.0936 1.51441 50.9684
14960 2 27.392 0.596546 49.8144
14961 1 20.8784 14.6755 28.8123
14962 2 21.4499 14.0575 28.2725
14963 2 20.8634 15.5776 28.3811
14964 1 16.5081 0.959036 15.3643
14965 2 16.7254 0.203854 15.9828
14966 2 16.2305 1.75774 15.8982
14967 1 39.6654 12.7472 68.4264
14968 2 40.4941 13.0263 68.9116
14969 2 39.0616 13.5367 68.3166
14970 1 34.6824 4.46204 29.7021
14971 2 34.6576 3.46555 29.7821
14972 2 35.0186 4.71535 28.795
14973 1 5.34182 15.8762 23.6666
14974 2 6.29312 15.5761 23.5962
14975 2 4.73426 15.0964 23.5157
14976 1 4.86008 0.0693776 61.4796
14977 2 5.63839 0.694729 61.4233
14978 2 4.81454 29.6757 62.3977
14979 1 66.6966 23.9645 60.7885
14980 2 67.0975 24.8776 60.8628
14981 2 66.9579 23.4199 61.5855
14982 1 17.3145 21.6638 73.816
14983 2 16.7028 20.8739 73.7747
14984 2 16.7733 22.5047 73.8204
14985 1 26.5913 23.6668 40.2675
14986 2 27.4853 23.5585 39.8326
14987 2 26.2313 24.5779 40.067
14988 1 13.2939 11.002 71.3225
14989 2 13.1041 10.0224 71.2566
14990 2 12.5291 11.5166 70.9348
14991 1 8.83319 19.8468 69.235
14992 2 8.91284 19.3672 70.1088
14993 2 9.35482 20.6991 69.2739
14994 1 65.9012 26.932 62.4497
14995 2 65.2227 26.5869 61.8012
14996 2 65.882 26.3752 63.2801
14997 1 23.2069 22.1147 86.3772
14998 2 23.3406 23.022 86.7759
14999 2 22.2798 22.046 86.0087
15000 1 58.9731 28.0388 39.1984
15001 2 58.3284 28.666 39.6355
15002 2 59.7149 28.5621 38.7791
15003 1 2.73254 12.663 73.4354
15004 2 3.72857 12.6942 73.5188
15005 2 2.32456 13.3268 74.0623
15006 1 17.2376 16.9214 50.9048
15007 2 16.6789 17.7505 50.883
15008 2 16.9354 16.3355 51.6568
15009 1 48.213 24.0912 90.0135
15010 2 48.1633 23.6783 89.1041
15011 2 48.9145 23.6255 90.5531
15012 1 45.1939 16.5358 71.9206
15013 2 45.0919 17.3997 72.4138
15014 2 45.4753 15.8189 72.5585
15015 1 30.226 3.58936 57.6412
15016 2 29.3675 3.20967 57.986
15017 2 30.0766 3.97955 56.7326
15018 1 29.125 16.2696 60.3167
15019 2 29.9184 16.8624 60.4542
15020 2 28.2901 16.8197 60.3383
15021 1 75.5551 1.87347 69.4294
15022 2 75.4304 1.50442 70.3504
15023 2 76.4028 2.40271 69.3944
15024 1 5.7418 12.9126 46.8276
15025 2 5.80953 13.4118 47.6915
15026 2 6.06607 11.9757 46.9577
15027 1 55.2915 25.5983 41.7502
15028 2 54.8288 24.9893 41.106
15029 2 56.2745 25.4154 41.7346
15030 1 26.6481 0.194084 35.6891
15031 2 27.3059 29.4615 35.8642
15032 2 26.9256 0.703493 34.8745
15033 1 63.4368 1.99852 86.5525
15034 2 64.2457 1.57676 86.9622
15035 2 63.7213 2.70469 85.9041
15036 1 17.7119 1.98142 64.5898
15037 2 17.3421 1.08211 64.3565
15038 2 17.0102 2.5196 65.0566
15039 1 38.6527 23.5779 49.2271
15040 2 39.4387 23.8642 48.6791
15041 2 38.2752 22.7314 48.8518
15042 1 46.7649 18.6837 68.486
15043 2 47.1103 17.7859 68.7595
15044 2 47.4843 19.1852 68.0054
15045 1 27.5277 7.94524 80.0723
15046 2 27.9795 7.07409 79.88
15047 2 28.1866 8.69113 79.9747
15048 1 24.9762 12.8611 66.7196
15049 2 24.1273 13.3705 66.8611
15050 2 25.6839 13.2166 67.3302
15051 1 63.7563 13.2614 31.5372
15052 2 63.4292 13.2595 32.4822
15053 2 64.4461 12.5467 31.4218
15054 1 44.1935 28.0695 59.2773
15055 2 44.6005 27.1653 59.4076
15056 2 43.2654 27.9687 58.9191
15057 1 27.6282 11.0558 64.8342
15058 2 28.0836 10.4512 64.1806
15059 2 26.6953 10.7326 64.9932
15060 1 47.8321 16.694 70.2579
15061 2 47.1393 16.6724 70.9787
15062 2 48.7056 16.3745 70.6254
15063 1 28.8944 10.3399 80.0083
15064 2 29.3268 10.7217 80.8252
15065 2 28.291 11.0246 79.5996
15066 1 48.729 27.9814 57.4244
15067 2 49.0768 28.7245 56.8528
15068 2 49.4934 27.5267 57.8815
15069 1 45.6167 21.3715 38.1758
15070 2 44.9704 20.7623 38.6351
15071 2 45.9603 22.0465 38.8287
15072 1 48.1505 15.1468 41.7288
15073 2 47.7703 15.0049 42.6428
15074 2 48.3168 16.1223 41.5848
15075 1 51.2449 26.1379 91.7693
15076 2 51.4462 25.4587 92.4751
15077 2 50.3274 26.5081 91.9149
15078 1 24.3447 18.9171 52.454
15079 2 23.8487 19.4828 51.7952
15080 2 23.6992 18.5264 53.1103
15081 1 54.0217 1.33225 25.3556
15082 2 54.1053 2.29814 25.6007
15083 2 53.6621 0.82028 26.1357
15084 1 65.0215 29.38 87.8147
15085 2 65.9812 29.5029 88.0673
15086 2 64.8308 28.4058 87.6937
15087 1 60.9013 22.9592 81.5398
15088 2 59.9772 22.8638 81.9098
15089 2 61.5377 23.1679 82.2823
15090 1 3.00213 4.02015 24.964
15091 2 3.61259 4.77787 24.7334
15092 2 3.01303 3.34651 24.225
15093 1 72.2398 8.73726 24.1405
15094 2 73.0022 8.15493 23.8582
15095 2 72.5442 9.689 24.1799
15096 1 61.0879 13.6235 57.2267
15097 2 60.3828 13.054 57.6491
15098 2 61.8552 13.0484 56.9429
15099 1 17.3496 0.581651 84.2755
15100 2 16.6475 0.778012 84.96
15101 2 17.5358 29.5992 84.2613
15102 1 76.2297 16.2564 58.0532
15103 2 75.6403 15.525 58.3962
15104 2 76.0617 17.0925 58.5754
15105 1 43.9822 9.91877 79.4623
15106 2 44.0994 9.74343 80.4398
15107 2 44.7437 9.51265 78.9571
15108 1 10.1058 1.77028 14.3421
15109 2 9.26692 2.21157 14.0236
15110 2 10.1656 1.84712 15.3374
15111 1 37.349 3.2575 28.3834
15112 2 36.6161 2.59284 28.5288
15113 2 37.9615 2.92652 27.6656
15114 1 8.48477 1.6249 79.9138
15115 2 8.85143 0.821359 79.4449
15116 2 8.26978 1.38861 80.8614
15117 1 4.11007 21.6369 32.0124
15118 2 4.28272 22.3008 31.2847
15119 2 3.84568 22.119 32.8476
15120 1 29.4621 24.8957 89.8953
15121 2 28.7055 25.2202 90.463
15122 2 29.4047 23.9019 89.7997
15123 1 2.59839 0.853478 26.0205
15124 2 3.57447 0.73267 26.2013
15125 2 2.19921 1.44081 26.7245
15126 1 35.3563 17.5923 87.2662
15127 2 35.4543 18.5873 87.2461
15128 2 34.4013 17.3479 87.0983
15129 1 44.4137 17.5953 85.508
15130 2 45.1221 17.7126 86.2041
15131 2 44.8303 17.629 84.5995
15132 1 69.6801 12.6778 76.534
15133 2 68.8595 13.1059 76.9125
15134 2 70.1767 13.3436 75.9771
15135 1 59.6488 22.2755 47.0138
15136 2 60.6164 22.2688 47.2662
15137 2 59.0987 21.9786 47.7943
15138 1 11.628 28.8523 67.1247
15139 2 11.3194 28.6183 68.0466
15140 2 12.4874 29.3607 67.1799
15141 1 21.326 0.614344 59.1262
15142 2 21.1131 0.726734 58.1556
15143 2 22.3147 0.518662 59.2417
15144 1 65.8269 13.7211 58.7251
15145 2 65.0968 13.7114 58.0418
15146 2 66.0554 12.7821 58.9821
15147 1 5.07491 22.6182 72.4529
15148 2 4.46301 23.3281 72.8016
15149 2 5.42383 22.0745 73.2162
15150 1 14.158 29.6097 12.3145
15151 2 15.0372 0.0436908 12.118
15152 2 13.5609 0.262302 12.781
15153 1 2.78842 4.6614 86.1346
15154 2 3.70261 4.39928 86.4437
15155 2 2.21809 3.84434 86.0502
15156 1 15.9056 1.44947 76.2227
15157 2 15.6918 1.21794 77.1717
15158 2 15.8459 0.626768 75.6573
15159 1 10.7749 7.27627 81.4489
15160 2 11.0589 7.94716 80.7639
15161 2 9.82977 7.00051 81.2736
15162 1 14.1374 1.76883 88.3441
15163 2 14.8404 1.83432 87.6358
15164 2 14.5371 1.38323 89.1757
15165 1 7.98388 17.129 66.7822
15166 2 8.05416 18.0106 66.3155
15167 2 8.05375 17.2682 67.77
15168 1 9.08653 26.1285 24.0793
15169 2 9.76842 25.8391 24.7511
15170 2 8.35138 26.6234 24.5426
15171 1 72.3823 3.21373 61.0159
15172 2 72.6049 2.26679 61.2477
15173 2 72.9541 3.83212 61.5549
15174 1 63.5768 15.7441 46.8785
15175 2 62.6118 15.8018 47.1342
15176 2 63.8623 14.7857 46.8687
15177 1 40.9712 26.0329 55.0879
15178 2 41.7015 25.5797 54.5768
15179 2 41.221 26.9874 55.2507
15180 1 41.6741 22.6359 47.9858
15181 2 42.654 22.4997 48.1312
15182 2 41.3009 21.8582 47.4799
15183 1 46.9398 17.1519 30.8587
15184 2 47.8334 17.5975 30.9128
15185 2 47.0605 16.1594 30.8779
15186 1 26.7059 7.20033 41.6701
15187 2 26.7585 8.03631 42.2163
15188 2 26.9412 7.40725 40.7205
15189 1 13.3282 15.2358 84.6521
15190 2 13.9861 15.4568 83.9322
15191 2 12.4714 14.9285 84.2379
15192 1 2.92917 16.9798 86.9998
15193 2 2.41629 16.3739 87.6079
15194 2 2.29226 17.5631 86.4957
15195 1 3.0192 24.5358 73.8472
15196 2 2.95162 25.4055 74.3361
15197 2 2.71978 23.7928 74.4459
15198 1 52.0758 0.820483 87.233
15199 2 51.5175 1.60239 87.5104
15200 2 52.6359 0.520199 88.0051
15201 1 42.761 4.38763 34.2341
15202 2 42.761 3.53168 34.7511
15203 2 41.8291 4.7469 34.1842
15204 1 40.4047 23.406 65.5551
15205 2 39.7125 24.0765 65.2881
15206 2 40.5633 22.7714 64.7986
15207 1 7.49411 9.87765 84.3776
15208 2 7.43041 8.9021 84.588
15209 2 7.77321 9.99557 83.4246
15210 1 33.2963 4.73084 47.3957
15211 2 33.7939 5.5752 47.5944
15212 2 33.1288 4.66627 46.412
15213 1 69.2153 19.4374 22.5006
15214 2 69.1779 18.9395 23.367
15215 2 69.7047 18.8894 21.8222
15216 1 51.5223 10.7699 90.2788
15217 2 50.8269 10.1496 90.6416
15218 2 52.4248 10.484 90.6009
15219 1 54.1047 8.54002 46.7232
15220 2 53.4575 9.12099 47.2167
15221 2 54.8197 8.23028 47.35
15222 1 57.8171 22.023 51.3186
15223 2 58.3826 21.2719 50.9778
15224 2 58.4052 22.7384 51.6958
15225 1 48.6857 26.3892 74.4028
15226 2 47.93 27.0433 74.4362
15227 2 49.5548 26.8838 74.4013
15228 1 16.9252 25.3741 55.9062
15229 2 16.9323 26.1547 56.5312
15230 2 15.9829 25.1654 55.6443
15231 1 40.1765 7.98822 56.9568
15232 2 39.5873 8.68837 57.3601
15233 2 39.7432 7.09212 57.0529
15234 1 60.2233 8.76397 86.6081
15235 2 60.0398 8.85882 87.5865
15236 2 61.2105 8.78825 86.4502
15237 1 63.1712 28.1188 56.9842
15238 2 62.9254 27.9331 57.9356
15239 2 64.1625 28.2292 56.9116
15240 1 50.1803 6.51684 51.4452
15241 2 50.8501 6.30486 52.1568
15242 2 49.7245 5.67533 51.1551
15243 1 44.1088 18.1585 91.0131
15244 2 44.2563 18.8516 90.3075
15245 2 43.5974 17.3917 90.6253
15246 1 48.3294 4.75958 64.5159
15247 2 48.897 5.47991 64.1173
15248 2 48.2612 4.89731 65.504
15249 1 0.327413 7.02547 21.2154
15250 2 0.974868 7.06118 20.4542
15251 2 0.782123 7.32534 22.0541
15252 1 65.3165 5.93393 55.7668
15253 2 65.3959 6.86909 55.4215
15254 2 64.3618 5.64058 55.7182
15255 1 59.8741 14.8307 81.6241
15256 2 59.7027 15.8147 81.5746
15257 2 59.0215 14.3352 81.4579
15258 1 66.5936 4.2797 16.132
15259 2 66.4393 3.45504 16.6762
15260 2 65.715 4.70603 15.9166
15261 1 23.0736 14.3404 31.7029
15262 2 23.1286 15.2177 31.2262
15263 2 22.4473 14.4211 32.4783
15264 1 53.062 16.8965 35.0463
15265 2 52.2037 16.5994 35.4647
15266 2 52.9815 17.8523 34.7633
15267 1 26.9882 0.398262 45.9844
15268 2 27.7212 0.883253 46.4613
15269 2 27.3673 29.6026 45.512
15270 1 42.1303 25.6918 59.526
15271 2 42.9944 25.4538 59.0825
15272 2 42.0089 25.1285 60.3434
15273 1 20.0283 24.1353 45.5752
15274 2 19.506 24.4474 44.7815
15275 2 20.778 23.5477 45.2707
15276 1 1.45727 27.2709 35.9065
15277 2 2.18999 27.4405 36.5655
15278 2 0.654478 26.915 36.3848
15279 1 23.2051 8.59038 83.8717
15280 2 23.2322 8.40386 84.8538
15281 2 23.6938 9.44164 83.6805
15282 1 19.0203 21.2445 64.5346
15283 2 18.3382 20.5369 64.7189
15284 2 18.8535 21.6412 63.6319
15285 1 21.466 13.8992 74.5599
15286 2 20.7718 13.2513 74.2463
15287 2 21.2591 14.8092 74.2007
15288 1 15.2332 22.1923 18.8503
15289 2 15.1781 21.7979 17.933
15290 2 15.936 21.7142 19.3771
15291 1 72.6011 15.9837 64.8065
15292 2 73.0419 16.8757 64.7066
15293 2 72.6024 15.5106 63.9255
15294 1 17.7883 11.5975 34.1516
15295 2 17.1439 10.8329 34.1372
15296 2 18.7235 11.2448 34.1825
15297 1 39.9117 2.7111 32.3101
15298 2 39.6757 3.42423 32.9703
15299 2 39.3769 2.83976 31.475
15300 1 38.8598 27.772 39.903
15301 2 38.7102 28.7214 39.6269
15302 2 39.6065 27.3818 39.3642
15303 1 47.9902 22.9236 76.0025
15304 2 48.3644 23.8365 75.8394
15305 2 48.4862 22.4895 76.7545
15306 1 63.9747 25.2117 73.1072
15307 2 63.4802 24.7383 73.8361
15308 2 64.4571 24.5422 72.5424
15309 1 7.46985 12.656 37.4296
15310 2 6.87506 11.8716 37.6058
15311 2 7.28819 13.3704 38.1053
15312 1 51.5364 26.4296 74.7776
15313 2 52.0725 25.8497 75.3911
15314 2 51.5795 26.0615 73.8488
15315 1 19.3022 10.4609 30.4226
15316 2 19.7857 11.3329 30.499
15317 2 19.916 9.77224 30.0366
15318 1 44.7761 5.00025 39.6389
15319 2 44.4422 5.64588 38.9521
15320 2 45.6655 4.64203 39.3549
15321 1 79.9055 19.2924 51.9595
15322 2 79.3019 19.2736 51.1624
15323 2 79.6308 18.5774 52.6025
15324 1 69.8528 19.8281 39.1973
15325 2 70.5919 20.3795 39.5841
15326 2 70.0855 18.8585 39.2732
15327 1 42.8488 5.60462 52.0309
15328 2 42.2496 5.12449 52.6716
15329 2 42.2961 6.16256 51.4119
15330 1 29.3873 25.0354 64.0177
15331 2 29.8041 25.6273 63.3278
15332 2 29.9442 25.0482 64.8482
15333 1 14.4308 14.1417 10.7689
15334 2 15.0142 14.8791 11.1095
15335 2 14.7292 13.272 11.1621
15336 1 54.7586 7.0114 55.0288
15337 2 53.8435 6.99209 54.626
15338 2 54.8016 7.72877 55.7242
15339 1 70.0329 5.95316 28.5646
15340 2 69.7488 6.19793 27.6375
15341 2 69.338 5.36808 28.9826
15342 1 27.9561 27.655 66.0668
15343 2 27.7004 27.4424 67.0099
15344 2 27.1466 27.9529 65.561
15345 1 0.579833 25.3413 60.249
15346 2 0.581038 25.1082 61.2214
15347 2 79.8752 26.0283 60.0718
15348 1 49.5821 22.4356 68.1424
15349 2 50.0737 23.3045 68.0845
15350 2 49.199 22.3299 69.06
15351 1 35.8708 13.6245 35.2441
15352 2 36.0602 12.6536 35.3909
15353 2 36.0362 14.1282 36.092
15354 1 41.7984 14.6153 71.8101
15355 2 42.2955 13.7976 72.1006
15356 2 41.8621 15.3146 72.5221
15357 1 73.4618 22.7598 52.2138
15358 2 73.226 23.4955 52.8488
15359 2 73.8797 23.1491 51.393
15360 1 66.9272 25.6212 19.3437
15361 2 67.7693 25.2595 18.9437
15362 2 66.3569 26.0134 18.6219
15363 1 50.0987 24.63 61.8134
15364 2 49.2409 24.6086 61.2998
15365 2 50.7397 23.9713 61.4193
15366 1 12.7246 9.3296 62.4279
15367 2 13.2001 9.25315 63.3043
15368 2 13.0053 10.1724 61.9688
15369 1 1.0356 16.1715 79.4761
15370 2 1.38491 15.8552 78.5941
15371 2 0.533338 17.0267 79.3484
15372 1 36.6106 6.89909 89.4118
15373 2 36.1184 6.02875 89.3958
15374 2 37.5904 6.72614 89.5119
15375 1 39.2218 26.1299 57.6575
15376 2 39.9697 26.5577 58.1652
15377 2 39.5783 25.7283 56.814
15378 1 16.2625 27.1894 36.4742
15379 2 15.9447 27.6394 37.3088
15380 2 15.4755 26.8554 35.9553
15381 1 11.965 18.2168 11.2399
15382 2 12.7187 17.7438 10.7836
15383 2 12.3245 18.9891 11.7637
15384 1 35.248 19.8831 46.0668
15385 2 35.9031 20.6015 46.3007
15386 2 35.1225 19.8564 45.0751
15387 1 31.0697 29.1896 68.4936
15388 2 31.1434 28.4752 69.1895
15389 2 30.1423 29.5637 68.4969
15390 1 65.9473 9.45396 81.2832
15391 2 65.8355 10.2289 80.6612
15392 2 65.1555 9.39792 81.8915
15393 1 17.1365 4.05046 45.7428
15394 2 17.5357 3.62644 44.9299
15395 2 17.5722 3.67691 46.5617
15396 1 74.5244 19.9946 20.4806
15397 2 74.7352 19.9871 21.4581
15398 2 73.6329 20.4235 20.3351
15399 1 65.7291 16.363 82.9718
15400 2 65.6526 15.612 83.6277
15401 2 65.0997 16.2062 82.2107
15402 1 40.6155 13.3681 87.2769
15403 2 40.6552 12.6257 86.6081
15404 2 40.0204 14.0947 86.9335
15405 1 74.4719 19.9933 61.8271
15406 2 74.6768 19.3833 61.0616
15407 2 73.9018 19.5123 62.4931
15408 1 35.1934 28.4182 85.7055
15409 2 35.5973 27.9542 86.4939
15410 2 35.2081 27.8059 84.9149
15411 1 23.1271 6.68023 82.048
15412 2 22.2243 6.26218 81.9477
15413 2 23.1125 7.32602 82.8113
15414 1 68.9097 3.98915 41.2241
15415 2 68.2807 3.22784 41.0665
15416 2 68.7072 4.72739 40.5806
15417 1 52.5519 9.96059 58.6674
15418 2 52.8494 9.29547 59.3523
15419 2 53.2886 10.1128 58.0086
15420 1 12.825 17.415 17.8708
15421 2 13.4589 17.8996 17.268
15422 2 13.2857 17.1939 18.7304
15423 1 38.9177 29.3649 42.4875
15424 2 38.2844 28.6249 42.7138
15425 2 38.9555 29.4795 41.4948
15426 1 10.2274 16.3221 76.2909
15427 2 9.86829 15.8941 75.4615
15428 2 9.94746 17.2817 76.3188
15429 1 23.7457 16.2253 83.3698
15430 2 24.1859 16.9239 83.934
15431 2 23.592 16.5876 82.4505
15432 1 10.8312 12.4334 37.9978
15433 2 10.106 11.7925 37.7461
15434 2 11.6619 11.9247 38.2239
15435 1 53.5124 23.5803 43.8063
15436 2 53.8488 23.5261 42.8661
15437 2 52.7403 22.9551 43.9206
15438 1 77.4332 9.80913 24.9354
15439 2 78.1844 9.62014 24.3029
15440 2 77.5301 9.23569 25.7489
15441 1 59.3067 4.1147 90.4533
15442 2 59.4481 3.61049 89.6014
15443 2 60.0075 4.82251 90.542
15444 1 64.5543 7.9698 61.8465
15445 2 64.9399 7.42491 62.5911
15446 2 63.5918 7.72922 61.7212
15447 1 55.33 9.19296 59.8017
15448 2 55.0542 9.03652 58.8533
15449 2 54.5187 9.21255 60.3859
15450 1 23.5395 2.788 58.6091
15451 2 23.7156 1.82651 58.8201
15452 2 22.8378 2.85041 57.8993
15453 1 23.4956 9.32265 74.584
15454 2 23.1485 8.45323 74.9355
15455 2 23.6645 9.947 75.3467
15456 1 23.0478 15.7204 20.686
15457 2 23.1041 14.7956 21.0621
15458 2 23.1807 15.686 19.6954
15459 1 18.2632 12.7164 23.8022
15460 2 18.1279 11.7297 23.8931
15461 2 17.8541 13.0314 22.9458
15462 1 40.0852 9.56953 30.5768
15463 2 40.4742 9.10254 31.3709
15464 2 39.099 9.67642 30.703
15465 1 29.1792 11.3337 73.8013
15466 2 29.8154 11.2785 74.5709
15467 2 28.5117 10.592 73.8667
15468 1 44.9697 17.4507 48.6305
15469 2 45.0382 16.8487 47.835
15470 2 45.6304 17.1632 49.324
15471 1 23.9872 27.9973 83.4543
15472 2 23.8257 27.0125 83.3898
15473 2 24.4494 28.2034 84.3168
15474 1 52.7224 17.4303 30.9101
15475 2 52.4181 16.8009 31.6252
15476 2 51.9425 17.9627 30.5808
15477 1 41.751 9.2678 28.4161
15478 2 41.2608 9.21035 27.5464
15479 2 41.1003 9.18844 29.1713
15480 1 31.5747 12.7594 42.3602
15481 2 30.9935 12.0661 42.7863
15482 2 31.6238 13.5633 42.9528
15483 1 71.1888 19.226 18.0586
15484 2 71.5257 19.907 18.7089
15485 2 71.4868 18.3155 18.3452
15486 1 73.6277 13.5338 58.8468
15487 2 73.4082 12.9531 59.6307
15488 2 74.6132 13.7019 58.822
15489 1 74.0474 19.2464 48.9806
15490 2 74.7426 18.6635 48.5598
15491 2 74.2997 20.2065 48.8594
15492 1 60.437 28.8288 61.4813
15493 2 59.9141 28.5528 62.2877
15494 2 60.5551 28.0422 60.8753
15495 1 15.9658 24.9093 14.3315
15496 2 15.729 24.0577 14.7993
15497 2 15.8684 25.6762 14.9658
15498 1 54.4868 22.6527 75.8822
15499 2 54.9841 23.5099 76.0155
15500 2 54.8423 21.96 76.5097
15501 1 31.7952 14.0729 78.6788
15502 2 31.8318 13.0865 78.8389
15503 2 31.0554 14.4713 79.221
15504 1 77.578 29.971 28.7353
15505 2 77.7253 28.986 28.8254
15506 2 78.2915 0.363062 28.1547
15507 1 29.9563 0.433395 33.0089
15508 2 30.5749 0.902878 32.3789
15509 2 30.0989 29.4459 32.9421
15510 1 19.3821 28.5902 35.215
15511 2 18.8367 28.692 36.047
15512 2 19.8775 27.7221 35.2454
15513 1 6.76096 3.43644 83.5499
15514 2 6.37541 2.71674 82.9725
15515 2 6.67153 4.31853 83.0874
15516 1 8.29188 10.1542 65.4076
15517 2 8.85189 10.8235 64.9193
15518 2 7.73991 9.63938 64.7516
15519 1 41.4972 23.7221 71.5344
15520 2 41.7825 23.9216 70.597
15521 2 41.5613 22.738 71.7
15522 1 22.9522 7.47452 57.4384
15523 2 23.3685 8.02692 58.1606
15524 2 22.5072 8.07504 56.7741
15525 1 72.1561 27.0138 65.6154
15526 2 72.9253 27.5767 65.3129
15527 2 72.5019 26.1996 66.0818
15528 1 56.9492 15.474 36.4816
15529 2 57.2982 16.3892 36.6832
15530 2 55.9493 15.4884 36.4943
15531 1 29.9083 10.7679 60.7755
15532 2 29.7815 11.7344 60.5525
15533 2 29.2685 10.5058 61.498
15534 1 31.9367 4.62455 68.3197
15535 2 31.4547 4.17956 69.0745
15536 2 31.2796 5.11592 67.7482
15537 1 24.6807 25.4719 53.3145
15538 2 25.0345 26.2907 53.7666
15539 2 23.6878 25.5452 53.2214
15540 1 22.7064 12.1919 59.5768
15541 2 22.1864 12.4864 60.3786
15542 2 23.5977 12.6454 59.5726
15543 1 14.5241 12.2752 86.6917
15544 2 13.7639 11.6866 86.9668
15545 2 14.5864 13.0532 87.3168
15546 1 76.0791 22.0456 61.2663
15547 2 75.8447 21.1534 61.6523
15548 2 76.8001 22.4676 61.816
15549 1 69.7168 16.8462 38.07
15550 2 69.6666 16.527 39.0163
15551 2 69.749 16.059 37.454
15552 1 67.2864 10.28 61.874
15553 2 67.6642 10.7982 62.6413
15554 2 68.0331 9.88593 61.3381
15555 1 72.517 9.59782 43.8173
15556 2 71.7017 9.09317 43.5336
15557 2 72.2891 10.5654 43.9261
15558 1 48.5877 0.865856 69.7219
15559 2 48.5606 1.36621 70.5873
15560 2 48.5841 29.8828 69.905
15561 1 45.9911 19.9247 29.7631
15562 2 46.5937 19.1305 29.6847
15563 2 46.4886 20.6798 30.1901
15564 1 26.1219 6.8788 29.2426
15565 2 27.0776 6.6032 29.3456
15566 2 25.6049 6.59772 30.0512
15567 1 67.6421 19.4811 73.3797
15568 2 68.4718 19.8774 72.9866
15569 2 66.8629 19.6825 72.7862
15570 1 45.1358 26.4003 92.7358
15571 2 45.7068 26.3417 93.5547
15572 2 44.3374 26.9714 92.9264
15573 1 24.088 12.6208 23.617
15574 2 24.684 11.9236 23.2187
15575 2 23.4823 12.9852 22.9097
15576 1 7.07611 28.8164 12.8854
15577 2 7.75257 28.8334 13.6217
15578 2 7.54317 28.7277 12.0056
15579 1 66.6919 7.31449 74.4383
15580 2 66.9621 6.35235 74.4023
15581 2 67.5093 7.88863 74.4862
15582 1 56.7389 14.9959 43.5456
15583 2 56.9493 14.0208 43.4746
15584 2 57.4406 15.4491 44.0954
15585 1 5.06332 8.64166 49.9952
15586 2 5.16222 7.66163 50.1677
15587 2 4.64131 9.07897 50.7894
15588 1 21.2022 4.78137 49.813
15589 2 21.3968 5.72166 50.0923
15590 2 20.8093 4.27933 50.5835
15591 1 21.6423 9.11799 30.7273
15592 2 22.2801 9.72202 31.2051
15593 2 20.9101 8.84549 31.3515
15594 1 20.3331 11.7711 40.2818
15595 2 19.676 12.1267 40.9464
15596 2 21.0252 11.2267 40.7557
15597 1 35.3992 24.3468 63.4476
15598 2 34.765 25.1198 63.4635
15599 2 36.2369 24.6127 62.9706
15600 1 35.1736 15.306 89.8522
15601 2 35.0969 15.621 88.9062
15602 2 34.2856 14.9681 90.164
15603 1 29.5025 5.79017 55.6945
15604 2 30.1769 5.22297 55.2218
15605 2 29.8967 6.68984 55.8824
15606 1 70.9228 16.847 49.7771
15607 2 71.4534 16.7571 50.6199
15608 2 70.5916 17.7866 49.6904
15609 1 48.1178 28.8848 46.3958
15610 2 48.3264 28.61 47.3344
15611 2 47.7739 29.8238 46.392
15612 1 13.8714 16.9545 40.4757
15613 2 14.3752 16.1109 40.6618
15614 2 14.1929 17.6767 41.0881
15615 1 68.8468 19.4965 81.8963
15616 2 69.2702 20.1511 81.2701
15617 2 68.3565 18.8014 81.3705
15618 1 46.2009 26.8561 35.5817
15619 2 46.146 26.6293 36.5541
15620 2 47.0082 27.4227 35.4167
15621 1 22.6084 15.5982 76.7149
15622 2 21.9158 15.9917 76.1105
15623 2 22.2427 15.5336 77.6434
15624 1 5.60631 26.5661 84.9712
15625 2 5.07029 26.2564 85.7565
15626 2 6.22044 27.3021 85.2562
15627 1 48.3465 26.206 63.6119
15628 2 48.6576 27.1523 63.6999
15629 2 48.8606 25.7525 62.8839
15630 1 48.0363 27.384 71.6846
15631 2 48.9606 27.1633 71.3732
15632 2 48.046 28.2634 72.1605
15633 1 17.9725 7.389 14.9617
15634 2 17.3399 6.63704 14.7761
15635 2 18.6218 7.47256 14.2058
15636 1 43.5612 11.7224 69.2234
15637 2 43.8033 11.2767 68.3615
15638 2 43.0021 12.5299 69.0355
15639 1 19.3722 26.5985 12.6146
15640 2 19.1365 27.5008 12.9756
15641 2 18.9198 25.8927 13.1598
15642 1 11.0454 1.17581 46.4146
15643 2 10.7028 0.237251 46.3729
15644 2 10.3783 1.75359 46.8848
15645 1 22.5651 16.0069 25.419
15646 2 23.4803 16.3127 25.1565
15647 2 22.2169 15.369 24.732
15648 1 52.1915 11.0055 23.8934
15649 2 52.5409 10.0696 23.939
15650 2 51.5661 11.1654 24.6572
15651 1 4.77654 18.471 22.9346
15652 2 5.51165 19.0267 22.5462
15653 2 5.10134 17.5347 23.0679
15654 1 63.6901 14.836 40.8801
15655 2 63.029 14.1321 41.1399
15656 2 63.2368 15.5277 40.3178
15657 1 51.9209 7.44882 87.9877
15658 2 51.2787 6.71487 88.2088
15659 2 51.9007 8.13858 88.7115
15660 1 78.1956 17.1573 80.7484
15661 2 78.259 17.2398 81.7429
15662 2 78.9168 17.7032 80.3219
15663 1 58.3867 3.79388 76.9279
15664 2 58.0252 4.1867 76.0823
15665 2 58.504 4.51747 77.608
15666 1 62.7628 18.0169 23.0763
15667 2 61.8561 17.6485 23.2814
15668 2 63.1697 18.3854 23.9122
15669 1 34.937 18.4527 60.7963
15670 2 34.9797 17.6083 60.2623
15671 2 34.1818 19.0186 60.4654
15672 1 25.7211 28.8147 28.2584
15673 2 26.156 29.6977 28.4349
15674 2 25.9381 28.5161 27.329
15675 1 63.0387 5.31558 68.9979
15676 2 63.8918 4.89362 69.3047
15677 2 62.2933 5.03983 69.6048
15678 1 71.957 17.7871 23.4873
15679 2 72.3976 18.6028 23.8621
15680 2 71.6874 17.1804 24.2351
15681 1 29.094 16.453 38.0826
15682 2 28.3976 15.7821 38.3376
15683 2 29.6402 16.0951 37.3253
15684 1 72.4868 13.0284 53.9719
15685 2 71.8325 13.6635 53.5612
15686 2 72.2734 12.0957 53.6811
15687 1 77.5882 19.0291 43.8758
15688 2 78.1968 19.3851 43.1666
15689 2 76.7414 19.5609 43.8861
15690 1 73.4216 15.4624 39.1214
15691 2 73.3335 16.4535 39.0218
15692 2 72.9877 15.1734 39.9748
15693 1 7.73086 16.1913 35.3901
15694 2 6.74254 16.2693 35.5211
15695 2 8.17938 17.0138 35.7399
15696 1 56.8888 3.55964 48.1212
15697 2 57.6898 3.37729 47.551
15698 2 57.1522 4.14392 48.8889
15699 1 15.8286 11.4231 70.5072
15700 2 16.5842 11.2725 71.1447
15701 2 15.0227 10.921 70.8209
15702 1 23.9364 11.817 63.0704
15703 2 23.8188 12.5102 62.3593
15704 2 23.1259 11.7993 63.6559
15705 1 20.5364 18.2844 41.8828
15706 2 20.0338 18.2325 42.7458
15707 2 21.458 18.6325 42.0542
15708 1 76.6958 23.9043 47.882
15709 2 77.4439 23.8645 48.5444
15710 2 75.9012 23.4193 48.2472
15711 1 67.2325 8.38145 84.1132
15712 2 67.0739 7.58128 83.5347
15713 2 66.3878 8.6186 84.593
15714 1 20.2851 8.28633 21.3199
15715 2 19.3551 7.92583 21.392
15716 2 20.5235 8.40309 20.3558
15717 1 71.9348 0.408215 87.628
15718 2 71.7848 29.6339 88.2428
15719 2 71.7813 0.118415 86.6833
15720 1 44.8884 18.3649 82.7156
15721 2 44.2673 18.8689 82.1154
15722 2 45.1419 17.5 82.2824
15723 1 70.171 12.1731 87.9091
15724 2 71.0154 12.2494 88.4394
15725 2 70.1645 11.3029 87.4163
15726 1 13.1092 25.0548 38.2308
15727 2 13.9776 24.9347 37.7497
15728 2 12.7538 24.1613 38.5053
15729 1 60.3375 11.6423 87.6643
15730 2 60.5509 12.4867 87.173
15731 2 60.053 10.9398 87.0119
15732 1 53.6441 18.0109 55.6279
15733 2 53.548 17.1417 56.113
15734 2 52.8442 18.5833 55.8079
15735 1 31.6858 18.3491 37.5375
15736 2 31.7894 18.6269 36.5825
15737 2 32.5882 18.191 37.9385
15738 1 61.4494 26.6667 35.6308
15739 2 60.487 26.8255 35.851
15740 2 61.8095 25.9395 36.2152
15741 1 30.7263 25.2684 78.9867
15742 2 30.3554 26.1628 79.2367
15743 2 30.09 24.804 78.3707
15744 1 38.2497 25.0872 64.986
15745 2 37.8937 25.4021 64.1062
15746 2 38.6626 25.8567 65.4732
15747 1 56.0764 28.6619 43.6123
15748 2 56.3957 27.7314 43.7917
15749 2 55.0853 28.7043 43.7385
15750 1 58.8386 13.8688 75.0669
15751 2 59.4774 14.2612 74.4051
15752 2 59.1457 12.9524 75.3236
15753 1 32.5696 28.6902 62.4797
15754 2 33.346 28.6993 61.8495
15755 2 31.744 28.4147 61.9875
15756 1 35.3008 3.70115 67.0207
15757 2 35.122 3.98259 66.0779
15758 2 35.1336 2.71956 67.1129
15759 1 45.8056 28.239 49.1496
15760 2 46.516 27.6043 48.8454
15761 2 46.0403 28.593 50.0549
15762 1 21.6768 25.9445 58.8102
15763 2 21.4785 25.9985 57.8316
15764 2 21.6827 26.8652 59.2005
15765 1 24.2754 9.20543 54.53
15766 2 24.2553 8.78169 53.6244
15767 2 23.3624 9.1673 54.9361
15768 1 66.5746 13.0043 40.0918
15769 2 65.8864 13.6153 40.4831
15770 2 67.3468 12.9248 40.7221
15771 1 44.7031 25.8613 29.1015
15772 2 45.6656 26.0226 29.3198
15773 2 44.6019 24.9554 28.6903
15774 1 3.91919 28.6121 12.4352
15775 2 4.40633 29.412 12.7856
15776 2 4.386 28.268 11.6205
15777 1 18.4393 3.41572 17.0851
15778 2 18.1036 2.47447 17.048
15779 2 17.9224 3.92709 17.7717
15780 1 69.7022 28.2546 37.3883
15781 2 69.9856 29.2098 37.4732
15782 2 70.3598 27.6685 37.8617
15783 1 10.8107 22.8888 29.8059
15784 2 9.88106 22.8284 30.1693
15785 2 11.4025 22.2488 30.296
15786 1 7.71941 25.0934 40.0675
15787 2 8.14163 24.2277 40.3364
15788 2 8.3492 25.6037 39.4819
15789 1 47.4208 28.2645 54.1672
15790 2 47.2559 28.6523 53.2603
15791 2 48.3833 28.3839 54.4109
15792 1 12.1038 12.3431 25.3276
15793 2 11.6136 13.1857 25.1045
15794 2 12.9365 12.2862 24.7768
15795 1 68.4602 22.2967 85.1149
15796 2 68.7604 23.1879 85.4548
15797 2 68.6753 21.5923 85.7914
15798 1 10.2917 7.24591 59.3561
15799 2 10.762 7.50711 60.1991
15800 2 9.31928 7.10976 59.5454
15801 1 22.7898 16.643 80.8656
15802 2 22.9033 15.8202 80.3087
15803 2 23.4514 17.3349 80.5767
15804 1 64.7495 9.72533 48.7163
15805 2 64.9553 8.9001 48.1903
15806 2 64.7551 9.5084 49.6925
15807 1 20.8154 6.29673 27.5896
15808 2 20.7453 7.16519 27.0988
15809 2 20.9988 5.55995 26.9388
15810 1 30.9705 10.2297 76.8748
15811 2 30.2015 10.4804 77.4629
15812 2 30.6716 9.54666 76.2084
15813 1 18.0934 3.94745 21.2581
15814 2 17.8877 2.99548 21.4849
15815 2 17.5459 4.22801 20.4697
15816 1 24.0548 10.8033 48.1352
15817 2 23.9394 11.7886 48.0096
15818 2 23.3775 10.4692 48.7906
15819 1 52.7938 24.9324 29.2837
15820 2 52.437 24.7495 28.3676
15821 2 52.4575 24.236 29.9176
15822 1 47.4723 5.59237 90.724
15823 2 46.5078 5.35232 90.6141
15824 2 47.5619 6.58528 90.8022
15825 1 74.5507 16.6014 24.7358
15826 2 75.0401 17.4508 24.9332
15827 2 74.0502 16.308 25.5504
15828 1 78.306 19.6694 76.8529
15829 2 78.8233 19.2387 77.5924
15830 2 77.6269 20.2929 77.2403
15831 1 12.0116 14.04 75.9068
15832 2 11.7482 14.9633 76.1866
15833 2 11.3167 13.3885 76.2112
15834 1 30.5414 4.0432 30.8679
15835 2 30.8021 4.54603 31.6921
15836 2 30.1322 3.16825 31.1268
15837 1 31.945 1.02477 88.3292
15838 2 31.9613 2.0066 88.1402
15839 2 32.7238 0.783874 88.9084
15840 1 61.7989 12.8864 72.5605
15841 2 61.8352 12.258 71.7834
15842 2 61.3863 12.4231 73.3448
15843 1 71.0137 3.92027 83.8658
15844 2 71.2374 3.60504 84.7881
15845 2 70.2645 3.36952 83.4979
15846 1 4.55664 21.9487 82.2729
15847 2 4.67893 21.2353 82.963
15848 2 3.58994 22.1991 82.22
15849 1 17.623 27.2332 10
15850 2 17.7495 27.4941 9.04296
15851 2 17.3058 28.0249 10.5222
15852 1 54.0604 20.0403 38.8825
15853 2 53.3591 20.3248 38.2289
15854 2 53.6316 19.8313 39.7615
15855 1 74.5526 14.2062 79.4792
15856 2 73.5925 14.3155 79.7367
15857 2 74.9172 13.3743 79.8974
15858 1 79.265 10.1632 41.8184
15859 2 79.8226 9.33955 41.9223
15860 2 79.1404 10.5961 42.7112
15861 1 39.1712 26.3194 36.5966
15862 2 39.8584 26.1217 37.2956
15863 2 38.3062 26.5585 37.0378
15864 1 25.8797 17.075 51.0758
15865 2 25.4968 17.6238 51.819
15866 2 26.7568 17.4629 50.7928
15867 1 6.68772 15.1489 90.4896
15868 2 6.70895 15.7846 91.2612
15869 2 7.36619 14.4283 90.6326
15870 1 70.4392 0.0991258 62.4891
15871 2 70.3291 0.856689 61.8457
15872 2 69.8021 0.213856 63.2513
15873 1 24.8899 4.14307 83.7885
15874 2 25.8482 4.41641 83.8714
15875 2 24.5747 3.76451 84.6587
15876 1 23.3026 3.24137 76.4979
15877 2 23.6519 2.40934 76.9289
15878 2 22.8079 3.78532 77.1757
15879 1 18.3826 29.6514 57.6722
15880 2 17.6188 29.1838 57.2273
15881 2 19.2178 29.5041 57.1424
15882 1 76.3701 13.5839 85.6664
15883 2 76.3584 14.0394 84.7762
15884 2 75.442 13.554 86.0377
15885 1 4.94181 16.1544 27.2944
15886 2 4.6799 15.6359 26.4804
15887 2 4.16287 16.21 27.919
15888 1 78.3365 2.84729 70.0553
15889 2 78.8471 3.63129 70.4084
15890 2 78.3736 2.09945 70.7181
15891 1 13.2719 10.2295 58.8647
15892 2 13.5301 10.5911 57.9689
15893 2 13.2634 10.9723 59.5342
15894 1 51.6799 11.5497 39.5772
15895 2 52.227 10.7613 39.8584
15896 2 50.8246 11.5638 40.0952
15897 1 59.7579 2.08518 65.7049
15898 2 59.2659 2.07005 66.5754
15899 2 59.8816 1.14908 65.3756
15900 1 27.5592 25.052 52.3138
15901 2 26.7066 24.5671 52.5081
15902 2 28.336 24.4677 52.5488
15903 1 29.0861 19.5453 62.1205
15904 2 29.7905 19.2483 61.4758
15905 2 28.1954 19.542 61.6658
15906 1 54.2785 16.2141 83.0067
15907 2 54.0251 15.3885 82.5025
15908 2 53.7613 16.2544 83.8616
15909 1 24.4249 25.342 71.2837
15910 2 23.8875 25.0179 72.0623
15911 2 23.8124 25.5616 70.5243
15912 1 43.2958 4.29675 55.6305
15913 2 42.5021 3.7406 55.8772
15914 2 43.7685 3.87761 54.8554
15915 1 66.5454 22.3347 66.4956
15916 2 66.3445 22.6981 67.4054
15917 2 66.3974 21.3458 66.4915
15918 1 38.4331 13.0675 76.8993
15919 2 39.3709 12.7876 77.1046
15920 2 38.0173 13.4652 77.7172
15921 1 6.32861 9.7353 29.8554
15922 2 5.6085 9.09364 29.5914
15923 2 6.21421 9.98781 30.8162
15924 1 26.0356 7.12288 83.4073
15925 2 25.1704 6.95256 82.9356
15926 2 25.8696 7.69133 84.2131
15927 1 69.6664 19.1363 48.641
15928 2 68.7576 19.4161 48.3314
15929 2 70.2792 19.0648 47.854
15930 1 10.5107 16.0108 90.6829
15931 2 11.2051 15.292 90.6514
15932 2 10.0838 16.1017 89.7832
15933 1 16.319 16.4708 24.97
15934 2 16.4557 16.3987 23.982
15935 2 15.7643 17.278 25.1717
15936 1 38.0578 10.9243 73.1073
15937 2 37.9494 11.9148 73.1917
15938 2 37.4565 10.4662 73.762
15939 1 63.2606 25.1608 42.8693
15940 2 64.1686 25.4539 42.5698
15941 2 63.2944 24.9067 43.8359
15942 1 8.68377 14.1869 30.2348
15943 2 7.91872 14.7281 29.8857
15944 2 9.38317 14.7984 30.6048
15945 1 23.8709 19.4746 62.3864
15946 2 23.1415 19.0999 62.9587
15947 2 23.8833 20.4709 62.4721
15948 1 78.4527 20.5701 18.7857
15949 2 78.769 19.7211 18.3624
15950 2 78.2067 21.2266 18.0726
15951 1 78.047 3.95082 55.3696
15952 2 77.4065 3.23231 55.6406
15953 2 78.4733 4.34233 56.1851
15954 1 74.8906 14.1376 30.204
15955 2 74.1133 14.4835 30.7295
15956 2 75.7043 14.6783 30.4175
15957 1 59.4008 14.0699 26.7936
15958 2 60.3802 13.8791 26.7274
15959 2 59.2423 14.757 27.5026
15960 1 9.12589 10.1297 44.5613
15961 2 8.86714 9.47807 45.2743
15962 2 9.75849 9.69139 43.9228
15963 1 6.13297 23.3772 75.2048
15964 2 5.59903 23.161 76.0222
15965 2 6.07464 24.3579 75.0183
15966 1 24.9052 14.6238 50.8492
15967 2 25.1795 15.5736 51
15968 2 24.0647 14.6015 50.3079
15969 1 35.1844 22.4699 28.8415
15970 2 34.7301 21.9131 28.1461
15971 2 36.1575 22.241 28.8684
15972 1 47.1443 1.74451 49.2182
15973 2 46.7455 1.61344 48.3106
15974 2 47.8294 1.03583 49.3868
15975 1 8.1778 19.126 11.7881
15976 2 8.20802 20.1161 11.9256
15977 2 7.60877 18.9172 10.9927
15978 1 44.7975 17.389 56.8422
15979 2 45.7495 17.1116 56.7129
15980 2 44.5993 17.4544 57.8202
15981 1 36.2507 21.3878 36.3615
15982 2 36.8962 21.9622 36.8649
15983 2 36.7287 20.5872 36
15984 1 68.5748 25.2095 49.1024
15985 2 69.304 25.0053 49.7555
15986 2 68.1777 26.1024 49.3147
15987 1 40.8579 26.5231 41.8932
15988 2 40.0758 26.7836 41.3271
15989 2 41.0966 25.5689 41.7131
15990 1 31.6211 7.57146 73.7145
15991 2 32.3318 7.54363 74.4176
15992 2 30.7374 7.76324 74.1414
15993 1 7.68307 2.49745 24.1065
15994 2 7.1843 3.35691 24.2185
15995 2 7.42684 1.86558 24.838
15996 1 78.4923 0.360132 23.9579
15997 2 79.4366 0.12552 23.7272
15998 2 78.4248 0.544667 24.9384
15999 1 20.8979 10.4326 24.4976
16000 2 20.9481 10.9286 25.3645
16001 2 20.6492 9.48 24.6726
16002 1 2.30949 27.5519 85.4373
16003 2 2.3237 27.2921 86.4029
16004 2 2.72833 28.4534 85.3285
16005 1 65.1949 25.2941 64.7987
16006 2 64.2781 25.1121 64.4433
16007 2 65.863 24.7486 64.2927
16008 1 59.1479 8.75748 70.0474
16009 2 59.5622 9.63333 70.2949
16010 2 58.4564 8.51206 70.7267
16011 1 57.108 0.574885 75.8958
16012 2 56.9507 29.6834 75.471
16013 2 57.606 1.16411 75.2596
16014 1 23.6492 15.1956 38.9799
16015 2 23.6392 15.0952 37.985
16016 2 23.3836 14.3303 39.4049
16017 1 54.3309 12.3319 25.0987
16018 2 54.625 13.2822 24.9968
16019 2 53.3946 12.2348 24.7613
16020 1 0.16264 13.5131 43.4834
16021 2 79.5379 12.7384 43.5812
16022 2 0.93457 13.3998 44.1089
16023 1 29.4137 5.12761 65.3662
16024 2 28.4543 5.07968 65.0881
16025 2 29.5193 5.81877 66.0812
16026 1 67.3068 17.0015 16.017
16027 2 66.5144 16.4328 16.2378
16028 2 67.4036 17.0671 15.0238
16029 1 59.2151 8.72552 50.0021
16030 2 59.5292 9.43088 49.3667
16031 2 59.4657 8.98235 50.9356
16032 1 74.9229 7.36326 15.0412
16033 2 74.7828 6.40421 14.7951
16034 2 75.3595 7.41653 15.9393
16035 1 43.3735 19.1211 36.7971
16036 2 43.3973 19.5844 37.683
16037 2 42.9459 18.2232 36.9019
16038 1 29.0729 7.15997 67.134
16039 2 29.5204 8.05396 67.1102
16040 2 28.2719 7.204 67.731
16041 1 75.2679 7.09127 72.5907
16042 2 76.233 7.26192 72.7896
16043 2 75.1119 6.10626 72.5173
16044 1 15.1224 26.2073 77.2535
16045 2 14.4746 26.5744 77.921
16046 2 14.8496 26.49 76.3339
16047 1 44.1754 6.23644 45.9162
16048 2 43.5541 5.68958 45.355
16049 2 44.277 7.14538 45.5119
16050 1 25.7979 16.2869 76.7444
16051 2 24.9647 16.7057 77.1057
16052 2 25.7195 15.2913 76.7952
16053 1 10.2446 17.5824 25.9948
16054 2 11.0825 17.2411 25.5688
16055 2 9.57448 17.7996 25.2851
16056 1 52.4226 13.3428 36.9488
16057 2 52.7591 12.5769 36.4009
16058 2 52.0765 13.001 37.8225
16059 1 28.4757 7.82548 73.1346
16060 2 28.8185 8.32027 73.9331
16061 2 27.4758 7.83173 73.1426
16062 1 56.4835 1.75385 32.2485
16063 2 57.1288 1.27229 31.6555
16064 2 55.5738 1.35105 32.1478
16065 1 47.2872 10.6257 77.0268
16066 2 47.8388 10.6653 77.86
16067 2 47.7214 11.1754 76.3131
16068 1 9.02507 29.9181 49.2062
16069 2 9.39883 0.779523 48.8624
16070 2 8.05581 29.8566 48.9679
16071 1 38.635 21.3727 59.949
16072 2 38.8562 21.436 58.9758
16073 2 38.83 22.2475 60.3927
16074 1 71.5294 29.1817 35.3918
16075 2 70.8271 28.8667 36.0303
16076 2 71.9661 0.00429271 35.756
16077 1 57.5712 7.36547 87.3632
16078 2 56.6035 7.61015 87.3025
16079 2 58.0939 7.90704 86.7048
16080 1 0.997734 14.1742 64.7125
16081 2 1.21542 13.8016 63.8104
16082 2 0.909406 13.4258 65.3698
16083 1 54.0733 27.9268 66.6378
16084 2 54.8325 27.4919 67.1221
16085 2 53.6872 28.6529 67.2068
16086 1 8.78263 2.02431 71.3296
16087 2 9.36546 2.52899 70.6927
16088 2 9.34694 1.4146 71.8862
16089 1 15.1689 26.4684 49.3069
16090 2 16.0207 26.878 49.6333
16091 2 15.217 25.4746 49.4077
16092 1 75.3831 9.35683 22.2984
16093 2 74.6447 8.69067 22.4035
16094 2 76.1431 9.10961 22.8994
16095 1 46.6472 17.8278 89.8444
16096 2 46.0399 17.7282 90.6326
16097 2 47.4526 18.3582 90.1091
16098 1 1.99491 26.9008 21.6686
16099 2 2.40305 27.5266 22.3333
16100 2 2.09269 27.2811 20.749
16101 1 72.2205 4.55319 30.201
16102 2 72.2138 5.48886 29.8482
16103 2 71.3574 4.36787 30.6708
16104 1 1.05449 20.1985 86.9988
16105 2 1.14216 19.8664 86.0597
16106 2 0.942137 21.1921 86.9919
16107 1 75.9074 22.7892 28.0317
16108 2 76.712 22.2252 27.8459
16109 2 75.2356 22.6622 27.3019
16110 1 2.24439 18.7117 26.8274
16111 2 2.41256 17.9617 27.4671
16112 2 1.25946 18.8208 26.6933
16113 1 66.1242 24.7127 26.6217
16114 2 66.4363 23.7758 26.7791
16115 2 66.1571 24.915 25.6429
16116 1 79.8788 24.4146 47.6326
16117 2 0.169353 23.4828 47.4149
16118 2 79.7035 24.4883 48.6144
16119 1 24.1146 24.7807 77.0162
16120 2 23.5199 25.4996 76.6563
16121 2 24.1501 24.8457 78.0134
16122 1 49.9238 23.2191 41.4326
16123 2 49.5525 22.5167 40.8252
16124 2 50.4226 22.7825 42.1813
16125 1 9.21532 29.3007 25.3838
16126 2 8.79605 28.5887 25.947
16127 2 9.40343 0.10449 25.9481
16128 1 69.9511 5.84165 77.7702
16129 2 69.9752 6.54607 78.4796
16130 2 70.8359 5.80603 77.3056
16131 1 52.7716 15.3048 73.83
16132 2 52.3985 15.5478 72.9346
16133 2 52.9284 16.1365 74.3626
16134 1 63.7921 23.134 61.9184
16135 2 63.3893 24.0036 62.2042
16136 2 64.7516 23.2752 61.6749
16137 1 32.0837 24.5918 61.8481
16138 2 32.2298 23.6085 61.7394
16139 2 32.4253 24.8827 62.7418
16140 1 33.0397 5.93411 60.9977
16141 2 32.4394 5.88831 60.1992
16142 2 32.5575 6.37954 61.7521
16143 1 64.7658 13.9813 56.0077
16144 2 64.1876 13.1756 56.1364
16145 2 64.201 14.7539 55.7176
16146 1 19.1338 4.00761 48.0919
16147 2 19.9874 4.42155 48.4082
16148 2 18.3585 4.53085 48.4456
16149 1 78.708 16.5902 44.5142
16150 2 78.6126 16.641 45.5084
16151 2 78.2388 17.3671 44.0943
16152 1 65.606 7.03574 37.7311
16153 2 66.4773 6.61563 37.9846
16154 2 65.1348 7.34927 38.5555
16155 1 2.4491 8.33772 52.2982
16156 2 1.94719 7.48682 52.1431
16157 2 2.51082 8.51397 53.2806
16158 1 11.2961 0.364291 20.1014
16159 2 11.811 29.694 20.6358
16160 2 11.7469 0.50512 19.22
16161 1 3.29275 20.1487 20.8644
16162 2 4.23448 20.0539 20.5417
16163 2 2.66662 20.0924 20.0867
16164 1 61.2168 27.8263 52.495
16165 2 61.2844 26.8859 52.8283
16166 2 61.5581 27.8726 51.5562
16167 1 39.4382 0.471532 81.5043
16168 2 38.4811 0.182309 81.5214
16169 2 39.831 0.377974 82.4192
16170 1 54.0227 6.39386 74.2203
16171 2 53.7826 6.08842 75.1417
16172 2 55.0104 6.30993 74.0881
16173 1 67.9457 27.5733 77.5775
16174 2 68.5731 26.9389 78.029
16175 2 67.5293 28.1732 78.2606
16176 1 16.2335 20.6518 62.8826
16177 2 15.4761 20.4197 63.4929
16178 2 15.8852 21.1692 62.1009
16179 1 46.5509 11.3165 56.2266
16180 2 47.5213 11.2017 56.4391
16181 2 46.3433 12.2902 56.1322
16182 1 33.5904 3.42568 41.1898
16183 2 32.9482 2.6617 41.1279
16184 2 34.506 3.07617 41.3889
16185 1 42.1959 2.45305 85.1547
16186 2 42.446 1.56181 85.533
16187 2 42.971 2.82917 84.6471
16188 1 13.6191 12.4995 63.6206
16189 2 12.9375 11.9747 64.1305
16190 2 13.3286 12.5859 62.6676
16191 1 63.4889 11.5678 10.7859
16192 2 63.6843 11.462 9.8109
16193 2 64.1811 12.1571 11.2025
16194 1 67.4251 22.0117 14.9963
16195 2 68.3214 21.7142 14.6676
16196 2 67.4071 23.0097 15.0581
16197 1 18.086 9.93046 38.1865
16198 2 17.7927 10.8864 38.1934
16199 2 19.0403 9.87252 38.4795
16200 1 69.5175 20.1796 56.3835
16201 2 69.1628 19.2633 56.1976
16202 2 69.0482 20.8432 55.801
16203 1 13.1935 2.63797 74.132
16204 2 13.5649 3.53266 74.38
16205 2 12.3431 2.76038 73.6202
16206 1 16.6458 14.7998 69.463
16207 2 15.9441 15.5052 69.5631
16208 2 16.2289 13.8972 69.5705
16209 1 7.84581 26.4027 55.6531
16210 2 7.21392 26.4858 54.8825
16211 2 8.18841 25.4645 55.7035
16212 1 51.8751 1.18933 39.9503
16213 2 51.8329 0.788012 39.0353
16214 2 51.0558 1.73964 40.111
16215 1 51.698 7.78296 77.7094
16216 2 52.1928 6.93915 77.9172
16217 2 51.3313 8.17115 78.5549
16218 1 29.4842 3.41815 36.2473
16219 2 28.7928 3.93333 35.7408
16220 2 30.3578 3.90303 36.2061
16221 1 59.5358 4.29818 61.1215
16222 2 59.2522 4.17739 60.1702
16223 2 59.5007 3.41763 61.5942
16224 1 45.0075 8.90733 76.4313
16225 2 45.8563 9.41516 76.2837
16226 2 45.2202 7.94539 76.6029
16227 1 59.2961 25.549 60.6773
16228 2 59.99 26.1251 60.2453
16229 2 59.3527 25.6473 61.6709
16230 1 28.875 1.43029 47.7922
16231 2 29.5076 0.65671 47.8297
16232 2 28.6982 1.76146 48.7191
16233 1 29.328 8.31973 56.5269
16234 2 29.2298 8.72308 55.6171
16235 2 28.7809 8.83966 57.1829
16236 1 7.65338 9.68715 81.5673
16237 2 7.68134 8.70028 81.4082
16238 2 6.75263 10.0402 81.3142
16239 1 52.0825 22.6366 66.5146
16240 2 51.474 22.5648 65.7242
16241 2 51.6822 23.2581 67.188
16242 1 19.3825 26.6271 86.4787
16243 2 19.6263 26.04 85.7068
16244 2 19.618 26.167 87.3348
16245 1 6.15221 21.3473 41.8009
16246 2 5.39328 20.7759 41.4885
16247 2 6.25267 21.2555 42.7916
16248 1 53.9149 20.9293 62.5016
16249 2 54.5079 20.2915 62.0101
16250 2 53.7357 20.5773 63.4203
16251 1 79.467 17.6692 71.8492
16252 2 79.6226 17.2105 72.7241
16253 2 79.5766 18.6562 71.9663
16254 1 43.054 13.8685 42.9369
16255 2 43.6223 13.8528 43.7596
16256 2 42.662 14.781 42.8199
16257 1 8.12327 16.4344 15.0014
16258 2 9.04745 16.6544 15.3137
16259 2 7.79749 15.6159 15.4747
16260 1 35.8583 25.7058 77.8678
16261 2 36.7273 26.1134 78.1486
16262 2 35.1609 25.8996 78.5578
16263 1 16.7965 0.905352 70.675
16264 2 16.4411 1.64166 71.2508
16265 2 16.5085 0.0228668 71.0469
16266 1 44.0404 18.6671 79.6638
16267 2 44.7377 19.3753 79.5531
16268 2 43.222 19.0669 80.0766
16269 1 72.9091 7.77064 90.9553
16270 2 72.7145 8.56599 90.3812
16271 2 72.5348 6.94929 90.5248
16272 1 78.3245 28.5732 50.6451
16273 2 78.0035 29.1827 49.9202
16274 2 78.3748 29.0778 51.507
16275 1 48.5194 22.2666 82.149
16276 2 49.3875 22.1398 82.6291
16277 2 47.932 22.8786 82.6785
16278 1 22.2279 2.24895 55.2347
16279 2 22.3361 1.39141 54.7318
16280 2 23.0728 2.78026 55.1733
16281 1 13.3019 9.48147 26.0341
16282 2 12.5788 10.1649 25.9335
16283 2 14.108 9.7706 25.5177
16284 1 77.5314 1.84574 20.1529
16285 2 77.0848 0.957707 20.2622
16286 2 77.2851 2.4393 20.919
16287 1 43.3686 10.9207 40.8444
16288 2 43.9574 10.9543 40.0368
16289 2 43.9327 10.823 41.6643
16290 1 23.7862 0.254604 68.4254
16291 2 23.6312 1.03862 69.0264
16292 2 23.0817 0.234018 67.716
16293 1 78.9364 26.7824 14.859
16294 2 78.2386 27.4358 14.5652
16295 2 78.8225 25.925 14.3573
16296 1 1.62433 4.85231 63.6878
16297 2 1.90973 4.26567 62.9299
16298 2 1.82172 4.39574 64.5553
16299 1 8.03479 25.0547 79.1448
16300 2 7.5667 24.7049 79.9563
16301 2 7.91967 26.0468 79.0953
16302 1 13.3536 22.173 25.0153
16303 2 14.2015 22.2912 25.5322
16304 2 13.5143 22.4009 24.0549
16305 1 21.7718 6.66447 85.7373
16306 2 22.0194 7.32235 86.4485
16307 2 21.1755 5.9621 86.1259
16308 1 54.5989 9.71811 73.3013
16309 2 54.4355 10.5764 73.7877
16310 2 54.9332 9.02906 73.9443
16311 1 54.4943 7.00665 85.7604
16312 2 55.1702 7.40633 85.1412
16313 2 54.5882 7.4183 86.6669
16314 1 19.0837 18.5511 48.8748
16315 2 19.5169 18.6426 47.9782
16316 2 18.39 19.263 48.984
16317 1 78.3535 28.7363 84.8735
16318 2 79.2311 28.4192 84.5138
16319 2 77.6158 28.4263 84.2738
16320 1 70.0046 20.5777 45.2262
16321 2 70.5712 19.8603 45.6317
16322 2 70.0108 21.3826 45.8196
16323 1 33.3299 29.218 65.3593
16324 2 32.886 29.1667 64.4647
16325 2 32.6507 29.0674 66.0776
16326 1 27.0243 21.9275 51.9715
16327 2 27.4361 22.1015 52.866
16328 2 27.6044 22.317 51.2561
16329 1 57.2106 25.5958 38.521
16330 2 56.726 26.4193 38.816
16331 2 56.629 25.0717 37.8988
16332 1 48.7656 19.3464 37.6895
16333 2 48.5459 20.3159 37.5803
16334 2 48.6179 19.0764 38.641
16335 1 13.7248 2.24789 52.7973
16336 2 14.6806 2.14544 53.0729
16337 2 13.1718 2.48796 53.5951
16338 1 75.9039 16.2175 32.6392
16339 2 76.2347 15.3568 33.0263
16340 2 74.9081 16.1836 32.5539
16341 1 65.8817 16.9143 65.8088
16342 2 66.3118 16.2972 66.4678
16343 2 65.5352 16.3855 65.034
16344 1 64.3307 13.2752 47.3784
16345 2 63.61 12.6825 47.738
16346 2 64.988 13.4785 48.1041
16347 1 10.4714 10.9728 60.2259
16348 2 10.3927 11.965 60.3224
16349 2 11.2797 10.6529 60.7202
16350 1 67.8788 26.5247 22.1862
16351 2 67.9594 26.2121 21.2397
16352 2 67.2031 25.9647 22.6657
16353 1 69.865 25.397 26.9119
16354 2 69.0909 25.4262 27.5442
16355 2 70.3458 26.2736 26.9327
16356 1 62.3456 24.4904 33.5139
16357 2 61.9836 24.1328 34.3748
16358 2 62.5106 23.7333 32.8817
16359 1 15.9566 7.15127 53.0027
16360 2 16.3133 6.46746 53.6393
16361 2 15.0145 7.37767 53.2501
16362 1 41.252 10.2561 69.898
16363 2 41.1587 9.91222 68.9637
16364 2 42.0995 10.7811 69.9769
16365 1 7.85088 6.92291 83.8397
16366 2 7.98475 7.08562 82.8622
16367 2 8.08352 5.9744 84.0547
16368 1 62.6828 28.594 70.258
16369 2 62.2166 27.7711 70.5828
16370 2 63.2472 28.9694 70.9931
16371 1 2.83872 4.30688 36.8336
16372 2 3.16219 3.71679 37.5733
16373 2 2.58524 5.19965 37.206
16374 1 63.096 25.0589 48.562
16375 2 62.1342 25.1497 48.3039
16376 2 63.3832 25.8716 49.0691
16377 1 30.4743 8.1038 81.8466
16378 2 29.8277 7.74282 82.5186
16379 2 30.1527 8.99195 81.5183
16380 1 7.57841 14.1324 16.614
16381 2 8.02119 14.329 17.4888
16382 2 7.73563 13.1759 16.3683
16383 1 64.3853 9.80743 78.2411
16384 2 64.5375 10.7936 78.3065
16385 2 63.4836 9.63489 77.8446
16386 1 17.4434 10.4885 74.1672
16387 2 17.7634 10.1021 73.3022
16388 2 16.4675 10.2993 74.276
16389 1 3.04808 24.3356 21.6701
16390 2 4.04033 24.294 21.7872
16391 2 2.77653 25.2745 21.4585
16392 1 66.9343 5.15914 71.3707
16393 2 67.5122 5.39317 70.5889
16394 2 67.3485 5.51332 72.2092
16395 1 44.2065 3.04331 36.8507
16396 2 44.521 2.58181 37.6802
16397 2 44.3218 4.03118 36.9547
16398 1 15.113 6.57022 20.6525
16399 2 15.6051 6.1172 19.9092
16400 2 15.3954 7.52812 20.7042
16401 1 6.78559 2.07767 88.3653
16402 2 6.58339 2.78771 89.0398
16403 2 7.5234 1.49485 88.7059
16404 1 68.9358 2.84346 56.2207
16405 2 69.8262 2.52399 55.8965
16406 2 69.062 3.64315 56.8077
16407 1 11.4472 6.63761 83.9443
16408 2 10.6723 6.62528 84.5763
16409 2 11.1096 6.64237 83.0031
16410 1 72.8968 1.86527 24.8935
16411 2 72.2408 2.61685 24.9624
16412 2 73.8057 2.19122 25.1538
16413 1 4.62781 25.0978 79.2387
16414 2 5.41534 24.7847 79.7695
16415 2 3.8935 24.4219 79.3016
16416 1 8.03302 18.5699 36.9819
16417 2 8.20978 19.1836 37.7514
16418 2 7.07644 18.279 37.0005
16419 1 69.9757 26.1198 79.3232
16420 2 70.5834 26.1754 80.1155
16421 2 70.457 25.6813 78.5641
16422 1 63.3074 15.4386 29.4697
16423 2 62.4736 15.1254 29.9244
16424 2 64.1007 14.9926 29.8842
16425 1 40.8818 4.80808 70.4671
16426 2 41.0005 5.08715 71.42
16427 2 41.7024 4.32911 70.1554
16428 1 60.845 9.52748 72.4101
16429 2 60.6532 10.2263 71.721
16430 2 60.8541 8.62611 71.9771
16431 1 61.8452 27.6053 86.3316
16432 2 61.5111 26.7639 86.7566
16433 2 61.1603 27.9488 85.689
16434 1 34.9444 27.665 80.2653
16435 2 35.3779 28.2995 79.6254
16436 2 35.5486 26.8834 80.4206
16437 1 7.80154 29.1865 18.1908
16438 2 6.93847 28.7002 18.3275
16439 2 7.93322 29.3641 17.2156
16440 1 13.9808 5.9972 28.6833
16441 2 14.6888 6.65907 28.4369
16442 2 14.038 5.20585 28.0746
16443 1 66.9325 4.22263 20.8431
16444 2 66.3201 5.00544 20.9534
16445 2 66.6815 3.7168 20.0178
16446 1 79.4003 27.9273 63.647
16447 2 78.632 28.4362 63.2585
16448 2 0.25779 28.2835 63.2758
16449 1 11.2102 12.9114 68.1806
16450 2 11.2351 13.3525 67.2835
16451 2 11.6281 12.0051 68.1181
16452 1 31.7464 18.221 80.7252
16453 2 32.5078 18.425 81.3404
16454 2 30.9606 17.9091 81.2593
16455 1 41.6363 0.557062 32.8729
16456 2 41.1123 1.35311 32.57
16457 2 41.4157 29.7726 32.2933
16458 1 18.5702 24.9548 67.2465
16459 2 17.9948 25.2809 66.4965
16460 2 18.2183 25.3066 68.1139
16461 1 13.2427 5.08444 58.5439
16462 2 13.9845 5.68172 58.849
16463 2 12.427 5.63305 58.3605
16464 1 69.8134 27.8245 91.2168
16465 2 69.3066 28.6805 91.1138
16466 2 70.5592 27.7966 90.5512
16467 1 10.7778 8.67748 21.3726
16468 2 10.7006 9.65199 21.5833
16469 2 10.6024 8.53207 20.3989
16470 1 79.8605 4.4737 23.9668
16471 2 79.1595 5.16863 23.8066
16472 2 0.351324 4.29275 23.1146
16473 1 49.4031 4.72557 67.0933
16474 2 49.0383 4.74468 68.0242
16475 2 49.8591 5.59343 66.8961
16476 1 37.0432 27.8715 71.7164
16477 2 36.7127 27.9799 72.6539
16478 2 36.3339 28.1674 71.0766
16479 1 53.2879 12.856 89.0972
16480 2 52.5477 12.3302 89.5165
16481 2 54.1506 12.3621 89.206
16482 1 0.194798 27.445 12.3745
16483 2 79.4243 26.9975 12.8285
16484 2 79.8693 27.9219 11.5579
16485 1 25.8267 11.1452 46.0541
16486 2 25.3937 11.1025 45.1537
16487 2 25.1231 11.2415 46.7581
16488 1 19.8922 29.7096 27.802
16489 2 20.4502 0.218442 28.4576
16490 2 19.4409 0.350069 27.1806
16491 1 61.2773 1.64209 62.0208
16492 2 61.3167 0.748876 61.5729
16493 2 60.3832 1.75902 62.4531
16494 1 68.3143 28.9324 47.3857
16495 2 68.6101 29.1697 48.311
16496 2 68.5589 27.9825 47.1909
16497 1 4.68679 4.67369 64.4117
16498 2 4.31739 4.22933 63.5956
16499 2 4.4978 4.10741 65.214
16500 1 66.8433 15.9181 26.7631
16501 2 65.8856 15.9743 27.0452
16502 2 67.4077 16.4542 27.3908
16503 1 50.0754 14.4923 90.9454
16504 2 50.0296 15.1051 90.1564
16505 2 50.8654 14.7332 91.5091
16506 1 7.70367 28.0954 86.6894
16507 2 7.62626 27.9204 87.6709
16508 2 8.14278 28.9818 86.5425
16509 1 35.3574 8.08114 71.3177
16510 2 35.1876 8.47835 72.2196
16511 2 35.44 7.08804 71.4011
16512 1 20.4791 25.1622 64.2647
16513 2 19.6431 24.8068 64.6828
16514 2 20.5792 24.7825 63.3451
16515 1 68.7997 26.5417 46.3623
16516 2 68.4229 26.7278 45.4549
16517 2 69.7976 26.5942 46.326
16518 1 11.75 9.80874 28.4858
16519 2 11.1637 10.6137 28.3949
16520 2 12.1256 9.56722 27.5911
16521 1 1.19331 12.4876 14.6136
16522 2 2.03167 12.0817 14.2496
16523 2 0.653021 11.7818 15.0718
16524 1 34.5893 15.7361 73.2967
16525 2 34.6352 15.4679 72.3345
16526 2 35.4715 15.5611 73.734
16527 1 65.6651 11.9757 90.9159
16528 2 65.557 12.9086 90.5725
16529 2 66.6338 11.7924 91.0836
16530 1 77.3053 18.7249 56.3537
16531 2 76.4896 19.2505 56.5954
16532 2 77.6044 18.1912 57.1448
16533 1 16.499 4.32928 36.9184
16534 2 16.0102 3.56325 36.5009
16535 2 16.2092 5.18401 36.4877
16536 1 31.857 1.16908 31.1198
16537 2 32.6403 0.553942 31.03
16538 2 32.1382 2.10186 30.8942
16539 1 24.7239 17.6083 40.0389
16540 2 24.4571 17.4008 40.9801
16541 2 24.3016 16.9468 39.4192
16542 1 42.1724 16.3545 45.8398
16543 2 41.4334 16.7901 46.3537
16544 2 41.8281 16.0546 44.9502
16545 1 70.8778 26.8508 33.3293
16546 2 71.3914 26.0761 32.9604
16547 2 70.2506 26.5278 34.038
16548 1 74.4566 26.7714 41.3432
16549 2 73.5581 26.534 41.7126
16550 2 75.1666 26.2942 41.861
16551 1 64.2383 8.05321 73.9399
16552 2 65.0416 7.4592 73.9832
16553 2 64.1099 8.50511 74.8227
16554 1 22.5855 23.5839 52.0823
16555 2 23.5313 23.3909 51.821
16556 2 22.2324 22.8301 52.6364
16557 1 15.1751 2.49997 35.7969
16558 2 15.7902 2.15501 35.0879
16559 2 14.2305 2.27626 35.5564
16560 1 74.4301 6.07269 27.7738
16561 2 74.5945 6.8187 28.4192
16562 2 73.9787 5.31609 28.247
16563 1 45.5927 21.8475 75.2732
16564 2 44.7072 22.1946 75.5819
16565 2 46.2786 22.0054 75.9835
16566 1 27.5212 4.03065 85.158
16567 2 28.4792 3.77064 85.279
16568 2 27.3664 4.93115 85.5644
16569 1 58.2763 5.71687 28.5508
16570 2 59.1625 5.27052 28.4261
16571 2 57.609 5.0475 28.8772
16572 1 24.376 25.0311 33.7944
16573 2 24.6667 24.6212 34.659
16574 2 25.013 25.7585 33.5395
16575 1 70.9258 13.8567 84.7555
16576 2 71.0478 12.8656 84.8105
16577 2 71.5395 14.3046 85.4058
16578 1 4.56515 9.86478 32.521
16579 2 3.99511 9.82901 33.3418
16580 2 4.73225 10.8189 32.2726
16581 1 49.821 1.78903 84.0938
16582 2 50.3248 2.36276 83.448
16583 2 50.0576 2.05287 85.0289
16584 1 33.6212 4.44345 44.6611
16585 2 34.1019 5.15384 44.147
16586 2 34.2858 3.87835 45.15
16587 1 24.4651 13.2448 81.5427
16588 2 24.7858 13.9892 82.1283
16589 2 24.0667 13.6252 80.7081
16590 1 3.31458 27.305 74.2999
16591 2 4.05189 26.899 73.76
16592 2 3.70184 27.939 74.9694
16593 1 67.5621 16.1188 42.9487
16594 2 67.2749 15.8608 42.0262
16595 2 66.8229 16.6184 43.4004
16596 1 73.1411 3.4407 42.1835
16597 2 73.0245 2.83548 42.9709
16598 2 73.3595 4.36325 42.5016
16599 1 67.7349 24.7272 31.4229
16600 2 66.9912 25.2611 31.8254
16601 2 67.3579 24.0688 30.7714
16602 1 71.9303 10.9978 71.5047
16603 2 71.7602 10.0417 71.2661
16604 2 71.1279 11.3734 71.9684
16605 1 68.7339 9.48498 59.8388
16606 2 69.5841 9.73332 59.3746
16607 2 68.4619 8.56242 59.5651
16608 1 50.8759 29.3094 82.5167
16609 2 51.6965 29.6495 82.0574
16610 2 50.6967 28.3694 82.2263
16611 1 19.5343 24.8136 84.0015
16612 2 19.2264 24.0216 83.4742
16613 2 20.0218 25.4458 83.3992
16614 1 57.4401 17.2948 41.4812
16615 2 56.9709 16.5696 41.985
16616 2 57.8108 17.9628 42.1265
16617 1 52.6898 1.02811 65.1463
16618 2 52.4745 1.88166 64.6719
16619 2 52.1761 0.277283 64.7313
16620 1 50.0387 4.4475 44.9157
16621 2 49.6066 5.20773 45.4008
16622 2 49.7361 3.58215 45.3152
16623 1 35.1659 25.4921 40.6454
16624 2 36.1287 25.2546 40.775
16625 2 34.9458 25.4711 39.6702
16626 1 57.3756 24.065 26.412
16627 2 58.2135 24.1409 25.8715
16628 2 57.4787 24.5826 27.2613
16629 1 24.4384 27.437 31.8903
16630 2 24.0658 28.3328 32.1326
16631 2 25.4374 27.4823 31.8833
16632 1 45.255 14.6612 69.8627
16633 2 45.5048 15.4779 70.3828
16634 2 44.6862 14.0657 70.4302
16635 1 28.0766 14.0781 36.1903
16636 2 27.2043 13.6137 36.3436
16637 2 28.8239 13.4182 36.2687
16638 1 3.14788 15.5818 72.3156
16639 2 2.44126 15.7069 73.012
16640 2 3.1242 14.6392 71.9823
16641 1 34.3374 17.9813 41.2886
16642 2 33.4685 17.7149 41.7059
16643 2 35.0234 17.2763 41.4682
16644 1 51.7723 29.099 63.7166
16645 2 50.8038 28.9534 63.9184
16646 2 51.9816 28.737 62.8083
16647 1 0.84298 0.322992 37.2441
16648 2 1.47185 29.989 37.9463
16649 2 0.155935 29.6224 37.0515
16650 1 8.05322 11.9033 32.1053
16651 2 8.1832 12.6358 31.4371
16652 2 8.26003 11.0227 31.679
16653 1 26.9319 16.4207 47.566
16654 2 26.5564 15.5011 47.4512
16655 2 27.9003 16.4188 47.3166
16656 1 28.6541 29.4063 62.8223
16657 2 27.6954 29.1261 62.8713
16658 2 29.0547 29.0759 61.9677
16659 1 66.3252 27.8878 32.2255
16660 2 66.1274 27.96 31.2479
16661 2 67.2587 27.5523 32.3527
16662 1 63.3381 15.8991 88.3648
16663 2 63.1238 15.0382 87.9036
16664 2 63.9396 16.4477 87.7841
16665 1 17.5012 14.0865 21.4507
16666 2 17.1465 13.3128 20.9258
16667 2 18.4557 14.2493 21.2007
16668 1 32.1477 5.87466 40.8347
16669 2 32.2942 6.4844 41.6136
16670 2 32.8141 5.12972 40.8646
16671 1 4.87811 6.43097 74.299
16672 2 4.60912 7.14439 73.652
16673 2 5.82366 6.58184 74.5874
16674 1 63.9611 24.7175 22.8797
16675 2 64.7076 25.0827 23.4359
16676 2 64.0624 25.0342 21.9366
16677 1 15.9308 27.3836 27.9235
16678 2 16.923 27.2748 27.9851
16679 2 15.5414 26.6113 27.4215
16680 1 77.2731 11.3401 33.3529
16681 2 76.5814 10.7964 33.8282
16682 2 77.0411 12.3103 33.4237
16683 1 67.269 1.014 70.293
16684 2 68.033 0.369174 70.3159
16685 2 66.7456 0.94088 71.1419
16686 1 27.3038 18.0443 75.2765
16687 2 27.3467 18.9108 75.7738
16688 2 27.0441 17.3115 75.9055
16689 1 10.7087 27.8662 18.7835
16690 2 10.2093 28.7242 18.9037
16691 2 11.2698 27.92 17.9575
16692 1 61 9.40159 46.9339
16693 2 60.2219 9.8829 47.3374
16694 2 61.8515 9.80753 47.2657
16695 1 25.0831 2.00042 88.9304
16696 2 24.5598 1.14865 88.9043
16697 2 24.6771 2.62068 89.6015
16698 1 67.6125 3.06495 44.8787
16699 2 67.9194 3.98635 45.117
16700 2 67.0476 3.10457 44.0544
16701 1 30.7614 19.1626 49.7162
16702 2 29.856 18.7767 49.5392
16703 2 30.9811 19.8351 49.0095
16704 1 38.6986 16.8271 54.5418
16705 2 38.8257 15.9706 54.0416
16706 2 37.8155 16.8113 55.0108
16707 1 41.2463 18.2018 40.8477
16708 2 40.9838 17.4207 40.2811
16709 2 40.7295 18.1813 41.7036
16710 1 53.83 29.3625 61.7664
16711 2 53.5813 29.7062 62.672
16712 2 53.9544 28.3712 61.8087
16713 1 50.2295 16.131 68.3095
16714 2 49.2344 16.1306 68.2106
16715 2 50.468 16.141 69.2806
16716 1 30.6273 1.32986 71.4534
16717 2 30.4144 2.30165 71.3519
16718 2 31.5656 1.2269 71.7834
16719 1 33.1675 23.4366 44.4669
16720 2 33.665 22.6244 44.7718
16721 2 33.4132 24.2146 45.0451
16722 1 12.0957 21.8987 52.8031
16723 2 12.8961 21.3332 52.6038
16724 2 12.1498 22.2331 53.744
16725 1 18.2633 6.78758 86.9731
16726 2 18.8539 7.17419 87.6813
16727 2 18.7092 5.99072 86.5655
16728 1 43.1578 7.6138 34.9255
16729 2 43.3999 8.57419 35.0634
16730 2 42.9108 7.20303 35.8031
16731 1 77.1683 7.68663 36.9126
16732 2 76.7252 7.86373 36.0338
16733 2 76.9669 8.43525 37.5443
16734 1 66.4864 9.86945 34.8641
16735 2 67.3427 10.0199 34.3701
16736 2 65.8739 10.6455 34.7136
16737 1 2.18648 25.539 76.6984
16738 2 1.70287 26.4142 76.6847
16739 2 2.47654 25.333 77.6329
16740 1 66.6451 19.0386 33.2407
16741 2 65.6818 19.3065 33.2251
16742 2 66.9384 18.9042 34.1872
16743 1 2.51264 18.424 10.4845
16744 2 2.60611 18.4916 9.49122
16745 2 3.40366 18.5712 10.914
16746 1 71.7154 27.7865 84.1889
16747 2 71.9731 28.7203 84.437
16748 2 70.7711 27.7776 83.8599
16749 1 72.2834 4.8752 13.5976
16750 2 71.8126 5.45601 12.9335
16751 2 72.5826 4.0324 13.1503
16752 1 46.0001 25.835 64.8984
16753 2 46.9374 26.0285 64.6088
16754 2 45.5496 25.2656 64.2107
16755 1 47.7978 15.6732 87.8194
16756 2 48.2614 16.3105 88.4349
16757 2 47.2892 16.1872 87.1287
16758 1 7.20671 16.1644 85.2877
16759 2 7.4474 15.4743 84.6051
16760 2 7.77872 16.9744 85.1587
16761 1 77.5464 18.2522 66.741
16762 2 77.2873 19.0991 66.2766
16763 2 77.5693 18.4073 67.7287
16764 1 64.8198 22.2929 84.0663
16765 2 65.2701 22.1954 84.9538
16766 2 63.9277 22.7271 84.1911
16767 1 56.475 21.7677 74.1665
16768 2 55.7629 22.3532 74.554
16769 2 57.3497 21.9712 74.6063
16770 1 14.9396 16.8367 70.9958
16771 2 14.9461 17.3961 70.1669
16772 2 15.1548 17.4099 71.7865
16773 1 17.2481 10.2041 15.2354
16774 2 17.4545 9.22888 15.3158
16775 2 16.272 10.3244 15.0549
16776 1 14.3619 28.3453 55.2054
16777 2 15.0285 27.6182 55.0408
16778 2 14.5463 28.7723 56.0906
16779 1 51.9292 3.18226 72.6408
16780 2 52.431 4.04723 72.6399
16781 2 52.5775 2.42083 72.6366
16782 1 67.0102 10.9056 10.4853
16783 2 67.3278 11.3149 9.62991
16784 2 66.3995 11.5441 10.9537
16785 1 38.721 1.07896 77.4467
16786 2 37.9342 1.55459 77.84
16787 2 38.5086 0.801753 76.5097
16788 1 74.9136 27.3036 74.9186
16789 2 75.7009 27.5377 75.489
16790 2 74.9769 26.3452 74.6402
16791 1 15.9259 16.0134 22.2084
16792 2 15.134 16.0219 21.5979
16793 2 16.3796 15.1239 22.1536
16794 1 4.80705 20.8935 50.9171
16795 2 5.75366 20.9134 50.5954
16796 2 4.45533 21.8278 50.9759
16797 1 8.90368 0.419226 44.212
16798 2 8.23511 0.0368829 43.5741
16799 2 8.57869 1.30456 44.5445
16800 1 1.05954 2.24481 87.6134
16801 2 0.985513 2.12739 88.6037
16802 2 0.381666 1.66785 87.1578
16803 1 44.7807 20.4948 89.4463
16804 2 45.2501 20.669 88.5807
16805 2 45.4553 20.4038 90.1788
16806 1 18.5794 4.17225 33.7052
16807 2 19.3488 4.74846 33.4296
16808 2 18.7392 3.82183 34.6281
16809 1 26.8515 10.8544 55.6296
16810 2 25.9336 11.0713 55.962
16811 2 27.4442 11.6517 55.7433
16812 1 19.329 1.89255 81.701
16813 2 18.391 2.15232 81.4716
16814 2 19.407 1.76395 82.6896
16815 1 40.1039 19.1814 78.3806
16816 2 40.5286 19.0906 79.2814
16817 2 39.2191 19.6379 78.4738
16818 1 11.4571 14.319 72.7766
16819 2 11.0324 15.0392 73.3251
16820 2 11.4128 13.452 73.273
16821 1 64.997 7.39067 43.8042
16822 2 64.3391 7.7551 44.4632
16823 2 64.8054 6.42263 43.6424
16824 1 79.1386 6.12505 53.6799
16825 2 78.7945 5.27199 54.0722
16826 2 79.6457 6.63186 54.377
16827 1 73.0189 15.808 16.918
16828 2 73.1096 15.1301 17.6475
16829 2 73.6914 16.5356 17.0536
16830 1 39.7005 11.4745 64.1625
16831 2 40.126 11.3174 65.0538
16832 2 38.7379 11.2062 64.2008
16833 1 28.0801 5.75488 24.4682
16834 2 28.601 5.54212 25.2949
16835 2 28.5639 5.39903 23.6686
16836 1 59.2831 0.307892 47.1639
16837 2 59.5832 29.5865 47.7881
16838 2 59.941 0.396462 46.4161
16839 1 20.6087 28.9346 47.6479
16840 2 20.0884 28.1312 47.3583
16841 2 21.5307 28.6556 47.9165
16842 1 38.2576 16.6483 30.5923
16843 2 38.909 16.6375 31.3509
16844 2 37.8574 17.561 30.5095
16845 1 71.9962 8.82581 35.5389
16846 2 71.7371 9.46541 34.8151
16847 2 71.2403 8.1944 35.712
16848 1 30.661 13.7857 30.9858
16849 2 30.6276 13.9677 31.9685
16850 2 31.4811 13.2544 30.7729
16851 1 63.462 25.3795 17.4926
16852 2 64.4128 25.6314 17.3124
16853 2 63.2813 25.4405 18.4743
16854 1 39.765 17.5131 76.3435
16855 2 40.2739 17.7972 77.156
16856 2 39.0048 18.1441 76.1888
16857 1 68.9582 13.2254 65.9824
16858 2 69.5144 12.6655 66.5964
16859 2 68.0645 13.3904 66.3996
16860 1 32.0998 26.1235 70.1499
16861 2 32.8859 26.3429 70.7278
16862 2 32.1991 26.5788 69.2652
16863 1 62.9638 12.624 38.2063
16864 2 62.0292 12.2809 38.1122
16865 2 63.325 12.859 37.3039
16866 1 23.8255 4.57382 62.245
16867 2 24.3439 3.73711 62.4217
16868 2 23.481 4.9412 63.1089
16869 1 4.2138 19.0623 82.7166
16870 2 4.81439 19.4573 83.4118
16871 2 3.28322 19.4045 82.8467
16872 1 61.9061 17.6866 44.665
16873 2 61.2112 17.0216 44.9388
16874 2 62.3974 18.0078 45.4746
16875 1 41.1647 14.4259 64.3632
16876 2 40.2611 14.187 64.7189
16877 2 41.4563 15.2992 64.7535
16878 1 61.8266 24.7461 58.6947
16879 2 61.5948 25.6701 58.9991
16880 2 62.7838 24.5541 58.9115
16881 1 78.3678 15.2782 12.4766
16882 2 78.8688 14.4408 12.2578
16883 2 78.9649 16.0689 12.341
16884 1 22.5683 1.93775 28.0024
16885 2 22.1957 2.06315 28.9219
16886 2 23.3327 1.29395 28.0375
16887 1 63.7515 7.4083 29.8379
16888 2 63.0826 7.9225 29.3011
16889 2 64.3217 8.04446 30.3577
16890 1 3.01657 25.2555 46.7089
16891 2 3.28404 24.6485 47.4572
16892 2 2.23983 24.859 46.2195
16893 1 32.5644 16.2625 66.6378
16894 2 32.8209 17.1769 66.951
16895 2 33.111 16.0191 65.8366
16896 1 60.4267 26.9272 17.5309
16897 2 60.972 26.6468 16.7409
16898 2 60.9979 27.4544 18.1599
16899 1 36.1587 16.3968 55.946
16900 2 35.5586 15.5981 55.9006
16901 2 36.7995 16.2895 56.7061
16902 1 1.39142 14.3102 21.254
16903 2 0.532872 14.4525 20.7615
16904 2 1.58909 13.3312 21.3033
16905 1 41.0274 19.2195 65.261
16906 2 41.7519 19.8469 64.9756
16907 2 41.3906 18.2888 65.3052
16908 1 1.3358 22.073 59.2304
16909 2 1.20455 22.7293 59.9734
16910 2 0.468755 21.6157 59.0325
16911 1 23.2499 27.3131 90.3501
16912 2 22.9534 28.2543 90.1884
16913 2 22.8866 26.7209 89.6309
16914 1 52.0228 6.80866 90.9987
16915 2 52.8041 6.96002 91.6043
16916 2 51.614 7.68836 90.7559
16917 1 35.3465 23.0706 73.0049
16918 2 34.4767 23.5242 73.1993
16919 2 35.8112 22.8587 73.8646
16920 1 36.2292 10.9909 29.4146
16921 2 36.7869 10.5491 30.1173
16922 2 36.6992 10.9374 28.5336
16923 1 23.7841 28.5126 60.6218
16924 2 24.2632 28.8084 61.4482
16925 2 24.0222 29.1191 59.8633
16926 1 20.3616 24.8579 55.0791
16927 2 20.4293 23.8946 55.3389
16928 2 21.0386 25.3889 55.5888
16929 1 79.6884 0.218817 79.6674
16930 2 78.9522 29.8625 79.092
16931 2 79.4059 1.09008 80.0687
16932 1 4.3583 10.8071 18.0381
16933 2 5.21459 10.4438 18.4053
16934 2 4.31755 10.634 17.0541
16935 1 28.6073 10.4405 45.1928
16936 2 28.7459 11.1065 44.4598
16937 2 28.9098 10.833 46.0614
16938 1 47.519 23.136 55.3076
16939 2 48.3059 22.6353 55.6681
16940 2 46.89 22.4958 54.8667
16941 1 63.6693 29.409 91.1456
16942 2 64.2711 0.188699 90.9724
16943 2 63.2898 29.4794 92.0681
16944 1 64.9711 6.40414 18.5196
16945 2 65.0491 7.30663 18.9432
16946 2 64.3919 6.46634 17.7068
16947 1 37.6536 3.49552 45.0258
16948 2 37.0988 4.31784 45.1523
16949 2 38.2981 3.40813 45.7854
16950 1 60.8078 25.6419 63.3621
16951 2 60.6217 26.1581 64.1982
16952 2 61.7911 25.4775 63.2838
16953 1 55.4831 12.9735 28.5227
16954 2 54.6594 12.6253 28.9702
16955 2 55.3995 12.8568 27.5331
16956 1 3.66479 14.4181 60.4461
16957 2 4.1845 15.2556 60.615
16958 2 3.49893 14.3209 59.4648
16959 1 48.1357 4.01118 59.9138
16960 2 47.6715 3.13003 59.8243
16961 2 47.9673 4.56129 59.0959
16962 1 78.6608 25.3885 76.5103
16963 2 78.8085 25.6642 77.4601
16964 2 77.6794 25.3602 76.3202
16965 1 48.9095 29.3194 50.1053
16966 2 48.2097 28.8757 50.6652
16967 2 49.6331 29.6756 50.6966
16968 1 66.3116 15.8426 86.826
16969 2 66.9217 15.5815 86.0779
16970 2 66.6241 16.7044 87.2255
16971 1 51.7358 29.4896 51.6997
16972 2 52.398 28.7559 51.8522
16973 2 52.0417 0.317639 52.1696
16974 1 66.4356 15.5104 79.277
16975 2 65.5649 15.6153 78.7964
16976 2 66.9932 16.3289 79.1389
16977 1 9.33536 12.1509 57.5617
16978 2 9.09803 11.3124 57.0711
16979 2 8.8846 12.9304 57.1268
16980 1 30.619 10.3335 31.961
16981 2 30.9878 10.8754 31.2058
16982 2 31.2789 10.3161 32.7122
16983 1 66.441 19.6316 13.0287
16984 2 66.7853 20.2781 12.3478
16985 2 66.9909 18.7968 13.0038
16986 1 3.30534 0.382212 42.6582
16987 2 3.20266 29.7093 41.9256
16988 2 3.08509 29.9559 43.5355
16989 1 26.4567 1.8853 65.3474
16990 2 26.4563 2.82083 64.9941
16991 2 25.5257 1.52088 65.3269
16992 1 30.4434 6.34981 79.5745
16993 2 30.5618 5.62874 80.2571
16994 2 30.5341 7.24332 80.0142
16995 1 18.8816 0.519577 53.0475
16996 2 18.6337 29.5831 52.7995
16997 2 18.0517 1.04677 53.2303
16998 1 21.8285 0.862512 81.4504
16999 2 20.8324 0.783381 81.4874
17000 2 22.1063 1.74999 81.8182
17001 1 15.891 10.2508 64.454
17002 2 14.9745 9.9388 64.7046
17003 2 15.8968 11.2485 64.3872
17004 1 34.8466 11.0081 35.303
17005 2 34.45 11.682 35.9264
17006 2 34.8469 10.1089 35.7405
17007 1 69.9697 1.01271 45.5596
17008 2 70.4449 0.721863 46.39
17009 2 69.334 1.7522 45.781
17010 1 54.8304 18.6091 36.6783
17011 2 54.5899 17.6433 36.5817
17012 2 54.5182 18.943 37.5677
17013 1 54.5273 14.0531 40.732
17014 2 54.6007 13.2338 40.1634
17015 2 54.1076 13.8146 41.6078
17016 1 1.17616 28.717 48.3862
17017 2 1.63897 28.6878 49.2722
17018 2 1.59418 28.0499 47.7696
17019 1 34.5199 8.13688 74.488
17020 2 35.2623 8.62844 74.9433
17021 2 34.0644 7.53729 75.146
17022 1 66.886 28.0758 90.2534
17023 2 66.6513 28.7563 90.9475
17024 2 67.3086 27.2833 90.6932
17025 1 58.0522 1.93483 84.9454
17026 2 57.7235 1.12919 84.4525
17027 2 58.0199 2.7312 84.3414
17028 1 39.0846 5.41058 56.6231
17029 2 39.446 4.75578 55.9593
17030 2 38.1814 5.11022 56.9297
17031 1 68.8537 9.11516 47.2787
17032 2 68.845 9.36584 48.2467
17033 2 69.7543 8.75485 47.0357
17034 1 5.53256 26.262 47.1899
17035 2 5.69852 25.5758 46.4816
17036 2 4.66595 26.7264 47.0075
17037 1 69.3039 25.3656 55.7277
17038 2 68.9491 24.4368 55.6203
17039 2 70.2562 25.3257 56.0304
17040 1 72.5931 26.9523 77.0386
17041 2 73.3379 27.2753 76.4547
17042 2 72.9678 26.3921 77.7774
17043 1 18.1591 18.7387 40.0987
17044 2 18.9379 18.8683 40.7125
17045 2 18.4548 18.2351 39.2869
17046 1 6.08417 16.8901 63.0387
17047 2 5.90818 17.6805 62.452
17048 2 6.31554 16.0993 62.472
17049 1 62.384 3.14887 37.5247
17050 2 62.9204 2.30667 37.4707
17051 2 62.6596 3.66825 38.3336
17052 1 32.899 12.1741 85.1963
17053 2 33.7796 11.7388 85.3836
17054 2 32.9342 13.1326 85.4789
17055 1 69.7999 27.3997 63.2603
17056 2 70.302 26.5369 63.2014
17057 2 70.3419 28.1299 62.8445
17058 1 22.9873 4.77146 25.5604
17059 2 23.4117 3.86922 25.484
17060 2 23.0889 5.10957 26.496
17061 1 16.6263 26.3379 44.0551
17062 2 17.3481 26.4938 44.7295
17063 2 16.8224 26.866 43.2289
17064 1 13.6318 23.36 12.0483
17065 2 14.0764 24.2191 11.7946
17066 2 12.7364 23.305 11.6066
17067 1 6.18834 10.1128 42.2031
17068 2 5.24813 9.94808 42.5012
17069 2 6.25514 11.0256 41.8002
17070 1 29.3871 24.7739 85.8571
17071 2 29.1998 23.9218 86.3458
17072 2 30.3351 25.0487 86.0174
17073 1 10.7889 19.029 14.1616
17074 2 11.6248 19.194 13.6381
17075 2 10.8564 18.147 14.6281
17076 1 54.3117 13.1824 70.0258
17077 2 55.2498 12.884 70.202
17078 2 54.1786 14.1008 70.3982
17079 1 65.5724 21.9441 35.694
17080 2 64.7654 21.7056 35.1538
17081 2 65.2853 22.2885 36.5878
17082 1 59.2802 20.2202 77.4697
17083 2 58.743 21.0524 77.3323
17084 2 59.6359 20.2036 78.4041
17085 1 73.3694 5.85513 63.5176
17086 2 72.5571 6.42219 63.3808
17087 2 73.9974 5.98172 62.7498
17088 1 0.553169 16.7099 57.0669
17089 2 1.37716 16.695 57.6333
17090 2 0.724589 16.2134 56.216
17091 1 21.7463 26.0972 26.4214
17092 2 21.3199 26.1732 27.3227
17093 2 22.3573 26.8752 26.2751
17094 1 22.2205 28.1803 20.3515
17095 2 22.5716 29.0717 20.065
17096 2 22.8988 27.4741 20.1485
17097 1 77.9505 3.09135 52.0214
17098 2 77.4295 3.1819 52.8701
17099 2 78.9277 3.16598 52.2206
17100 1 66.9285 18.1627 25.4096
17101 2 66.0007 18.5357 25.4099
17102 2 66.9329 17.2794 25.8783
17103 1 53.4458 12.9901 30.6117
17104 2 52.6295 13.3745 30.1804
17105 2 53.1737 12.3811 31.3567
17106 1 55.9383 16.7093 33.8461
17107 2 56.2939 16.035 33.1989
17108 2 54.9798 16.506 34.0463
17109 1 71.7561 21.8442 68.7498
17110 2 71.4915 21.6143 69.6863
17111 2 72.5963 21.357 68.5116
17112 1 7.19808 7.21189 45.9977
17113 2 7.85472 7.31378 46.745
17114 2 6.51006 6.53111 46.2491
17115 1 69.978 19.0993 12.7482
17116 2 69.3962 18.2859 12.7449
17117 2 70.9347 18.8252 12.6504
17118 1 17.4799 24.6018 87.7581
17119 2 17.5828 23.6086 87.7036
17120 2 18.3416 25.0406 87.503
17121 1 51.7142 4.38082 25.7307
17122 2 51.7453 3.89111 24.8594
17123 2 52.2076 5.24632 25.6444
17124 1 61.4091 10.5331 37.4562
17125 2 61.6027 9.58859 37.7218
17126 2 60.6277 10.873 37.9795
17127 1 58.8359 22.5519 75.0758
17128 2 59.028 22.7798 76.0303
17129 2 59.697 22.4386 74.5803
17130 1 71.374 5.77161 81.7177
17131 2 72.0103 5.23374 81.1647
17132 2 70.958 5.18489 82.4125
17133 1 5.26192 23.4941 40.2516
17134 2 5.94333 23.081 39.6475
17135 2 5.10891 22.897 41.0391
17136 1 14.2522 8.43842 87.3418
17137 2 13.3143 8.74514 87.5036
17138 2 14.251 7.70915 86.6575
17139 1 49.9843 12.8078 46.1037
17140 2 49.1468 12.9121 45.5673
17141 2 50.761 13.1586 45.5806
17142 1 60.6421 16.333 54.6792
17143 2 61.5409 16.1811 55.0903
17144 2 60.2304 17.1552 55.0724
17145 1 67.5223 13.2345 56.3668
17146 2 66.6583 13.5791 56.734
17147 2 67.3357 12.5769 55.637
17148 1 50.3459 26.1388 33.6225
17149 2 49.4512 25.7547 33.3943
17150 2 51.0605 25.4778 33.3937
17151 1 68.5455 27.6966 29.2257
17152 2 69.1602 26.997 29.59
17153 2 68.4438 27.5699 28.239
17154 1 53.2167 28.9761 43.3652
17155 2 53.3713 28.3382 44.1197
17156 2 52.2529 29.2418 43.3456
17157 1 69.286 1.38204 58.5776
17158 2 69.6603 0.808366 59.3061
17159 2 68.7636 2.13369 58.9803
17160 1 19.6892 26.5336 21.17
17161 2 19.1502 25.7724 20.8095
17162 2 20.3241 26.8547 20.4673
17163 1 59.2905 15.1428 65.3491
17164 2 59.5534 15.2448 64.3896
17165 2 59.224 14.1709 65.5749
17166 1 44.2103 25.4027 67.7087
17167 2 45.1522 25.1306 67.9057
17168 2 43.8836 26.0169 68.4271
17169 1 41.445 3.32562 78.2747
17170 2 41.4522 3.20134 79.2669
17171 2 41.9709 2.59269 77.8431
17172 1 44.5931 14.3894 34.9
17173 2 44.6463 15.3302 35.2347
17174 2 44.8701 13.7609 35.6268
17175 1 34.8176 8.7276 79.6845
17176 2 34.3456 7.91928 79.3326
17177 2 34.8339 8.69543 80.6838
17178 1 42.4767 13.4774 37.534
17179 2 41.641 13.2954 38.052
17180 2 43.1182 13.9893 38.1054
17181 1 51.3246 10.6337 35.813
17182 2 52.0813 10.5558 35.1639
17183 2 50.4899 10.8853 35.3231
17184 1 0.441548 11.7096 18.2684
17185 2 1.22861 12.3089 18.4144
17186 2 0.701625 10.9604 17.6592
17187 1 13.0657 17.2765 37.543
17188 2 13.7681 17.704 36.9739
17189 2 13.4183 17.1521 38.4705
17190 1 2.02358 10.221 61.2961
17191 2 1.95361 9.36435 61.8072
17192 2 1.10646 10.5693 61.1021
17193 1 69.5053 9.40511 26.8689
17194 2 69.7344 9.36587 25.8963
17195 2 68.5744 9.75374 26.9783
17196 1 74.0007 10.8095 47.9082
17197 2 73.8674 10.0662 47.2527
17198 2 74.9035 11.217 47.7709
17199 1 42.4101 20.2459 39.1302
17200 2 42.0565 19.3325 39.3319
17201 2 42.6438 20.7091 39.985
17202 1 42.7383 16.1116 49.3986
17203 2 41.908 16.3178 48.8808
17204 2 43.5118 16.6022 48.9974
17205 1 26.6781 15.2669 82.8287
17206 2 25.9377 15.3785 83.4916
17207 2 26.6315 16.0001 82.1503
17208 1 16.3764 6.24605 12.4168
17209 2 15.9094 5.64973 13.0698
17210 2 17.2908 5.88611 12.2316
17211 1 0.552066 14.4238 90.7309
17212 2 79.6432 14.0298 90.8681
17213 2 0.792161 14.3782 89.7612
17214 1 43.3529 16.2119 79.8782
17215 2 43.5463 17.1666 79.6521
17216 2 44.1309 15.8218 80.3708
17217 1 9.97829 4.46939 67.1993
17218 2 10.5301 5.28153 67.3889
17219 2 10.5479 3.65194 67.2853
17220 1 42.1609 21.3963 61.4246
17221 2 42.027 22.3065 61.0329
17222 2 41.2735 20.9513 61.5448
17223 1 71.4886 18.709 86.3127
17224 2 71.4468 18.2409 87.1954
17225 2 71.9509 18.1236 85.6466
17226 1 31.9507 20.9003 51.8181
17227 2 32.8951 20.6921 52.0723
17228 2 31.6369 20.2423 51.1335
17229 1 30.1241 12.1382 71.5512
17230 2 29.8066 12.1173 72.4992
17231 2 29.669 11.4153 71.0313
17232 1 19.5459 16.7899 23.7298
17233 2 18.6418 17.184 23.8951
17234 2 19.642 15.9444 24.255
17235 1 34.1499 11.0489 69.9922
17236 2 34.1295 10.9491 68.9974
17237 2 34.1624 10.1441 70.4178
17238 1 19.391 6.72823 12.3061
17239 2 20.0369 5.99227 12.1032
17240 2 19.6105 7.52784 11.7471
17241 1 47.2945 4.1415 39.4441
17242 2 48.2721 4.33303 39.3567
17243 2 47.1603 3.37034 40.0664
17244 1 68.8108 14.2546 29.4493
17245 2 68.1051 14.3833 28.7525
17246 2 68.7601 14.998 30.1162
17247 1 1.7425 0.903999 22.9813
17248 2 2.44001 0.772805 23.6858
17249 2 1.17561 1.69351 23.2165
17250 1 4.42044 22.0396 61.9439
17251 2 5.27174 22.2519 61.4641
17252 2 4.57533 22.0794 62.931
17253 1 33.1327 12.1079 64.7335
17254 2 32.4633 12.5715 64.153
17255 2 32.809 12.1062 65.6797
17256 1 4.94451 7.55044 14.5968
17257 2 5.84559 7.22534 14.8838
17258 2 4.31742 7.52487 15.3753
17259 1 35.603 23.1733 69.6597
17260 2 35.5556 24.1087 69.3092
17261 2 34.8092 22.9946 70.241
17262 1 3.23719 16.7345 62.0531
17263 2 2.47875 17.1011 62.592
17264 2 3.92059 16.338 62.6661
17265 1 41.5839 25.5943 63.4775
17266 2 41.3202 25.1487 62.6219
17267 2 42.433 25.1892 63.8164
17268 1 18.0236 21.1396 18.2124
17269 2 17.707 21.2617 19.1531
17270 2 17.9719 20.1718 17.9662
17271 1 65.8784 4.91401 11.1529
17272 2 65.4705 5.82467 11.2185
17273 2 65.8225 4.59106 10.2081
17274 1 37.9843 19.3869 54.3088
17275 2 37.9991 20.0478 53.5584
17276 2 38.2761 18.4922 53.9706
17277 1 58.6185 19.2337 73.3085
17278 2 57.9826 19.3309 74.0741
17279 2 59.436 18.7455 73.6141
17280 1 19.3089 26.643 24.6148
17281 2 19.0437 27.5677 24.3418
17282 2 19.8782 26.6882 25.4357
17283 1 38.4802 22.869 77.0241
17284 2 38.8431 23.7505 76.722
17285 2 37.7877 22.5537 76.3753
17286 1 42.5526 21.6535 64.1711
17287 2 42.7914 22.4866 64.67
17288 2 42.4304 21.8686 63.2022
17289 1 69.8127 20.3539 63.509
17290 2 69.1341 21.0882 63.4899
17291 2 69.6673 19.7453 62.7289
17292 1 20.4245 16.7344 26.9107
17293 2 21.319 16.4546 26.5621
17294 2 20.3913 17.7314 26.9815
17295 1 63.4773 1.43509 14.4599
17296 2 63.0513 2.30525 14.7075
17297 2 64.1857 1.59453 13.7723
17298 1 39.2799 19.7256 67.8042
17299 2 39.0093 19.2243 68.6261
17300 2 39.025 19.1988 66.9934
17301 1 65.4448 28.8414 14.5884
17302 2 65.1295 29.4075 13.8267
17303 2 66.3484 28.4695 14.3756
17304 1 18.2564 3.30435 56.834
17305 2 19.054 3.87591 56.6412
17306 2 17.4832 3.61329 56.2802
17307 1 23.8969 28.7942 41.2429
17308 2 24.7533 29.243 41.4983
17309 2 24.0921 27.8776 40.894
17310 1 57.2124 27.5533 23.5557
17311 2 56.9855 27.4661 24.5257
17312 2 56.5803 28.1954 23.122
17313 1 6.88944 26.2654 52.6639
17314 2 5.91541 26.4251 52.5034
17315 2 7.02645 25.3241 52.9725
17316 1 20.0685 0.94878 68.3578
17317 2 20.2563 1.85549 67.9802
17318 2 20.0454 1.00174 69.3561
17319 1 2.10855 2.47011 52.3914
17320 2 2.96907 2.52011 51.8844
17321 2 1.35984 2.27279 51.7585
17322 1 38.801 15.8083 79.7418
17323 2 39.071 16.7666 79.8354
17324 2 38.4067 15.4874 80.6029
17325 1 58.4703 18.3472 54.6662
17326 2 58.2153 17.6369 54.0101
17327 2 58.2225 19.244 54.2997
17328 1 13.6214 14.4112 47.496
17329 2 12.9268 14.2359 46.7982
17330 2 13.2628 15.0593 48.1678
17331 1 56.6705 27.6444 26.5037
17332 2 57.2701 28.4434 26.4575
17333 2 55.8387 27.8804 27.0061
17334 1 39.8873 20.0195 84.2931
17335 2 39.7927 19.8817 85.279
17336 2 39.5548 19.2096 83.8098
17337 1 43.9989 9.97244 89.9244
17338 2 44.8213 10.5225 89.7788
17339 2 44.2401 9.00206 89.91
17340 1 64.9047 8.6157 41.2219
17341 2 64.7536 9.53074 40.8478
17342 2 64.1178 8.34907 41.7784
17343 1 21.8929 22.3042 77.9362
17344 2 21.5487 22.1807 77.0055
17345 2 21.4483 21.6479 78.5458
17346 1 50.7039 12.9416 74.3753
17347 2 51.6233 12.7739 74.7313
17348 2 50.7249 12.9227 73.3757
17349 1 77.4958 21.8854 90.3642
17350 2 77.8913 22.4455 89.6363
17351 2 76.5005 21.9822 90.3557
17352 1 74.5998 1.91174 40.6487
17353 2 74.1245 2.61898 41.172
17354 2 75.5741 1.92881 40.8737
17355 1 66.4617 2.61178 53.3504
17356 2 66.014 3.19575 52.6732
17357 2 67.0772 3.16444 53.9123
17358 1 21.3193 7.22254 68.1098
17359 2 20.6715 6.50581 68.3679
17360 2 22.1825 6.80509 67.8256
17361 1 14.4044 7.65999 59.2814
17362 2 13.6124 7.65326 59.8918
17363 2 14.2742 8.35474 58.5741
17364 1 69.1051 12.771 73.4087
17365 2 68.6272 12.1002 72.8416
17366 2 69.1475 12.4406 74.3516
17367 1 74.4647 6.5685 76.5764
17368 2 74.9383 6.7744 77.4328
17369 2 73.8623 5.78144 76.7096
17370 1 52.0981 0.767109 77.8179
17371 2 52.075 1.44409 78.5535
17372 2 51.3041 0.164002 77.8949
17373 1 61.4638 6.96093 35.4859
17374 2 62.1056 6.21261 35.318
17375 2 61.7025 7.41892 36.3422
17376 1 16.2093 2.98122 58.9941
17377 2 15.9317 3.36325 58.1126
17378 2 15.4512 3.05355 59.6422
17379 1 20.3048 11.5384 83.6034
17380 2 20.0846 12.5121 83.6616
17381 2 20.7471 11.2454 84.4511
17382 1 19.8918 12.9043 26.1299
17383 2 20.826 12.7584 25.8044
17384 2 19.2618 12.8867 25.3536
17385 1 13.1404 0.361695 30.4439
17386 2 13.2435 1.08205 29.758
17387 2 14.035 29.9627 30.6452
17388 1 4.51155 27.4092 52.1117
17389 2 3.55302 27.5714 51.8774
17390 2 4.87793 28.2083 52.5884
17391 1 28.6833 20.9921 30.6404
17392 2 29.3309 21.7519 30.6972
17393 2 29.078 20.1843 31.0782
17394 1 66.2341 15.2377 90.4176
17395 2 67.0175 15.0246 89.8338
17396 2 65.8632 16.1313 90.1647
17397 1 18.0659 5.39274 50.5442
17398 2 18.9073 5.63644 51.0265
17399 2 17.3235 5.28102 51.2048
17400 1 45.0602 5.01469 43.4892
17401 2 46.0577 4.94436 43.4901
17402 2 44.7873 5.87744 43.0636
17403 1 77.0499 8.22325 53.7403
17404 2 76.7071 8.06138 54.6657
17405 2 77.9017 7.71666 53.607
17406 1 50.4243 1.32831 54.1563
17407 2 51.2446 1.85199 54.3859
17408 2 50.1366 0.793949 54.9511
17409 1 50.1169 29.4947 67.0779
17410 2 49.4366 29.8133 66.4179
17411 2 49.7028 29.4474 67.9869
17412 1 0.214966 11.9209 74.1276
17413 2 1.14693 11.6428 74.3602
17414 2 79.6167 11.1196 74.1335
17415 1 68.5211 1.32807 30.971
17416 2 68.5508 2.21971 30.5192
17417 2 69.111 0.686278 30.4809
17418 1 69.8417 20.1577 33.1727
17419 2 70.6557 20.4496 32.6705
17420 2 70.0972 19.9127 34.108
17421 1 28.9169 27.6138 74.5109
17422 2 28.9063 28.1741 75.3391
17423 2 27.9786 27.4561 74.2031
17424 1 33.344 25.3441 79.325
17425 2 32.5161 25.7665 79.6941
17426 2 33.3306 24.3625 79.5153
17427 1 22.0282 11.1806 45.3221
17428 2 21.4128 11.9684 45.2966
17429 2 22.9545 11.4733 45.085
17430 1 49.3538 18.3951 61.626
17431 2 50.2272 18.2901 62.1016
17432 2 49.2628 19.3362 61.3003
17433 1 36.0916 29.7827 49.09
17434 2 36.6166 0.361703 49.7138
17435 2 35.5423 0.357928 48.484
17436 1 59.9615 1.61509 37.1632
17437 2 60.9035 1.79988 37.4435
17438 2 59.3313 2.07365 37.7898
17439 1 75.4697 13.6542 22.0382
17440 2 76.3221 13.5871 21.5196
17441 2 75.6601 13.5222 23.011
17442 1 8.84793 10.6433 20.0669
17443 2 9.51775 9.95791 19.7812
17444 2 7.93584 10.3629 19.7678
17445 1 28.1292 1.18462 90.9332
17446 2 27.4668 1.93303 90.9009
17447 2 28.8801 1.43036 91.5462
17448 1 14.1598 7.81051 31.2058
17449 2 13.5826 8.10094 31.969
17450 2 14.9575 7.32132 31.5585
17451 1 30.938 23.4644 42.9338
17452 2 30.4071 22.6186 42.8815
17453 2 31.7275 23.3259 43.5317
17454 1 77.6116 3.12036 17.8368
17455 2 76.7539 3.60347 17.6609
17456 2 77.6245 2.79801 18.7834
17457 1 22.974 16.6459 33.5448
17458 2 22.5191 17.3948 34.0268
17459 2 23.2204 15.93 34.1981
17460 1 4.46167 3.50122 34.9788
17461 2 3.69502 3.74174 35.5741
17462 2 4.5116 2.50689 34.8849
17463 1 65.7312 19.4671 59.3124
17464 2 65.2209 20.255 59.6569
17465 2 65.2511 19.0766 58.5269
17466 1 15.0266 4.10122 26.7702
17467 2 15.8111 4.3021 27.3569
17468 2 14.2399 3.85733 27.3374
17469 1 72.3616 27.8032 25.1122
17470 2 72.1416 26.9994 24.5595
17471 2 71.6996 27.887 25.857
17472 1 74.0192 27.2545 37.6
17473 2 73.3319 27.7952 38.0851
17474 2 74.7975 27.085 38.2046
17475 1 1.72955 2.48423 13.6973
17476 2 1.16986 3.11646 14.233
17477 2 1.74151 1.58943 14.1436
17478 1 55.6561 24.2816 79.9845
17479 2 56.0972 24.7415 80.7552
17480 2 54.9358 24.8682 79.6142
17481 1 45.2241 21.3183 84.5561
17482 2 45.822 20.7149 85.0839
17483 2 45.6829 22.1942 84.4063
17484 1 66.1798 3.46026 33.0739
17485 2 65.5498 4.0838 32.611
17486 2 66.966 3.28113 32.4826
17487 1 77.9543 10.9785 61.734
17488 2 78.6244 11.0451 62.4734
17489 2 77.7275 11.8956 61.4062
17490 1 49.8765 29.6555 72.8456
17491 2 50.0839 0.311091 73.5716
17492 2 50.6795 29.5408 72.2607
17493 1 39.8484 13.7844 44.0606
17494 2 39.1451 14.4933 44.0077
17495 2 40.7405 14.1834 43.8489
17496 1 2.63548 4.58895 47.0413
17497 2 2.81828 3.8685 46.3724
17498 2 1.64818 4.7252 47.1231
17499 1 4.24806 6.31703 61.6884
17500 2 4.20042 5.40637 62.0988
17501 2 3.50139 6.88104 62.0411
17502 1 66.5422 5.95053 67.7892
17503 2 67.218 5.77222 68.5044
17504 2 66.8973 5.63553 66.9091
17505 1 75.5866 16.7155 53.8736
17506 2 76.1576 16.6645 54.6929
17507 2 75.7802 17.5661 53.3848
17508 1 74.2755 12.7669 82.9931
17509 2 74.6527 13.4275 83.6422
17510 2 73.2817 12.8702 82.9519
17511 1 54.847 13.5073 76.4817
17512 2 54.5128 13.5708 77.4221
17513 2 54.3736 12.7639 76.0092
17514 1 73.9248 26.6316 48.434
17515 2 72.9486 26.5594 48.2295
17516 2 74.1395 27.569 48.7082
17517 1 13.5153 24.2159 48.6764
17518 2 14.4924 24.2089 48.4638
17519 2 13.1655 23.2791 48.6679
17520 1 46.2611 6.59454 76.9912
17521 2 46.5697 6.34006 77.9077
17522 2 46.7866 6.08578 76.3093
17523 1 48.1655 25.7709 27.8951
17524 2 48.5246 26.6248 28.2718
17525 2 48.1426 25.8305 26.8971
17526 1 31.7787 5.68763 84.0331
17527 2 31.6923 5.69512 85.0293
17528 2 31.2213 4.94815 83.6557
17529 1 12.224 10.9014 39.9355
17530 2 13.1534 10.8953 39.5665
17531 2 12.2588 11.0485 40.924
17532 1 72.2027 0.408886 82.0841
17533 2 71.4881 29.8367 81.6818
17534 2 72.1187 0.395705 83.0805
17535 1 72.9873 13.7283 34.0357
17536 2 72.886 14.5329 33.4505
17537 2 73.1856 12.9277 33.4702
17538 1 64.6169 10.9765 39.8401
17539 2 65.4145 11.4752 40.1793
17540 2 63.9455 11.6255 39.4821
17541 1 52.573 4.97603 37.5338
17542 2 53.035 4.86246 38.4134
17543 2 52.5483 4.09867 37.0546
17544 1 65.1515 10.2634 66.6694
17545 2 64.5847 9.4667 66.4597
17546 2 64.7048 11.0898 66.3265
17547 1 63.6992 19.6433 12.7503
17548 2 63.3222 18.7419 12.5376
17549 2 64.6981 19.598 12.7393
17550 1 16.8211 21.0347 40.4387
17551 2 17.6204 21.6187 40.5804
17552 2 16.954 20.4816 39.6163
17553 1 26.4293 21.7929 32.8991
17554 2 26.163 21.8443 33.8616
17555 2 27.0047 22.5781 32.6701
17556 1 28.8292 18.1804 46.2561
17557 2 28.8064 19.1801 46.2554
17558 2 29.7775 17.8686 46.1959
17559 1 71.7137 10.7306 79.6922
17560 2 72.7017 10.5806 79.6542
17561 2 71.4451 10.946 80.631
17562 1 60.8586 29.3012 57.7623
17563 2 60.9814 0.264366 58.0017
17564 2 60.809 28.7539 58.5978
17565 1 38.4501 1.89739 74.0712
17566 2 37.7849 1.1573 74.1703
17567 2 38.2365 2.42997 73.2522
17568 1 40.3342 18.4072 60.0283
17569 2 40.8657 17.612 59.7364
17570 2 40.319 18.4496 61.0273
17571 1 49.0845 7.72745 84.2781
17572 2 49.5762 6.98596 83.8215
17573 2 48.9508 7.49506 85.2414
17574 1 7.55803 13.2436 50.0022
17575 2 7.02547 13.9029 50.533
17576 2 8.34548 13.704 49.5924
17577 1 77.5409 9.55579 77.808
17578 2 78.3023 9.55164 77.1597
17579 2 77.6092 8.7583 78.4075
17580 1 68.0217 25.8886 91.0532
17581 2 68.6289 26.6456 91.2944
17582 2 68.5174 25.2317 90.485
17583 1 60.6362 16.7709 86.1089
17584 2 60.6645 15.8989 86.5976
17585 2 59.8116 16.81 85.5445
17586 1 47.3158 29.8706 35.3648
17587 2 48.0581 0.296344 34.8473
17588 2 47.4932 29.9684 36.344
17589 1 16.9442 4.73399 14.7048
17590 2 16.2291 4.05836 14.8842
17591 2 17.767 4.49318 15.2196
17592 1 60.2314 23.6231 26.0702
17593 2 60.479 23.2598 26.9684
17594 2 61.0027 24.1365 25.6941
17595 1 61.8703 5.97638 27.0539
17596 2 62.8088 6.32073 27.0275
17597 2 61.7496 5.39957 27.8618
17598 1 61.3165 22.0477 60.8006
17599 2 61.2899 23.0233 60.5823
17600 2 62.2254 21.8069 61.1409
17601 1 44.4401 7.62101 85.6835
17602 2 44.95 7.48631 86.5332
17603 2 43.8212 8.39975 85.7861
17604 1 20.8899 23.2503 62.0199
17605 2 20.2404 22.8947 61.3477
17606 2 21.8177 23.1881 61.6521
17607 1 3.16304 16.3289 12.424
17608 2 3.01694 17.232 12.0201
17609 2 3.57831 15.7234 11.7451
17610 1 48.5109 20.5704 40.5964
17611 2 47.7446 21.0174 40.135
17612 2 48.4914 20.7965 41.5703
17613 1 7.17569 22.4736 84.2368
17614 2 7.76739 22.6652 83.4537
17615 2 6.54504 21.733 84.0047
17616 1 56.9195 28.7394 56.6482
17617 2 56.8778 29.5006 57.2953
17618 2 56.8309 27.8754 57.1438
17619 1 58.9318 8.89873 12.9417
17620 2 58.272 9.42926 12.4097
17621 2 59.5309 9.52097 13.4456
17622 1 58.297 13.1208 30.3334
17623 2 57.6768 12.6336 29.7186
17624 2 57.8774 13.1977 31.2379
17625 1 11.5941 13.8389 15.6064
17626 2 11.3055 14.5924 15.0157
17627 2 12.5561 13.6286 15.4324
17628 1 32.6003 27.7924 33.0035
17629 2 33.3897 28.3309 33.2983
17630 2 32.4695 27.9045 32.0185
17631 1 12.2643 29.1055 59.7879
17632 2 11.9869 28.8078 58.8745
17633 2 12.6779 28.3379 60.2775
17634 1 69.0024 29.3517 56.3482
17635 2 69.1151 0.28767 56.6818
17636 2 69.3293 29.2925 55.405
17637 1 6.3683 23.1532 49.4034
17638 2 6.48024 23.9082 48.7573
17639 2 6.91676 23.3299 50.2207
17640 1 64.658 10.7431 46.118
17641 2 64.5415 11.7355 46.0799
17642 2 65.0774 10.4899 46.9898
17643 1 26.2234 19.608 88.8553
17644 2 26.1084 18.7665 88.3274
17645 2 25.3761 20.1383 88.826
17646 1 59.5404 11.4276 75.4122
17647 2 60.5159 11.2141 75.4663
17648 2 59.0311 10.8143 76.016
17649 1 77.7503 21.6368 49.4766
17650 2 76.755 21.6485 49.3808
17651 2 78.0684 20.6906 49.5351
17652 1 30.0004 12.2388 65.5911
17653 2 29.171 11.8629 65.1779
17654 2 30.0124 13.2315 65.4705
17655 1 37.1757 9.17785 83.2442
17656 2 36.5412 9.9442 83.3445
17657 2 36.6623 8.3447 83.0387
17658 1 21.5913 17.6763 60.2758
17659 2 21.8245 17.4257 59.3362
17660 2 21.9795 18.5733 60.4875
17661 1 12.6235 20.4658 77.9395
17662 2 13.3767 20.019 78.4222
17663 2 12.4651 20.0027 77.0674
17664 1 26.0169 7.34805 66.4327
17665 2 26.6349 6.5927 66.2145
17666 2 25.2786 7.01577 67.0195
17667 1 46.4648 20.6679 70.4128
17668 2 46.7237 19.954 69.7622
17669 2 47.2857 21.0305 70.854
17670 1 3.0137 27.1813 26.0306
17671 2 3.6367 27.7 26.616
17672 2 3.35046 27.1969 25.0891
17673 1 33.5522 5.76595 81.0338
17674 2 34.1603 5.68415 80.2441
17675 2 33.9606 6.38311 81.7064
17676 1 37.0515 9.12278 39.9726
17677 2 37.9472 9.5635 40.0323
17678 2 37.043 8.30566 40.549
17679 1 30.5077 10.5838 28.8
17680 2 31.2696 10.8911 28.2298
17681 2 29.6675 11.041 28.5083
17682 1 36.9512 16.2628 35.2747
17683 2 36.4148 15.9656 36.0646
17684 2 37.723 16.8176 35.5855
17685 1 10.2939 3.9123 70.0385
17686 2 10.3413 4.45151 69.1976
17687 2 11.2188 3.74507 70.3798
17688 1 38.3525 24.4396 72.1185
17689 2 38.2111 24.7594 73.0553
17690 2 38.5683 23.4632 72.1287
17691 1 69.6661 21.1643 28.0168
17692 2 70.2231 21.6188 28.7119
17693 2 68.9594 21.793 27.6924
17694 1 47.7838 3.88219 78.6222
17695 2 46.792 3.97962 78.7048
17696 2 48.022 2.91144 78.5917
17697 1 1.0617 0.351431 72.443
17698 2 0.145152 0.54604 72.7924
17699 2 1.44533 1.17949 72.0342
17700 1 43.3584 15.8853 61.2463
17701 2 43.8922 16.5972 61.7028
17702 2 43.0728 16.2095 60.3445
17703 1 70.3505 25.7592 70.6062
17704 2 70.3201 24.7783 70.7983
17705 2 70.2501 25.9095 69.6227
17706 1 10.0163 25.1303 62.1247
17707 2 10.2384 26.0986 62.239
17708 2 9.51164 24.8074 62.9254
17709 1 20.559 15.0029 59.2965
17710 2 21.097 14.5569 60.0117
17711 2 20.5914 15.9942 59.4243
17712 1 72.3859 4.13851 20.4679
17713 2 72.3015 3.14578 20.382
17714 2 72.3013 4.55954 19.5648
17715 1 51.7255 5.05592 70.2218
17716 2 51.1212 5.83629 70.061
17717 2 52.5589 5.36814 70.6778
17718 1 37.7654 17.1476 40.6954
17719 2 38.6736 17.5498 40.5795
17720 2 37.7814 16.5028 41.4596
17721 1 67.285 3.67949 81.9308
17722 2 68.0216 3.09486 82.2708
17723 2 67.301 4.55287 82.4176
17724 1 57.7977 17.7829 30.5686
17725 2 57.4279 16.8744 30.7635
17726 2 57.1278 18.4782 30.829
17727 1 71.418 11.7652 31.7289
17728 2 71.0178 11.0234 32.2671
17729 2 72.379 11.5608 31.5424
17730 1 77.0324 28.497 63.0575
17731 2 76.471 28.2104 63.8339
17732 2 76.4393 28.7847 62.3055
17733 1 10.1315 3.16535 44.4174
17734 2 9.70016 4.05586 44.5622
17735 2 10.6613 2.91589 45.228
17736 1 32.7354 23.6041 70.8238
17737 2 32.1899 22.77 70.7417
17738 2 32.1336 24.4016 70.7798
17739 1 1.7685 5.67012 30.1579
17740 2 1.36421 4.84884 30.5604
17741 2 2.31795 5.41545 29.3621
17742 1 73.9307 25.3568 19.8227
17743 2 74.8892 25.6161 19.9413
17744 2 73.7602 24.4885 20.2886
17745 1 64.4854 21.1325 17.4384
17746 2 65.1767 21.3655 18.1223
17747 2 63.8408 20.474 17.827
17748 1 9.13101 7.68991 72.3669
17749 2 8.75292 8.04232 71.5109
17750 2 8.38866 7.52538 73.0164
17751 1 38.571 4.4534 87.333
17752 2 37.8304 4.13762 87.9261
17753 2 38.7967 5.40135 87.5576
17754 1 27.5497 6.37121 89.3865
17755 2 27.9842 7.24594 89.172
17756 2 28.1364 5.85087 90.007
17757 1 73.0235 20.8651 28.1042
17758 2 72.953 19.9325 28.4582
17759 2 72.8254 21.5158 28.8373
17760 1 31.2861 21.8685 89.011
17761 2 31.0621 22.1491 88.0777
17762 2 30.4795 21.461 89.4392
17763 1 33.5521 20.5685 81.2097
17764 2 32.8249 20.9961 81.7468
17765 2 33.678 19.6236 81.5119
17766 1 63.9921 15.1133 70.0121
17767 2 63.0594 15.4514 69.8865
17768 2 64.3216 14.718 69.1546
17769 1 64.6427 16.111 76.2817
17770 2 64.2466 16.7167 76.9718
17771 2 64.1352 15.2495 76.2636
17772 1 69.1324 8.51717 70.0238
17773 2 68.1345 8.58213 70.016
17774 2 69.4906 8.98523 70.8316
17775 1 50.7205 12.6233 31.4146
17776 2 50.5341 13.2104 30.6268
17777 2 50.4507 11.6842 31.2015
17778 1 75.243 10.6517 64.8236
17779 2 75.8504 9.91544 64.5252
17780 2 75.7858 11.4605 65.0498
17781 1 21.2417 5.00955 90.8691
17782 2 20.2839 4.76459 90.7188
17783 2 21.4453 5.86567 90.3941
17784 1 21.1054 11.5468 65.0769
17785 2 21.1457 11.501 66.075
17786 2 20.5145 10.8168 64.7334
17787 1 59.5163 23.6018 68.2096
17788 2 60.4766 23.3598 68.3487
17789 2 59.0168 23.4909 69.0687
17790 1 70.9265 23.8993 24.4704
17791 2 71.4151 24.6285 23.9912
17792 2 70.0142 24.2205 24.7246
17793 1 60.1243 28.0216 80.4424
17794 2 60.6944 27.2 80.451
17795 2 59.9383 28.308 81.3822
17796 1 8.62609 20.4536 34.9574
17797 2 9.59724 20.6911 34.9794
17798 2 8.45014 19.7096 35.6019
17799 1 12.6602 16.3442 88.4673
17800 2 12.9557 16.8606 89.271
17801 2 13.1376 15.4659 88.4414
17802 1 28.1074 22.5266 72.9648
17803 2 27.7602 22.5844 72.0288
17804 2 29.0804 22.2964 72.9458
17805 1 2.87481 5.78073 33.1838
17806 2 1.94469 5.47812 32.9757
17807 2 3.26364 5.19698 33.8965
17808 1 41.9074 25.624 51.9555
17809 2 42.5006 26.4208 51.8407
17810 2 42.2658 25.0442 52.6871
17811 1 14.3231 8.21897 55.4246
17812 2 13.8995 9.10327 55.621
17813 2 13.7083 7.67418 54.8544
17814 1 13.6257 3.66647 91.1562
17815 2 14.4819 3.1501 91.1387
17816 2 13.8081 4.60435 91.4514
17817 1 38.0622 26.1018 42.1866
17818 2 37.7288 25.1595 42.1554
17819 2 38.786 26.1767 42.8725
17820 1 62.4578 12.819 42.2036
17821 2 61.7118 12.8811 42.8666
17822 2 63.2751 12.46 42.6542
17823 1 19.8818 8.79346 84.3732
17824 2 20.7367 8.28606 84.4807
17825 2 19.4597 8.9292 85.2695
17826 1 4.00312 27.7844 31.5552
17827 2 4.11793 26.791 31.5469
17828 2 3.69309 28.0917 30.6555
17829 1 41.7409 10.8346 59.8391
17830 2 42.258 10.3029 60.5099
17831 2 40.763 10.7532 60.0315
17832 1 43.4405 28.1448 67.8694
17833 2 43.6922 27.2608 67.4755
17834 2 43.9774 28.8681 67.4351
17835 1 65.9376 12.9612 27.2841
17836 2 66.3397 13.2879 26.4288
17837 2 66.424 12.1426 27.5897
17838 1 57.295 25.1124 51.3743
17839 2 57.1661 26.088 51.1966
17840 2 58.2417 24.9461 51.6502
17841 1 62.5003 28.5793 44.2287
17842 2 61.9976 28.0146 43.5741
17843 2 62.3143 28.2585 45.1574
17844 1 54.0767 9.6617 90.1871
17845 2 54.6432 10.34 89.7192
17846 2 54.5021 8.76018 90.1075
17847 1 21.0629 13.1305 36.7452
17848 2 20.2573 12.5404 36.693
17849 2 21.2015 13.584 35.8648
17850 1 50.1203 21.9498 48.1527
17851 2 50.7746 22.3533 47.5131
17852 2 49.4169 22.6236 48.3793
17853 1 23.916 5.83778 68.452
17854 2 24.1456 5.70698 69.4164
17855 2 24.3173 5.09898 67.9106
17856 1 17.3033 11.6035 20.0181
17857 2 17.219 11.0083 20.8172
17858 2 18.1904 11.4522 19.5819
17859 1 30.1876 29.4766 38.8711
17860 2 30.9682 28.8688 39.0169
17861 2 29.5533 29.3947 39.6399
17862 1 54.5048 1.90364 87.5069
17863 2 54.1519 1.03529 87.8553
17864 2 55.2561 1.72698 86.871
17865 1 57.8166 18.098 27.8426
17866 2 58.6144 18.5096 27.402
17867 2 57.7396 18.44 28.7792
17868 1 75.0877 7.98033 69.5421
17869 2 75.6632 7.21457 69.8293
17870 2 75.463 8.38472 68.7081
17871 1 0.288475 12.3206 67.0142
17872 2 0.300624 11.7422 67.8299
17873 2 79.765 13.1515 67.2026
17874 1 73.4135 1.04333 36.0852
17875 2 74.1801 1.6754 36.1984
17876 2 73.5461 0.248997 36.6781
17877 1 7.55717 18.1566 90.2436
17878 2 7.11777 17.2911 90.4842
17879 2 7.97303 18.0787 89.3375
17880 1 36.3423 14.6761 62.6621
17881 2 35.9472 14.9058 63.5515
17882 2 35.7024 14.1018 62.1514
17883 1 50.4258 28.6433 79.6012
17884 2 49.8409 28.8065 78.8067
17885 2 50.1769 27.7724 80.025
17886 1 65.2428 2.73267 79.9972
17887 2 65.388 1.75824 79.8258
17888 2 65.9873 3.08603 80.5637
17889 1 67.0666 2.41402 23.471
17890 2 66.6966 1.99753 24.3015
17891 2 66.817 3.38199 23.4439
17892 1 70.9867 25.3978 20.7174
17893 2 70.9699 25.8636 21.6021
17894 2 71.8925 25.0019 20.5662
17895 1 53.8563 8.41497 82.8023
17896 2 54.7486 8.86062 82.7301
17897 2 53.3157 8.61718 81.9857
17898 1 37.2036 18.8317 72.7752
17899 2 37.7199 19.0315 71.9424
17900 2 37.8067 18.9123 73.5687
17901 1 26.6272 23.6804 30.416
17902 2 27.6142 23.817 30.5003
17903 2 26.3016 24.112 29.5747
17904 1 15.7451 29.1714 72.3899
17905 2 15.4062 0.111112 72.4353
17906 2 15.3323 28.6324 73.1242
17907 1 77.1103 19.8419 40.8504
17908 2 77.1698 20.0441 39.8729
17909 2 77.996 20.015 41.2811
17910 1 56.7187 4.0153 58.7343
17911 2 55.8848 4.36065 58.3038
17912 2 56.6013 3.04824 58.9602
17913 1 37.7355 7.7537 61.7751
17914 2 37.9387 7.60008 62.7421
17915 2 36.747 7.708 61.6309
17916 1 28.1473 18.3627 43.0248
17917 2 28.5375 17.6741 43.636
17918 2 28.5234 19.2611 43.2515
17919 1 59.5059 28.8526 55.6535
17920 2 60.0389 29.1771 56.435
17921 2 58.533 28.8685 55.8841
17922 1 26.6928 24.1644 81.5451
17923 2 26.9476 23.2174 81.3493
17924 2 26.5204 24.2675 82.5247
17925 1 72.4261 7.75026 50.0442
17926 2 71.5411 7.32422 50.2319
17927 2 72.902 7.2312 49.3341
17928 1 16.2679 6.32878 80.012
17929 2 16.4784 6.22157 79.0403
17930 2 15.2905 6.17769 80.1599
17931 1 23.7434 15.1852 88.8627
17932 2 24.0722 15.1304 89.8055
17933 2 23.1262 14.42 88.6799
17934 1 2.13393 25.1503 83.8733
17935 2 1.70677 26.0506 83.9567
17936 2 1.81608 24.7068 83.0353
17937 1 48.8991 2.64694 29.8401
17938 2 49.3821 2.49219 30.7019
17939 2 49.2877 3.44459 29.3788
17940 1 44.0534 12.6597 80.0378
17941 2 44.1248 11.6696 79.9172
17942 2 43.6246 12.8582 80.9191
17943 1 75.7103 25.3981 51.2099
17944 2 75.0361 25.9677 51.68
17945 2 76.5408 25.9307 51.0466
17946 1 55.6862 19.1021 80.327
17947 2 55.6222 18.8513 81.2929
17948 2 54.8177 18.9037 79.8728
17949 1 2.31818 29.6198 77.3854
17950 2 2.7459 28.9497 76.7788
17951 2 2.8158 29.6502 78.2523
17952 1 28.5777 27.2279 29.4769
17953 2 29.5006 26.8438 29.5048
17954 2 28.6167 28.2046 29.688
17955 1 43.9227 7.72431 42.6281
17956 2 43.1736 8.09118 42.0765
17957 2 44.1462 8.37004 43.3582
17958 1 37.4262 6.15 80.999
17959 2 37.3577 5.15237 80.9933
17960 2 36.8457 6.51977 81.7244
17961 1 9.99445 18.5922 78.6234
17962 2 10.7145 18.0813 79.0931
17963 2 10.0191 18.3812 77.6463
17964 1 49.6404 1.06459 60.57
17965 2 49.1999 1.07963 59.6724
17966 2 50.5392 0.63294 60.4929
17967 1 15.2136 11.6978 90.2668
17968 2 14.8294 12.5779 89.9877
17969 2 14.4739 11.0826 90.5393
17970 1 14.9073 16.8853 76.9828
17971 2 14.2873 17.2001 76.2642
17972 2 14.8095 17.4708 77.7875
17973 1 78.0517 27.3606 29.9944
17974 2 78.6027 26.5486 30.1868
17975 2 78.1478 28.0142 30.745
17976 1 25.9773 23.5056 88.9105
17977 2 26.0007 24.5039 88.857
17978 2 25.3835 23.226 89.665
17979 1 79.9837 12.3462 59.8677
17980 2 0.154474 12.3807 58.883
17981 2 79.4107 11.5544 60.0791
17982 1 76.9216 11.1084 74.8154
17983 2 77.3177 11.9631 74.4799
17984 2 77.6125 10.5999 75.3292
17985 1 17.2723 0.093784 10.7212
17986 2 16.753 0.542516 11.4485
17987 2 18.1064 0.61393 10.5376
17988 1 23.1804 3.62146 81.6352
17989 2 23.452 4.35195 82.2618
17990 2 22.7161 4.01737 80.843
17991 1 17.0392 25.2732 80.1931
17992 2 17.4181 26.1851 80.0358
17993 2 16.2102 25.3477 80.7474
17994 1 64.6465 25.9522 38.2644
17995 2 63.8153 25.5939 38.6895
17996 2 64.403 26.4891 37.4566
17997 1 63.0849 18.4159 58.3717
17998 2 63.0955 18.4098 57.3718
17999 2 63.0972 19.3606 58.6994
18000 1 42.9318 13.6859 32.9969
18001 2 43.696 13.7528 33.6383
18002 2 42.1925 13.1566 33.4134
18003 1 4.29899 23.76 30.2275
18004 2 5.02638 24.4377 30.3358
18005 2 3.49606 24.1952 29.8201
18006 1 23.2881 13.745 43.9218
18007 2 23.6018 14.6177 44.2959
18008 2 22.3502 13.5715 44.2221
18009 1 59.1299 19.1941 22.8316
18010 2 58.7362 19.5406 23.683
18011 2 59.3127 18.2152 22.923
18012 1 21.0687 7.74561 16.396
18013 2 20.9881 8.50023 15.7448
18014 2 20.6089 7.99128 17.2493
18015 1 64.3674 1.5917 33.6455
18016 2 64.9607 2.35726 33.3966
18017 2 64.3478 1.49489 34.6406
18018 1 24.7797 16.5298 54.4102
18019 2 25.7599 16.7149 54.3405
18020 2 24.2687 17.3737 54.2469
18021 1 7.27121 2.13552 45.5594
18022 2 7.41256 2.95575 46.1137
18023 2 6.45924 1.65007 45.8835
18024 1 32.7216 25.8714 66.6329
18025 2 31.8039 25.4746 66.6518
18026 2 33.268 25.4829 67.3749
18027 1 47.2276 15.0836 90.9515
18028 2 48.1319 14.6657 91.0387
18029 2 47.2503 15.7804 90.2347
18030 1 44.5096 25.2359 62.2379
18031 2 43.6012 24.8234 62.3051
18032 2 44.7139 25.4378 61.2801
18033 1 11.1473 4.45614 21.7445
18034 2 11.0537 3.59013 21.2533
18035 2 11.9733 4.43228 22.3076
18036 1 60.4765 28.0401 41.5079
18037 2 59.9617 27.8837 40.6649
18038 2 60.0354 28.7642 42.0382
18039 1 21.3428 19.9232 27.1073
18040 2 20.6522 20.4942 27.5511
18041 2 21.1612 19.8837 26.1247
18042 1 14.4876 28.5094 47.0444
18043 2 15.1788 29.1109 46.6437
18044 2 14.8979 27.6212 47.2508
18045 1 29.8391 27.9749 45.414
18046 2 30.6098 28.6055 45.5055
18047 2 30.0534 27.1168 45.8806
18048 1 16.8253 28.3797 79.2554
18049 2 16.3203 29.2394 79.179
18050 2 17.51 28.3295 78.5283
18051 1 16.5676 2.07335 89.884
18052 2 17.4437 2.12378 89.4044
18053 2 16.7197 1.77039 90.8248
18054 1 20.6782 29.6117 17.6032
18055 2 21.1239 0.285024 17.0133
18056 2 20.2809 0.0740664 18.3958
18057 1 0.529953 0.481106 32.204
18058 2 0.517326 1.131 31.4441
18059 2 79.7179 29.8993 32.1585
18060 1 40.5796 7.86934 77.1744
18061 2 40.3637 7.04284 76.6545
18062 2 41.3376 7.68166 77.7992
18063 1 12.8258 23.7864 59.6029
18064 2 13.2925 23.3975 58.8086
18065 2 13.1149 23.3029 60.4291
18066 1 61.0932 1.79299 27.1456
18067 2 61.9243 2.33094 27.2865
18068 2 61.3126 0.819105 27.204
18069 1 34.2978 29.809 30.004
18070 2 34.5 28.8717 29.72
18071 2 34.6193 0.446185 29.3034
18072 1 5.75615 16.254 74.356
18073 2 5.06703 16.3525 73.6381
18074 2 5.45594 16.7422 75.1755
18075 1 60.0455 13.8173 48.5989
18076 2 60.9547 13.443 48.7817
18077 2 59.3682 13.333 49.1527
18078 1 4.24328 22.7072 18.5529
18079 2 4.41353 21.9016 17.9855
18080 2 3.32192 23.0523 18.374
18081 1 29.9045 19.5931 74.6718
18082 2 29.0469 19.8587 75.1122
18083 2 30.6643 19.742 75.3047
18084 1 53.5006 16.7985 80.3056
18085 2 53.3531 17.0448 81.2635
18086 2 53.6567 17.6276 79.7686
18087 1 79.4115 15.589 15.6078
18088 2 79.0714 15.8949 16.497
18089 2 78.7868 15.8942 14.8891
18090 1 68.1205 15.033 85.2286
18091 2 68.7938 15.5008 84.656
18092 2 68.5896 14.5515 85.969
18093 1 17.254 19.1813 70.7605
18094 2 17.4259 18.4253 71.3921
18095 2 16.54 18.918 70.1118
18096 1 21.7509 14.5611 83.2531
18097 2 22.5874 15.1028 83.3353
18098 2 20.9579 15.1431 83.4335
18099 1 48.9632 25.7018 66.657
18100 2 49.3199 25.1776 67.4303
18101 2 48.2629 25.1657 66.1856
18102 1 2.24492 28.8429 82.3652
18103 2 1.32648 28.4649 82.4817
18104 2 2.52782 28.7435 81.4112
18105 1 16.0313 13.1167 57.2921
18106 2 16.8912 13.2742 57.7776
18107 2 15.2642 13.3626 57.8846
18108 1 45.8896 24.1562 31.877
18109 2 46.4163 24.7479 31.2667
18110 2 46.4942 23.7777 32.5779
18111 1 75.8445 5.03336 69.3007
18112 2 75.9912 5.10168 70.2875
18113 2 76.7036 4.78646 68.8524
18114 1 60.5592 15.5242 14.4412
18115 2 60.6756 15.6055 15.4311
18116 2 59.5912 15.39 14.2293
18117 1 78.4127 4.82325 13.5454
18118 2 77.5574 4.41217 13.8607
18119 2 79.0661 4.85473 14.3017
18120 1 23.9996 22.3292 90.5879
18121 2 23.8635 22.8317 91.4417
18122 2 23.2901 22.5877 89.9323
18123 1 64.7135 22.8707 58.7613
18124 2 65.5453 23.3901 58.9568
18125 2 64.5997 22.7836 57.7716
18126 1 53.4813 10.8471 53.6492
18127 2 53.317 11.7283 54.0926
18128 2 54.4518 10.7636 53.423
18129 1 56.9463 12.836 90.8035
18130 2 57.5017 12.0239 90.9825
18131 2 56.154 12.5823 90.2486
18132 1 1.79887 5.48347 90.0709
18133 2 2.78131 5.49666 89.8848
18134 2 1.405 4.63291 89.7225
18135 1 22.9146 2.54271 69.8159
18136 2 23.2216 3.49186 69.7462
18137 2 22.5161 2.3868 70.7198
18138 1 48.4727 16.2926 51.5426
18139 2 48.256 16.9028 52.3046
18140 2 48.9066 16.8161 50.8093
18141 1 0.15783 10.3921 52.7954
18142 2 0.874915 9.73881 53.0382
18143 2 79.7797 10.1547 51.9006
18144 1 65.3918 10.8 56.7247
18145 2 64.6484 11.4435 56.542
18146 2 66.0118 10.7756 55.9404
18147 1 8.86409 10.9211 35.8108
18148 2 8.02828 10.4212 36.0377
18149 2 9.6027 10.2714 35.631
18150 1 36.12 16.5846 52.0004
18151 2 35.5338 17.2048 52.5215
18152 2 35.7512 16.4741 51.0775
18153 1 26.4191 17.1332 32.3932
18154 2 27.3576 17.4198 32.5861
18155 2 25.9983 16.7846 33.2307
18156 1 64.6474 13.8582 67.5362
18157 2 64.8145 14.2536 66.633
18158 2 63.7965 13.3331 67.5179
18159 1 33.715 22.119 47.6413
18160 2 32.8493 21.7999 47.2554
18161 2 34.3585 21.3553 47.6927
18162 1 79.4439 9.72946 50.1082
18163 2 0.385717 10.0304 49.9587
18164 2 78.9158 9.85749 49.2687
18165 1 66.3965 2.26055 74.5167
18166 2 67.0862 1.59015 74.7904
18167 2 66.822 3.1617 74.434
18168 1 63.5737 2.09383 25.3658
18169 2 63.2171 1.21522 25.0482
18170 2 63.8375 2.01851 26.3275
18171 1 56.8868 6.47717 80.8927
18172 2 56.588 7.32175 80.4483
18173 2 57.4867 5.96944 80.2743
18174 1 19.5748 9.69508 59.5381
18175 2 20.5046 9.39353 59.327
18176 2 19.377 9.51587 60.5018
18177 1 41.7982 1.82516 36.1908
18178 2 42.7188 2.06475 36.4993
18179 2 41.4981 0.991079 36.6536
18180 1 25.9285 20.5548 73.4584
18181 2 26.7745 21.0081 73.1776
18182 2 25.6718 20.8654 74.3736
18183 1 78.5189 15.6434 77.5956
18184 2 78.8361 16.345 78.2338
18185 2 77.5965 15.3534 77.8507
18186 1 60.9722 5.24914 47.4536
18187 2 60.1622 4.9179 46.9697
18188 2 61.0454 4.78611 48.3369
18189 1 55.0744 9.58844 69.6299
18190 2 55.4034 10.2184 70.3334
18191 2 54.7858 8.73198 70.058
18192 1 39.2315 8.50766 81.0103
18193 2 38.8485 9.36547 80.6675
18194 2 38.5874 8.08674 81.649
18195 1 32.1224 0.859041 46.4217
18196 2 32.9949 1.22091 46.7501
18197 2 31.6811 0.338553 47.1527
18198 1 31.7566 1.25857 80.1524
18199 2 32.6832 1.63162 80.1998
18200 2 31.2553 1.70454 79.4109
18201 1 29.5464 19.6496 59.0414
18202 2 30.4708 19.4414 59.3611
18203 2 29.5389 20.5504 58.6073
18204 1 2.21571 15.8682 77.012
18205 2 2.89374 16.5587 76.7598
18206 2 1.94805 15.3513 76.1989
18207 1 74.5803 12.7709 16.9985
18208 2 74.0925 12.7602 17.8714
18209 2 74.7759 11.8322 16.7145
18210 1 35.8504 5.62162 83.8937
18211 2 35.1056 5.38212 84.5165
18212 2 35.581 6.40878 83.3389
18213 1 17.0887 22.1008 57.4787
18214 2 16.1836 22.4696 57.6901
18215 2 16.9978 21.3481 56.8265
18216 1 46.7555 20.6458 59.7332
18217 2 47.4074 21.4031 59.6937
18218 2 45.9453 20.8749 59.1937
18219 1 35.7884 13.7068 51.1144
18220 2 36.1567 14.1134 51.9505
18221 2 36.4994 13.1654 50.6658
18222 1 38.4977 16.0678 86.7445
18223 2 39.3152 16.174 86.1785
18224 2 37.6932 15.9866 86.1561
18225 1 20.9693 6.22631 42.8947
18226 2 20.3066 6.44978 42.1799
18227 2 21.5348 5.45745 42.5963
18228 1 43.3314 0.860436 80.1735
18229 2 44.172 0.556655 80.6219
18230 2 42.8114 1.44199 80.799
18231 1 4.33323 29.9728 85.9773
18232 2 4.01425 0.831731 85.5767
18233 2 4.40658 0.0747249 86.9694
18234 1 69.0984 16.9147 90.446
18235 2 69.1279 17.9037 90.3012
18236 2 70.0287 16.5671 90.563
18237 1 76.9537 20.9045 66.5725
18238 2 76.8481 21.3025 67.4837
18239 2 76.483 21.4777 65.9017
18240 1 61.0072 0.913057 75.6653
18241 2 60.9709 1.15902 74.6967
18242 2 60.2554 0.289238 75.8792
18243 1 50.1225 24.4467 76.1098
18244 2 50.1274 25.4425 76.201
18245 2 50.2207 24.0287 77.0129
18246 1 17.565 17.4416 81.3197
18247 2 16.722 16.9963 81.018
18248 2 17.5229 18.4169 81.1025
18249 1 29.9955 6.38822 50.6497
18250 2 30.7837 6.57226 51.2369
18251 2 29.8271 5.40305 50.6169
18252 1 34.2877 25.766 45.7061
18253 2 34.8918 25.3661 45.0167
18254 2 34.6094 25.5126 46.6184
18255 1 18.4245 9.93367 65.0795
18256 2 17.4498 9.84124 65.2829
18257 2 18.5855 9.72139 64.1156
18258 1 17.312 14.4886 49.6132
18259 2 17.1975 14.2341 48.6529
18260 2 17.3757 15.4837 49.689
18261 1 32.1133 16.6373 74.9219
18262 2 32.7848 16.537 74.1878
18263 2 32.5836 16.6507 75.8043
18264 1 26.793 10.1562 76.6135
18265 2 25.8429 10.0308 76.8992
18266 2 27.2266 10.8471 77.1921
18267 1 68.7389 22.5342 42.0288
18268 2 68.0628 23.1376 42.4514
18269 2 69.1295 22.9826 41.2248
18270 1 38.544 25.5245 53.35
18271 2 39.523 25.6375 53.1808
18272 2 38.3761 25.5053 54.3356
18273 1 45.4576 1.60486 40.4545
18274 2 45.1668 2.53843 40.664
18275 2 44.7257 0.966405 40.6927
18276 1 42.7858 24.8439 87.3705
18277 2 42.3451 25.6707 87.0209
18278 2 43.7451 24.8327 87.0884
18279 1 41.1685 16.7111 56.4433
18280 2 41.4754 16.5326 57.3782
18281 2 40.2561 16.3235 56.3123
18282 1 17.6174 12.4814 81.7528
18283 2 16.7274 12.7931 81.4199
18284 2 18.0233 13.1888 82.3314
18285 1 16.5218 10.6742 60.2456
18286 2 16.3317 11.1891 61.0815
18287 2 15.8411 9.94952 60.1384
18288 1 37.4314 28.443 37.3605
18289 2 37.4222 28.5627 38.3533
18290 2 36.4936 28.3424 37.0282
18291 1 18.86 8.31159 49.1145
18292 2 19.1665 9.07214 49.6869
18293 2 19.6432 7.73746 48.8758
18294 1 36.4447 23.2857 57.5142
18295 2 36.2026 23.0677 56.5688
18296 2 35.9046 22.7184 58.1358
18297 1 73.8906 22.9222 47.0497
18298 2 74.4219 22.4867 47.7764
18299 2 72.9319 22.6487 47.1281
18300 1 70.1628 19.2953 89.3724
18301 2 70.5301 20.1603 89.7143
18302 2 70.9173 18.6802 89.1433
18303 1 7.70086 5.17111 70.136
18304 2 6.94879 5.8286 70.0904
18305 2 8.00597 5.07902 71.0839
18306 1 20.759 28.9714 10.8076
18307 2 20.6823 28.0635 11.2196
18308 2 21.1088 28.8857 9.87475
18309 1 64.8234 20.9678 32.8768
18310 2 63.8579 20.8808 32.6314
18311 2 65.0757 21.9352 32.8996
18312 1 31.7309 18.3416 71.237
18313 2 31.9137 19.2776 70.9364
18314 2 30.7567 18.1418 71.1315
18315 1 48.2718 8.3749 90.374
18316 2 47.9426 9.31583 90.2944
18317 2 49.0018 8.21977 89.7084
18318 1 13.1765 18.0232 33.1395
18319 2 12.8477 17.5627 32.315
18320 2 13.654 17.3647 33.7212
18321 1 14.5779 19.506 31.1226
18322 2 14.1303 18.8625 31.7434
18323 2 14.3888 19.2428 30.1766
18324 1 34.0118 28.5639 69.2898
18325 2 34.4807 27.6807 69.2777
18326 2 33.9221 28.8807 70.2341
18327 1 32.1483 27.4837 39.3055
18328 2 31.413 26.8439 39.5295
18329 2 32.7959 27.5266 40.0663
18330 1 53.2691 24.7593 77.4644
18331 2 53.2174 25.5874 78.0226
18332 2 52.4059 24.2587 77.53
18333 1 23.0402 26.0476 64.437
18334 2 23.0804 26.9336 64.899
18335 2 22.1601 25.6124 64.6269
18336 1 16.0836 2.23289 32.2561
18337 2 16.3356 1.75653 31.4138
18338 2 16.9082 2.43276 32.7855
18339 1 77.852 14.0824 42.0827
18340 2 78.3713 13.8987 42.9173
18341 2 78.4812 14.3331 41.347
18342 1 21.0229 5.19576 70.286
18343 2 21.1847 6.13641 70.5843
18344 2 21.2198 4.56855 71.0395
18345 1 10.2158 29.1525 62.4453
18346 2 11.0745 29.2517 62.9481
18347 2 9.45218 29.1317 63.0907
18348 1 51.3963 3.10765 82.3595
18349 2 51.2458 4.06075 82.6221
18350 2 52.0898 3.06558 81.6403
18351 1 10.8393 20.2996 17.9442
18352 2 10.5214 19.9582 18.8287
18353 2 11.6016 19.737 17.6242
18354 1 2.90544 24.977 89.2219
18355 2 2.24498 25.2564 89.9188
18356 2 2.56309 24.1684 88.7434
18357 1 6.85633 27.2872 25.2901
18358 2 6.61098 27.8455 26.0826
18359 2 6.06732 27.2084 24.6808
18360 1 68.9585 21.9608 53.5984
18361 2 69.6385 21.3245 53.2343
18362 2 69.3581 22.4789 54.3547
18363 1 16.5172 21.1672 84.8659
18364 2 17.3242 21.0959 84.2797
18365 2 16.7675 21.6146 85.7246
18366 1 49.1231 6.57546 48.6373
18367 2 49.1935 6.63608 47.6417
18368 2 48.5781 7.34067 48.9802
18369 1 12.7004 26.173 83.5491
18370 2 12.4575 25.5338 84.2788
18371 2 13.6042 25.9407 83.1898
18372 1 61.5301 22.0386 38.0709
18373 2 60.6334 22.466 37.956
18374 2 62.0699 22.5674 38.7258
18375 1 63.1536 8.87996 20.9863
18376 2 62.4696 9.24633 20.3555
18377 2 64.0626 8.96467 20.5783
18378 1 56.458 6.25763 76.319
18379 2 56.767 5.91881 77.2076
18380 2 56.7784 5.64301 75.5982
18381 1 77.6481 4.37699 58.9459
18382 2 77.6788 3.41592 58.6714
18383 2 78.1557 4.49625 59.7992
18384 1 69.5744 9.49954 74.4821
18385 2 69.9444 8.6356 74.1405
18386 2 69.6342 9.51631 75.4802
18387 1 4.41984 13.6131 83.8446
18388 2 5.33698 13.2575 84.0246
18389 2 4.48918 14.5283 83.4475
18390 1 73.279 23.816 14.3571
18391 2 74.1594 23.4485 14.0574
18392 2 73.2751 23.9013 15.3534
18393 1 26.6573 14.7518 67.6192
18394 2 27.048 15.4673 67.0401
18395 2 26.9827 14.8678 68.5576
18396 1 78.4661 18.8027 14.7973
18397 2 77.9546 19.6426 14.6162
18398 2 78.7489 18.7848 15.7563
18399 1 63.3667 26.9471 60.9697
18400 2 62.9828 26.3736 61.6934
18401 2 62.7096 27.0215 60.2196
18402 1 55.5462 13.0013 84.0511
18403 2 56.474 12.8734 83.7005
18404 2 54.9085 13.0812 83.285
18405 1 2.59963 1.60148 74.75
18406 2 1.73847 1.82444 74.2932
18407 2 3.20718 1.13536 74.1069
18408 1 0.483801 17.2627 19.2914
18409 2 0.2088 16.362 19.6277
18410 2 79.9134 17.5151 18.5098
18411 1 11.7554 17.2038 20.9289
18412 2 11.588 18.0004 20.348
18413 2 12.6805 16.8608 20.7657
18414 1 34.6888 13.4875 83.5264
18415 2 35.2726 14.2864 83.3817
18416 2 34.9838 12.7456 82.9244
18417 1 62.6667 23.6565 91.0703
18418 2 62.6302 24.5331 91.55
18419 2 63.4884 23.6217 90.5015
18420 1 70.4083 26.0846 38.479
18421 2 70.1005 25.2037 38.8387
18422 2 70.622 26.6986 39.2388
18423 1 9.68536 2.91371 86.4709
18424 2 9.74814 1.9251 86.3341
18425 2 10.4183 3.36755 85.9641
18426 1 58.6189 29.3687 78.4636
18427 2 58.6663 28.8158 77.6317
18428 2 59.0015 28.852 79.2295
18429 1 3.00835 28.6906 34.1192
18430 2 3.81511 28.2304 33.7486
18431 2 2.38581 28.0111 34.5073
18432 1 31.3613 5.96861 59.0753
18433 2 31.6091 6.09367 58.1146
18434 2 30.4338 5.59948 59.1349
18435 1 22.6346 28.3851 66.1057
18436 2 21.64 28.4595 66.0335
18437 2 23.0613 29.1664 65.6503
18438 1 77.3643 7.49148 56.4835
18439 2 77.8689 6.66132 56.2465
18440 2 76.409 7.25981 56.6674
18441 1 60.7871 25.1688 19.9153
18442 2 61.7383 25.2757 20.2048
18443 2 60.3537 26.068 19.8559
18444 1 21.4771 1.36811 85.6146
18445 2 20.9056 0.549613 85.6728
18446 2 21.6688 1.70701 86.5357
18447 1 28.8678 3.9337 89.3194
18448 2 28.5548 4.55754 88.6032
18449 2 29.7611 3.5603 89.0691
18450 1 50.2299 10.4546 81.3242
18451 2 50.7437 11.1525 80.8252
18452 2 50.7131 10.2254 82.1692
18453 1 70.3124 21.2302 86.9052
18454 2 70.9973 20.5235 86.7278
18455 2 70.6907 22.1265 86.6738
18456 1 50.7864 27.2928 52.9008
18457 2 50.8924 28.2344 52.5811
18458 2 51.236 26.6706 52.2598
18459 1 9.3683 0.260975 84.121
18460 2 8.5568 0.625154 83.664
18461 2 9.20719 0.224377 85.1072
18462 1 45.0193 5.97951 33.457
18463 2 44.6994 6.92626 33.493
18464 2 44.4113 5.40128 34.001
18465 1 77.8639 17.0702 74.9699
18466 2 77.6464 16.0941 74.976
18467 2 77.7003 17.4539 75.8787
18468 1 6.66191 4.15104 57.4916
18469 2 7.04507 3.64402 58.2637
18470 2 5.67457 4.2505 57.6152
18471 1 37.7043 5.54305 67.5354
18472 2 38.5271 5.40709 66.9836
18473 2 37.2976 4.65545 67.7518
18474 1 37.8637 8.54521 54.6113
18475 2 38.715 8.06178 54.8155
18476 2 37.4573 8.16769 53.7793
18477 1 10.3225 28.9506 80.9427
18478 2 10.4842 28.8865 79.958
18479 2 9.91202 29.8371 81.1561
18480 1 62.8138 6.26393 77.7266
18481 2 62.1257 5.53915 77.6909
18482 2 62.7079 6.86343 76.9333
18483 1 67.518 6.26205 58.2932
18484 2 67.9493 6.66995 57.4884
18485 2 66.8563 6.9051 58.6787
18486 1 42.1012 24.7806 32.9075
18487 2 41.3265 24.4041 33.4157
18488 2 41.7662 25.2614 32.0972
18489 1 62.6813 4.74964 85.6001
18490 2 63.6096 5.07014 85.7885
18491 2 62.0525 5.52722 85.6062
18492 1 76.1325 28.0641 33.4827
18493 2 75.3699 28.6832 33.2951
18494 2 76.9382 28.3632 32.9714
18495 1 26.5434 25.5945 38.1366
18496 2 26.7218 26.5379 37.857
18497 2 27.3793 25.1945 38.5124
18498 1 40.2381 7.66471 64.4053
18499 2 40.6427 7.12516 65.1437
18500 2 40.0484 7.07053 63.6236
18501 1 73.2222 21.2718 58.8928
18502 2 73.068 22.1332 59.3769
18503 2 74.0383 20.825 59.2592
18504 1 74.5527 10.4473 15.7365
18505 2 73.7781 11.0089 15.4458
18506 2 74.2164 9.58133 16.1064
18507 1 68.9645 2.2652 51.5183
18508 2 69.9604 2.17478 51.5301
18509 2 68.6158 2.23351 52.455
18510 1 70.3492 18.7291 61.3433
18511 2 70.752 19.1128 60.5123
18512 2 70.7528 17.8326 61.526
18513 1 13.1472 28.9541 63.6453
18514 2 12.6166 28.2329 64.0906
18515 2 13.7531 28.5481 62.9611
18516 1 11.7936 29.7256 55.9017
18517 2 12.7147 29.834 56.2756
18518 2 11.4246 0.622835 55.6592
18519 1 18.8097 26.0087 58.4207
18520 2 18.2551 26.7168 57.9836
18521 2 19.5952 26.4319 58.8721
18522 1 61.1579 13.7071 83.9033
18523 2 60.4389 13.8228 84.5887
18524 2 60.778 13.8654 82.9919
18525 1 50.6262 13.1107 80.6328
18526 2 49.8961 13.7937 80.6557
18527 2 51.3373 13.3607 81.29
18528 1 28.8482 6.61356 43.2698
18529 2 28.7163 6.45324 42.2916
18530 2 28.351 5.92005 43.7912
18531 1 66.9271 4.97584 35.9326
18532 2 67.2841 4.74164 36.8368
18533 2 66.2174 5.6743 36.0251
18534 1 65.276 27.6454 72.0881
18535 2 65.8746 28.3879 72.3888
18536 2 64.9785 27.1148 72.8818
18537 1 31.862 12.1918 52.1802
18538 2 32.4578 11.5977 51.6397
18539 2 31.3319 12.7783 51.5679
18540 1 17.7819 24.0276 19.8533
18541 2 16.9817 24.0933 20.4494
18542 2 17.6125 24.5387 19.0106
18543 1 55.665 1.17505 47.6674
18544 2 56.1583 1.6108 48.4202
18545 2 54.7613 0.886706 47.9837
18546 1 31.3217 26.4034 50.2047
18547 2 31.2836 26.7453 51.1436
18548 2 32.1877 25.9249 50.0591
18549 1 2.53463 0.110751 15.3051
18550 2 3.41244 0.235622 14.8426
18551 2 2.29785 29.1392 15.3141
18552 1 63.7265 3.60199 17.173
18553 2 64.5277 3.45114 17.7521
18554 2 63.094 4.22405 17.6345
18555 1 74.4516 22.0289 73.7304
18556 2 74.6531 21.9402 74.7058
18557 2 74.0681 22.9348 73.5503
18558 1 1.78141 14.6971 38.459
18559 2 2.63515 14.9495 38.9144
18560 2 1.01282 14.86 39.0776
18561 1 79.2593 5.16921 28.6534
18562 2 78.3227 5.51588 28.7055
18563 2 79.7491 5.40502 29.4927
18564 1 69.9909 15.7103 55.091
18565 2 70.9409 15.7794 55.3954
18566 2 69.4374 16.3925 55.5687
18567 1 0.0516968 6.26435 71.7224
18568 2 0.637199 6.51332 72.4939
18569 2 79.7668 5.31023 71.8145
18570 1 72.8956 21.9379 23.7805
18571 2 73.0209 21.04 24.2026
18572 2 72.4811 22.5624 24.4425
18573 1 5.35864 4.54843 60.0064
18574 2 5.48488 3.84271 60.7036
18575 2 5.03487 5.38997 60.4388
18576 1 8.64501 6.24831 40.4784
18577 2 9.57064 6.03948 40.7941
18578 2 8.0489 6.3952 41.2678
18579 1 12.4012 4.04399 25.4249
18580 2 13.3966 3.95486 25.462
18581 2 12.1174 4.83796 25.9626
18582 1 30.5529 8.28802 71.2457
18583 2 29.6948 8.34061 71.7565
18584 2 31.3113 8.14654 71.882
18585 1 13.1917 5.28834 67.1315
18586 2 13.9096 4.62113 66.9329
18587 2 13.5962 6.09465 67.5631
18588 1 10.0274 12.9759 77.4937
18589 2 10.4536 12.8349 78.3873
18590 2 9.53936 13.8487 77.4913
18591 1 53.9085 3.25066 43.6316
18592 2 53.1286 2.90065 43.1127
18593 2 54.0341 4.22204 43.43
18594 1 4.72694 14.1413 21.0408
18595 2 4.62478 13.9285 22.0125
18596 2 5.62836 14.5435 20.8806
18597 1 54.4634 11.3706 57.1745
18598 2 54.6376 10.3898 57.0867
18599 2 53.853 11.6678 56.4403
18600 1 50.2542 5.87598 34.7634
18601 2 51.0014 5.42345 35.2501
18602 2 49.3969 5.72707 35.2562
18603 1 72.0225 24.5686 32.7962
18604 2 72.9049 25.0366 32.8439
18605 2 72.168 23.5796 32.8216
18606 1 16.4561 11.2228 28.0758
18607 2 16.8484 10.7118 27.3109
18608 2 15.7609 10.6642 28.5282
18609 1 78.8313 2.46587 37.1826
18610 2 79.1215 3.08309 36.4513
18611 2 79.0033 1.51978 36.9081
18612 1 17.3806 18.2839 46.0966
18613 2 18.2056 17.8602 45.7226
18614 2 17.4293 19.275 45.9725
18615 1 27.0482 3.52688 56.8944
18616 2 26.8524 4.44297 57.2443
18617 2 27.1894 3.57101 55.9054
18618 1 2.65087 22.031 27.2342
18619 2 2.78868 23.0157 27.1279
18620 2 3.53861 21.5754 27.3003
18621 1 33.1582 10.8356 80.5802
18622 2 33.9888 11.2062 80.9959
18623 2 33.3869 10.0204 80.0481
18624 1 14.5597 11.4525 80.5794
18625 2 13.9443 11.9292 79.9517
18626 2 14.0235 10.9966 81.2899
18627 1 77.4933 12.1678 44.3272
18628 2 77.5141 12.7401 45.147
18629 2 77.958 11.3021 44.5132
18630 1 48.3529 27.4899 68.4419
18631 2 48.9342 27.4613 69.2551
18632 2 48.6735 26.8134 67.779
18633 1 29.5747 13.8433 33.719
18634 2 28.8382 13.6749 34.3741
18635 2 29.9894 14.734 33.9053
18636 1 41.1056 12.8908 55.7932
18637 2 40.465 13.6286 55.5802
18638 2 41.4127 12.9792 56.7407
18639 1 45.2646 1.24026 64.4269
18640 2 44.5233 1.67977 63.9197
18641 2 44.8839 0.729349 65.1977
18642 1 64.7931 19.3428 36.2735
18643 2 65.171 18.5012 36.6594
18644 2 65.5228 19.8632 35.83
18645 1 36.4096 9.21124 43.4256
18646 2 36.8013 8.41777 42.9598
18647 2 35.629 8.92099 43.9791
18648 1 21.2922 26.5969 45.8553
18649 2 22.1752 26.5502 46.3223
18650 2 20.918 25.6747 45.7571
18651 1 54.1609 7.93692 49.9434
18652 2 54.4394 8.73887 50.4719
18653 2 54.871 7.71514 49.2751
18654 1 4.11421 21.6745 89.9713
18655 2 3.15816 21.8354 90.2164
18656 2 4.15667 21.1586 89.1157
18657 1 18.2319 26.7701 39.1773
18658 2 18.5241 27.6242 38.7471
18659 2 18.0628 26.9277 40.1503
18660 1 78.5392 23.1804 88.2557
18661 2 79.27 23.857 88.3448
18662 2 78.7097 22.6094 87.4526
18663 1 38.9666 13.0485 90.1682
18664 2 38.6133 13.0691 89.233
18665 2 38.5048 12.3263 90.6832
18666 1 34.437 22.414 61.634
18667 2 34.4439 21.7763 60.8637
18668 2 34.7275 23.3182 61.3208
18669 1 48.3749 2.12709 72.1205
18670 2 49.3125 2.35359 72.3844
18671 2 47.7477 2.80504 72.5039
18672 1 35.059 20.869 77.2376
18673 2 34.6601 20.3841 76.4593
18674 2 35.8155 20.3328 77.6121
18675 1 21.4734 22.5625 89.3827
18676 2 20.9112 23.3357 89.0892
18677 2 20.9065 21.9101 89.8857
18678 1 6.15007 25.711 22.2694
18679 2 6.2649 24.8894 22.8277
18680 2 5.50493 26.3305 22.7167
18681 1 67.6229 22.3353 10.9814
18682 2 67.5296 22.5137 10.0018
18683 2 68.2998 22.9597 11.3709
18684 1 12.8161 8.21897 17.6383
18685 2 11.8993 7.90059 17.8794
18686 2 12.7465 9.06026 17.1022
18687 1 41.7732 1.10069 74.7678
18688 2 42.6422 1.12813 75.2618
18689 2 41.8153 0.397316 74.0582
18690 1 31.2709 18.4508 64.506
18691 2 30.9117 19.0747 63.8119
18692 2 31.9499 17.8454 64.0907
18693 1 11.9458 2.48099 79.8329
18694 2 11.8696 1.48431 79.8041
18695 2 12.3886 2.80574 78.9972
18696 1 66.474 11.3044 59.4924
18697 2 66.7013 10.8453 60.3512
18698 2 66.903 10.8185 58.7309
18699 1 40.9271 12.844 81.4911
18700 2 41.1403 12.0617 82.0765
18701 2 41.5949 13.5711 81.6502
18702 1 16.3636 28.9208 66.6803
18703 2 16.9539 28.3093 67.2072
18704 2 15.5773 29.1871 67.2377
18705 1 17.6713 2.08325 50.5975
18706 2 17.3286 1.62343 49.7782
18707 2 17.7209 3.06802 50.4309
18708 1 70.7835 16.4544 13.9109
18709 2 70.2599 15.6548 14.205
18710 2 70.6392 17.2036 14.5572
18711 1 18.2267 6.88263 17.6128
18712 2 18.286 6.90144 16.6147
18713 2 17.57 6.18306 17.8945
18714 1 78.9909 25.3561 23.5469
18715 2 78.5738 24.6348 24.0998
18716 2 79.9081 25.5532 23.8932
18717 1 14.6243 2.08993 65.7482
18718 2 13.6306 1.97758 65.7471
18719 2 15.06 1.20176 65.8942
18720 1 49.3472 21.4578 70.7943
18721 2 49.6956 20.5492 70.5639
18722 2 49.6518 21.7084 71.7132
18723 1 40.1819 29.3706 53.1664
18724 2 40.1116 0.320851 52.8629
18725 2 39.4814 29.1884 53.8564
18726 1 19.5784 24.3893 80.5931
18727 2 18.6337 24.4837 80.279
18728 2 19.8433 25.2073 81.1037
18729 1 4.10296 21.8776 46.7204
18730 2 3.25428 22.1801 46.2865
18731 2 4.03458 20.9055 46.9447
18732 1 50.2752 20.9627 32.2394
18733 2 49.9309 20.0522 32.0104
18734 2 51.1235 20.8767 32.7617
18735 1 34.9542 17.6467 71.1445
18736 2 34.1492 18.2118 70.9638
18737 2 35.6461 18.1933 71.6162
18738 1 50.0219 15.7025 64.4338
18739 2 50.9277 15.9046 64.0615
18740 2 49.6663 14.8687 64.0114
18741 1 48.0901 8.67578 72.1328
18742 2 48.2127 9.29607 72.9076
18743 2 47.2859 8.95355 71.6074
18744 1 4.7247 4.51451 29.9747
18745 2 4.46536 4.52418 29.0089
18746 2 3.90077 4.52773 30.5412
18747 1 61.717 14.529 33.605
18748 2 62.0035 13.9717 34.3843
18749 2 62.46 15.1459 33.3453
18750 1 73.145 21.6096 65.1724
18751 2 74.0894 21.3211 65.0147
18752 2 72.7274 21.8734 64.3029
18753 1 18.6171 6.6887 81.9585
18754 2 18.6558 6.82016 82.9491
18755 2 17.701 6.9154 81.6278
18756 1 33.6939 29.901 37.3325
18757 2 33.1578 29.0796 37.1376
18758 2 34.2271 0.150516 36.5242
18759 1 23.7829 10.5798 77.1646
18760 2 22.9251 10.3956 76.6846
18761 2 23.7522 11.4969 77.562
18762 1 10.2955 12.236 83.8837
18763 2 10.3208 12.771 84.7281
18764 2 10.5475 12.8195 83.1117
18765 1 74.8325 1.30113 82.4754
18766 2 73.9097 0.974647 82.2708
18767 2 75.3628 1.35331 81.6292
18768 1 42.3359 16.6224 76.5986
18769 2 42.7976 17.3587 77.0932
18770 2 41.5351 16.9898 76.1255
18771 1 45.0808 5.65585 36.5636
18772 2 44.7578 6.52927 36.9281
18773 2 45.9605 5.78988 36.1075
18774 1 69.9962 11.5613 55.1884
18775 2 70.5572 11.2153 54.4363
18776 2 69.0487 11.2687 55.0594
18777 1 75.5079 16.8434 15.7777
18778 2 75.3947 17.837 15.7819
18779 2 76.244 16.5891 16.405
18780 1 33.4545 29.9182 82.7416
18781 2 33.3551 29.7423 83.721
18782 2 33.3431 0.89622 82.5656
18783 1 56.7637 16.7344 87.0167
18784 2 57.3785 16.7012 86.2288
18785 2 56.1023 15.9868 86.9551
18786 1 55.469 8.21779 42.3529
18787 2 55.8383 8.73685 43.1237
18788 2 55.0165 7.39322 42.6926
18789 1 55.1984 4.76249 89.6909
18790 2 55.3321 5.72592 89.4587
18791 2 54.3461 4.65839 90.2035
18792 1 18.3909 11.8118 77.4337
18793 2 18.5383 10.9208 77.0043
18794 2 17.6643 11.7366 78.1166
18795 1 1.7508 7.06453 62.4163
18796 2 1.96547 6.1847 62.8404
18797 2 0.819638 7.33436 62.6615
18798 1 0.995598 7.50906 74.5684
18799 2 1.2557 6.63982 74.9888
18800 2 0.399702 8.01561 75.1915
18801 1 11.5813 16.0444 13.5181
18802 2 11.7208 15.5733 12.647
18803 2 12.2174 16.8129 13.5869
18804 1 40.9669 0.46179 39.1456
18805 2 40.7777 29.5253 39.4408
18806 2 40.1718 1.03798 39.335
18807 1 69.4612 4.27816 31.3775
18808 2 68.5189 4.23659 31.0452
18809 2 69.4993 3.93345 32.3155
18810 1 63.2484 1.31614 10.777
18811 2 62.6299 2.10189 10.7706
18812 2 64.148 1.60274 11.1066
18813 1 57.3984 1.51792 15.3739
18814 2 58.0813 1.8183 16.0398
18815 2 56.5636 2.05679 15.4864
18816 1 59.9726 4.44866 37.2355
18817 2 60.1508 3.50118 36.9699
18818 2 60.831 4.88745 37.501
18819 1 15.0727 20.2048 33.8375
18820 2 14.7684 21.1574 33.8447
18821 2 14.3293 19.6199 33.5132
18822 1 75.9192 26.4505 23.8336
18823 2 75.0447 26.07 24.1344
18824 2 76.4018 26.8382 24.6189
18825 1 16.6298 14.9987 76.7919
18826 2 15.8251 15.5855 76.7024
18827 2 16.7367 14.723 77.7471
18828 1 71.3445 29.4068 40.6719
18829 2 71.6504 29.8413 39.8247
18830 2 72.129 29.264 41.2753
18831 1 38.0716 2.99889 66.4191
18832 2 37.1297 2.95278 66.0864
18833 2 38.6899 3.15511 65.6488
18834 1 10.2169 19.1597 62.7959
18835 2 10.9051 19.581 63.3866
18836 2 10.5311 19.1858 61.8469
18837 1 7.96052 6.93 34.1045
18838 2 8.5482 6.76514 34.8966
18839 2 8.28423 6.38603 33.3304
18840 1 26.4901 26.927 40.7295
18841 2 26.7659 27.7947 40.316
18842 2 27.1784 26.2293 40.5307
18843 1 34.6663 18.7936 63.4155
18844 2 35.0275 18.6871 62.4891
18845 2 34.0895 18.0083 63.6407
18846 1 44.1626 16.3896 30.1599
18847 2 43.6084 16.9603 29.554
18848 2 45.0883 16.7639 30.2158
18849 1 38.5237 22.028 90.7193
18850 2 38.4917 22.3346 91.6706
18851 2 37.8999 22.583 90.1691
18852 1 44.041 6.93016 89.7285
18853 2 43.0479 6.93752 89.6118
18854 2 44.3486 5.99569 89.9077
18855 1 67.2362 29.5632 81.3929
18856 2 67.3643 0.204505 82.1494
18857 2 67.9069 28.8249 81.4646
18858 1 17.6488 23.2945 62.9359
18859 2 17.0727 22.4773 62.9527
18860 2 17.5249 23.8071 63.7855
18861 1 73.1979 8.77456 53.4434
18862 2 73.0104 8.28639 52.591
18863 2 72.4713 9.44039 53.6129
18864 1 72.0389 26.3001 14.5605
18865 2 72.3297 25.4396 14.1421
18866 2 72.3907 26.352 15.4951
18867 1 52.3927 21.4946 40.9218
18868 2 51.9704 21.4851 41.8282
18869 2 51.7667 21.085 40.2581
18870 1 33.4567 10.0505 89.6992
18871 2 33.8766 9.4184 90.3504
18872 2 32.5888 9.6711 89.3787
18873 1 26.1277 2.71973 77.9833
18874 2 27.0575 3.02669 77.7802
18875 2 26.1077 1.72072 78.0231
18876 1 56.2143 9.10467 78.7389
18877 2 56.7642 8.39806 78.2936
18878 2 55.2741 8.77987 78.8417
18879 1 6.59369 20.769 90.5723
18880 2 6.73425 19.787 90.4466
18881 2 5.61906 20.9789 90.4945
18882 1 3.31405 12.7557 78.2712
18883 2 3.12209 12.6912 77.2919
18884 2 3.71974 13.6471 78.4733
18885 1 65.9514 15.9945 40.1636
18886 2 65.3433 15.3481 40.6245
18887 2 65.6852 16.929 40.3999
18888 1 75.5809 7.34149 78.9586
18889 2 76.5367 7.23438 79.2323
18890 2 75.3054 8.29558 79.0762
18891 1 63.5131 15.9915 81.2158
18892 2 63.1903 15.1993 80.6979
18893 2 62.9269 16.778 81.0217
18894 1 11.4544 6.39718 31.2403
18895 2 11.5742 6.31183 32.2294
18896 2 11.7393 5.54804 30.7955
18897 1 47.9768 0.496024 88.5154
18898 2 48.175 1.30081 89.0749
18899 2 48.8158 29.9687 88.381
18900 1 69.3481 12.5638 17.958
18901 2 69.0391 13.5148 17.9624
18902 2 69.09 12.1334 17.093
18903 1 14.0259 11.7992 46.0324
18904 2 14.0311 12.5052 45.3243
18905 2 13.6588 12.1807 46.8808
18906 1 67.8864 15.7347 67.792
18907 2 67.7993 16.4093 68.5251
18908 2 67.9783 14.8214 68.1887
18909 1 26.6966 3.37295 90.9146
18910 2 25.9017 2.92111 90.5096
18911 2 27.3744 3.5565 90.2026
18912 1 75.5006 1.40673 15.1454
18913 2 76.0409 0.567255 15.2039
18914 2 74.8536 1.33451 14.3864
18915 1 50.6892 15.2859 55.7683
18916 2 51.6046 15.6554 55.9275
18917 2 50.0717 15.6034 56.488
18918 1 4.14506 20.5893 87.1884
18919 2 3.83168 21.4153 86.7199
18920 2 3.35423 20.0532 87.4837
18921 1 76.0214 18.5728 69.3383
18922 2 76.0419 18.0677 68.4754
18923 2 75.24 19.1968 69.3407
18924 1 11.9175 4.31431 51.5802
18925 2 12.4316 4.229 52.4337
18926 2 12.3851 3.80566 50.8572
18927 1 77.5834 28.3149 78.4612
18928 2 76.8201 28.3467 79.1064
18929 2 78.3302 27.7787 78.8545
18930 1 35.424 19.8827 43.2653
18931 2 36.1101 19.1834 43.4659
18932 2 35.0032 19.692 42.3784
18933 1 26.1076 2.86368 59.673
18934 2 26.6054 2.89393 58.8062
18935 2 25.1297 2.98169 59.5
18936 1 74.5432 4.65618 22.9103
18937 2 74.0113 5.49061 22.7658
18938 2 75.5185 4.8674 22.8468
18939 1 71.7005 14.0299 72.977
18940 2 72.1387 14.3196 73.8279
18941 2 70.8234 13.5966 73.1846
18942 1 65.9244 14.8558 29.6036
18943 2 66.4463 15.6184 29.9858
18944 2 66.0602 14.8219 28.6135
18945 1 55.5945 6.91549 29.0316
18946 2 55.9305 7.12226 28.1127
18947 2 56.0696 6.11043 29.3869
18948 1 7.85921 19.6804 52.2414
18949 2 7.13251 20.0526 52.8188
18950 2 8.6719 19.5081 52.7981
18951 1 68.8155 24.842 76.408
18952 2 68.8302 25.6606 75.834
18953 2 68.0005 24.302 76.1978
18954 1 22.8202 9.806 39.8365
18955 2 23.5417 9.11455 39.8739
18956 2 22.6297 10.1392 40.7599
18957 1 29.0723 1.59433 82.6131
18958 2 29.4978 2.12103 83.349
18959 2 29.6121 0.771103 82.4373
18960 1 71.9831 5.88539 70.5773
18961 2 71.2896 5.46803 71.1645
18962 2 72.8663 5.87604 71.0462
18963 1 7.49315 20.4883 74.1043
18964 2 6.56157 20.6169 74.4443
18965 2 7.71767 19.5138 74.1079
18966 1 45.6858 20.1093 43.3
18967 2 45.8751 19.9682 44.2718
18968 2 46.3305 20.7774 42.9285
18969 1 75.1605 10.7013 54.3906
18970 2 74.6621 9.84255 54.2717
18971 2 75.4981 10.7636 55.3298
18972 1 75.2849 5.92178 17.2687
18973 2 75.3272 6.51984 18.0691
18974 2 74.9959 5.00702 17.5511
18975 1 55.8576 25.0457 74.4505
18976 2 55.8036 26.0241 74.6498
18977 2 56.6956 24.6705 74.847
18978 1 14.6737 21.6057 36.6728
18979 2 14.8149 20.6245 36.8044
18980 2 15.5277 22.0274 36.368
18981 1 61.6527 29.5017 72.9322
18982 2 61.5897 28.6286 72.4488
18983 2 61.0114 0.153703 72.5276
18984 1 76.4023 4.4746 34.7687
18985 2 77.3269 4.74 34.4955
18986 2 75.792 5.26268 34.6886
18987 1 66.9622 29.4183 44.9628
18988 2 67.2271 28.6408 44.3923
18989 2 67.4645 29.3841 45.8268
18990 1 71.8986 14.2113 76.473
18991 2 72.2573 15.1045 76.202
18992 2 72.2267 13.9847 77.3901
18993 1 33.1492 14.5453 50.7291
18994 2 33.3811 15.2385 50.0467
18995 2 33.9878 14.1238 51.0743
18996 1 39.2302 29.4018 48.1117
18997 2 38.7639 0.0559671 48.7072
18998 2 40.064 29.8173 47.7483
18999 1 67.9378 24.3292 16.2613
19000 2 68.5805 24.2748 17.0254
19001 2 67.1717 24.9211 16.5115
19002 1 72.1689 19.638 46.7515
19003 2 72.3065 20.4201 47.3592
19004 2 72.9749 19.0468 46.7813
19005 1 52.3348 26.2075 44.5496
19006 2 52.7761 25.3506 44.2831
19007 2 51.5643 26.3897 43.9387
19008 1 7.12247 18.2217 54.9576
19009 2 6.23372 18.046 55.381
19010 2 7.70947 18.7085 55.6045
19011 1 14.7404 22.448 46.4342
19012 2 14.5014 23.4185 46.4029
19013 2 15.1274 22.1715 45.5546
19014 1 44.5459 27.2201 51.867
19015 2 45.2347 27.8955 51.6037
19016 2 44.2841 27.3656 52.8211
19017 1 4.031 11.7942 14.953
19018 2 3.76842 12.7445 15.1202
19019 2 4.94159 11.6284 15.3316
19020 1 20.0204 25.4597 16.4117
19021 2 20.0334 26.4143 16.1141
19022 2 20.95 25.0917 16.3916
19023 1 15.7052 28.5786 30.7936
19024 2 16.6012 28.8154 30.4179
19025 2 15.5842 27.5863 30.7667
19026 1 5.91104 17.854 33.1853
19027 2 5.17258 17.2857 33.5482
19028 2 5.89411 17.8243 32.1858
19029 1 0.135059 4.15603 17.7395
19030 2 79.3801 3.50899 17.6328
19031 2 0.476673 4.42125 16.8378
19032 1 5.73161 20.3328 37.8746
19033 2 6.4315 21.039 37.7672
19034 2 5.02175 20.459 37.1817
19035 1 59.8536 27.8783 22.5231
19036 2 60.3574 28.1902 23.3287
19037 2 58.9242 27.6229 22.7895
19038 1 10.1567 26.2145 58.1873
19039 2 9.33029 26.7489 58.3649
19040 2 10.7674 26.7339 57.5895
19041 1 0.9763 21.5659 89.9272
19042 2 0.896295 22.0717 89.0683
19043 2 0.139117 21.0421 90.0848
19044 1 70.539 2.74093 73.9814
19045 2 71.2623 2.05404 73.9112
19046 2 70.7852 3.54134 73.4348
19047 1 69.4006 14.1727 45.295
19048 2 68.4158 14.2249 45.4607
19049 2 69.8659 14.8815 45.8251
19050 1 76.1627 13.0455 89.6671
19051 2 76.537 13.9404 89.4244
19052 2 75.3448 13.1676 90.2293
19053 1 11.4644 18.7719 49.9603
19054 2 11.65 18.3831 50.8627
19055 2 11.9901 18.276 49.2692
19056 1 62.8138 3.36158 53.8843
19057 2 62.3353 3.08685 54.7183
19058 2 63.7138 3.72732 54.1216
19059 1 9.18709 6.67133 22.1041
19060 2 9.62979 6.01696 21.491
19061 2 9.56301 7.5842 21.9448
19062 1 57.2072 15.2007 20.6055
19063 2 57.1375 14.4274 19.9753
19064 2 56.3847 15.7648 20.5332
19065 1 29.3198 26.7827 53.3309
19066 2 28.5535 26.3329 52.8721
19067 2 29.8058 26.1174 53.8976
19068 1 61.9495 26.4957 31.3015
19069 2 61.888 27.4611 31.0481
19070 2 61.1208 26.2264 31.7921
19071 1 55.2454 2.02527 40.7266
19072 2 54.5571 1.58439 40.1505
19073 2 54.8956 2.90434 41.0504
19074 1 69.8944 10.3182 67.3673
19075 2 70.689 10.0628 66.8165
19076 2 69.8987 9.79653 68.2205
19077 1 77.3604 13.1885 27.713
19078 2 77.9449 12.3889 27.5753
19079 2 77.587 13.6206 28.5859
19080 1 47.9363 28.7916 60.6609
19081 2 48.3709 27.8914 60.6347
19082 2 48.6186 29.4969 60.4683
19083 1 78.4735 6.35816 81.8764
19084 2 78.2628 6.84235 81.0272
19085 2 79.1766 5.66886 81.7015
19086 1 26.1354 16.772 87.5181
19087 2 26.0727 16.4501 86.5734
19088 2 25.3507 16.4345 88.0381
19089 1 14.8141 20.1922 73.8066
19090 2 13.9598 19.7875 74.1325
19091 2 14.8248 20.1883 72.8067
19092 1 76.0861 7.99386 30.0253
19093 2 76.1657 8.51216 29.1738
19094 2 76.3937 8.56 30.7901
19095 1 20.543 4.52529 55.8515
19096 2 20.8272 4.40158 56.8022
19097 2 21.076 3.91773 55.2625
19098 1 53.84 0.10132 37.223
19099 2 54.0181 29.4169 36.5161
19100 2 53.2062 0.789028 36.869
19101 1 13.7545 27.4945 80.5668
19102 2 12.8603 27.9412 80.5951
19103 2 14.0169 27.2152 81.4904
19104 1 45.4122 2.2775 61.1655
19105 2 44.993 1.94609 62.0107
19106 2 44.8686 3.03179 60.7972
19107 1 53.5763 9.57266 31.8863
19108 2 53.5139 9.66367 32.8802
19109 2 52.8702 10.1343 31.4551
19110 1 13.5684 6.93952 14.3107
19111 2 13.4749 7.8233 13.8523
19112 2 12.6829 6.66221 14.6838
19113 1 7.67541 13.9691 59.499
19114 2 7.14862 13.9261 60.348
19115 2 8.04596 13.0639 59.2906
19116 1 8.30366 12.919 45.8282
19117 2 7.43901 12.7866 46.3128
19118 2 8.41946 12.1941 45.149
19119 1 15.7032 14.0353 29.985
19120 2 15.0723 13.3541 29.6136
19121 2 15.1981 14.6791 30.5598
19122 1 36.0749 28.1588 43.8195
19123 2 35.4751 28.6009 43.1525
19124 2 36.4581 27.325 43.422
19125 1 24.7597 27.3171 43.8418
19126 2 24.1692 28.088 44.0809
19127 2 25.7081 27.6289 43.7848
19128 1 11.0989 24.787 51.4023
19129 2 11.5453 25.1376 52.2256
19130 2 11.7518 24.7836 50.6449
19131 1 25.6349 4.16611 80.5493
19132 2 25.5901 3.75816 79.6374
19133 2 24.8426 3.87349 81.0847
19134 1 24.9847 16.2744 23.9612
19135 2 25.6583 16.4483 24.6795
19136 2 25.453 15.9706 23.1315
19137 1 58.1303 17.024 68.0539
19138 2 58.3156 17.3648 68.9756
19139 2 58.6272 17.5792 67.387
19140 1 71.4823 13.6805 12.3356
19141 2 70.541 13.7893 12.016
19142 2 71.4988 13.058 13.118
19143 1 69.7942 6.73786 18.1909
19144 2 70.6758 6.28657 18.0528
19145 2 69.942 7.64405 18.5871
19146 1 2.29952 22.7751 11.0314
19147 2 2.92519 23.3454 11.5636
19148 2 2.62726 21.8303 11.0324
19149 1 72.9956 23.0451 21.2529
19150 2 73.0287 22.4046 20.4856
19151 2 73.13 22.5465 22.1093
19152 1 73.99 27.4316 89.8725
19153 2 74.0442 26.4332 89.8604
19154 2 73.0552 27.7172 89.6612
19155 1 46.5502 14.6083 55.5888
19156 2 45.6256 14.7572 55.2383
19157 2 46.5827 14.8525 56.558
19158 1 36.0387 0.70823 45.8665
19159 2 35.6964 0.83481 44.9355
19160 2 35.438 1.18281 46.51
19161 1 48.1406 4.49984 42.6544
19162 2 47.6761 3.6643 42.9479
19163 2 49.0924 4.47706 42.9603
19164 1 2.69786 8.14701 26.2494
19165 2 3.54251 7.87928 26.713
19166 2 2.59115 7.60829 25.4137
19167 1 64.4332 5.41296 33.3061
19168 2 64.8269 5.48415 34.2226
19169 2 64.9747 5.95968 32.6674
19170 1 25.5066 23.0692 57.2867
19171 2 26.4169 23.1825 56.8884
19172 2 24.9494 22.4951 56.6867
19173 1 41.779 13.7141 84.0346
19174 2 41.6003 14.4947 84.6335
19175 2 42.6828 13.8134 83.6183
19176 1 14.2652 24.0563 20.6183
19177 2 14.453 25.0269 20.4673
19178 2 14.6281 23.5237 19.8537
19179 1 44.9773 25.5068 45.834
19180 2 44.9495 25.0471 44.9464
19181 2 44.1367 25.3092 46.3383
19182 1 8.67019 17.5703 59.0745
19183 2 8.8795 18.2476 58.3693
19184 2 9.25917 17.7225 59.8682
19185 1 47.0945 9.55019 37.9082
19186 2 47.4491 10.2863 37.3316
19187 2 47.7327 9.37769 38.6585
19188 1 36.0085 15.2132 45.5985
19189 2 35.2066 15.7967 45.7273
19190 2 36.8217 15.6842 45.9402
19191 1 10.4343 5.53928 90.0232
19192 2 9.73154 6.15002 90.3881
19193 2 10.649 5.80241 89.0827
19194 1 16.8168 1.21528 61.9995
19195 2 15.8189 1.18183 62.0559
19196 2 17.2095 0.948605 62.8796
19197 1 44.6077 22.7589 59.5865
19198 2 43.8334 22.1841 59.8514
19199 2 44.5324 23.6481 60.0378
19200 1 19.013 25.7831 90.7482
19201 2 18.281 25.1018 90.743
19202 2 19.5973 25.6508 89.9475
19203 1 3.14946 25.3204 39.9502
19204 2 3.53065 24.4091 39.7946
19205 2 2.2394 25.2362 40.356
19206 1 75.5868 3.58168 53.5401
19207 2 74.8734 2.9544 53.8524
19208 2 75.2496 4.10777 52.7593
19209 1 21.3262 18.916 46.8867
19210 2 20.9054 19.7919 46.6506
19211 2 22.2985 18.9398 46.654
19212 1 45.7752 20.3865 51.5562
19213 2 45.9983 21.017 52.2997
19214 2 45.1861 19.6569 51.9034
19215 1 22.6026 1.96991 48.2267
19216 2 23.1126 1.24226 47.7679
19217 2 23.2292 2.70659 48.4812
19218 1 43.7476 12.029 71.7984
19219 2 44.7265 11.9586 71.9905
19220 2 43.588 11.8821 70.8223
19221 1 5.41703 4.33272 43.5274
19222 2 6.00079 3.70947 44.0477
19223 2 4.4998 4.34093 43.9256
19224 1 19.2267 5.91116 66.0699
19225 2 18.7036 5.43581 66.7774
19226 2 18.6426 6.07077 65.2741
19227 1 36.828 10.5048 64.5346
19228 2 37.4347 9.71013 64.5141
19229 2 36.1219 10.4033 63.8337
19230 1 58.5446 17.7847 70.7182
19231 2 58.7475 17.0218 71.3321
19232 2 58.253 18.5763 71.2552
19233 1 23.2564 29.2328 45.2343
19234 2 23.7802 28.9254 46.0288
19235 2 23.2181 0.232012 45.2266
19236 1 37.5764 18.5325 88.8588
19237 2 38.1417 18.918 88.1295
19238 2 36.6126 18.7163 88.666
19239 1 16.4505 23.7572 77.4065
19240 2 17.4201 23.8463 77.6342
19241 2 15.9568 24.565 77.7287
19242 1 56.9915 27.3601 81.7602
19243 2 56.9625 28.2591 82.1971
19244 2 56.069 26.9755 81.7275
19245 1 7.51803 9.44669 58.2029
19246 2 7.67269 9.15806 57.258
19247 2 6.75923 8.92377 58.5912
19248 1 1.53297 10.1306 78.3631
19249 2 2.10752 9.35097 78.6123
19250 2 1.82954 10.4944 77.4801
19251 1 15.703 28.4104 85.6653
19252 2 16.068 29.1313 86.2544
19253 2 14.885 28.7447 85.1972
19254 1 20.8205 11.787 33.1977
19255 2 20.9532 12.7566 33.4032
19256 2 20.4226 11.6911 32.2853
19257 1 34.6271 6.44523 36.6437
19258 2 35.0213 6.30852 37.5525
19259 2 35.0594 5.8187 35.9952
19260 1 5.68139 22.4756 77.8538
19261 2 5.04102 22.7956 78.552
19262 2 6.61106 22.4913 78.2218
19263 1 65.4152 0.24516 76.4696
19264 2 65.3747 0.0724144 77.4537
19265 2 66.3598 0.154913 76.154
19266 1 4.67468 28.8779 40.03
19267 2 5.31108 29.5728 39.6953
19268 2 4.38133 28.3 39.2685
19269 1 46.4773 24.7587 74.2741
19270 2 47.2033 25.2472 74.7582
19271 2 46.2956 23.8899 74.7347
19272 1 41.4557 16.4903 68.1804
19273 2 41.5199 16.6623 67.1974
19274 2 40.535 16.1701 68.4033
19275 1 38.6445 9.97911 67.6763
19276 2 39.3347 9.75455 66.9884
19277 2 38.6538 10.9641 67.8486
19278 1 71.8749 13.461 37.3349
19279 2 71.4409 14.1945 37.858
19280 2 72.8673 13.5832 37.3498
19281 1 52.9013 20.2726 48.8066
19282 2 52.0013 20.4611 49.1996
19283 2 52.7929 19.9413 47.8693
19284 1 59.0945 26.1512 70.6333
19285 2 59.3445 27.0067 71.0867
19286 2 59.83 25.4841 70.7513
19287 1 13.7104 5.55929 17.8099
19288 2 14.6583 5.59244 17.493
19289 2 13.499 6.3949 18.3169
19290 1 19.9858 13.3635 90.7526
19291 2 20.7051 13.4177 90.06
19292 2 19.5291 12.4761 90.6902
19293 1 12.7452 14.9371 35.455
19294 2 13.2106 15.0981 34.5847
19295 2 13.239 15.4042 36.1885
19296 1 76.0621 4.30815 79.8649
19297 2 76.8064 4.43664 79.2095
19298 2 75.8816 3.33098 79.9769
19299 1 26.9917 25.6689 32.695
19300 2 27.5577 26.1177 32.0034
19301 2 27.5741 25.1309 33.3045
19302 1 73.1281 25.2124 70.2303
19303 2 72.7283 24.5168 69.6334
19304 2 72.3976 25.7108 70.6971
19305 1 12.5673 20.1148 37.6486
19306 2 12.9195 20.8115 38.2735
19307 2 12.4107 19.2646 38.1514
19308 1 7.95824 12.7728 86.8366
19309 2 7.75583 13.63 86.363
19310 2 8.6956 12.922 87.4954
19311 1 42.7206 5.00387 76.1375
19312 2 42.8034 5.21119 77.1123
19313 2 41.8673 5.38902 75.7861
19314 1 18.302 17.2056 30.8355
19315 2 19.2936 17.2064 30.7061
19316 2 17.852 17.4024 29.9644
19317 1 13.6688 1.66651 42.6161
19318 2 13.9001 2.47479 43.1576
19319 2 14.0524 0.852366 43.052
19320 1 41.9506 10.0362 36.095
19321 2 41.9799 11.0313 36.1893
19322 2 41.7664 9.62219 36.9864
19323 1 49.5546 13.9881 49.0938
19324 2 49.3182 13.0188 49.161
19325 2 49.093 14.3897 48.3027
19326 1 44.2353 22.1844 70.431
19327 2 43.9947 22.7978 69.6788
19328 2 45.1695 21.851 70.3034
19329 1 52.9629 4.89445 40.145
19330 2 53.888 4.81905 40.5172
19331 2 52.3147 4.46423 40.7734
19332 1 17.5578 6.65708 73.254
19333 2 16.8458 6.54562 72.5607
19334 2 17.1383 6.91682 74.1238
19335 1 55.0489 27.5098 32.9857
19336 2 54.9895 27.3364 33.9687
19337 2 55.0445 28.4961 32.8204
19338 1 42.7711 20.2109 54.9843
19339 2 42.5148 20.9804 54.3993
19340 2 42.4138 20.3597 55.9063
19341 1 18.5087 6.36428 22.1828
19342 2 18.1938 5.52496 21.7397
19343 2 17.8084 6.68836 22.8189
19344 1 23.1424 7.74652 65.4532
19345 2 23.1277 8.20194 64.5631
19346 2 23.6192 8.3245 66.1155
19347 1 66.4567 8.37241 69.4665
19348 2 65.7311 9.04708 69.3311
19349 2 66.2776 7.57119 68.8956
19350 1 42.407 23.3367 39.5361
19351 2 41.5921 23.2072 38.9711
19352 2 42.2032 23.0756 40.4797
19353 1 19.7951 1.65792 19.4503
19354 2 20.176 2.33531 18.8209
19355 2 20.4789 1.42344 20.1413
19356 1 10.6851 22.8598 15.7251
19357 2 11.3211 22.7642 16.4909
19358 2 9.97631 23.5244 15.9614
19359 1 25.8122 13.3581 84.7046
19360 2 26.4755 13.7654 84.0768
19361 2 26.037 12.3943 84.8479
19362 1 5.4902 4.71998 76.9724
19363 2 4.82601 5.22546 76.4217
19364 2 6.03527 5.36299 77.5104
19365 1 48.3524 29.3761 39.7541
19366 2 48.7161 0.295756 39.6058
19367 2 47.94 29.3235 40.6636
19368 1 16.0841 13.1343 63.7075
19369 2 15.1208 12.9274 63.5364
19370 2 16.1542 13.8185 64.4335
19371 1 14.8511 1.21889 20.4843
19372 2 15.792 0.965677 20.2593
19373 2 14.7126 2.19064 20.2931
19374 1 49.5478 22.1015 27.4027
19375 2 48.6204 21.7679 27.2335
19376 2 49.5361 22.745 28.1681
19377 1 68.2015 24.5089 52.1698
19378 2 67.8686 25.4478 52.258
19379 2 67.6065 23.8943 52.6878
19380 1 3.65672 16.6405 54.6068
19381 2 2.97465 16.2021 54.0215
19382 2 3.51511 16.3554 55.5548
19383 1 73.4452 24.4084 49.8105
19384 2 73.7447 25.2256 50.303
19385 2 73.5452 24.5568 48.8267
19386 1 50.4132 1.97469 32.3474
19387 2 50.9345 2.82288 32.2533
19388 2 49.9361 1.97239 33.2263
19389 1 24.8481 0.228762 24.5319
19390 2 25.595 0.662603 25.0358
19391 2 24.4597 0.882945 23.883
19392 1 62.1057 5.38513 61.9961
19393 2 62.2214 4.73266 61.2472
19394 2 62.0049 6.30715 61.6223
19395 1 47.7095 4.22699 54.9062
19396 2 47.4058 3.30937 54.6497
19397 2 47.6253 4.83806 54.1191
19398 1 44.9312 20.6376 57.5413
19399 2 44.4371 21.4053 57.1332
19400 2 44.2765 19.9589 57.8741
19401 1 75.2353 24.0833 54.2798
19402 2 75.8066 24.4599 55.0091
19403 2 74.7988 24.8306 53.7788
19404 1 44.7239 14.0588 77.1449
19405 2 44.3822 13.5535 76.3525
19406 2 45.3858 14.7448 76.8427
19407 1 40.9448 20.7606 31.6667
19408 2 40.3679 21.075 32.4205
19409 2 41.6179 21.4662 31.4452
19410 1 48.6887 19.6423 83.1417
19411 2 49.4023 20.2735 83.4458
19412 2 47.8119 20.122 83.1076
19413 1 71.641 11.3586 84.6745
19414 2 72.6077 11.3333 84.9291
19415 2 71.1933 10.5187 84.9815
19416 1 45.0838 11.0445 38.9332
19417 2 45.772 10.4138 38.5748
19418 2 44.7406 11.6202 38.1911
19419 1 72.3026 5.63878 17.9611
19420 2 72.6384 5.70932 17.0218
19421 2 72.4635 6.50271 18.4383
19422 1 78.0258 25.9005 32.2951
19423 2 78.4481 25.1695 31.7591
19424 2 77.825 26.6777 31.6988
19425 1 59.3084 5.96297 42.492
19426 2 58.7297 6.4722 43.1291
19427 2 59.6398 6.57899 41.7774
19428 1 22.5941 28.0158 86.4666
19429 2 22.608 28.9361 86.0756
19430 2 21.6724 27.8063 86.7931
19431 1 22.5299 19.9162 49.7711
19432 2 21.5585 19.9802 49.9996
19433 2 22.6641 20.1673 48.8125
19434 1 9.40721 24.4618 33.7055
19435 2 8.476 24.1428 33.8816
19436 2 9.96545 24.3295 34.5245
19437 1 75.0963 15.347 70.1401
19438 2 74.7824 14.5678 70.6826
19439 2 76.0789 15.2635 69.9743
19440 1 49.072 16.9972 77.3282
19441 2 48.1932 16.8912 77.7935
19442 2 49.0036 16.6324 76.3996
19443 1 17.8272 25.1104 46.9823
19444 2 18.5314 24.4891 46.6387
19445 2 17.2131 24.6124 47.5946
19446 1 34.7925 24.7381 88.9598
19447 2 35.4825 25.3964 88.6591
19448 2 35.0622 23.8186 88.6741
19449 1 7.08486 10.898 78.0664
19450 2 7.85208 10.9005 77.425
19451 2 7.43377 10.8786 79.0034
19452 1 70.1068 9.32582 63.4766
19453 2 70.4943 8.56139 62.9613
19454 2 70.4651 9.31426 64.4101
19455 1 76.0931 4.08444 14.8555
19456 2 75.3688 4.20741 14.1772
19457 2 75.8843 3.28997 15.4258
19458 1 67.6233 8.1631 44.8418
19459 2 66.7507 7.69276 44.71
19460 2 67.8285 8.21723 45.819
19461 1 77.2614 29.8767 38.7104
19462 2 77.1 29.8487 39.6969
19463 2 77.9706 0.552099 38.5078
19464 1 21.934 9.69653 90.1275
19465 2 22.0114 9.52678 89.1451
19466 2 21.0147 10.0298 90.3368
19467 1 5.84399 27.8311 15.6535
19468 2 6.47533 28.5486 15.3593
19469 2 5.69481 27.1894 14.9012
19470 1 0.404231 4.49907 74.954
19471 2 1.25793 4.52145 75.4743
19472 2 0.576595 4.11461 74.0471
19473 1 73.908 3.34511 64.3705
19474 2 73.722 2.52053 63.8362
19475 2 73.2528 4.05839 64.1215
19476 1 13.3144 9.37062 90.1706
19477 2 13.5252 8.74575 89.4189
19478 2 12.4163 9.1461 90.5488
19479 1 10.1226 22.8779 69.9815
19480 2 10.1096 23.655 69.3522
19481 2 9.56943 23.0918 70.7867
19482 1 55.905 23.4476 33.0073
19483 2 55.3672 24.1957 33.3962
19484 2 56.0494 22.7441 33.7031
19485 1 59.3329 7.63438 39.4859
19486 2 60.2369 7.35721 39.1605
19487 2 59.2845 8.63242 39.5257
