ITEM: TIMESTEP
0
ITEM: NUMBER OF ATOMS
19487
ITEM: BOX BOUNDS pp pp ff
0.0000000000000000e+00 8.0000000000000000e+01
0.0000000000000000e+00 3.0000000000000000e+01
0.0000000000000000e+00 1.1647665900000000e+02
ITEM: ATOMS id type x y z
1 5 0 0 0
2 5 1.24592 2.158 0
3 5 0 4.316 0
4 5 1.24592 6.474 0
5 5 0 8.632 0
6 5 1.24592 10.79 0
7 5 0 12.948 0
8 5 1.24592 15.106 0
9 5 0 17.264 0
10 5 1.24592 19.422 0
11 5 0 21.58 0
12 5 1.24592 23.738 0
13 5 2.49184 0 0
14 5 3.73777 2.158 0
15 5 2.49184 4.316 0
16 5 3.73777 6.474 0
17 5 2.49184 8.632 0
18 5 3.73777 10.79 0
19 5 2.49184 12.948 0
20 5 3.73777 15.106 0
21 5 2.49184 17.264 0
22 5 3.73777 19.422 0
23 5 2.49184 21.58 0
24 5 3.73777 23.738 0
25 5 4.98369 0 0
26 5 6.22961 2.158 0
27 5 4.98369 4.316 0
28 5 6.22961 6.474 0
29 5 4.98369 8.632 0
30 5 6.22961 10.79 0
31 5 4.98369 12.948 0
32 5 6.22961 15.106 0
33 5 4.98369 17.264 0
34 5 6.22961 19.422 0
35 5 4.98369 21.58 0
36 5 6.22961 23.738 0
37 5 7.47553 0 0
38 5 8.72146 2.158 0
39 5 7.47553 4.316 0
40 5 8.72146 6.474 0
41 5 7.47553 8.632 0
42 5 8.72146 10.79 0
43 5 7.47553 12.948 0
44 5 8.72146 15.106 0
45 5 7.47553 17.264 0
46 5 8.72146 19.422 0
47 5 7.47553 21.58 0
48 5 8.72146 23.738 0
49 5 9.96738 0 0
50 5 11.2133 2.158 0
51 5 9.96738 4.316 0
52 5 11.2133 6.474 0
53 5 9.96738 8.632 0
54 5 11.2133 10.79 0
55 5 9.96738 12.948 0
56 5 11.2133 15.106 0
57 5 9.96738 17.264 0
58 5 11.2133 19.422 0
59 5 9.96738 21.58 0
60 5 11.2133 23.738 0
61 5 12.4592 0 0
62 5 13.7051 2.158 0
63 5 12.4592 4.316 0
64 5 13.7051 6.474 0
65 5 12.4592 8.632 0
66 5 13.7051 10.79 0
67 5 12.4592 12.948 0
68 5 13.7051 15.106 0
69 5 12.4592 17.264 0
70 5 13.7051 19.422 0
71 5 12.4592 21.58 0
72 5 13.7051 23.738 0
73 5 14.9511 0 0
74 5 16.197 2.158 0
75 5 14.9511 4.316 0
76 5 16.197 6.474 0
77 5 14.9511 8.632 0
78 5 16.197 10.79 0
79 5 14.9511 12.948 0
80 5 16.197 15.106 0
81 5 14.9511 17.264 0
82 5 16.197 19.422 0
83 5 14.9511 21.58 0
84 5 16.197 23.738 0
85 5 17.4429 0 0
86 5 18.6888 2.158 0
87 5 17.4429 4.316 0
88 5 18.6888 6.474 0
89 5 17.4429 8.632 0
90 5 18.6888 10.79 0
91 5 17.4429 12.948 0
92 5 18.6888 15.106 0
93 5 17.4429 17.264 0
94 5 18.6888 19.422 0
95 5 17.4429 21.58 0
96 5 18.6888 23.738 0
97 5 19.9348 0 0
98 5 21.1807 2.158 0
99 5 19.9348 4.316 0
100 5 21.1807 6.474 0
101 5 19.9348 8.632 0
102 5 21.1807 10.79 0
103 5 19.9348 12.948 0
104 5 21.1807 15.106 0
105 5 19.9348 17.264 0
106 5 21.1807 19.422 0
107 5 19.9348 21.58 0
108 5 21.1807 23.738 0
109 5 22.4266 0 0
110 5 23.6725 2.158 0
111 5 22.4266 4.316 0
112 5 23.6725 6.474 0
113 5 22.4266 8.632 0
114 5 23.6725 10.79 0
115 5 22.4266 12.948 0
116 5 23.6725 15.106 0
117 5 22.4266 17.264 0
118 5 23.6725 19.422 0
119 5 22.4266 21.58 0
120 5 23.6725 23.738 0
121 5 24.9184 0 0
122 5 26.1644 2.158 0
123 5 24.9184 4.316 0
124 5 26.1644 6.474 0
125 5 24.9184 8.632 0
126 5 26.1644 10.79 0
127 5 24.9184 12.948 0
128 5 26.1644 15.106 0
129 5 24.9184 17.264 0
130 5 26.1644 19.422 0
131 5 24.9184 21.58 0
132 5 26.1644 23.738 0
133 5 27.4103 0 0
134 5 28.6562 2.158 0
135 5 27.4103 4.316 0
136 5 28.6562 6.474 0
137 5 27.4103 8.632 0
138 5 28.6562 10.79 0
139 5 27.4103 12.948 0
140 5 28.6562 15.106 0
141 5 27.4103 17.264 0
142 5 28.6562 19.422 0
143 5 27.4103 21.58 0
144 5 28.6562 23.738 0
145 5 29.9021 0 0
146 5 31.1481 2.158 0
147 5 29.9021 4.316 0
148 5 31.1481 6.474 0
149 5 29.9021 8.632 0
150 5 31.1481 10.79 0
151 5 29.9021 12.948 0
152 5 31.1481 15.106 0
153 5 29.9021 17.264 0
154 5 31.1481 19.422 0
155 5 29.9021 21.58 0
156 5 31.1481 23.738 0
157 5 32.394 0 0
158 5 33.6399 2.158 0
159 5 32.394 4.316 0
160 5 33.6399 6.474 0
161 5 32.394 8.632 0
162 5 33.6399 10.79 0
163 5 32.394 12.948 0
164 5 33.6399 15.106 0
165 5 32.394 17.264 0
166 5 33.6399 19.422 0
167 5 32.394 21.58 0
168 5 33.6399 23.738 0
169 5 34.8858 0 0
170 5 36.1317 2.158 0
171 5 34.8858 4.316 0
172 5 36.1317 6.474 0
173 5 34.8858 8.632 0
174 5 36.1317 10.79 0
175 5 34.8858 12.948 0
176 5 36.1317 15.106 0
177 5 34.8858 17.264 0
178 5 36.1317 19.422 0
179 5 34.8858 21.58 0
180 5 36.1317 23.738 0
181 5 37.3777 0 0
182 5 38.6236 2.158 0
183 5 37.3777 4.316 0
184 5 38.6236 6.474 0
185 5 37.3777 8.632 0
186 5 38.6236 10.79 0
187 5 37.3777 12.948 0
188 5 38.6236 15.106 0
189 5 37.3777 17.264 0
190 5 38.6236 19.422 0
191 5 37.3777 21.58 0
192 5 38.6236 23.738 0
193 5 39.8695 0 0
194 5 41.1154 2.158 0
195 5 39.8695 4.316 0
196 5 41.1154 6.474 0
197 5 39.8695 8.632 0
198 5 41.1154 10.79 0
199 5 39.8695 12.948 0
200 5 41.1154 15.106 0
201 5 39.8695 17.264 0
202 5 41.1154 19.422 0
203 5 39.8695 21.58 0
204 5 41.1154 23.738 0
205 5 42.3614 0 0
206 5 43.6073 2.158 0
207 5 42.3614 4.316 0
208 5 43.6073 6.474 0
209 5 42.3614 8.632 0
210 5 43.6073 10.79 0
211 5 42.3614 12.948 0
212 5 43.6073 15.106 0
213 5 42.3614 17.264 0
214 5 43.6073 19.422 0
215 5 42.3614 21.58 0
216 5 43.6073 23.738 0
217 5 44.8532 0 0
218 5 46.0991 2.158 0
219 5 44.8532 4.316 0
220 5 46.0991 6.474 0
221 5 44.8532 8.632 0
222 5 46.0991 10.79 0
223 5 44.8532 12.948 0
224 5 46.0991 15.106 0
225 5 44.8532 17.264 0
226 5 46.0991 19.422 0
227 5 44.8532 21.58 0
228 5 46.0991 23.738 0
229 5 47.345 0 0
230 5 48.591 2.158 0
231 5 47.345 4.316 0
232 5 48.591 6.474 0
233 5 47.345 8.632 0
234 5 48.591 10.79 0
235 5 47.345 12.948 0
236 5 48.591 15.106 0
237 5 47.345 17.264 0
238 5 48.591 19.422 0
239 5 47.345 21.58 0
240 5 48.591 23.738 0
241 5 49.8369 0 0
242 5 51.0828 2.158 0
243 5 49.8369 4.316 0
244 5 51.0828 6.474 0
245 5 49.8369 8.632 0
246 5 51.0828 10.79 0
247 5 49.8369 12.948 0
248 5 51.0828 15.106 0
249 5 49.8369 17.264 0
250 5 51.0828 19.422 0
251 5 49.8369 21.58 0
252 5 51.0828 23.738 0
253 5 52.3287 0 0
254 5 53.5746 2.158 0
255 5 52.3287 4.316 0
256 5 53.5746 6.474 0
257 5 52.3287 8.632 0
258 5 53.5746 10.79 0
259 5 52.3287 12.948 0
260 5 53.5746 15.106 0
261 5 52.3287 17.264 0
262 5 53.5746 19.422 0
263 5 52.3287 21.58 0
264 5 53.5746 23.738 0
265 5 54.8206 0 0
266 5 56.0665 2.158 0
267 5 54.8206 4.316 0
268 5 56.0665 6.474 0
269 5 54.8206 8.632 0
270 5 56.0665 10.79 0
271 5 54.8206 12.948 0
272 5 56.0665 15.106 0
273 5 54.8206 17.264 0
274 5 56.0665 19.422 0
275 5 54.8206 21.58 0
276 5 56.0665 23.738 0
277 5 57.3124 0 0
278 5 58.5583 2.158 0
279 5 57.3124 4.316 0
280 5 58.5583 6.474 0
281 5 57.3124 8.632 0
282 5 58.5583 10.79 0
283 5 57.3124 12.948 0
284 5 58.5583 15.106 0
285 5 57.3124 17.264 0
286 5 58.5583 19.422 0
287 5 57.3124 21.58 0
288 5 58.5583 23.738 0
289 5 59.8043 0 0
290 5 61.0502 2.158 0
291 5 59.8043 4.316 0
292 5 61.0502 6.474 0
293 5 59.8043 8.632 0
294 5 61.0502 10.79 0
295 5 59.8043 12.948 0
296 5 61.0502 15.106 0
297 5 59.8043 17.264 0
298 5 61.0502 19.422 0
299 5 59.8043 21.58 0
300 5 61.0502 23.738 0
301 5 62.2961 0 0
302 5 63.542 2.158 0
303 5 62.2961 4.316 0
304 5 63.542 6.474 0
305 5 62.2961 8.632 0
306 5 63.542 10.79 0
307 5 62.2961 12.948 0
308 5 63.542 15.106 0
309 5 62.2961 17.264 0
310 5 63.542 19.422 0
311 5 62.2961 21.58 0
312 5 63.542 23.738 0
313 5 64.7879 0 0
314 5 66.0339 2.158 0
315 5 64.7879 4.316 0
316 5 66.0339 6.474 0
317 5 64.7879 8.632 0
318 5 66.0339 10.79 0
319 5 64.7879 12.948 0
320 5 66.0339 15.106 0
321 5 64.7879 17.264 0
322 5 66.0339 19.422 0
323 5 64.7879 21.58 0
324 5 66.0339 23.738 0
325 5 67.2798 0 0
326 5 68.5257 2.158 0
327 5 67.2798 4.316 0
328 5 68.5257 6.474 0
329 5 67.2798 8.632 0
330 5 68.5257 10.79 0
331 5 67.2798 12.948 0
332 5 68.5257 15.106 0
333 5 67.2798 17.264 0
334 5 68.5257 19.422 0
335 5 67.2798 21.58 0
336 5 68.5257 23.738 0
337 5 69.7716 0 0
338 5 71.0176 2.158 0
339 5 69.7716 4.316 0
340 5 71.0176 6.474 0
341 5 69.7716 8.632 0
342 5 71.0176 10.79 0
343 5 69.7716 12.948 0
344 5 71.0176 15.106 0
345 5 69.7716 17.264 0
346 5 71.0176 19.422 0
347 5 69.7716 21.58 0
348 5 71.0176 23.738 0
349 5 72.2635 0 0
350 5 73.5094 2.158 0
351 5 72.2635 4.316 0
352 5 73.5094 6.474 0
353 5 72.2635 8.632 0
354 5 73.5094 10.79 0
355 5 72.2635 12.948 0
356 5 73.5094 15.106 0
357 5 72.2635 17.264 0
358 5 73.5094 19.422 0
359 5 72.2635 21.58 0
360 5 73.5094 23.738 0
361 5 74.7553 0 0
362 5 76.0012 2.158 0
363 5 74.7553 4.316 0
364 5 76.0012 6.474 0
365 5 74.7553 8.632 0
366 5 76.0012 10.79 0
367 5 74.7553 12.948 0
368 5 76.0012 15.106 0
369 5 74.7553 17.264 0
370 5 76.0012 19.422 0
371 5 74.7553 21.58 0
372 5 76.0012 23.738 0
373 5 77.2472 0 0
374 5 78.4931 2.158 0
375 5 77.2472 4.316 0
376 5 78.4931 6.474 0
377 5 77.2472 8.632 0
378 5 78.4931 10.79 0
379 5 77.2472 12.948 0
380 5 78.4931 15.106 0
381 5 77.2472 17.264 0
382 5 78.4931 19.422 0
383 5 77.2472 21.58 0
384 5 78.4931 23.738 0
385 5 0.83061 1.43867 2.03458
386 5 2.07654 3.59667 2.03458
387 5 0.83061 5.75467 2.03458
388 5 2.07654 7.91267 2.03458
389 5 0.83061 10.0707 2.03458
390 5 2.07654 12.2287 2.03458
391 5 0.83061 14.3867 2.03458
392 5 2.07654 16.5447 2.03458
393 5 0.83061 18.7027 2.03458
394 5 2.07654 20.8607 2.03458
395 5 0.83061 23.0187 2.03458
396 5 2.07654 25.1767 2.03458
397 5 3.32246 1.43867 2.03458
398 5 4.56838 3.59667 2.03458
399 5 3.32246 5.75467 2.03458
400 5 4.56838 7.91267 2.03458
401 5 3.32246 10.0707 2.03458
402 5 4.56838 12.2287 2.03458
403 5 3.32246 14.3867 2.03458
404 5 4.56838 16.5447 2.03458
405 5 3.32246 18.7027 2.03458
406 5 4.56838 20.8607 2.03458
407 5 3.32246 23.0187 2.03458
408 5 4.56838 25.1767 2.03458
409 5 5.8143 1.43867 2.03458
410 5 7.06023 3.59667 2.03458
411 5 5.8143 5.75467 2.03458
412 5 7.06023 7.91267 2.03458
413 5 5.8143 10.0707 2.03458
414 5 7.06023 12.2287 2.03458
415 5 5.8143 14.3867 2.03458
416 5 7.06023 16.5447 2.03458
417 5 5.8143 18.7027 2.03458
418 5 7.06023 20.8607 2.03458
419 5 5.8143 23.0187 2.03458
420 5 7.06023 25.1767 2.03458
421 5 8.30615 1.43867 2.03458
422 5 9.55207 3.59667 2.03458
423 5 8.30615 5.75467 2.03458
424 5 9.55207 7.91267 2.03458
425 5 8.30615 10.0707 2.03458
426 5 9.55207 12.2287 2.03458
427 5 8.30615 14.3867 2.03458
428 5 9.55207 16.5447 2.03458
429 5 8.30615 18.7027 2.03458
430 5 9.55207 20.8607 2.03458
431 5 8.30615 23.0187 2.03458
432 5 9.55207 25.1767 2.03458
433 5 10.798 1.43867 2.03458
434 5 12.0439 3.59667 2.03458
435 5 10.798 5.75467 2.03458
436 5 12.0439 7.91267 2.03458
437 5 10.798 10.0707 2.03458
438 5 12.0439 12.2287 2.03458
439 5 10.798 14.3867 2.03458
440 5 12.0439 16.5447 2.03458
441 5 10.798 18.7027 2.03458
442 5 12.0439 20.8607 2.03458
443 5 10.798 23.0187 2.03458
444 5 12.0439 25.1767 2.03458
445 5 13.2898 1.43867 2.03458
446 5 14.5358 3.59667 2.03458
447 5 13.2898 5.75467 2.03458
448 5 14.5358 7.91267 2.03458
449 5 13.2898 10.0707 2.03458
450 5 14.5358 12.2287 2.03458
451 5 13.2898 14.3867 2.03458
452 5 14.5358 16.5447 2.03458
453 5 13.2898 18.7027 2.03458
454 5 14.5358 20.8607 2.03458
455 5 13.2898 23.0187 2.03458
456 5 14.5358 25.1767 2.03458
457 5 15.7817 1.43867 2.03458
458 5 17.0276 3.59667 2.03458
459 5 15.7817 5.75467 2.03458
460 5 17.0276 7.91267 2.03458
461 5 15.7817 10.0707 2.03458
462 5 17.0276 12.2287 2.03458
463 5 15.7817 14.3867 2.03458
464 5 17.0276 16.5447 2.03458
465 5 15.7817 18.7027 2.03458
466 5 17.0276 20.8607 2.03458
467 5 15.7817 23.0187 2.03458
468 5 17.0276 25.1767 2.03458
469 5 18.2735 1.43867 2.03458
470 5 19.5194 3.59667 2.03458
471 5 18.2735 5.75467 2.03458
472 5 19.5194 7.91267 2.03458
473 5 18.2735 10.0707 2.03458
474 5 19.5194 12.2287 2.03458
475 5 18.2735 14.3867 2.03458
476 5 19.5194 16.5447 2.03458
477 5 18.2735 18.7027 2.03458
478 5 19.5194 20.8607 2.03458
479 5 18.2735 23.0187 2.03458
480 5 19.5194 25.1767 2.03458
481 5 20.7654 1.43867 2.03458
482 5 22.0113 3.59667 2.03458
483 5 20.7654 5.75467 2.03458
484 5 22.0113 7.91267 2.03458
485 5 20.7654 10.0707 2.03458
486 5 22.0113 12.2287 2.03458
487 5 20.7654 14.3867 2.03458
488 5 22.0113 16.5447 2.03458
489 5 20.7654 18.7027 2.03458
490 5 22.0113 20.8607 2.03458
491 5 20.7654 23.0187 2.03458
492 5 22.0113 25.1767 2.03458
493 5 23.2572 1.43867 2.03458
494 5 24.5031 3.59667 2.03458
495 5 23.2572 5.75467 2.03458
496 5 24.5031 7.91267 2.03458
497 5 23.2572 10.0707 2.03458
498 5 24.5031 12.2287 2.03458
499 5 23.2572 14.3867 2.03458
500 5 24.5031 16.5447 2.03458
501 5 23.2572 18.7027 2.03458
502 5 24.5031 20.8607 2.03458
503 5 23.2572 23.0187 2.03458
504 5 24.5031 25.1767 2.03458
505 5 25.7491 1.43867 2.03458
506 5 26.995 3.59667 2.03458
507 5 25.7491 5.75467 2.03458
508 5 26.995 7.91267 2.03458
509 5 25.7491 10.0707 2.03458
510 5 26.995 12.2287 2.03458
511 5 25.7491 14.3867 2.03458
512 5 26.995 16.5447 2.03458
513 5 25.7491 18.7027 2.03458
514 5 26.995 20.8607 2.03458
515 5 25.7491 23.0187 2.03458
516 5 26.995 25.1767 2.03458
517 5 28.2409 1.43867 2.03458
518 5 29.4868 3.59667 2.03458
519 5 28.2409 5.75467 2.03458
520 5 29.4868 7.91267 2.03458
521 5 28.2409 10.0707 2.03458
522 5 29.4868 12.2287 2.03458
523 5 28.2409 14.3867 2.03458
524 5 29.4868 16.5447 2.03458
525 5 28.2409 18.7027 2.03458
526 5 29.4868 20.8607 2.03458
527 5 28.2409 23.0187 2.03458
528 5 29.4868 25.1767 2.03458
529 5 30.7327 1.43867 2.03458
530 5 31.9787 3.59667 2.03458
531 5 30.7327 5.75467 2.03458
532 5 31.9787 7.91267 2.03458
533 5 30.7327 10.0707 2.03458
534 5 31.9787 12.2287 2.03458
535 5 30.7327 14.3867 2.03458
536 5 31.9787 16.5447 2.03458
537 5 30.7327 18.7027 2.03458
538 5 31.9787 20.8607 2.03458
539 5 30.7327 23.0187 2.03458
540 5 31.9787 25.1767 2.03458
541 5 33.2246 1.43867 2.03458
542 5 34.4705 3.59667 2.03458
543 5 33.2246 5.75467 2.03458
544 5 34.4705 7.91267 2.03458
545 5 33.2246 10.0707 2.03458
546 5 34.4705 12.2287 2.03458
547 5 33.2246 14.3867 2.03458
548 5 34.4705 16.5447 2.03458
549 5 33.2246 18.7027 2.03458
550 5 34.4705 20.8607 2.03458
551 5 33.2246 23.0187 2.03458
552 5 34.4705 25.1767 2.03458
553 5 35.7164 1.43867 2.03458
554 5 36.9624 3.59667 2.03458
555 5 35.7164 5.75467 2.03458
556 5 36.9624 7.91267 2.03458
557 5 35.7164 10.0707 2.03458
558 5 36.9624 12.2287 2.03458
559 5 35.7164 14.3867 2.03458
560 5 36.9624 16.5447 2.03458
561 5 35.7164 18.7027 2.03458
562 5 36.9624 20.8607 2.03458
563 5 35.7164 23.0187 2.03458
564 5 36.9624 25.1767 2.03458
565 5 38.2083 1.43867 2.03458
566 5 39.4542 3.59667 2.03458
567 5 38.2083 5.75467 2.03458
568 5 39.4542 7.91267 2.03458
569 5 38.2083 10.0707 2.03458
570 5 39.4542 12.2287 2.03458
571 5 38.2083 14.3867 2.03458
572 5 39.4542 16.5447 2.03458
573 5 38.2083 18.7027 2.03458
574 5 39.4542 20.8607 2.03458
575 5 38.2083 23.0187 2.03458
576 5 39.4542 25.1767 2.03458
577 5 40.7001 1.43867 2.03458
578 5 41.946 3.59667 2.03458
579 5 40.7001 5.75467 2.03458
580 5 41.946 7.91267 2.03458
581 5 40.7001 10.0707 2.03458
582 5 41.946 12.2287 2.03458
583 5 40.7001 14.3867 2.03458
584 5 41.946 16.5447 2.03458
585 5 40.7001 18.7027 2.03458
586 5 41.946 20.8607 2.03458
587 5 40.7001 23.0187 2.03458
588 5 41.946 25.1767 2.03458
589 5 43.192 1.43867 2.03458
590 5 44.4379 3.59667 2.03458
591 5 43.192 5.75467 2.03458
592 5 44.4379 7.91267 2.03458
593 5 43.192 10.0707 2.03458
594 5 44.4379 12.2287 2.03458
595 5 43.192 14.3867 2.03458
596 5 44.4379 16.5447 2.03458
597 5 43.192 18.7027 2.03458
598 5 44.4379 20.8607 2.03458
599 5 43.192 23.0187 2.03458
600 5 44.4379 25.1767 2.03458
601 5 45.6838 1.43867 2.03458
602 5 46.9297 3.59667 2.03458
603 5 45.6838 5.75467 2.03458
604 5 46.9297 7.91267 2.03458
605 5 45.6838 10.0707 2.03458
606 5 46.9297 12.2287 2.03458
607 5 45.6838 14.3867 2.03458
608 5 46.9297 16.5447 2.03458
609 5 45.6838 18.7027 2.03458
610 5 46.9297 20.8607 2.03458
611 5 45.6838 23.0187 2.03458
612 5 46.9297 25.1767 2.03458
613 5 48.1757 1.43867 2.03458
614 5 49.4216 3.59667 2.03458
615 5 48.1757 5.75467 2.03458
616 5 49.4216 7.91267 2.03458
617 5 48.1757 10.0707 2.03458
618 5 49.4216 12.2287 2.03458
619 5 48.1757 14.3867 2.03458
620 5 49.4216 16.5447 2.03458
621 5 48.1757 18.7027 2.03458
622 5 49.4216 20.8607 2.03458
623 5 48.1757 23.0187 2.03458
624 5 49.4216 25.1767 2.03458
625 5 50.6675 1.43867 2.03458
626 5 51.9134 3.59667 2.03458
627 5 50.6675 5.75467 2.03458
628 5 51.9134 7.91267 2.03458
629 5 50.6675 10.0707 2.03458
630 5 51.9134 12.2287 2.03458
631 5 50.6675 14.3867 2.03458
632 5 51.9134 16.5447 2.03458
633 5 50.6675 18.7027 2.03458
634 5 51.9134 20.8607 2.03458
635 5 50.6675 23.0187 2.03458
636 5 51.9134 25.1767 2.03458
637 5 53.1594 1.43867 2.03458
638 5 54.4053 3.59667 2.03458
639 5 53.1594 5.75467 2.03458
640 5 54.4053 7.91267 2.03458
641 5 53.1594 10.0707 2.03458
642 5 54.4053 12.2287 2.03458
643 5 53.1594 14.3867 2.03458
644 5 54.4053 16.5447 2.03458
645 5 53.1594 18.7027 2.03458
646 5 54.4053 20.8607 2.03458
647 5 53.1594 23.0187 2.03458
648 5 54.4053 25.1767 2.03458
649 5 55.6512 1.43867 2.03458
650 5 56.8971 3.59667 2.03458
651 5 55.6512 5.75467 2.03458
652 5 56.8971 7.91267 2.03458
653 5 55.6512 10.0707 2.03458
654 5 56.8971 12.2287 2.03458
655 5 55.6512 14.3867 2.03458
656 5 56.8971 16.5447 2.03458
657 5 55.6512 18.7027 2.03458
658 5 56.8971 20.8607 2.03458
659 5 55.6512 23.0187 2.03458
660 5 56.8971 25.1767 2.03458
661 5 58.143 1.43867 2.03458
662 5 59.389 3.59667 2.03458
663 5 58.143 5.75467 2.03458
664 5 59.389 7.91267 2.03458
665 5 58.143 10.0707 2.03458
666 5 59.389 12.2287 2.03458
667 5 58.143 14.3867 2.03458
668 5 59.389 16.5447 2.03458
669 5 58.143 18.7027 2.03458
670 5 59.389 20.8607 2.03458
671 5 58.143 23.0187 2.03458
672 5 59.389 25.1767 2.03458
673 5 60.6349 1.43867 2.03458
674 5 61.8808 3.59667 2.03458
675 5 60.6349 5.75467 2.03458
676 5 61.8808 7.91267 2.03458
677 5 60.6349 10.0707 2.03458
678 5 61.8808 12.2287 2.03458
679 5 60.6349 14.3867 2.03458
680 5 61.8808 16.5447 2.03458
681 5 60.6349 18.7027 2.03458
682 5 61.8808 20.8607 2.03458
683 5 60.6349 23.0187 2.03458
684 5 61.8808 25.1767 2.03458
685 5 63.1267 1.43867 2.03458
686 5 64.3726 3.59667 2.03458
687 5 63.1267 5.75467 2.03458
688 5 64.3726 7.91267 2.03458
689 5 63.1267 10.0707 2.03458
690 5 64.3726 12.2287 2.03458
691 5 63.1267 14.3867 2.03458
692 5 64.3726 16.5447 2.03458
693 5 63.1267 18.7027 2.03458
694 5 64.3726 20.8607 2.03458
695 5 63.1267 23.0187 2.03458
696 5 64.3726 25.1767 2.03458
697 5 65.6186 1.43867 2.03458
698 5 66.8645 3.59667 2.03458
699 5 65.6186 5.75467 2.03458
700 5 66.8645 7.91267 2.03458
701 5 65.6186 10.0707 2.03458
702 5 66.8645 12.2287 2.03458
703 5 65.6186 14.3867 2.03458
704 5 66.8645 16.5447 2.03458
705 5 65.6186 18.7027 2.03458
706 5 66.8645 20.8607 2.03458
707 5 65.6186 23.0187 2.03458
708 5 66.8645 25.1767 2.03458
709 5 68.1104 1.43867 2.03458
710 5 69.3563 3.59667 2.03458
711 5 68.1104 5.75467 2.03458
712 5 69.3563 7.91267 2.03458
713 5 68.1104 10.0707 2.03458
714 5 69.3563 12.2287 2.03458
715 5 68.1104 14.3867 2.03458
716 5 69.3563 16.5447 2.03458
717 5 68.1104 18.7027 2.03458
718 5 69.3563 20.8607 2.03458
719 5 68.1104 23.0187 2.03458
720 5 69.3563 25.1767 2.03458
721 5 70.6023 1.43867 2.03458
722 5 71.8482 3.59667 2.03458
723 5 70.6023 5.75467 2.03458
724 5 71.8482 7.91267 2.03458
725 5 70.6023 10.0707 2.03458
726 5 71.8482 12.2287 2.03458
727 5 70.6023 14.3867 2.03458
728 5 71.8482 16.5447 2.03458
729 5 70.6023 18.7027 2.03458
730 5 71.8482 20.8607 2.03458
731 5 70.6023 23.0187 2.03458
732 5 71.8482 25.1767 2.03458
733 5 73.0941 1.43867 2.03458
734 5 74.34 3.59667 2.03458
735 5 73.0941 5.75467 2.03458
736 5 74.34 7.91267 2.03458
737 5 73.0941 10.0707 2.03458
738 5 74.34 12.2287 2.03458
739 5 73.0941 14.3867 2.03458
740 5 74.34 16.5447 2.03458
741 5 73.0941 18.7027 2.03458
742 5 74.34 20.8607 2.03458
743 5 73.0941 23.0187 2.03458
744 5 74.34 25.1767 2.03458
745 5 75.5859 1.43867 2.03458
746 5 76.8319 3.59667 2.03458
747 5 75.5859 5.75467 2.03458
748 5 76.8319 7.91267 2.03458
749 5 75.5859 10.0707 2.03458
750 5 76.8319 12.2287 2.03458
751 5 75.5859 14.3867 2.03458
752 5 76.8319 16.5447 2.03458
753 5 75.5859 18.7027 2.03458
754 5 76.8319 20.8607 2.03458
755 5 75.5859 23.0187 2.03458
756 5 76.8319 25.1767 2.03458
757 5 78.0778 1.43867 2.03458
758 5 79.3237 3.59667 2.03458
759 5 78.0778 5.75467 2.03458
760 5 79.3237 7.91267 2.03458
761 5 78.0778 10.0707 2.03458
762 5 79.3237 12.2287 2.03458
763 5 78.0778 14.3867 2.03458
764 5 79.3237 16.5447 2.03458
765 5 78.0778 18.7027 2.03458
766 5 79.3237 20.8607 2.03458
767 5 78.0778 23.0187 2.03458
768 5 79.3237 25.1767 2.03458
769 5 1.66123 2.87733 4.06916
770 5 2.90715 5.03533 4.06916
771 5 1.66123 7.19333 4.06916
772 5 2.90715 9.35134 4.06916
773 5 1.66123 11.5093 4.06916
774 5 2.90715 13.6673 4.06916
775 5 1.66123 15.8253 4.06916
776 5 2.90715 17.9833 4.06916
777 5 1.66123 20.1413 4.06916
778 5 2.90715 22.2993 4.06916
779 5 1.66123 24.4573 4.06916
780 5 2.90715 26.6153 4.06916
781 5 4.15307 2.87733 4.06916
782 5 5.399 5.03533 4.06916
783 5 4.15307 7.19333 4.06916
784 5 5.399 9.35134 4.06916
785 5 4.15307 11.5093 4.06916
786 5 5.399 13.6673 4.06916
787 5 4.15307 15.8253 4.06916
788 5 5.399 17.9833 4.06916
789 5 4.15307 20.1413 4.06916
790 5 5.399 22.2993 4.06916
791 5 4.15307 24.4573 4.06916
792 5 5.399 26.6153 4.06916
793 5 6.64492 2.87733 4.06916
794 5 7.89084 5.03533 4.06916
795 5 6.64492 7.19333 4.06916
796 5 7.89084 9.35134 4.06916
797 5 6.64492 11.5093 4.06916
798 5 7.89084 13.6673 4.06916
799 5 6.64492 15.8253 4.06916
800 5 7.89084 17.9833 4.06916
801 5 6.64492 20.1413 4.06916
802 5 7.89084 22.2993 4.06916
803 5 6.64492 24.4573 4.06916
804 5 7.89084 26.6153 4.06916
805 5 9.13676 2.87733 4.06916
806 5 10.3827 5.03533 4.06916
807 5 9.13676 7.19333 4.06916
808 5 10.3827 9.35134 4.06916
809 5 9.13676 11.5093 4.06916
810 5 10.3827 13.6673 4.06916
811 5 9.13676 15.8253 4.06916
812 5 10.3827 17.9833 4.06916
813 5 9.13676 20.1413 4.06916
814 5 10.3827 22.2993 4.06916
815 5 9.13676 24.4573 4.06916
816 5 10.3827 26.6153 4.06916
817 5 11.6286 2.87733 4.06916
818 5 12.8745 5.03533 4.06916
819 5 11.6286 7.19333 4.06916
820 5 12.8745 9.35134 4.06916
821 5 11.6286 11.5093 4.06916
822 5 12.8745 13.6673 4.06916
823 5 11.6286 15.8253 4.06916
824 5 12.8745 17.9833 4.06916
825 5 11.6286 20.1413 4.06916
826 5 12.8745 22.2993 4.06916
827 5 11.6286 24.4573 4.06916
828 5 12.8745 26.6153 4.06916
829 5 14.1204 2.87733 4.06916
830 5 15.3664 5.03533 4.06916
831 5 14.1204 7.19333 4.06916
832 5 15.3664 9.35134 4.06916
833 5 14.1204 11.5093 4.06916
834 5 15.3664 13.6673 4.06916
835 5 14.1204 15.8253 4.06916
836 5 15.3664 17.9833 4.06916
837 5 14.1204 20.1413 4.06916
838 5 15.3664 22.2993 4.06916
839 5 14.1204 24.4573 4.06916
840 5 15.3664 26.6153 4.06916
841 5 16.6123 2.87733 4.06916
842 5 17.8582 5.03533 4.06916
843 5 16.6123 7.19333 4.06916
844 5 17.8582 9.35134 4.06916
845 5 16.6123 11.5093 4.06916
846 5 17.8582 13.6673 4.06916
847 5 16.6123 15.8253 4.06916
848 5 17.8582 17.9833 4.06916
849 5 16.6123 20.1413 4.06916
850 5 17.8582 22.2993 4.06916
851 5 16.6123 24.4573 4.06916
852 5 17.8582 26.6153 4.06916
853 5 19.1041 2.87733 4.06916
854 5 20.3501 5.03533 4.06916
855 5 19.1041 7.19333 4.06916
856 5 20.3501 9.35134 4.06916
857 5 19.1041 11.5093 4.06916
858 5 20.3501 13.6673 4.06916
859 5 19.1041 15.8253 4.06916
860 5 20.3501 17.9833 4.06916
861 5 19.1041 20.1413 4.06916
862 5 20.3501 22.2993 4.06916
863 5 19.1041 24.4573 4.06916
864 5 20.3501 26.6153 4.06916
865 5 21.596 2.87733 4.06916
866 5 22.8419 5.03533 4.06916
867 5 21.596 7.19333 4.06916
868 5 22.8419 9.35134 4.06916
869 5 21.596 11.5093 4.06916
870 5 22.8419 13.6673 4.06916
871 5 21.596 15.8253 4.06916
872 5 22.8419 17.9833 4.06916
873 5 21.596 20.1413 4.06916
874 5 22.8419 22.2993 4.06916
875 5 21.596 24.4573 4.06916
876 5 22.8419 26.6153 4.06916
877 5 24.0878 2.87733 4.06916
878 5 25.3337 5.03533 4.06916
879 5 24.0878 7.19333 4.06916
880 5 25.3337 9.35134 4.06916
881 5 24.0878 11.5093 4.06916
882 5 25.3337 13.6673 4.06916
883 5 24.0878 15.8253 4.06916
884 5 25.3337 17.9833 4.06916
885 5 24.0878 20.1413 4.06916
886 5 25.3337 22.2993 4.06916
887 5 24.0878 24.4573 4.06916
888 5 25.3337 26.6153 4.06916
889 5 26.5797 2.87733 4.06916
890 5 27.8256 5.03533 4.06916
891 5 26.5797 7.19333 4.06916
892 5 27.8256 9.35134 4.06916
893 5 26.5797 11.5093 4.06916
894 5 27.8256 13.6673 4.06916
895 5 26.5797 15.8253 4.06916
896 5 27.8256 17.9833 4.06916
897 5 26.5797 20.1413 4.06916
898 5 27.8256 22.2993 4.06916
899 5 26.5797 24.4573 4.06916
900 5 27.8256 26.6153 4.06916
901 5 29.0715 2.87733 4.06916
902 5 30.3174 5.03533 4.06916
903 5 29.0715 7.19333 4.06916
904 5 30.3174 9.35134 4.06916
905 5 29.0715 11.5093 4.06916
906 5 30.3174 13.6673 4.06916
907 5 29.0715 15.8253 4.06916
908 5 30.3174 17.9833 4.06916
909 5 29.0715 20.1413 4.06916
910 5 30.3174 22.2993 4.06916
911 5 29.0715 24.4573 4.06916
912 5 30.3174 26.6153 4.06916
913 5 31.5634 2.87733 4.06916
914 5 32.8093 5.03533 4.06916
915 5 31.5634 7.19333 4.06916
916 5 32.8093 9.35134 4.06916
917 5 31.5634 11.5093 4.06916
918 5 32.8093 13.6673 4.06916
919 5 31.5634 15.8253 4.06916
920 5 32.8093 17.9833 4.06916
921 5 31.5634 20.1413 4.06916
922 5 32.8093 22.2993 4.06916
923 5 31.5634 24.4573 4.06916
924 5 32.8093 26.6153 4.06916
925 5 34.0552 2.87733 4.06916
926 5 35.3011 5.03533 4.06916
927 5 34.0552 7.19333 4.06916
928 5 35.3011 9.35134 4.06916
929 5 34.0552 11.5093 4.06916
930 5 35.3011 13.6673 4.06916
931 5 34.0552 15.8253 4.06916
932 5 35.3011 17.9833 4.06916
933 5 34.0552 20.1413 4.06916
934 5 35.3011 22.2993 4.06916
935 5 34.0552 24.4573 4.06916
936 5 35.3011 26.6153 4.06916
937 5 36.547 2.87733 4.06916
938 5 37.793 5.03533 4.06916
939 5 36.547 7.19333 4.06916
940 5 37.793 9.35134 4.06916
941 5 36.547 11.5093 4.06916
942 5 37.793 13.6673 4.06916
943 5 36.547 15.8253 4.06916
944 5 37.793 17.9833 4.06916
945 5 36.547 20.1413 4.06916
946 5 37.793 22.2993 4.06916
947 5 36.547 24.4573 4.06916
948 5 37.793 26.6153 4.06916
949 5 39.0389 2.87733 4.06916
950 5 40.2848 5.03533 4.06916
951 5 39.0389 7.19333 4.06916
952 5 40.2848 9.35134 4.06916
953 5 39.0389 11.5093 4.06916
954 5 40.2848 13.6673 4.06916
955 5 39.0389 15.8253 4.06916
956 5 40.2848 17.9833 4.06916
957 5 39.0389 20.1413 4.06916
958 5 40.2848 22.2993 4.06916
959 5 39.0389 24.4573 4.06916
960 5 40.2848 26.6153 4.06916
961 5 41.5307 2.87733 4.06916
962 5 42.7767 5.03533 4.06916
963 5 41.5307 7.19333 4.06916
964 5 42.7767 9.35134 4.06916
965 5 41.5307 11.5093 4.06916
966 5 42.7767 13.6673 4.06916
967 5 41.5307 15.8253 4.06916
968 5 42.7767 17.9833 4.06916
969 5 41.5307 20.1413 4.06916
970 5 42.7767 22.2993 4.06916
971 5 41.5307 24.4573 4.06916
972 5 42.7767 26.6153 4.06916
973 5 44.0226 2.87733 4.06916
974 5 45.2685 5.03533 4.06916
975 5 44.0226 7.19333 4.06916
976 5 45.2685 9.35134 4.06916
977 5 44.0226 11.5093 4.06916
978 5 45.2685 13.6673 4.06916
979 5 44.0226 15.8253 4.06916
980 5 45.2685 17.9833 4.06916
981 5 44.0226 20.1413 4.06916
982 5 45.2685 22.2993 4.06916
983 5 44.0226 24.4573 4.06916
984 5 45.2685 26.6153 4.06916
985 5 46.5144 2.87733 4.06916
986 5 47.7604 5.03533 4.06916
987 5 46.5144 7.19333 4.06916
988 5 47.7604 9.35134 4.06916
989 5 46.5144 11.5093 4.06916
990 5 47.7604 13.6673 4.06916
991 5 46.5144 15.8253 4.06916
992 5 47.7604 17.9833 4.06916
993 5 46.5144 20.1413 4.06916
994 5 47.7604 22.2993 4.06916
995 5 46.5144 24.4573 4.06916
996 5 47.7604 26.6153 4.06916
997 5 49.0063 2.87733 4.06916
998 5 50.2522 5.03533 4.06916
999 5 49.0063 7.19333 4.06916
1000 5 50.2522 9.35134 4.06916
1001 5 49.0063 11.5093 4.06916
1002 5 50.2522 13.6673 4.06916
1003 5 49.0063 15.8253 4.06916
1004 5 50.2522 17.9833 4.06916
1005 5 49.0063 20.1413 4.06916
1006 5 50.2522 22.2993 4.06916
1007 5 49.0063 24.4573 4.06916
1008 5 50.2522 26.6153 4.06916
1009 5 51.4981 2.87733 4.06916
1010 5 52.744 5.03533 4.06916
1011 5 51.4981 7.19333 4.06916
1012 5 52.744 9.35134 4.06916
1013 5 51.4981 11.5093 4.06916
1014 5 52.744 13.6673 4.06916
1015 5 51.4981 15.8253 4.06916
1016 5 52.744 17.9833 4.06916
1017 5 51.4981 20.1413 4.06916
1018 5 52.744 22.2993 4.06916
1019 5 51.4981 24.4573 4.06916
1020 5 52.744 26.6153 4.06916
1021 5 53.99 2.87733 4.06916
1022 5 55.2359 5.03533 4.06916
1023 5 53.99 7.19333 4.06916
1024 5 55.2359 9.35134 4.06916
1025 5 53.99 11.5093 4.06916
1026 5 55.2359 13.6673 4.06916
1027 5 53.99 15.8253 4.06916
1028 5 55.2359 17.9833 4.06916
1029 5 53.99 20.1413 4.06916
1030 5 55.2359 22.2993 4.06916
1031 5 53.99 24.4573 4.06916
1032 5 55.2359 26.6153 4.06916
1033 5 56.4818 2.87733 4.06916
1034 5 57.7277 5.03533 4.06916
1035 5 56.4818 7.19333 4.06916
1036 5 57.7277 9.35134 4.06916
1037 5 56.4818 11.5093 4.06916
1038 5 57.7277 13.6673 4.06916
1039 5 56.4818 15.8253 4.06916
1040 5 57.7277 17.9833 4.06916
1041 5 56.4818 20.1413 4.06916
1042 5 57.7277 22.2993 4.06916
1043 5 56.4818 24.4573 4.06916
1044 5 57.7277 26.6153 4.06916
1045 5 58.9736 2.87733 4.06916
1046 5 60.2196 5.03533 4.06916
1047 5 58.9736 7.19333 4.06916
1048 5 60.2196 9.35134 4.06916
1049 5 58.9736 11.5093 4.06916
1050 5 60.2196 13.6673 4.06916
1051 5 58.9736 15.8253 4.06916
1052 5 60.2196 17.9833 4.06916
1053 5 58.9736 20.1413 4.06916
1054 5 60.2196 22.2993 4.06916
1055 5 58.9736 24.4573 4.06916
1056 5 60.2196 26.6153 4.06916
1057 5 61.4655 2.87733 4.06916
1058 5 62.7114 5.03533 4.06916
1059 5 61.4655 7.19333 4.06916
1060 5 62.7114 9.35134 4.06916
1061 5 61.4655 11.5093 4.06916
1062 5 62.7114 13.6673 4.06916
1063 5 61.4655 15.8253 4.06916
1064 5 62.7114 17.9833 4.06916
1065 5 61.4655 20.1413 4.06916
1066 5 62.7114 22.2993 4.06916
1067 5 61.4655 24.4573 4.06916
1068 5 62.7114 26.6153 4.06916
1069 5 63.9573 2.87733 4.06916
1070 5 65.2033 5.03533 4.06916
1071 5 63.9573 7.19333 4.06916
1072 5 65.2033 9.35134 4.06916
1073 5 63.9573 11.5093 4.06916
1074 5 65.2033 13.6673 4.06916
1075 5 63.9573 15.8253 4.06916
1076 5 65.2033 17.9833 4.06916
1077 5 63.9573 20.1413 4.06916
1078 5 65.2033 22.2993 4.06916
1079 5 63.9573 24.4573 4.06916
1080 5 65.2033 26.6153 4.06916
1081 5 66.4492 2.87733 4.06916
1082 5 67.6951 5.03533 4.06916
1083 5 66.4492 7.19333 4.06916
1084 5 67.6951 9.35134 4.06916
1085 5 66.4492 11.5093 4.06916
1086 5 67.6951 13.6673 4.06916
1087 5 66.4492 15.8253 4.06916
1088 5 67.6951 17.9833 4.06916
1089 5 66.4492 20.1413 4.06916
1090 5 67.6951 22.2993 4.06916
1091 5 66.4492 24.4573 4.06916
1092 5 67.6951 26.6153 4.06916
1093 5 68.941 2.87733 4.06916
1094 5 70.1869 5.03533 4.06916
1095 5 68.941 7.19333 4.06916
1096 5 70.1869 9.35134 4.06916
1097 5 68.941 11.5093 4.06916
1098 5 70.1869 13.6673 4.06916
1099 5 68.941 15.8253 4.06916
1100 5 70.1869 17.9833 4.06916
1101 5 68.941 20.1413 4.06916
1102 5 70.1869 22.2993 4.06916
1103 5 68.941 24.4573 4.06916
1104 5 70.1869 26.6153 4.06916
1105 5 71.4329 2.87733 4.06916
1106 5 72.6788 5.03533 4.06916
1107 5 71.4329 7.19333 4.06916
1108 5 72.6788 9.35134 4.06916
1109 5 71.4329 11.5093 4.06916
1110 5 72.6788 13.6673 4.06916
1111 5 71.4329 15.8253 4.06916
1112 5 72.6788 17.9833 4.06916
1113 5 71.4329 20.1413 4.06916
1114 5 72.6788 22.2993 4.06916
1115 5 71.4329 24.4573 4.06916
1116 5 72.6788 26.6153 4.06916
1117 5 73.9247 2.87733 4.06916
1118 5 75.1706 5.03533 4.06916
1119 5 73.9247 7.19333 4.06916
1120 5 75.1706 9.35134 4.06916
1121 5 73.9247 11.5093 4.06916
1122 5 75.1706 13.6673 4.06916
1123 5 73.9247 15.8253 4.06916
1124 5 75.1706 17.9833 4.06916
1125 5 73.9247 20.1413 4.06916
1126 5 75.1706 22.2993 4.06916
1127 5 73.9247 24.4573 4.06916
1128 5 75.1706 26.6153 4.06916
1129 5 76.4166 2.87733 4.06916
1130 5 77.6625 5.03533 4.06916
1131 5 76.4166 7.19333 4.06916
1132 5 77.6625 9.35134 4.06916
1133 5 76.4166 11.5093 4.06916
1134 5 77.6625 13.6673 4.06916
1135 5 76.4166 15.8253 4.06916
1136 5 77.6625 17.9833 4.06916
1137 5 76.4166 20.1413 4.06916
1138 5 77.6625 22.2993 4.06916
1139 5 76.4166 24.4573 4.06916
1140 5 77.6625 26.6153 4.06916
1141 5 78.9084 2.87733 4.06916
1142 5 0.15432 5.03533 4.06916
1143 5 78.9084 7.19333 4.06916
1144 5 0.15432 9.35134 4.06916
1145 5 78.9084 11.5093 4.06916
1146 5 0.15432 13.6673 4.06916
1147 5 78.9084 15.8253 4.06916
1148 5 0.15432 17.9833 4.06916
1149 5 78.9084 20.1413 4.06916
1150 5 0.15432 22.2993 4.06916
1151 5 78.9084 24.4573 4.06916
1152 5 0.15432 26.6153 4.06916
1153 5 0 0 6.10375
1154 5 1.24592 2.158 6.10375
1155 5 0 4.316 6.10375
1156 5 1.24592 6.474 6.10375
1157 5 0 8.632 6.10375
1158 5 1.24592 10.79 6.10375
1159 5 0 12.948 6.10375
1160 5 1.24592 15.106 6.10375
1161 5 0 17.264 6.10375
1162 5 1.24592 19.422 6.10375
1163 5 0 21.58 6.10375
1164 5 1.24592 23.738 6.10375
1165 5 2.49184 0 6.10375
1166 5 3.73777 2.158 6.10375
1167 5 2.49184 4.316 6.10375
1168 5 3.73777 6.474 6.10375
1169 5 2.49184 8.632 6.10375
1170 5 3.73777 10.79 6.10375
1171 5 2.49184 12.948 6.10375
1172 5 3.73777 15.106 6.10375
1173 5 2.49184 17.264 6.10375
1174 5 3.73777 19.422 6.10375
1175 5 2.49184 21.58 6.10375
1176 5 3.73777 23.738 6.10375
1177 5 4.98369 0 6.10375
1178 5 6.22961 2.158 6.10375
1179 5 4.98369 4.316 6.10375
1180 5 6.22961 6.474 6.10375
1181 5 4.98369 8.632 6.10375
1182 5 6.22961 10.79 6.10375
1183 5 4.98369 12.948 6.10375
1184 5 6.22961 15.106 6.10375
1185 5 4.98369 17.264 6.10375
1186 5 6.22961 19.422 6.10375
1187 5 4.98369 21.58 6.10375
1188 5 6.22961 23.738 6.10375
1189 5 7.47553 0 6.10375
1190 5 8.72146 2.158 6.10375
1191 5 7.47553 4.316 6.10375
1192 5 8.72146 6.474 6.10375
1193 5 7.47553 8.632 6.10375
1194 5 8.72146 10.79 6.10375
1195 5 7.47553 12.948 6.10375
1196 5 8.72146 15.106 6.10375
1197 5 7.47553 17.264 6.10375
1198 5 8.72146 19.422 6.10375
1199 5 7.47553 21.58 6.10375
1200 5 8.72146 23.738 6.10375
1201 5 9.96738 0 6.10375
1202 5 11.2133 2.158 6.10375
1203 5 9.96738 4.316 6.10375
1204 5 11.2133 6.474 6.10375
1205 5 9.96738 8.632 6.10375
1206 5 11.2133 10.79 6.10375
1207 5 9.96738 12.948 6.10375
1208 5 11.2133 15.106 6.10375
1209 5 9.96738 17.264 6.10375
1210 5 11.2133 19.422 6.10375
1211 5 9.96738 21.58 6.10375
1212 5 11.2133 23.738 6.10375
1213 5 12.4592 0 6.10375
1214 5 13.7051 2.158 6.10375
1215 5 12.4592 4.316 6.10375
1216 5 13.7051 6.474 6.10375
1217 5 12.4592 8.632 6.10375
1218 5 13.7051 10.79 6.10375
1219 5 12.4592 12.948 6.10375
1220 5 13.7051 15.106 6.10375
1221 5 12.4592 17.264 6.10375
1222 5 13.7051 19.422 6.10375
1223 5 12.4592 21.58 6.10375
1224 5 13.7051 23.738 6.10375
1225 5 14.9511 0 6.10375
1226 5 16.197 2.158 6.10375
1227 5 14.9511 4.316 6.10375
1228 5 16.197 6.474 6.10375
1229 5 14.9511 8.632 6.10375
1230 5 16.197 10.79 6.10375
1231 5 14.9511 12.948 6.10375
1232 5 16.197 15.106 6.10375
1233 5 14.9511 17.264 6.10375
1234 5 16.197 19.422 6.10375
1235 5 14.9511 21.58 6.10375
1236 5 16.197 23.738 6.10375
1237 5 17.4429 0 6.10375
1238 5 18.6888 2.158 6.10375
1239 5 17.4429 4.316 6.10375
1240 5 18.6888 6.474 6.10375
1241 5 17.4429 8.632 6.10375
1242 5 18.6888 10.79 6.10375
1243 5 17.4429 12.948 6.10375
1244 5 18.6888 15.106 6.10375
1245 5 17.4429 17.264 6.10375
1246 5 18.6888 19.422 6.10375
1247 5 17.4429 21.58 6.10375
1248 5 18.6888 23.738 6.10375
1249 5 19.9348 0 6.10375
1250 5 21.1807 2.158 6.10375
1251 5 19.9348 4.316 6.10375
1252 5 21.1807 6.474 6.10375
1253 5 19.9348 8.632 6.10375
1254 5 21.1807 10.79 6.10375
1255 5 19.9348 12.948 6.10375
1256 5 21.1807 15.106 6.10375
1257 5 19.9348 17.264 6.10375
1258 5 21.1807 19.422 6.10375
1259 5 19.9348 21.58 6.10375
1260 5 21.1807 23.738 6.10375
1261 5 22.4266 0 6.10375
1262 5 23.6725 2.158 6.10375
1263 5 22.4266 4.316 6.10375
1264 5 23.6725 6.474 6.10375
1265 5 22.4266 8.632 6.10375
1266 5 23.6725 10.79 6.10375
1267 5 22.4266 12.948 6.10375
1268 5 23.6725 15.106 6.10375
1269 5 22.4266 17.264 6.10375
1270 5 23.6725 19.422 6.10375
1271 5 22.4266 21.58 6.10375
1272 5 23.6725 23.738 6.10375
1273 5 24.9184 0 6.10375
1274 5 26.1644 2.158 6.10375
1275 5 24.9184 4.316 6.10375
1276 5 26.1644 6.474 6.10375
1277 5 24.9184 8.632 6.10375
1278 5 26.1644 10.79 6.10375
1279 5 24.9184 12.948 6.10375
1280 5 26.1644 15.106 6.10375
1281 5 24.9184 17.264 6.10375
1282 5 26.1644 19.422 6.10375
1283 5 24.9184 21.58 6.10375
1284 5 26.1644 23.738 6.10375
1285 5 27.4103 0 6.10375
1286 5 28.6562 2.158 6.10375
1287 5 27.4103 4.316 6.10375
1288 5 28.6562 6.474 6.10375
1289 5 27.4103 8.632 6.10375
1290 5 28.6562 10.79 6.10375
1291 5 27.4103 12.948 6.10375
1292 5 28.6562 15.106 6.10375
1293 5 27.4103 17.264 6.10375
1294 5 28.6562 19.422 6.10375
1295 5 27.4103 21.58 6.10375
1296 5 28.6562 23.738 6.10375
1297 5 29.9021 0 6.10375
1298 5 31.1481 2.158 6.10375
1299 5 29.9021 4.316 6.10375
1300 5 31.1481 6.474 6.10375
1301 5 29.9021 8.632 6.10375
1302 5 31.1481 10.79 6.10375
1303 5 29.9021 12.948 6.10375
1304 5 31.1481 15.106 6.10375
1305 5 29.9021 17.264 6.10375
1306 5 31.1481 19.422 6.10375
1307 5 29.9021 21.58 6.10375
1308 5 31.1481 23.738 6.10375
1309 5 32.394 0 6.10375
1310 5 33.6399 2.158 6.10375
1311 5 32.394 4.316 6.10375
1312 5 33.6399 6.474 6.10375
1313 5 32.394 8.632 6.10375
1314 5 33.6399 10.79 6.10375
1315 5 32.394 12.948 6.10375
1316 5 33.6399 15.106 6.10375
1317 5 32.394 17.264 6.10375
1318 5 33.6399 19.422 6.10375
1319 5 32.394 21.58 6.10375
1320 5 33.6399 23.738 6.10375
1321 5 34.8858 0 6.10375
1322 5 36.1317 2.158 6.10375
1323 5 34.8858 4.316 6.10375
1324 5 36.1317 6.474 6.10375
1325 5 34.8858 8.632 6.10375
1326 5 36.1317 10.79 6.10375
1327 5 34.8858 12.948 6.10375
1328 5 36.1317 15.106 6.10375
1329 5 34.8858 17.264 6.10375
1330 5 36.1317 19.422 6.10375
1331 5 34.8858 21.58 6.10375
1332 5 36.1317 23.738 6.10375
1333 5 37.3777 0 6.10375
1334 5 38.6236 2.158 6.10375
1335 5 37.3777 4.316 6.10375
1336 5 38.6236 6.474 6.10375
1337 5 37.3777 8.632 6.10375
1338 5 38.6236 10.79 6.10375
1339 5 37.3777 12.948 6.10375
1340 5 38.6236 15.106 6.10375
1341 5 37.3777 17.264 6.10375
1342 5 38.6236 19.422 6.10375
1343 5 37.3777 21.58 6.10375
1344 5 38.6236 23.738 6.10375
1345 5 39.8695 0 6.10375
1346 5 41.1154 2.158 6.10375
1347 5 39.8695 4.316 6.10375
1348 5 41.1154 6.474 6.10375
1349 5 39.8695 8.632 6.10375
1350 5 41.1154 10.79 6.10375
1351 5 39.8695 12.948 6.10375
1352 5 41.1154 15.106 6.10375
1353 5 39.8695 17.264 6.10375
1354 5 41.1154 19.422 6.10375
1355 5 39.8695 21.58 6.10375
1356 5 41.1154 23.738 6.10375
1357 5 42.3614 0 6.10375
1358 5 43.6073 2.158 6.10375
1359 5 42.3614 4.316 6.10375
1360 5 43.6073 6.474 6.10375
1361 5 42.3614 8.632 6.10375
1362 5 43.6073 10.79 6.10375
1363 5 42.3614 12.948 6.10375
1364 5 43.6073 15.106 6.10375
1365 5 42.3614 17.264 6.10375
1366 5 43.6073 19.422 6.10375
1367 5 42.3614 21.58 6.10375
1368 5 43.6073 23.738 6.10375
1369 5 44.8532 0 6.10375
1370 5 46.0991 2.158 6.10375
1371 5 44.8532 4.316 6.10375
1372 5 46.0991 6.474 6.10375
1373 5 44.8532 8.632 6.10375
1374 5 46.0991 10.79 6.10375
1375 5 44.8532 12.948 6.10375
1376 5 46.0991 15.106 6.10375
1377 5 44.8532 17.264 6.10375
1378 5 46.0991 19.422 6.10375
1379 5 44.8532 21.58 6.10375
1380 5 46.0991 23.738 6.10375
1381 5 47.345 0 6.10375
1382 5 48.591 2.158 6.10375
1383 5 47.345 4.316 6.10375
1384 5 48.591 6.474 6.10375
1385 5 47.345 8.632 6.10375
1386 5 48.591 10.79 6.10375
1387 5 47.345 12.948 6.10375
1388 5 48.591 15.106 6.10375
1389 5 47.345 17.264 6.10375
1390 5 48.591 19.422 6.10375
1391 5 47.345 21.58 6.10375
1392 5 48.591 23.738 6.10375
1393 5 49.8369 0 6.10375
1394 5 51.0828 2.158 6.10375
1395 5 49.8369 4.316 6.10375
1396 5 51.0828 6.474 6.10375
1397 5 49.8369 8.632 6.10375
1398 5 51.0828 10.79 6.10375
1399 5 49.8369 12.948 6.10375
1400 5 51.0828 15.106 6.10375
1401 5 49.8369 17.264 6.10375
1402 5 51.0828 19.422 6.10375
1403 5 49.8369 21.58 6.10375
1404 5 51.0828 23.738 6.10375
1405 5 52.3287 0 6.10375
1406 5 53.5746 2.158 6.10375
1407 5 52.3287 4.316 6.10375
1408 5 53.5746 6.474 6.10375
1409 5 52.3287 8.632 6.10375
1410 5 53.5746 10.79 6.10375
1411 5 52.3287 12.948 6.10375
1412 5 53.5746 15.106 6.10375
1413 5 52.3287 17.264 6.10375
1414 5 53.5746 19.422 6.10375
1415 5 52.3287 21.58 6.10375
1416 5 53.5746 23.738 6.10375
1417 5 54.8206 0 6.10375
1418 5 56.0665 2.158 6.10375
1419 5 54.8206 4.316 6.10375
1420 5 56.0665 6.474 6.10375
1421 5 54.8206 8.632 6.10375
1422 5 56.0665 10.79 6.10375
1423 5 54.8206 12.948 6.10375
1424 5 56.0665 15.106 6.10375
1425 5 54.8206 17.264 6.10375
1426 5 56.0665 19.422 6.10375
1427 5 54.8206 21.58 6.10375
1428 5 56.0665 23.738 6.10375
1429 5 57.3124 0 6.10375
1430 5 58.5583 2.158 6.10375
1431 5 57.3124 4.316 6.10375
1432 5 58.5583 6.474 6.10375
1433 5 57.3124 8.632 6.10375
1434 5 58.5583 10.79 6.10375
1435 5 57.3124 12.948 6.10375
1436 5 58.5583 15.106 6.10375
1437 5 57.3124 17.264 6.10375
1438 5 58.5583 19.422 6.10375
1439 5 57.3124 21.58 6.10375
1440 5 58.5583 23.738 6.10375
1441 5 59.8043 0 6.10375
1442 5 61.0502 2.158 6.10375
1443 5 59.8043 4.316 6.10375
1444 5 61.0502 6.474 6.10375
1445 5 59.8043 8.632 6.10375
1446 5 61.0502 10.79 6.10375
1447 5 59.8043 12.948 6.10375
1448 5 61.0502 15.106 6.10375
1449 5 59.8043 17.264 6.10375
1450 5 61.0502 19.422 6.10375
1451 5 59.8043 21.58 6.10375
1452 5 61.0502 23.738 6.10375
1453 5 62.2961 0 6.10375
1454 5 63.542 2.158 6.10375
1455 5 62.2961 4.316 6.10375
1456 5 63.542 6.474 6.10375
1457 5 62.2961 8.632 6.10375
1458 5 63.542 10.79 6.10375
1459 5 62.2961 12.948 6.10375
1460 5 63.542 15.106 6.10375
1461 5 62.2961 17.264 6.10375
1462 5 63.542 19.422 6.10375
1463 5 62.2961 21.58 6.10375
1464 5 63.542 23.738 6.10375
1465 5 64.7879 0 6.10375
1466 5 66.0339 2.158 6.10375
1467 5 64.7879 4.316 6.10375
1468 5 66.0339 6.474 6.10375
1469 5 64.7879 8.632 6.10375
1470 5 66.0339 10.79 6.10375
1471 5 64.7879 12.948 6.10375
1472 5 66.0339 15.106 6.10375
1473 5 64.7879 17.264 6.10375
1474 5 66.0339 19.422 6.10375
1475 5 64.7879 21.58 6.10375
1476 5 66.0339 23.738 6.10375
1477 5 67.2798 0 6.10375
1478 5 68.5257 2.158 6.10375
1479 5 67.2798 4.316 6.10375
1480 5 68.5257 6.474 6.10375
1481 5 67.2798 8.632 6.10375
1482 5 68.5257 10.79 6.10375
1483 5 67.2798 12.948 6.10375
1484 5 68.5257 15.106 6.10375
1485 5 67.2798 17.264 6.10375
1486 5 68.5257 19.422 6.10375
1487 5 67.2798 21.58 6.10375
1488 5 68.5257 23.738 6.10375
1489 5 69.7716 0 6.10375
1490 5 71.0176 2.158 6.10375
1491 5 69.7716 4.316 6.10375
1492 5 71.0176 6.474 6.10375
1493 5 69.7716 8.632 6.10375
1494 5 71.0176 10.79 6.10375
1495 5 69.7716 12.948 6.10375
1496 5 71.0176 15.106 6.10375
1497 5 69.7716 17.264 6.10375
1498 5 71.0176 19.422 6.10375
1499 5 69.7716 21.58 6.10375
1500 5 71.0176 23.738 6.10375
1501 5 72.2635 0 6.10375
1502 5 73.5094 2.158 6.10375
1503 5 72.2635 4.316 6.10375
1504 5 73.5094 6.474 6.10375
1505 5 72.2635 8.632 6.10375
1506 5 73.5094 10.79 6.10375
1507 5 72.2635 12.948 6.10375
1508 5 73.5094 15.106 6.10375
1509 5 72.2635 17.264 6.10375
1510 5 73.5094 19.422 6.10375
1511 5 72.2635 21.58 6.10375
1512 5 73.5094 23.738 6.10375
1513 5 74.7553 0 6.10375
1514 5 76.0012 2.158 6.10375
1515 5 74.7553 4.316 6.10375
1516 5 76.0012 6.474 6.10375
1517 5 74.7553 8.632 6.10375
1518 5 76.0012 10.79 6.10375
1519 5 74.7553 12.948 6.10375
1520 5 76.0012 15.106 6.10375
1521 5 74.7553 17.264 6.10375
1522 5 76.0012 19.422 6.10375
1523 5 74.7553 21.58 6.10375
1524 5 76.0012 23.738 6.10375
1525 5 77.2472 0 6.10375
1526 5 78.4931 2.158 6.10375
1527 5 77.2472 4.316 6.10375
1528 5 78.4931 6.474 6.10375
1529 5 77.2472 8.632 6.10375
1530 5 78.4931 10.79 6.10375
1531 5 77.2472 12.948 6.10375
1532 5 78.4931 15.106 6.10375
1533 5 77.2472 17.264 6.10375
1534 5 78.4931 19.422 6.10375
1535 5 77.2472 21.58 6.10375
1536 5 78.4931 23.738 6.10375
1537 5 0.83061 1.43867 8.13833
1538 5 2.07654 3.59667 8.13833
1539 5 0.83061 5.75467 8.13833
1540 5 2.07654 7.91267 8.13833
1541 5 0.83061 10.0707 8.13833
1542 5 2.07654 12.2287 8.13833
1543 5 0.83061 14.3867 8.13833
1544 5 2.07654 16.5447 8.13833
1545 5 0.83061 18.7027 8.13833
1546 5 2.07654 20.8607 8.13833
1547 5 0.83061 23.0187 8.13833
1548 5 2.07654 25.1767 8.13833
1549 5 3.32246 1.43867 8.13833
1550 5 4.56838 3.59667 8.13833
1551 5 3.32246 5.75467 8.13833
1552 5 4.56838 7.91267 8.13833
1553 5 3.32246 10.0707 8.13833
1554 5 4.56838 12.2287 8.13833
1555 5 3.32246 14.3867 8.13833
1556 5 4.56838 16.5447 8.13833
1557 5 3.32246 18.7027 8.13833
1558 5 4.56838 20.8607 8.13833
1559 5 3.32246 23.0187 8.13833
1560 5 4.56838 25.1767 8.13833
1561 5 5.8143 1.43867 8.13833
1562 5 7.06023 3.59667 8.13833
1563 5 5.8143 5.75467 8.13833
1564 5 7.06023 7.91267 8.13833
1565 5 5.8143 10.0707 8.13833
1566 5 7.06023 12.2287 8.13833
1567 5 5.8143 14.3867 8.13833
1568 5 7.06023 16.5447 8.13833
1569 5 5.8143 18.7027 8.13833
1570 5 7.06023 20.8607 8.13833
1571 5 5.8143 23.0187 8.13833
1572 5 7.06023 25.1767 8.13833
1573 5 8.30615 1.43867 8.13833
1574 5 9.55207 3.59667 8.13833
1575 5 8.30615 5.75467 8.13833
1576 5 9.55207 7.91267 8.13833
1577 5 8.30615 10.0707 8.13833
1578 5 9.55207 12.2287 8.13833
1579 5 8.30615 14.3867 8.13833
1580 5 9.55207 16.5447 8.13833
1581 5 8.30615 18.7027 8.13833
1582 5 9.55207 20.8607 8.13833
1583 5 8.30615 23.0187 8.13833
1584 5 9.55207 25.1767 8.13833
1585 5 10.798 1.43867 8.13833
1586 5 12.0439 3.59667 8.13833
1587 5 10.798 5.75467 8.13833
1588 5 12.0439 7.91267 8.13833
1589 5 10.798 10.0707 8.13833
1590 5 12.0439 12.2287 8.13833
1591 5 10.798 14.3867 8.13833
1592 5 12.0439 16.5447 8.13833
1593 5 10.798 18.7027 8.13833
1594 5 12.0439 20.8607 8.13833
1595 5 10.798 23.0187 8.13833
1596 5 12.0439 25.1767 8.13833
1597 5 13.2898 1.43867 8.13833
1598 5 14.5358 3.59667 8.13833
1599 5 13.2898 5.75467 8.13833
1600 5 14.5358 7.91267 8.13833
1601 5 13.2898 10.0707 8.13833
1602 5 14.5358 12.2287 8.13833
1603 5 13.2898 14.3867 8.13833
1604 5 14.5358 16.5447 8.13833
1605 5 13.2898 18.7027 8.13833
1606 5 14.5358 20.8607 8.13833
1607 5 13.2898 23.0187 8.13833
1608 5 14.5358 25.1767 8.13833
1609 5 15.7817 1.43867 8.13833
1610 5 17.0276 3.59667 8.13833
1611 5 15.7817 5.75467 8.13833
1612 5 17.0276 7.91267 8.13833
1613 5 15.7817 10.0707 8.13833
1614 5 17.0276 12.2287 8.13833
1615 5 15.7817 14.3867 8.13833
1616 5 17.0276 16.5447 8.13833
1617 5 15.7817 18.7027 8.13833
1618 5 17.0276 20.8607 8.13833
1619 5 15.7817 23.0187 8.13833
1620 5 17.0276 25.1767 8.13833
1621 5 18.2735 1.43867 8.13833
1622 5 19.5194 3.59667 8.13833
1623 5 18.2735 5.75467 8.13833
1624 5 19.5194 7.91267 8.13833
1625 5 18.2735 10.0707 8.13833
1626 5 19.5194 12.2287 8.13833
1627 5 18.2735 14.3867 8.13833
1628 5 19.5194 16.5447 8.13833
1629 5 18.2735 18.7027 8.13833
1630 5 19.5194 20.8607 8.13833
1631 5 18.2735 23.0187 8.13833
1632 5 19.5194 25.1767 8.13833
1633 5 20.7654 1.43867 8.13833
1634 5 22.0113 3.59667 8.13833
1635 5 20.7654 5.75467 8.13833
1636 5 22.0113 7.91267 8.13833
1637 5 20.7654 10.0707 8.13833
1638 5 22.0113 12.2287 8.13833
1639 5 20.7654 14.3867 8.13833
1640 5 22.0113 16.5447 8.13833
1641 5 20.7654 18.7027 8.13833
1642 5 22.0113 20.8607 8.13833
1643 5 20.7654 23.0187 8.13833
1644 5 22.0113 25.1767 8.13833
1645 5 23.2572 1.43867 8.13833
1646 5 24.5031 3.59667 8.13833
1647 5 23.2572 5.75467 8.13833
1648 5 24.5031 7.91267 8.13833
1649 5 23.2572 10.0707 8.13833
1650 5 24.5031 12.2287 8.13833
1651 5 23.2572 14.3867 8.13833
1652 5 24.5031 16.5447 8.13833
1653 5 23.2572 18.7027 8.13833
1654 5 24.5031 20.8607 8.13833
1655 5 23.2572 23.0187 8.13833
1656 5 24.5031 25.1767 8.13833
1657 5 25.7491 1.43867 8.13833
1658 5 26.995 3.59667 8.13833
1659 5 25.7491 5.75467 8.13833
1660 5 26.995 7.91267 8.13833
1661 5 25.7491 10.0707 8.13833
1662 5 26.995 12.2287 8.13833
1663 5 25.7491 14.3867 8.13833
1664 5 26.995 16.5447 8.13833
1665 5 25.7491 18.7027 8.13833
1666 5 26.995 20.8607 8.13833
1667 5 25.7491 23.0187 8.13833
1668 5 26.995 25.1767 8.13833
1669 5 28.2409 1.43867 8.13833
1670 5 29.4868 3.59667 8.13833
1671 5 28.2409 5.75467 8.13833
1672 5 29.4868 7.91267 8.13833
1673 5 28.2409 10.0707 8.13833
1674 5 29.4868 12.2287 8.13833
1675 5 28.2409 14.3867 8.13833
1676 5 29.4868 16.5447 8.13833
1677 5 28.2409 18.7027 8.13833
1678 5 29.4868 20.8607 8.13833
1679 5 28.2409 23.0187 8.13833
1680 5 29.4868 25.1767 8.13833
1681 5 30.7327 1.43867 8.13833
1682 5 31.9787 3.59667 8.13833
1683 5 30.7327 5.75467 8.13833
1684 5 31.9787 7.91267 8.13833
1685 5 30.7327 10.0707 8.13833
1686 5 31.9787 12.2287 8.13833
1687 5 30.7327 14.3867 8.13833
1688 5 31.9787 16.5447 8.13833
1689 5 30.7327 18.7027 8.13833
1690 5 31.9787 20.8607 8.13833
1691 5 30.7327 23.0187 8.13833
1692 5 31.9787 25.1767 8.13833
1693 5 33.2246 1.43867 8.13833
1694 5 34.4705 3.59667 8.13833
1695 5 33.2246 5.75467 8.13833
1696 5 34.4705 7.91267 8.13833
1697 5 33.2246 10.0707 8.13833
1698 5 34.4705 12.2287 8.13833
1699 5 33.2246 14.3867 8.13833
1700 5 34.4705 16.5447 8.13833
1701 5 33.2246 18.7027 8.13833
1702 5 34.4705 20.8607 8.13833
1703 5 33.2246 23.0187 8.13833
1704 5 34.4705 25.1767 8.13833
1705 5 35.7164 1.43867 8.13833
1706 5 36.9624 3.59667 8.13833
1707 5 35.7164 5.75467 8.13833
1708 5 36.9624 7.91267 8.13833
1709 5 35.7164 10.0707 8.13833
1710 5 36.9624 12.2287 8.13833
1711 5 35.7164 14.3867 8.13833
1712 5 36.9624 16.5447 8.13833
1713 5 35.7164 18.7027 8.13833
1714 5 36.9624 20.8607 8.13833
1715 5 35.7164 23.0187 8.13833
1716 5 36.9624 25.1767 8.13833
1717 5 38.2083 1.43867 8.13833
1718 5 39.4542 3.59667 8.13833
1719 5 38.2083 5.75467 8.13833
1720 5 39.4542 7.91267 8.13833
1721 5 38.2083 10.0707 8.13833
1722 5 39.4542 12.2287 8.13833
1723 5 38.2083 14.3867 8.13833
1724 5 39.4542 16.5447 8.13833
1725 5 38.2083 18.7027 8.13833
1726 5 39.4542 20.8607 8.13833
1727 5 38.2083 23.0187 8.13833
1728 5 39.4542 25.1767 8.13833
1729 5 40.7001 1.43867 8.13833
1730 5 41.946 3.59667 8.13833
1731 5 40.7001 5.75467 8.13833
1732 5 41.946 7.91267 8.13833
1733 5 40.7001 10.0707 8.13833
1734 5 41.946 12.2287 8.13833
1735 5 40.7001 14.3867 8.13833
1736 5 41.946 16.5447 8.13833
1737 5 40.7001 18.7027 8.13833
1738 5 41.946 20.8607 8.13833
1739 5 40.7001 23.0187 8.13833
1740 5 41.946 25.1767 8.13833
1741 5 43.192 1.43867 8.13833
1742 5 44.4379 3.59667 8.13833
1743 5 43.192 5.75467 8.13833
1744 5 44.4379 7.91267 8.13833
1745 5 43.192 10.0707 8.13833
1746 5 44.4379 12.2287 8.13833
1747 5 43.192 14.3867 8.13833
1748 5 44.4379 16.5447 8.13833
1749 5 43.192 18.7027 8.13833
1750 5 44.4379 20.8607 8.13833
1751 5 43.192 23.0187 8.13833
1752 5 44.4379 25.1767 8.13833
1753 5 45.6838 1.43867 8.13833
1754 5 46.9297 3.59667 8.13833
1755 5 45.6838 5.75467 8.13833
1756 5 46.9297 7.91267 8.13833
1757 5 45.6838 10.0707 8.13833
1758 5 46.9297 12.2287 8.13833
1759 5 45.6838 14.3867 8.13833
1760 5 46.9297 16.5447 8.13833
1761 5 45.6838 18.7027 8.13833
1762 5 46.9297 20.8607 8.13833
1763 5 45.6838 23.0187 8.13833
1764 5 46.9297 25.1767 8.13833
1765 5 48.1757 1.43867 8.13833
1766 5 49.4216 3.59667 8.13833
1767 5 48.1757 5.75467 8.13833
1768 5 49.4216 7.91267 8.13833
1769 5 48.1757 10.0707 8.13833
1770 5 49.4216 12.2287 8.13833
1771 5 48.1757 14.3867 8.13833
1772 5 49.4216 16.5447 8.13833
1773 5 48.1757 18.7027 8.13833
1774 5 49.4216 20.8607 8.13833
1775 5 48.1757 23.0187 8.13833
1776 5 49.4216 25.1767 8.13833
1777 5 50.6675 1.43867 8.13833
1778 5 51.9134 3.59667 8.13833
1779 5 50.6675 5.75467 8.13833
1780 5 51.9134 7.91267 8.13833
1781 5 50.6675 10.0707 8.13833
1782 5 51.9134 12.2287 8.13833
1783 5 50.6675 14.3867 8.13833
1784 5 51.9134 16.5447 8.13833
1785 5 50.6675 18.7027 8.13833
1786 5 51.9134 20.8607 8.13833
1787 5 50.6675 23.0187 8.13833
1788 5 51.9134 25.1767 8.13833
1789 5 53.1594 1.43867 8.13833
1790 5 54.4053 3.59667 8.13833
1791 5 53.1594 5.75467 8.13833
1792 5 54.4053 7.91267 8.13833
1793 5 53.1594 10.0707 8.13833
1794 5 54.4053 12.2287 8.13833
1795 5 53.1594 14.3867 8.13833
1796 5 54.4053 16.5447 8.13833
1797 5 53.1594 18.7027 8.13833
1798 5 54.4053 20.8607 8.13833
1799 5 53.1594 23.0187 8.13833
1800 5 54.4053 25.1767 8.13833
1801 5 55.6512 1.43867 8.13833
1802 5 56.8971 3.59667 8.13833
1803 5 55.6512 5.75467 8.13833
1804 5 56.8971 7.91267 8.13833
1805 5 55.6512 10.0707 8.13833
1806 5 56.8971 12.2287 8.13833
1807 5 55.6512 14.3867 8.13833
1808 5 56.8971 16.5447 8.13833
1809 5 55.6512 18.7027 8.13833
1810 5 56.8971 20.8607 8.13833
1811 5 55.6512 23.0187 8.13833
1812 5 56.8971 25.1767 8.13833
1813 5 58.143 1.43867 8.13833
1814 5 59.389 3.59667 8.13833
1815 5 58.143 5.75467 8.13833
1816 5 59.389 7.91267 8.13833
1817 5 58.143 10.0707 8.13833
1818 5 59.389 12.2287 8.13833
1819 5 58.143 14.3867 8.13833
1820 5 59.389 16.5447 8.13833
1821 5 58.143 18.7027 8.13833
1822 5 59.389 20.8607 8.13833
1823 5 58.143 23.0187 8.13833
1824 5 59.389 25.1767 8.13833
1825 5 60.6349 1.43867 8.13833
1826 5 61.8808 3.59667 8.13833
1827 5 60.6349 5.75467 8.13833
1828 5 61.8808 7.91267 8.13833
1829 5 60.6349 10.0707 8.13833
1830 5 61.8808 12.2287 8.13833
1831 5 60.6349 14.3867 8.13833
1832 5 61.8808 16.5447 8.13833
1833 5 60.6349 18.7027 8.13833
1834 5 61.8808 20.8607 8.13833
1835 5 60.6349 23.0187 8.13833
1836 5 61.8808 25.1767 8.13833
1837 5 63.1267 1.43867 8.13833
1838 5 64.3726 3.59667 8.13833
1839 5 63.1267 5.75467 8.13833
1840 5 64.3726 7.91267 8.13833
1841 5 63.1267 10.0707 8.13833
1842 5 64.3726 12.2287 8.13833
1843 5 63.1267 14.3867 8.13833
1844 5 64.3726 16.5447 8.13833
1845 5 63.1267 18.7027 8.13833
1846 5 64.3726 20.8607 8.13833
1847 5 63.1267 23.0187 8.13833
1848 5 64.3726 25.1767 8.13833
1849 5 65.6186 1.43867 8.13833
1850 5 66.8645 3.59667 8.13833
1851 5 65.6186 5.75467 8.13833
1852 5 66.8645 7.91267 8.13833
1853 5 65.6186 10.0707 8.13833
1854 5 66.8645 12.2287 8.13833
1855 5 65.6186 14.3867 8.13833
1856 5 66.8645 16.5447 8.13833
1857 5 65.6186 18.7027 8.13833
1858 5 66.8645 20.8607 8.13833
1859 5 65.6186 23.0187 8.13833
1860 5 66.8645 25.1767 8.13833
1861 5 68.1104 1.43867 8.13833
1862 5 69.3563 3.59667 8.13833
1863 5 68.1104 5.75467 8.13833
1864 5 69.3563 7.91267 8.13833
1865 5 68.1104 10.0707 8.13833
1866 5 69.3563 12.2287 8.13833
1867 5 68.1104 14.3867 8.13833
1868 5 69.3563 16.5447 8.13833
1869 5 68.1104 18.7027 8.13833
1870 5 69.3563 20.8607 8.13833
1871 5 68.1104 23.0187 8.13833
1872 5 69.3563 25.1767 8.13833
1873 5 70.6023 1.43867 8.13833
1874 5 71.8482 3.59667 8.13833
1875 5 70.6023 5.75467 8.13833
1876 5 71.8482 7.91267 8.13833
1877 5 70.6023 10.0707 8.13833
1878 5 71.8482 12.2287 8.13833
1879 5 70.6023 14.3867 8.13833
1880 5 71.8482 16.5447 8.13833
1881 5 70.6023 18.7027 8.13833
1882 5 71.8482 20.8607 8.13833
1883 5 70.6023 23.0187 8.13833
1884 5 71.8482 25.1767 8.13833
1885 5 73.0941 1.43867 8.13833
1886 5 74.34 3.59667 8.13833
1887 5 73.0941 5.75467 8.13833
1888 5 74.34 7.91267 8.13833
1889 5 73.0941 10.0707 8.13833
1890 5 74.34 12.2287 8.13833
1891 5 73.0941 14.3867 8.13833
1892 5 74.34 16.5447 8.13833
1893 5 73.0941 18.7027 8.13833
1894 5 74.34 20.8607 8.13833
1895 5 73.0941 23.0187 8.13833
1896 5 74.34 25.1767 8.13833
1897 5 75.5859 1.43867 8.13833
1898 5 76.8319 3.59667 8.13833
1899 5 75.5859 5.75467 8.13833
1900 5 76.8319 7.91267 8.13833
1901 5 75.5859 10.0707 8.13833
1902 5 76.8319 12.2287 8.13833
1903 5 75.5859 14.3867 8.13833
1904 5 76.8319 16.5447 8.13833
1905 5 75.5859 18.7027 8.13833
1906 5 76.8319 20.8607 8.13833
1907 5 75.5859 23.0187 8.13833
1908 5 76.8319 25.1767 8.13833
1909 5 78.0778 1.43867 8.13833
1910 5 79.3237 3.59667 8.13833
1911 5 78.0778 5.75467 8.13833
1912 5 79.3237 7.91267 8.13833
1913 5 78.0778 10.0707 8.13833
1914 5 79.3237 12.2287 8.13833
1915 5 78.0778 14.3867 8.13833
1916 5 79.3237 16.5447 8.13833
1917 5 78.0778 18.7027 8.13833
1918 5 79.3237 20.8607 8.13833
1919 5 78.0778 23.0187 8.13833
1920 5 79.3237 25.1767 8.13833
1921 6 0 0 93.3383
1922 6 1.24592 2.158 93.3383
1923 6 0 4.316 93.3383
1924 6 1.24592 6.474 93.3383
1925 6 0 8.632 93.3383
1926 6 1.24592 10.79 93.3383
1927 6 0 12.948 93.3383
1928 6 1.24592 15.106 93.3383
1929 6 0 17.264 93.3383
1930 6 1.24592 19.422 93.3383
1931 6 0 21.58 93.3383
1932 6 1.24592 23.738 93.3383
1933 6 2.49184 0 93.3383
1934 6 3.73777 2.158 93.3383
1935 6 2.49184 4.316 93.3383
1936 6 3.73777 6.474 93.3383
1937 6 2.49184 8.632 93.3383
1938 6 3.73777 10.79 93.3383
1939 6 2.49184 12.948 93.3383
1940 6 3.73777 15.106 93.3383
1941 6 2.49184 17.264 93.3383
1942 6 3.73777 19.422 93.3383
1943 6 2.49184 21.58 93.3383
1944 6 3.73777 23.738 93.3383
1945 6 4.98369 0 93.3383
1946 6 6.22961 2.158 93.3383
1947 6 4.98369 4.316 93.3383
1948 6 6.22961 6.474 93.3383
1949 6 4.98369 8.632 93.3383
1950 6 6.22961 10.79 93.3383
1951 6 4.98369 12.948 93.3383
1952 6 6.22961 15.106 93.3383
1953 6 4.98369 17.264 93.3383
1954 6 6.22961 19.422 93.3383
1955 6 4.98369 21.58 93.3383
1956 6 6.22961 23.738 93.3383
1957 6 7.47553 0 93.3383
1958 6 8.72146 2.158 93.3383
1959 6 7.47553 4.316 93.3383
1960 6 8.72146 6.474 93.3383
1961 6 7.47553 8.632 93.3383
1962 6 8.72146 10.79 93.3383
1963 6 7.47553 12.948 93.3383
1964 6 8.72146 15.106 93.3383
1965 6 7.47553 17.264 93.3383
1966 6 8.72146 19.422 93.3383
1967 6 7.47553 21.58 93.3383
1968 6 8.72146 23.738 93.3383
1969 6 9.96738 0 93.3383
1970 6 11.2133 2.158 93.3383
1971 6 9.96738 4.316 93.3383
1972 6 11.2133 6.474 93.3383
1973 6 9.96738 8.632 93.3383
1974 6 11.2133 10.79 93.3383
1975 6 9.96738 12.948 93.3383
1976 6 11.2133 15.106 93.3383
1977 6 9.96738 17.264 93.3383
1978 6 11.2133 19.422 93.3383
1979 6 9.96738 21.58 93.3383
1980 6 11.2133 23.738 93.3383
1981 6 12.4592 0 93.3383
1982 6 13.7051 2.158 93.3383
1983 6 12.4592 4.316 93.3383
1984 6 13.7051 6.474 93.3383
1985 6 12.4592 8.632 93.3383
1986 6 13.7051 10.79 93.3383
1987 6 12.4592 12.948 93.3383
1988 6 13.7051 15.106 93.3383
1989 6 12.4592 17.264 93.3383
1990 6 13.7051 19.422 93.3383
1991 6 12.4592 21.58 93.3383
1992 6 13.7051 23.738 93.3383
1993 6 14.9511 0 93.3383
1994 6 16.197 2.158 93.3383
1995 6 14.9511 4.316 93.3383
1996 6 16.197 6.474 93.3383
1997 6 14.9511 8.632 93.3383
1998 6 16.197 10.79 93.3383
1999 6 14.9511 12.948 93.3383
2000 6 16.197 15.106 93.3383
2001 6 14.9511 17.264 93.3383
2002 6 16.197 19.422 93.3383
2003 6 14.9511 21.58 93.3383
2004 6 16.197 23.738 93.3383
2005 6 17.4429 0 93.3383
2006 6 18.6888 2.158 93.3383
2007 6 17.4429 4.316 93.3383
2008 6 18.6888 6.474 93.3383
2009 6 17.4429 8.632 93.3383
2010 6 18.6888 10.79 93.3383
2011 6 17.4429 12.948 93.3383
2012 6 18.6888 15.106 93.3383
2013 6 17.4429 17.264 93.3383
2014 6 18.6888 19.422 93.3383
2015 6 17.4429 21.58 93.3383
2016 6 18.6888 23.738 93.3383
2017 6 19.9348 0 93.3383
2018 6 21.1807 2.158 93.3383
2019 6 19.9348 4.316 93.3383
2020 6 21.1807 6.474 93.3383
2021 6 19.9348 8.632 93.3383
2022 6 21.1807 10.79 93.3383
2023 6 19.9348 12.948 93.3383
2024 6 21.1807 15.106 93.3383
2025 6 19.9348 17.264 93.3383
2026 6 21.1807 19.422 93.3383
2027 6 19.9348 21.58 93.3383
2028 6 21.1807 23.738 93.3383
2029 6 22.4266 0 93.3383
2030 6 23.6725 2.158 93.3383
2031 6 22.4266 4.316 93.3383
2032 6 23.6725 6.474 93.3383
2033 6 22.4266 8.632 93.3383
2034 6 23.6725 10.79 93.3383
2035 6 22.4266 12.948 93.3383
2036 6 23.6725 15.106 93.3383
2037 6 22.4266 17.264 93.3383
2038 6 23.6725 19.422 93.3383
2039 6 22.4266 21.58 93.3383
2040 6 23.6725 23.738 93.3383
2041 6 24.9184 0 93.3383
2042 6 26.1644 2.158 93.3383
2043 6 24.9184 4.316 93.3383
2044 6 26.1644 6.474 93.3383
2045 6 24.9184 8.632 93.3383
2046 6 26.1644 10.79 93.3383
2047 6 24.9184 12.948 93.3383
2048 6 26.1644 15.106 93.3383
2049 6 24.9184 17.264 93.3383
2050 6 26.1644 19.422 93.3383
2051 6 24.9184 21.58 93.3383
2052 6 26.1644 23.738 93.3383
2053 6 27.4103 0 93.3383
2054 6 28.6562 2.158 93.3383
2055 6 27.4103 4.316 93.3383
2056 6 28.6562 6.474 93.3383
2057 6 27.4103 8.632 93.3383
2058 6 28.6562 10.79 93.3383
2059 6 27.4103 12.948 93.3383
2060 6 28.6562 15.106 93.3383
2061 6 27.4103 17.264 93.3383
2062 6 28.6562 19.422 93.3383
2063 6 27.4103 21.58 93.3383
2064 6 28.6562 23.738 93.3383
2065 6 29.9021 0 93.3383
2066 6 31.1481 2.158 93.3383
2067 6 29.9021 4.316 93.3383
2068 6 31.1481 6.474 93.3383
2069 6 29.9021 8.632 93.3383
2070 6 31.1481 10.79 93.3383
2071 6 29.9021 12.948 93.3383
2072 6 31.1481 15.106 93.3383
2073 6 29.9021 17.264 93.3383
2074 6 31.1481 19.422 93.3383
2075 6 29.9021 21.58 93.3383
2076 6 31.1481 23.738 93.3383
2077 6 32.394 0 93.3383
2078 6 33.6399 2.158 93.3383
2079 6 32.394 4.316 93.3383
2080 6 33.6399 6.474 93.3383
2081 6 32.394 8.632 93.3383
2082 6 33.6399 10.79 93.3383
2083 6 32.394 12.948 93.3383
2084 6 33.6399 15.106 93.3383
2085 6 32.394 17.264 93.3383
2086 6 33.6399 19.422 93.3383
2087 6 32.394 21.58 93.3383
2088 6 33.6399 23.738 93.3383
2089 6 34.8858 0 93.3383
2090 6 36.1317 2.158 93.3383
2091 6 34.8858 4.316 93.3383
2092 6 36.1317 6.474 93.3383
2093 6 34.8858 8.632 93.3383
2094 6 36.1317 10.79 93.3383
2095 6 34.8858 12.948 93.3383
2096 6 36.1317 15.106 93.3383
2097 6 34.8858 17.264 93.3383
2098 6 36.1317 19.422 93.3383
2099 6 34.8858 21.58 93.3383
2100 6 36.1317 23.738 93.3383
2101 6 37.3777 0 93.3383
2102 6 38.6236 2.158 93.3383
2103 6 37.3777 4.316 93.3383
2104 6 38.6236 6.474 93.3383
2105 6 37.3777 8.632 93.3383
2106 6 38.6236 10.79 93.3383
2107 6 37.3777 12.948 93.3383
2108 6 38.6236 15.106 93.3383
2109 6 37.3777 17.264 93.3383
2110 6 38.6236 19.422 93.3383
2111 6 37.3777 21.58 93.3383
2112 6 38.6236 23.738 93.3383
2113 6 39.8695 0 93.3383
2114 6 41.1154 2.158 93.3383
2115 6 39.8695 4.316 93.3383
2116 6 41.1154 6.474 93.3383
2117 6 39.8695 8.632 93.3383
2118 6 41.1154 10.79 93.3383
2119 6 39.8695 12.948 93.3383
2120 6 41.1154 15.106 93.3383
2121 6 39.8695 17.264 93.3383
2122 6 41.1154 19.422 93.3383
2123 6 39.8695 21.58 93.3383
2124 6 41.1154 23.738 93.3383
2125 6 42.3614 0 93.3383
2126 6 43.6073 2.158 93.3383
2127 6 42.3614 4.316 93.3383
2128 6 43.6073 6.474 93.3383
2129 6 42.3614 8.632 93.3383
2130 6 43.6073 10.79 93.3383
2131 6 42.3614 12.948 93.3383
2132 6 43.6073 15.106 93.3383
2133 6 42.3614 17.264 93.3383
2134 6 43.6073 19.422 93.3383
2135 6 42.3614 21.58 93.3383
2136 6 43.6073 23.738 93.3383
2137 6 44.8532 0 93.3383
2138 6 46.0991 2.158 93.3383
2139 6 44.8532 4.316 93.3383
2140 6 46.0991 6.474 93.3383
2141 6 44.8532 8.632 93.3383
2142 6 46.0991 10.79 93.3383
2143 6 44.8532 12.948 93.3383
2144 6 46.0991 15.106 93.3383
2145 6 44.8532 17.264 93.3383
2146 6 46.0991 19.422 93.3383
2147 6 44.8532 21.58 93.3383
2148 6 46.0991 23.738 93.3383
2149 6 47.345 0 93.3383
2150 6 48.591 2.158 93.3383
2151 6 47.345 4.316 93.3383
2152 6 48.591 6.474 93.3383
2153 6 47.345 8.632 93.3383
2154 6 48.591 10.79 93.3383
2155 6 47.345 12.948 93.3383
2156 6 48.591 15.106 93.3383
2157 6 47.345 17.264 93.3383
2158 6 48.591 19.422 93.3383
2159 6 47.345 21.58 93.3383
2160 6 48.591 23.738 93.3383
2161 6 49.8369 0 93.3383
2162 6 51.0828 2.158 93.3383
2163 6 49.8369 4.316 93.3383
2164 6 51.0828 6.474 93.3383
2165 6 49.8369 8.632 93.3383
2166 6 51.0828 10.79 93.3383
2167 6 49.8369 12.948 93.3383
2168 6 51.0828 15.106 93.3383
2169 6 49.8369 17.264 93.3383
2170 6 51.0828 19.422 93.3383
2171 6 49.8369 21.58 93.3383
2172 6 51.0828 23.738 93.3383
2173 6 52.3287 0 93.3383
2174 6 53.5746 2.158 93.3383
2175 6 52.3287 4.316 93.3383
2176 6 53.5746 6.474 93.3383
2177 6 52.3287 8.632 93.3383
2178 6 53.5746 10.79 93.3383
2179 6 52.3287 12.948 93.3383
2180 6 53.5746 15.106 93.3383
2181 6 52.3287 17.264 93.3383
2182 6 53.5746 19.422 93.3383
2183 6 52.3287 21.58 93.3383
2184 6 53.5746 23.738 93.3383
2185 6 54.8206 0 93.3383
2186 6 56.0665 2.158 93.3383
2187 6 54.8206 4.316 93.3383
2188 6 56.0665 6.474 93.3383
2189 6 54.8206 8.632 93.3383
2190 6 56.0665 10.79 93.3383
2191 6 54.8206 12.948 93.3383
2192 6 56.0665 15.106 93.3383
2193 6 54.8206 17.264 93.3383
2194 6 56.0665 19.422 93.3383
2195 6 54.8206 21.58 93.3383
2196 6 56.0665 23.738 93.3383
2197 6 57.3124 0 93.3383
2198 6 58.5583 2.158 93.3383
2199 6 57.3124 4.316 93.3383
2200 6 58.5583 6.474 93.3383
2201 6 57.3124 8.632 93.3383
2202 6 58.5583 10.79 93.3383
2203 6 57.3124 12.948 93.3383
2204 6 58.5583 15.106 93.3383
2205 6 57.3124 17.264 93.3383
2206 6 58.5583 19.422 93.3383
2207 6 57.3124 21.58 93.3383
2208 6 58.5583 23.738 93.3383
2209 6 59.8043 0 93.3383
2210 6 61.0502 2.158 93.3383
2211 6 59.8043 4.316 93.3383
2212 6 61.0502 6.474 93.3383
2213 6 59.8043 8.632 93.3383
2214 6 61.0502 10.79 93.3383
2215 6 59.8043 12.948 93.3383
2216 6 61.0502 15.106 93.3383
2217 6 59.8043 17.264 93.3383
2218 6 61.0502 19.422 93.3383
2219 6 59.8043 21.58 93.3383
2220 6 61.0502 23.738 93.3383
2221 6 62.2961 0 93.3383
2222 6 63.542 2.158 93.3383
2223 6 62.2961 4.316 93.3383
2224 6 63.542 6.474 93.3383
2225 6 62.2961 8.632 93.3383
2226 6 63.542 10.79 93.3383
2227 6 62.2961 12.948 93.3383
2228 6 63.542 15.106 93.3383
2229 6 62.2961 17.264 93.3383
2230 6 63.542 19.422 93.3383
2231 6 62.2961 21.58 93.3383
2232 6 63.542 23.738 93.3383
2233 6 64.7879 0 93.3383
2234 6 66.0339 2.158 93.3383
2235 6 64.7879 4.316 93.3383
2236 6 66.0339 6.474 93.3383
2237 6 64.7879 8.632 93.3383
2238 6 66.0339 10.79 93.3383
2239 6 64.7879 12.948 93.3383
2240 6 66.0339 15.106 93.3383
2241 6 64.7879 17.264 93.3383
2242 6 66.0339 19.422 93.3383
2243 6 64.7879 21.58 93.3383
2244 6 66.0339 23.738 93.3383
2245 6 67.2798 0 93.3383
2246 6 68.5257 2.158 93.3383
2247 6 67.2798 4.316 93.3383
2248 6 68.5257 6.474 93.3383
2249 6 67.2798 8.632 93.3383
2250 6 68.5257 10.79 93.3383
2251 6 67.2798 12.948 93.3383
2252 6 68.5257 15.106 93.3383
2253 6 67.2798 17.264 93.3383
2254 6 68.5257 19.422 93.3383
2255 6 67.2798 21.58 93.3383
2256 6 68.5257 23.738 93.3383
2257 6 69.7716 0 93.3383
2258 6 71.0176 2.158 93.3383
2259 6 69.7716 4.316 93.3383
2260 6 71.0176 6.474 93.3383
2261 6 69.7716 8.632 93.3383
2262 6 71.0176 10.79 93.3383
2263 6 69.7716 12.948 93.3383
2264 6 71.0176 15.106 93.3383
2265 6 69.7716 17.264 93.3383
2266 6 71.0176 19.422 93.3383
2267 6 69.7716 21.58 93.3383
2268 6 71.0176 23.738 93.3383
2269 6 72.2635 0 93.3383
2270 6 73.5094 2.158 93.3383
2271 6 72.2635 4.316 93.3383
2272 6 73.5094 6.474 93.3383
2273 6 72.2635 8.632 93.3383
2274 6 73.5094 10.79 93.3383
2275 6 72.2635 12.948 93.3383
2276 6 73.5094 15.106 93.3383
2277 6 72.2635 17.264 93.3383
2278 6 73.5094 19.422 93.3383
2279 6 72.2635 21.58 93.3383
2280 6 73.5094 23.738 93.3383
2281 6 74.7553 0 93.3383
2282 6 76.0012 2.158 93.3383
2283 6 74.7553 4.316 93.3383
2284 6 76.0012 6.474 93.3383
2285 6 74.7553 8.632 93.3383
2286 6 76.0012 10.79 93.3383
2287 6 74.7553 12.948 93.3383
2288 6 76.0012 15.106 93.3383
2289 6 74.7553 17.264 93.3383
2290 6 76.0012 19.422 93.3383
2291 6 74.7553 21.58 93.3383
2292 6 76.0012 23.738 93.3383
2293 6 77.2472 0 93.3383
2294 6 78.4931 2.158 93.3383
2295 6 77.2472 4.316 93.3383
2296 6 78.4931 6.474 93.3383
2297 6 77.2472 8.632 93.3383
2298 6 78.4931 10.79 93.3383
2299 6 77.2472 12.948 93.3383
2300 6 78.4931 15.106 93.3383
2301 6 77.2472 17.264 93.3383
2302 6 78.4931 19.422 93.3383
2303 6 77.2472 21.58 93.3383
2304 6 78.4931 23.738 93.3383
2305 6 0.83061 1.43867 95.3729
2306 6 2.07654 3.59667 95.3729
2307 6 0.83061 5.75467 95.3729
2308 6 2.07654 7.91267 95.3729
2309 6 0.83061 10.0707 95.3729
2310 6 2.07654 12.2287 95.3729
2311 6 0.83061 14.3867 95.3729
2312 6 2.07654 16.5447 95.3729
2313 6 0.83061 18.7027 95.3729
2314 6 2.07654 20.8607 95.3729
2315 6 0.83061 23.0187 95.3729
2316 6 2.07654 25.1767 95.3729
2317 6 3.32246 1.43867 95.3729
2318 6 4.56838 3.59667 95.3729
2319 6 3.32246 5.75467 95.3729
2320 6 4.56838 7.91267 95.3729
2321 6 3.32246 10.0707 95.3729
2322 6 4.56838 12.2287 95.3729
2323 6 3.32246 14.3867 95.3729
2324 6 4.56838 16.5447 95.3729
2325 6 3.32246 18.7027 95.3729
2326 6 4.56838 20.8607 95.3729
2327 6 3.32246 23.0187 95.3729
2328 6 4.56838 25.1767 95.3729
2329 6 5.8143 1.43867 95.3729
2330 6 7.06023 3.59667 95.3729
2331 6 5.8143 5.75467 95.3729
2332 6 7.06023 7.91267 95.3729
2333 6 5.8143 10.0707 95.3729
2334 6 7.06023 12.2287 95.3729
2335 6 5.8143 14.3867 95.3729
2336 6 7.06023 16.5447 95.3729
2337 6 5.8143 18.7027 95.3729
2338 6 7.06023 20.8607 95.3729
2339 6 5.8143 23.0187 95.3729
2340 6 7.06023 25.1767 95.3729
2341 6 8.30615 1.43867 95.3729
2342 6 9.55207 3.59667 95.3729
2343 6 8.30615 5.75467 95.3729
2344 6 9.55207 7.91267 95.3729
2345 6 8.30615 10.0707 95.3729
2346 6 9.55207 12.2287 95.3729
2347 6 8.30615 14.3867 95.3729
2348 6 9.55207 16.5447 95.3729
2349 6 8.30615 18.7027 95.3729
2350 6 9.55207 20.8607 95.3729
2351 6 8.30615 23.0187 95.3729
2352 6 9.55207 25.1767 95.3729
2353 6 10.798 1.43867 95.3729
2354 6 12.0439 3.59667 95.3729
2355 6 10.798 5.75467 95.3729
2356 6 12.0439 7.91267 95.3729
2357 6 10.798 10.0707 95.3729
2358 6 12.0439 12.2287 95.3729
2359 6 10.798 14.3867 95.3729
2360 6 12.0439 16.5447 95.3729
2361 6 10.798 18.7027 95.3729
2362 6 12.0439 20.8607 95.3729
2363 6 10.798 23.0187 95.3729
2364 6 12.0439 25.1767 95.3729
2365 6 13.2898 1.43867 95.3729
2366 6 14.5358 3.59667 95.3729
2367 6 13.2898 5.75467 95.3729
2368 6 14.5358 7.91267 95.3729
2369 6 13.2898 10.0707 95.3729
2370 6 14.5358 12.2287 95.3729
2371 6 13.2898 14.3867 95.3729
2372 6 14.5358 16.5447 95.3729
2373 6 13.2898 18.7027 95.3729
2374 6 14.5358 20.8607 95.3729
2375 6 13.2898 23.0187 95.3729
2376 6 14.5358 25.1767 95.3729
2377 6 15.7817 1.43867 95.3729
2378 6 17.0276 3.59667 95.3729
2379 6 15.7817 5.75467 95.3729
2380 6 17.0276 7.91267 95.3729
2381 6 15.7817 10.0707 95.3729
2382 6 17.0276 12.2287 95.3729
2383 6 15.7817 14.3867 95.3729
2384 6 17.0276 16.5447 95.3729
2385 6 15.7817 18.7027 95.3729
2386 6 17.0276 20.8607 95.3729
2387 6 15.7817 23.0187 95.3729
2388 6 17.0276 25.1767 95.3729
2389 6 18.2735 1.43867 95.3729
2390 6 19.5194 3.59667 95.3729
2391 6 18.2735 5.75467 95.3729
2392 6 19.5194 7.91267 95.3729
2393 6 18.2735 10.0707 95.3729
2394 6 19.5194 12.2287 95.3729
2395 6 18.2735 14.3867 95.3729
2396 6 19.5194 16.5447 95.3729
2397 6 18.2735 18.7027 95.3729
2398 6 19.5194 20.8607 95.3729
2399 6 18.2735 23.0187 95.3729
2400 6 19.5194 25.1767 95.3729
2401 6 20.7654 1.43867 95.3729
2402 6 22.0113 3.59667 95.3729
2403 6 20.7654 5.75467 95.3729
2404 6 22.0113 7.91267 95.3729
2405 6 20.7654 10.0707 95.3729
2406 6 22.0113 12.2287 95.3729
2407 6 20.7654 14.3867 95.3729
2408 6 22.0113 16.5447 95.3729
2409 6 20.7654 18.7027 95.3729
2410 6 22.0113 20.8607 95.3729
2411 6 20.7654 23.0187 95.3729
2412 6 22.0113 25.1767 95.3729
2413 6 23.2572 1.43867 95.3729
2414 6 24.5031 3.59667 95.3729
2415 6 23.2572 5.75467 95.3729
2416 6 24.5031 7.91267 95.3729
2417 6 23.2572 10.0707 95.3729
2418 6 24.5031 12.2287 95.3729
2419 6 23.2572 14.3867 95.3729
2420 6 24.5031 16.5447 95.3729
2421 6 23.2572 18.7027 95.3729
2422 6 24.5031 20.8607 95.3729
2423 6 23.2572 23.0187 95.3729
2424 6 24.5031 25.1767 95.3729
2425 6 25.7491 1.43867 95.3729
2426 6 26.995 3.59667 95.3729
2427 6 25.7491 5.75467 95.3729
2428 6 26.995 7.91267 95.3729
2429 6 25.7491 10.0707 95.3729
2430 6 26.995 12.2287 95.3729
2431 6 25.7491 14.3867 95.3729
2432 6 26.995 16.5447 95.3729
2433 6 25.7491 18.7027 95.3729
2434 6 26.995 20.8607 95.3729
2435 6 25.7491 23.0187 95.3729
2436 6 26.995 25.1767 95.3729
2437 6 28.2409 1.43867 95.3729
2438 6 29.4868 3.59667 95.3729
2439 6 28.2409 5.75467 95.3729
2440 6 29.4868 7.91267 95.3729
2441 6 28.2409 10.0707 95.3729
2442 6 29.4868 12.2287 95.3729
2443 6 28.2409 14.3867 95.3729
2444 6 29.4868 16.5447 95.3729
2445 6 28.2409 18.7027 95.3729
2446 6 29.4868 20.8607 95.3729
2447 6 28.2409 23.0187 95.3729
2448 6 29.4868 25.1767 95.3729
2449 6 30.7327 1.43867 95.3729
2450 6 31.9787 3.59667 95.3729
2451 6 30.7327 5.75467 95.3729
2452 6 31.9787 7.91267 95.3729
2453 6 30.7327 10.0707 95.3729
2454 6 31.9787 12.2287 95.3729
2455 6 30.7327 14.3867 95.3729
2456 6 31.9787 16.5447 95.3729
2457 6 30.7327 18.7027 95.3729
2458 6 31.9787 20.8607 95.3729
2459 6 30.7327 23.0187 95.3729
2460 6 31.9787 25.1767 95.3729
2461 6 33.2246 1.43867 95.3729
2462 6 34.4705 3.59667 95.3729
2463 6 33.2246 5.75467 95.3729
2464 6 34.4705 7.91267 95.3729
2465 6 33.2246 10.0707 95.3729
2466 6 34.4705 12.2287 95.3729
2467 6 33.2246 14.3867 95.3729
2468 6 34.4705 16.5447 95.3729
2469 6 33.2246 18.7027 95.3729
2470 6 34.4705 20.8607 95.3729
2471 6 33.2246 23.0187 95.3729
2472 6 34.4705 25.1767 95.3729
2473 6 35.7164 1.43867 95.3729
2474 6 36.9624 3.59667 95.3729
2475 6 35.7164 5.75467 95.3729
2476 6 36.9624 7.91267 95.3729
2477 6 35.7164 10.0707 95.3729
2478 6 36.9624 12.2287 95.3729
2479 6 35.7164 14.3867 95.3729
2480 6 36.9624 16.5447 95.3729
2481 6 35.7164 18.7027 95.3729
2482 6 36.9624 20.8607 95.3729
2483 6 35.7164 23.0187 95.3729
2484 6 36.9624 25.1767 95.3729
2485 6 38.2083 1.43867 95.3729
2486 6 39.4542 3.59667 95.3729
2487 6 38.2083 5.75467 95.3729
2488 6 39.4542 7.91267 95.3729
2489 6 38.2083 10.0707 95.3729
2490 6 39.4542 12.2287 95.3729
2491 6 38.2083 14.3867 95.3729
2492 6 39.4542 16.5447 95.3729
2493 6 38.2083 18.7027 95.3729
2494 6 39.4542 20.8607 95.3729
2495 6 38.2083 23.0187 95.3729
2496 6 39.4542 25.1767 95.3729
2497 6 40.7001 1.43867 95.3729
2498 6 41.946 3.59667 95.3729
2499 6 40.7001 5.75467 95.3729
2500 6 41.946 7.91267 95.3729
2501 6 40.7001 10.0707 95.3729
2502 6 41.946 12.2287 95.3729
2503 6 40.7001 14.3867 95.3729
2504 6 41.946 16.5447 95.3729
2505 6 40.7001 18.7027 95.3729
2506 6 41.946 20.8607 95.3729
2507 6 40.7001 23.0187 95.3729
2508 6 41.946 25.1767 95.3729
2509 6 43.192 1.43867 95.3729
2510 6 44.4379 3.59667 95.3729
2511 6 43.192 5.75467 95.3729
2512 6 44.4379 7.91267 95.3729
2513 6 43.192 10.0707 95.3729
2514 6 44.4379 12.2287 95.3729
2515 6 43.192 14.3867 95.3729
2516 6 44.4379 16.5447 95.3729
2517 6 43.192 18.7027 95.3729
2518 6 44.4379 20.8607 95.3729
2519 6 43.192 23.0187 95.3729
2520 6 44.4379 25.1767 95.3729
2521 6 45.6838 1.43867 95.3729
2522 6 46.9297 3.59667 95.3729
2523 6 45.6838 5.75467 95.3729
2524 6 46.9297 7.91267 95.3729
2525 6 45.6838 10.0707 95.3729
2526 6 46.9297 12.2287 95.3729
2527 6 45.6838 14.3867 95.3729
2528 6 46.9297 16.5447 95.3729
2529 6 45.6838 18.7027 95.3729
2530 6 46.9297 20.8607 95.3729
2531 6 45.6838 23.0187 95.3729
2532 6 46.9297 25.1767 95.3729
2533 6 48.1757 1.43867 95.3729
2534 6 49.4216 3.59667 95.3729
2535 6 48.1757 5.75467 95.3729
2536 6 49.4216 7.91267 95.3729
2537 6 48.1757 10.0707 95.3729
2538 6 49.4216 12.2287 95.3729
2539 6 48.1757 14.3867 95.3729
2540 6 49.4216 16.5447 95.3729
2541 6 48.1757 18.7027 95.3729
2542 6 49.4216 20.8607 95.3729
2543 6 48.1757 23.0187 95.3729
2544 6 49.4216 25.1767 95.3729
2545 6 50.6675 1.43867 95.3729
2546 6 51.9134 3.59667 95.3729
2547 6 50.6675 5.75467 95.3729
2548 6 51.9134 7.91267 95.3729
2549 6 50.6675 10.0707 95.3729
2550 6 51.9134 12.2287 95.3729
2551 6 50.6675 14.3867 95.3729
2552 6 51.9134 16.5447 95.3729
2553 6 50.6675 18.7027 95.3729
2554 6 51.9134 20.8607 95.3729
2555 6 50.6675 23.0187 95.3729
2556 6 51.9134 25.1767 95.3729
2557 6 53.1594 1.43867 95.3729
2558 6 54.4053 3.59667 95.3729
2559 6 53.1594 5.75467 95.3729
2560 6 54.4053 7.91267 95.3729
2561 6 53.1594 10.0707 95.3729
2562 6 54.4053 12.2287 95.3729
2563 6 53.1594 14.3867 95.3729
2564 6 54.4053 16.5447 95.3729
2565 6 53.1594 18.7027 95.3729
2566 6 54.4053 20.8607 95.3729
2567 6 53.1594 23.0187 95.3729
2568 6 54.4053 25.1767 95.3729
2569 6 55.6512 1.43867 95.3729
2570 6 56.8971 3.59667 95.3729
2571 6 55.6512 5.75467 95.3729
2572 6 56.8971 7.91267 95.3729
2573 6 55.6512 10.0707 95.3729
2574 6 56.8971 12.2287 95.3729
2575 6 55.6512 14.3867 95.3729
2576 6 56.8971 16.5447 95.3729
2577 6 55.6512 18.7027 95.3729
2578 6 56.8971 20.8607 95.3729
2579 6 55.6512 23.0187 95.3729
2580 6 56.8971 25.1767 95.3729
2581 6 58.143 1.43867 95.3729
2582 6 59.389 3.59667 95.3729
2583 6 58.143 5.75467 95.3729
2584 6 59.389 7.91267 95.3729
2585 6 58.143 10.0707 95.3729
2586 6 59.389 12.2287 95.3729
2587 6 58.143 14.3867 95.3729
2588 6 59.389 16.5447 95.3729
2589 6 58.143 18.7027 95.3729
2590 6 59.389 20.8607 95.3729
2591 6 58.143 23.0187 95.3729
2592 6 59.389 25.1767 95.3729
2593 6 60.6349 1.43867 95.3729
2594 6 61.8808 3.59667 95.3729
2595 6 60.6349 5.75467 95.3729
2596 6 61.8808 7.91267 95.3729
2597 6 60.6349 10.0707 95.3729
2598 6 61.8808 12.2287 95.3729
2599 6 60.6349 14.3867 95.3729
2600 6 61.8808 16.5447 95.3729
2601 6 60.6349 18.7027 95.3729
2602 6 61.8808 20.8607 95.3729
2603 6 60.6349 23.0187 95.3729
2604 6 61.8808 25.1767 95.3729
2605 6 63.1267 1.43867 95.3729
2606 6 64.3726 3.59667 95.3729
2607 6 63.1267 5.75467 95.3729
2608 6 64.3726 7.91267 95.3729
2609 6 63.1267 10.0707 95.3729
2610 6 64.3726 12.2287 95.3729
2611 6 63.1267 14.3867 95.3729
2612 6 64.3726 16.5447 95.3729
2613 6 63.1267 18.7027 95.3729
2614 6 64.3726 20.8607 95.3729
2615 6 63.1267 23.0187 95.3729
2616 6 64.3726 25.1767 95.3729
2617 6 65.6186 1.43867 95.3729
2618 6 66.8645 3.59667 95.3729
2619 6 65.6186 5.75467 95.3729
2620 6 66.8645 7.91267 95.3729
2621 6 65.6186 10.0707 95.3729
2622 6 66.8645 12.2287 95.3729
2623 6 65.6186 14.3867 95.3729
2624 6 66.8645 16.5447 95.3729
2625 6 65.6186 18.7027 95.3729
2626 6 66.8645 20.8607 95.3729
2627 6 65.6186 23.0187 95.3729
2628 6 66.8645 25.1767 95.3729
2629 6 68.1104 1.43867 95.3729
2630 6 69.3563 3.59667 95.3729
2631 6 68.1104 5.75467 95.3729
2632 6 69.3563 7.91267 95.3729
2633 6 68.1104 10.0707 95.3729
2634 6 69.3563 12.2287 95.3729
2635 6 68.1104 14.3867 95.3729
2636 6 69.3563 16.5447 95.3729
2637 6 68.1104 18.7027 95.3729
2638 6 69.3563 20.8607 95.3729
2639 6 68.1104 23.0187 95.3729
2640 6 69.3563 25.1767 95.3729
2641 6 70.6023 1.43867 95.3729
2642 6 71.8482 3.59667 95.3729
2643 6 70.6023 5.75467 95.3729
2644 6 71.8482 7.91267 95.3729
2645 6 70.6023 10.0707 95.3729
2646 6 71.8482 12.2287 95.3729
2647 6 70.6023 14.3867 95.3729
2648 6 71.8482 16.5447 95.3729
2649 6 70.6023 18.7027 95.3729
2650 6 71.8482 20.8607 95.3729
2651 6 70.6023 23.0187 95.3729
2652 6 71.8482 25.1767 95.3729
2653 6 73.0941 1.43867 95.3729
2654 6 74.34 3.59667 95.3729
2655 6 73.0941 5.75467 95.3729
2656 6 74.34 7.91267 95.3729
2657 6 73.0941 10.0707 95.3729
2658 6 74.34 12.2287 95.3729
2659 6 73.0941 14.3867 95.3729
2660 6 74.34 16.5447 95.3729
2661 6 73.0941 18.7027 95.3729
2662 6 74.34 20.8607 95.3729
2663 6 73.0941 23.0187 95.3729
2664 6 74.34 25.1767 95.3729
2665 6 75.5859 1.43867 95.3729
2666 6 76.8319 3.59667 95.3729
2667 6 75.5859 5.75467 95.3729
2668 6 76.8319 7.91267 95.3729
2669 6 75.5859 10.0707 95.3729
2670 6 76.8319 12.2287 95.3729
2671 6 75.5859 14.3867 95.3729
2672 6 76.8319 16.5447 95.3729
2673 6 75.5859 18.7027 95.3729
2674 6 76.8319 20.8607 95.3729
2675 6 75.5859 23.0187 95.3729
2676 6 76.8319 25.1767 95.3729
2677 6 78.0778 1.43867 95.3729
2678 6 79.3237 3.59667 95.3729
2679 6 78.0778 5.75467 95.3729
2680 6 79.3237 7.91267 95.3729
2681 6 78.0778 10.0707 95.3729
2682 6 79.3237 12.2287 95.3729
2683 6 78.0778 14.3867 95.3729
2684 6 79.3237 16.5447 95.3729
2685 6 78.0778 18.7027 95.3729
2686 6 79.3237 20.8607 95.3729
2687 6 78.0778 23.0187 95.3729
2688 6 79.3237 25.1767 95.3729
2689 6 1.66123 2.87733 97.4075
2690 6 2.90715 5.03533 97.4075
2691 6 1.66123 7.19333 97.4075
2692 6 2.90715 9.35134 97.4075
2693 6 1.66123 11.5093 97.4075
2694 6 2.90715 13.6673 97.4075
2695 6 1.66123 15.8253 97.4075
2696 6 2.90715 17.9833 97.4075
2697 6 1.66123 20.1413 97.4075
2698 6 2.90715 22.2993 97.4075
2699 6 1.66123 24.4573 97.4075
2700 6 2.90715 26.6153 97.4075
2701 6 4.15307 2.87733 97.4075
2702 6 5.399 5.03533 97.4075
2703 6 4.15307 7.19333 97.4075
2704 6 5.399 9.35134 97.4075
2705 6 4.15307 11.5093 97.4075
2706 6 5.399 13.6673 97.4075
2707 6 4.15307 15.8253 97.4075
2708 6 5.399 17.9833 97.4075
2709 6 4.15307 20.1413 97.4075
2710 6 5.399 22.2993 97.4075
2711 6 4.15307 24.4573 97.4075
2712 6 5.399 26.6153 97.4075
2713 6 6.64492 2.87733 97.4075
2714 6 7.89084 5.03533 97.4075
2715 6 6.64492 7.19333 97.4075
2716 6 7.89084 9.35134 97.4075
2717 6 6.64492 11.5093 97.4075
2718 6 7.89084 13.6673 97.4075
2719 6 6.64492 15.8253 97.4075
2720 6 7.89084 17.9833 97.4075
2721 6 6.64492 20.1413 97.4075
2722 6 7.89084 22.2993 97.4075
2723 6 6.64492 24.4573 97.4075
2724 6 7.89084 26.6153 97.4075
2725 6 9.13676 2.87733 97.4075
2726 6 10.3827 5.03533 97.4075
2727 6 9.13676 7.19333 97.4075
2728 6 10.3827 9.35134 97.4075
2729 6 9.13676 11.5093 97.4075
2730 6 10.3827 13.6673 97.4075
2731 6 9.13676 15.8253 97.4075
2732 6 10.3827 17.9833 97.4075
2733 6 9.13676 20.1413 97.4075
2734 6 10.3827 22.2993 97.4075
2735 6 9.13676 24.4573 97.4075
2736 6 10.3827 26.6153 97.4075
2737 6 11.6286 2.87733 97.4075
2738 6 12.8745 5.03533 97.4075
2739 6 11.6286 7.19333 97.4075
2740 6 12.8745 9.35134 97.4075
2741 6 11.6286 11.5093 97.4075
2742 6 12.8745 13.6673 97.4075
2743 6 11.6286 15.8253 97.4075
2744 6 12.8745 17.9833 97.4075
2745 6 11.6286 20.1413 97.4075
2746 6 12.8745 22.2993 97.4075
2747 6 11.6286 24.4573 97.4075
2748 6 12.8745 26.6153 97.4075
2749 6 14.1204 2.87733 97.4075
2750 6 15.3664 5.03533 97.4075
2751 6 14.1204 7.19333 97.4075
2752 6 15.3664 9.35134 97.4075
2753 6 14.1204 11.5093 97.4075
2754 6 15.3664 13.6673 97.4075
2755 6 14.1204 15.8253 97.4075
2756 6 15.3664 17.9833 97.4075
2757 6 14.1204 20.1413 97.4075
2758 6 15.3664 22.2993 97.4075
2759 6 14.1204 24.4573 97.4075
2760 6 15.3664 26.6153 97.4075
2761 6 16.6123 2.87733 97.4075
2762 6 17.8582 5.03533 97.4075
2763 6 16.6123 7.19333 97.4075
2764 6 17.8582 9.35134 97.4075
2765 6 16.6123 11.5093 97.4075
2766 6 17.8582 13.6673 97.4075
2767 6 16.6123 15.8253 97.4075
2768 6 17.8582 17.9833 97.4075
2769 6 16.6123 20.1413 97.4075
2770 6 17.8582 22.2993 97.4075
2771 6 16.6123 24.4573 97.4075
2772 6 17.8582 26.6153 97.4075
2773 6 19.1041 2.87733 97.4075
2774 6 20.3501 5.03533 97.4075
2775 6 19.1041 7.19333 97.4075
2776 6 20.3501 9.35134 97.4075
2777 6 19.1041 11.5093 97.4075
2778 6 20.3501 13.6673 97.4075
2779 6 19.1041 15.8253 97.4075
2780 6 20.3501 17.9833 97.4075
2781 6 19.1041 20.1413 97.4075
2782 6 20.3501 22.2993 97.4075
2783 6 19.1041 24.4573 97.4075
2784 6 20.3501 26.6153 97.4075
2785 6 21.596 2.87733 97.4075
2786 6 22.8419 5.03533 97.4075
2787 6 21.596 7.19333 97.4075
2788 6 22.8419 9.35134 97.4075
2789 6 21.596 11.5093 97.4075
2790 6 22.8419 13.6673 97.4075
2791 6 21.596 15.8253 97.4075
2792 6 22.8419 17.9833 97.4075
2793 6 21.596 20.1413 97.4075
2794 6 22.8419 22.2993 97.4075
2795 6 21.596 24.4573 97.4075
2796 6 22.8419 26.6153 97.4075
2797 6 24.0878 2.87733 97.4075
2798 6 25.3337 5.03533 97.4075
2799 6 24.0878 7.19333 97.4075
2800 6 25.3337 9.35134 97.4075
2801 6 24.0878 11.5093 97.4075
2802 6 25.3337 13.6673 97.4075
2803 6 24.0878 15.8253 97.4075
2804 6 25.3337 17.9833 97.4075
2805 6 24.0878 20.1413 97.4075
2806 6 25.3337 22.2993 97.4075
2807 6 24.0878 24.4573 97.4075
2808 6 25.3337 26.6153 97.4075
2809 6 26.5797 2.87733 97.4075
2810 6 27.8256 5.03533 97.4075
2811 6 26.5797 7.19333 97.4075
2812 6 27.8256 9.35134 97.4075
2813 6 26.5797 11.5093 97.4075
2814 6 27.8256 13.6673 97.4075
2815 6 26.5797 15.8253 97.4075
2816 6 27.8256 17.9833 97.4075
2817 6 26.5797 20.1413 97.4075
2818 6 27.8256 22.2993 97.4075
2819 6 26.5797 24.4573 97.4075
2820 6 27.8256 26.6153 97.4075
2821 6 29.0715 2.87733 97.4075
2822 6 30.3174 5.03533 97.4075
2823 6 29.0715 7.19333 97.4075
2824 6 30.3174 9.35134 97.4075
2825 6 29.0715 11.5093 97.4075
2826 6 30.3174 13.6673 97.4075
2827 6 29.0715 15.8253 97.4075
2828 6 30.3174 17.9833 97.4075
2829 6 29.0715 20.1413 97.4075
2830 6 30.3174 22.2993 97.4075
2831 6 29.0715 24.4573 97.4075
2832 6 30.3174 26.6153 97.4075
2833 6 31.5634 2.87733 97.4075
2834 6 32.8093 5.03533 97.4075
2835 6 31.5634 7.19333 97.4075
2836 6 32.8093 9.35134 97.4075
2837 6 31.5634 11.5093 97.4075
2838 6 32.8093 13.6673 97.4075
2839 6 31.5634 15.8253 97.4075
2840 6 32.8093 17.9833 97.4075
2841 6 31.5634 20.1413 97.4075
2842 6 32.8093 22.2993 97.4075
2843 6 31.5634 24.4573 97.4075
2844 6 32.8093 26.6153 97.4075
2845 6 34.0552 2.87733 97.4075
2846 6 35.3011 5.03533 97.4075
2847 6 34.0552 7.19333 97.4075
2848 6 35.3011 9.35134 97.4075
2849 6 34.0552 11.5093 97.4075
2850 6 35.3011 13.6673 97.4075
2851 6 34.0552 15.8253 97.4075
2852 6 35.3011 17.9833 97.4075
2853 6 34.0552 20.1413 97.4075
2854 6 35.3011 22.2993 97.4075
2855 6 34.0552 24.4573 97.4075
2856 6 35.3011 26.6153 97.4075
2857 6 36.547 2.87733 97.4075
2858 6 37.793 5.03533 97.4075
2859 6 36.547 7.19333 97.4075
2860 6 37.793 9.35134 97.4075
2861 6 36.547 11.5093 97.4075
2862 6 37.793 13.6673 97.4075
2863 6 36.547 15.8253 97.4075
2864 6 37.793 17.9833 97.4075
2865 6 36.547 20.1413 97.4075
2866 6 37.793 22.2993 97.4075
2867 6 36.547 24.4573 97.4075
2868 6 37.793 26.6153 97.4075
2869 6 39.0389 2.87733 97.4075
2870 6 40.2848 5.03533 97.4075
2871 6 39.0389 7.19333 97.4075
2872 6 40.2848 9.35134 97.4075
2873 6 39.0389 11.5093 97.4075
2874 6 40.2848 13.6673 97.4075
2875 6 39.0389 15.8253 97.4075
2876 6 40.2848 17.9833 97.4075
2877 6 39.0389 20.1413 97.4075
2878 6 40.2848 22.2993 97.4075
2879 6 39.0389 24.4573 97.4075
2880 6 40.2848 26.6153 97.4075
2881 6 41.5307 2.87733 97.4075
2882 6 42.7767 5.03533 97.4075
2883 6 41.5307 7.19333 97.4075
2884 6 42.7767 9.35134 97.4075
2885 6 41.5307 11.5093 97.4075
2886 6 42.7767 13.6673 97.4075
2887 6 41.5307 15.8253 97.4075
2888 6 42.7767 17.9833 97.4075
2889 6 41.5307 20.1413 97.4075
2890 6 42.7767 22.2993 97.4075
2891 6 41.5307 24.4573 97.4075
2892 6 42.7767 26.6153 97.4075
2893 6 44.0226 2.87733 97.4075
2894 6 45.2685 5.03533 97.4075
2895 6 44.0226 7.19333 97.4075
2896 6 45.2685 9.35134 97.4075
2897 6 44.0226 11.5093 97.4075
2898 6 45.2685 13.6673 97.4075
2899 6 44.0226 15.8253 97.4075
2900 6 45.2685 17.9833 97.4075
2901 6 44.0226 20.1413 97.4075
2902 6 45.2685 22.2993 97.4075
2903 6 44.0226 24.4573 97.4075
2904 6 45.2685 26.6153 97.4075
2905 6 46.5144 2.87733 97.4075
2906 6 47.7604 5.03533 97.4075
2907 6 46.5144 7.19333 97.4075
2908 6 47.7604 9.35134 97.4075
2909 6 46.5144 11.5093 97.4075
2910 6 47.7604 13.6673 97.4075
2911 6 46.5144 15.8253 97.4075
2912 6 47.7604 17.9833 97.4075
2913 6 46.5144 20.1413 97.4075
2914 6 47.7604 22.2993 97.4075
2915 6 46.5144 24.4573 97.4075
2916 6 47.7604 26.6153 97.4075
2917 6 49.0063 2.87733 97.4075
2918 6 50.2522 5.03533 97.4075
2919 6 49.0063 7.19333 97.4075
2920 6 50.2522 9.35134 97.4075
2921 6 49.0063 11.5093 97.4075
2922 6 50.2522 13.6673 97.4075
2923 6 49.0063 15.8253 97.4075
2924 6 50.2522 17.9833 97.4075
2925 6 49.0063 20.1413 97.4075
2926 6 50.2522 22.2993 97.4075
2927 6 49.0063 24.4573 97.4075
2928 6 50.2522 26.6153 97.4075
2929 6 51.4981 2.87733 97.4075
2930 6 52.744 5.03533 97.4075
2931 6 51.4981 7.19333 97.4075
2932 6 52.744 9.35134 97.4075
2933 6 51.4981 11.5093 97.4075
2934 6 52.744 13.6673 97.4075
2935 6 51.4981 15.8253 97.4075
2936 6 52.744 17.9833 97.4075
2937 6 51.4981 20.1413 97.4075
2938 6 52.744 22.2993 97.4075
2939 6 51.4981 24.4573 97.4075
2940 6 52.744 26.6153 97.4075
2941 6 53.99 2.87733 97.4075
2942 6 55.2359 5.03533 97.4075
2943 6 53.99 7.19333 97.4075
2944 6 55.2359 9.35134 97.4075
2945 6 53.99 11.5093 97.4075
2946 6 55.2359 13.6673 97.4075
2947 6 53.99 15.8253 97.4075
2948 6 55.2359 17.9833 97.4075
2949 6 53.99 20.1413 97.4075
2950 6 55.2359 22.2993 97.4075
2951 6 53.99 24.4573 97.4075
2952 6 55.2359 26.6153 97.4075
2953 6 56.4818 2.87733 97.4075
2954 6 57.7277 5.03533 97.4075
2955 6 56.4818 7.19333 97.4075
2956 6 57.7277 9.35134 97.4075
2957 6 56.4818 11.5093 97.4075
2958 6 57.7277 13.6673 97.4075
2959 6 56.4818 15.8253 97.4075
2960 6 57.7277 17.9833 97.4075
2961 6 56.4818 20.1413 97.4075
2962 6 57.7277 22.2993 97.4075
2963 6 56.4818 24.4573 97.4075
2964 6 57.7277 26.6153 97.4075
2965 6 58.9736 2.87733 97.4075
2966 6 60.2196 5.03533 97.4075
2967 6 58.9736 7.19333 97.4075
2968 6 60.2196 9.35134 97.4075
2969 6 58.9736 11.5093 97.4075
2970 6 60.2196 13.6673 97.4075
2971 6 58.9736 15.8253 97.4075
2972 6 60.2196 17.9833 97.4075
2973 6 58.9736 20.1413 97.4075
2974 6 60.2196 22.2993 97.4075
2975 6 58.9736 24.4573 97.4075
2976 6 60.2196 26.6153 97.4075
2977 6 61.4655 2.87733 97.4075
2978 6 62.7114 5.03533 97.4075
2979 6 61.4655 7.19333 97.4075
2980 6 62.7114 9.35134 97.4075
2981 6 61.4655 11.5093 97.4075
2982 6 62.7114 13.6673 97.4075
2983 6 61.4655 15.8253 97.4075
2984 6 62.7114 17.9833 97.4075
2985 6 61.4655 20.1413 97.4075
2986 6 62.7114 22.2993 97.4075
2987 6 61.4655 24.4573 97.4075
2988 6 62.7114 26.6153 97.4075
2989 6 63.9573 2.87733 97.4075
2990 6 65.2033 5.03533 97.4075
2991 6 63.9573 7.19333 97.4075
2992 6 65.2033 9.35134 97.4075
2993 6 63.9573 11.5093 97.4075
2994 6 65.2033 13.6673 97.4075
2995 6 63.9573 15.8253 97.4075
2996 6 65.2033 17.9833 97.4075
2997 6 63.9573 20.1413 97.4075
2998 6 65.2033 22.2993 97.4075
2999 6 63.9573 24.4573 97.4075
3000 6 65.2033 26.6153 97.4075
3001 6 66.4492 2.87733 97.4075
3002 6 67.6951 5.03533 97.4075
3003 6 66.4492 7.19333 97.4075
3004 6 67.6951 9.35134 97.4075
3005 6 66.4492 11.5093 97.4075
3006 6 67.6951 13.6673 97.4075
3007 6 66.4492 15.8253 97.4075
3008 6 67.6951 17.9833 97.4075
3009 6 66.4492 20.1413 97.4075
3010 6 67.6951 22.2993 97.4075
3011 6 66.4492 24.4573 97.4075
3012 6 67.6951 26.6153 97.4075
3013 6 68.941 2.87733 97.4075
3014 6 70.1869 5.03533 97.4075
3015 6 68.941 7.19333 97.4075
3016 6 70.1869 9.35134 97.4075
3017 6 68.941 11.5093 97.4075
3018 6 70.1869 13.6673 97.4075
3019 6 68.941 15.8253 97.4075
3020 6 70.1869 17.9833 97.4075
3021 6 68.941 20.1413 97.4075
3022 6 70.1869 22.2993 97.4075
3023 6 68.941 24.4573 97.4075
3024 6 70.1869 26.6153 97.4075
3025 6 71.4329 2.87733 97.4075
3026 6 72.6788 5.03533 97.4075
3027 6 71.4329 7.19333 97.4075
3028 6 72.6788 9.35134 97.4075
3029 6 71.4329 11.5093 97.4075
3030 6 72.6788 13.6673 97.4075
3031 6 71.4329 15.8253 97.4075
3032 6 72.6788 17.9833 97.4075
3033 6 71.4329 20.1413 97.4075
3034 6 72.6788 22.2993 97.4075
3035 6 71.4329 24.4573 97.4075
3036 6 72.6788 26.6153 97.4075
3037 6 73.9247 2.87733 97.4075
3038 6 75.1706 5.03533 97.4075
3039 6 73.9247 7.19333 97.4075
3040 6 75.1706 9.35134 97.4075
3041 6 73.9247 11.5093 97.4075
3042 6 75.1706 13.6673 97.4075
3043 6 73.9247 15.8253 97.4075
3044 6 75.1706 17.9833 97.4075
3045 6 73.9247 20.1413 97.4075
3046 6 75.1706 22.2993 97.4075
3047 6 73.9247 24.4573 97.4075
3048 6 75.1706 26.6153 97.4075
3049 6 76.4166 2.87733 97.4075
3050 6 77.6625 5.03533 97.4075
3051 6 76.4166 7.19333 97.4075
3052 6 77.6625 9.35134 97.4075
3053 6 76.4166 11.5093 97.4075
3054 6 77.6625 13.6673 97.4075
3055 6 76.4166 15.8253 97.4075
3056 6 77.6625 17.9833 97.4075
3057 6 76.4166 20.1413 97.4075
3058 6 77.6625 22.2993 97.4075
3059 6 76.4166 24.4573 97.4075
3060 6 77.6625 26.6153 97.4075
3061 6 78.9084 2.87733 97.4075
3062 6 0.15432 5.03533 97.4075
3063 6 78.9084 7.19333 97.4075
3064 6 0.15432 9.35134 97.4075
3065 6 78.9084 11.5093 97.4075
3066 6 0.15432 13.6673 97.4075
3067 6 78.9084 15.8253 97.4075
3068 6 0.15432 17.9833 97.4075
3069 6 78.9084 20.1413 97.4075
3070 6 0.15432 22.2993 97.4075
3071 6 78.9084 24.4573 97.4075
3072 6 0.15432 26.6153 97.4075
3073 6 0 0 99.4421
3074 6 1.24592 2.158 99.4421
3075 6 0 4.316 99.4421
3076 6 1.24592 6.474 99.4421
3077 6 0 8.632 99.4421
3078 6 1.24592 10.79 99.4421
3079 6 0 12.948 99.4421
3080 6 1.24592 15.106 99.4421
3081 6 0 17.264 99.4421
3082 6 1.24592 19.422 99.4421
3083 6 0 21.58 99.4421
3084 6 1.24592 23.738 99.4421
3085 6 2.49184 0 99.4421
3086 6 3.73777 2.158 99.4421
3087 6 2.49184 4.316 99.4421
3088 6 3.73777 6.474 99.4421
3089 6 2.49184 8.632 99.4421
3090 6 3.73777 10.79 99.4421
3091 6 2.49184 12.948 99.4421
3092 6 3.73777 15.106 99.4421
3093 6 2.49184 17.264 99.4421
3094 6 3.73777 19.422 99.4421
3095 6 2.49184 21.58 99.4421
3096 6 3.73777 23.738 99.4421
3097 6 4.98369 0 99.4421
3098 6 6.22961 2.158 99.4421
3099 6 4.98369 4.316 99.4421
3100 6 6.22961 6.474 99.4421
3101 6 4.98369 8.632 99.4421
3102 6 6.22961 10.79 99.4421
3103 6 4.98369 12.948 99.4421
3104 6 6.22961 15.106 99.4421
3105 6 4.98369 17.264 99.4421
3106 6 6.22961 19.422 99.4421
3107 6 4.98369 21.58 99.4421
3108 6 6.22961 23.738 99.4421
3109 6 7.47553 0 99.4421
3110 6 8.72146 2.158 99.4421
3111 6 7.47553 4.316 99.4421
3112 6 8.72146 6.474 99.4421
3113 6 7.47553 8.632 99.4421
3114 6 8.72146 10.79 99.4421
3115 6 7.47553 12.948 99.4421
3116 6 8.72146 15.106 99.4421
3117 6 7.47553 17.264 99.4421
3118 6 8.72146 19.422 99.4421
3119 6 7.47553 21.58 99.4421
3120 6 8.72146 23.738 99.4421
3121 6 9.96738 0 99.4421
3122 6 11.2133 2.158 99.4421
3123 6 9.96738 4.316 99.4421
3124 6 11.2133 6.474 99.4421
3125 6 9.96738 8.632 99.4421
3126 6 11.2133 10.79 99.4421
3127 6 9.96738 12.948 99.4421
3128 6 11.2133 15.106 99.4421
3129 6 9.96738 17.264 99.4421
3130 6 11.2133 19.422 99.4421
3131 6 9.96738 21.58 99.4421
3132 6 11.2133 23.738 99.4421
3133 6 12.4592 0 99.4421
3134 6 13.7051 2.158 99.4421
3135 6 12.4592 4.316 99.4421
3136 6 13.7051 6.474 99.4421
3137 6 12.4592 8.632 99.4421
3138 6 13.7051 10.79 99.4421
3139 6 12.4592 12.948 99.4421
3140 6 13.7051 15.106 99.4421
3141 6 12.4592 17.264 99.4421
3142 6 13.7051 19.422 99.4421
3143 6 12.4592 21.58 99.4421
3144 6 13.7051 23.738 99.4421
3145 6 14.9511 0 99.4421
3146 6 16.197 2.158 99.4421
3147 6 14.9511 4.316 99.4421
3148 6 16.197 6.474 99.4421
3149 6 14.9511 8.632 99.4421
3150 6 16.197 10.79 99.4421
3151 6 14.9511 12.948 99.4421
3152 6 16.197 15.106 99.4421
3153 6 14.9511 17.264 99.4421
3154 6 16.197 19.422 99.4421
3155 6 14.9511 21.58 99.4421
3156 6 16.197 23.738 99.4421
3157 6 17.4429 0 99.4421
3158 6 18.6888 2.158 99.4421
3159 6 17.4429 4.316 99.4421
3160 6 18.6888 6.474 99.4421
3161 6 17.4429 8.632 99.4421
3162 6 18.6888 10.79 99.4421
3163 6 17.4429 12.948 99.4421
3164 6 18.6888 15.106 99.4421
3165 6 17.4429 17.264 99.4421
3166 6 18.6888 19.422 99.4421
3167 6 17.4429 21.58 99.4421
3168 6 18.6888 23.738 99.4421
3169 6 19.9348 0 99.4421
3170 6 21.1807 2.158 99.4421
3171 6 19.9348 4.316 99.4421
3172 6 21.1807 6.474 99.4421
3173 6 19.9348 8.632 99.4421
3174 6 21.1807 10.79 99.4421
3175 6 19.9348 12.948 99.4421
3176 6 21.1807 15.106 99.4421
3177 6 19.9348 17.264 99.4421
3178 6 21.1807 19.422 99.4421
3179 6 19.9348 21.58 99.4421
3180 6 21.1807 23.738 99.4421
3181 6 22.4266 0 99.4421
3182 6 23.6725 2.158 99.4421
3183 6 22.4266 4.316 99.4421
3184 6 23.6725 6.474 99.4421
3185 6 22.4266 8.632 99.4421
3186 6 23.6725 10.79 99.4421
3187 6 22.4266 12.948 99.4421
3188 6 23.6725 15.106 99.4421
3189 6 22.4266 17.264 99.4421
3190 6 23.6725 19.422 99.4421
3191 6 22.4266 21.58 99.4421
3192 6 23.6725 23.738 99.4421
3193 6 24.9184 0 99.4421
3194 6 26.1644 2.158 99.4421
3195 6 24.9184 4.316 99.4421
3196 6 26.1644 6.474 99.4421
3197 6 24.9184 8.632 99.4421
3198 6 26.1644 10.79 99.4421
3199 6 24.9184 12.948 99.4421
3200 6 26.1644 15.106 99.4421
3201 6 24.9184 17.264 99.4421
3202 6 26.1644 19.422 99.4421
3203 6 24.9184 21.58 99.4421
3204 6 26.1644 23.738 99.4421
3205 6 27.4103 0 99.4421
3206 6 28.6562 2.158 99.4421
3207 6 27.4103 4.316 99.4421
3208 6 28.6562 6.474 99.4421
3209 6 27.4103 8.632 99.4421
3210 6 28.6562 10.79 99.4421
3211 6 27.4103 12.948 99.4421
3212 6 28.6562 15.106 99.4421
3213 6 27.4103 17.264 99.4421
3214 6 28.6562 19.422 99.4421
3215 6 27.4103 21.58 99.4421
3216 6 28.6562 23.738 99.4421
3217 6 29.9021 0 99.4421
3218 6 31.1481 2.158 99.4421
3219 6 29.9021 4.316 99.4421
3220 6 31.1481 6.474 99.4421
3221 6 29.9021 8.632 99.4421
3222 6 31.1481 10.79 99.4421
3223 6 29.9021 12.948 99.4421
3224 6 31.1481 15.106 99.4421
3225 6 29.9021 17.264 99.4421
3226 6 31.1481 19.422 99.4421
3227 6 29.9021 21.58 99.4421
3228 6 31.1481 23.738 99.4421
3229 6 32.394 0 99.4421
3230 6 33.6399 2.158 99.4421
3231 6 32.394 4.316 99.4421
3232 6 33.6399 6.474 99.4421
3233 6 32.394 8.632 99.4421
3234 6 33.6399 10.79 99.4421
3235 6 32.394 12.948 99.4421
3236 6 33.6399 15.106 99.4421
3237 6 32.394 17.264 99.4421
3238 6 33.6399 19.422 99.4421
3239 6 32.394 21.58 99.4421
3240 6 33.6399 23.738 99.4421
3241 6 34.8858 0 99.4421
3242 6 36.1317 2.158 99.4421
3243 6 34.8858 4.316 99.4421
3244 6 36.1317 6.474 99.4421
3245 6 34.8858 8.632 99.4421
3246 6 36.1317 10.79 99.4421
3247 6 34.8858 12.948 99.4421
3248 6 36.1317 15.106 99.4421
3249 6 34.8858 17.264 99.4421
3250 6 36.1317 19.422 99.4421
3251 6 34.8858 21.58 99.4421
3252 6 36.1317 23.738 99.4421
3253 6 37.3777 0 99.4421
3254 6 38.6236 2.158 99.4421
3255 6 37.3777 4.316 99.4421
3256 6 38.6236 6.474 99.4421
3257 6 37.3777 8.632 99.4421
3258 6 38.6236 10.79 99.4421
3259 6 37.3777 12.948 99.4421
3260 6 38.6236 15.106 99.4421
3261 6 37.3777 17.264 99.4421
3262 6 38.6236 19.422 99.4421
3263 6 37.3777 21.58 99.4421
3264 6 38.6236 23.738 99.4421
3265 6 39.8695 0 99.4421
3266 6 41.1154 2.158 99.4421
3267 6 39.8695 4.316 99.4421
3268 6 41.1154 6.474 99.4421
3269 6 39.8695 8.632 99.4421
3270 6 41.1154 10.79 99.4421
3271 6 39.8695 12.948 99.4421
3272 6 41.1154 15.106 99.4421
3273 6 39.8695 17.264 99.4421
3274 6 41.1154 19.422 99.4421
3275 6 39.8695 21.58 99.4421
3276 6 41.1154 23.738 99.4421
3277 6 42.3614 0 99.4421
3278 6 43.6073 2.158 99.4421
3279 6 42.3614 4.316 99.4421
3280 6 43.6073 6.474 99.4421
3281 6 42.3614 8.632 99.4421
3282 6 43.6073 10.79 99.4421
3283 6 42.3614 12.948 99.4421
3284 6 43.6073 15.106 99.4421
3285 6 42.3614 17.264 99.4421
3286 6 43.6073 19.422 99.4421
3287 6 42.3614 21.58 99.4421
3288 6 43.6073 23.738 99.4421
3289 6 44.8532 0 99.4421
3290 6 46.0991 2.158 99.4421
3291 6 44.8532 4.316 99.4421
3292 6 46.0991 6.474 99.4421
3293 6 44.8532 8.632 99.4421
3294 6 46.0991 10.79 99.4421
3295 6 44.8532 12.948 99.4421
3296 6 46.0991 15.106 99.4421
3297 6 44.8532 17.264 99.4421
3298 6 46.0991 19.422 99.4421
3299 6 44.8532 21.58 99.4421
3300 6 46.0991 23.738 99.4421
3301 6 47.345 0 99.4421
3302 6 48.591 2.158 99.4421
3303 6 47.345 4.316 99.4421
3304 6 48.591 6.474 99.4421
3305 6 47.345 8.632 99.4421
3306 6 48.591 10.79 99.4421
3307 6 47.345 12.948 99.4421
3308 6 48.591 15.106 99.4421
3309 6 47.345 17.264 99.4421
3310 6 48.591 19.422 99.4421
3311 6 47.345 21.58 99.4421
3312 6 48.591 23.738 99.4421
3313 6 49.8369 0 99.4421
3314 6 51.0828 2.158 99.4421
3315 6 49.8369 4.316 99.4421
3316 6 51.0828 6.474 99.4421
3317 6 49.8369 8.632 99.4421
3318 6 51.0828 10.79 99.4421
3319 6 49.8369 12.948 99.4421
3320 6 51.0828 15.106 99.4421
3321 6 49.8369 17.264 99.4421
3322 6 51.0828 19.422 99.4421
3323 6 49.8369 21.58 99.4421
3324 6 51.0828 23.738 99.4421
3325 6 52.3287 0 99.4421
3326 6 53.5746 2.158 99.4421
3327 6 52.3287 4.316 99.4421
3328 6 53.5746 6.474 99.4421
3329 6 52.3287 8.632 99.4421
3330 6 53.5746 10.79 99.4421
3331 6 52.3287 12.948 99.4421
3332 6 53.5746 15.106 99.4421
3333 6 52.3287 17.264 99.4421
3334 6 53.5746 19.422 99.4421
3335 6 52.3287 21.58 99.4421
3336 6 53.5746 23.738 99.4421
3337 6 54.8206 0 99.4421
3338 6 56.0665 2.158 99.4421
3339 6 54.8206 4.316 99.4421
3340 6 56.0665 6.474 99.4421
3341 6 54.8206 8.632 99.4421
3342 6 56.0665 10.79 99.4421
3343 6 54.8206 12.948 99.4421
3344 6 56.0665 15.106 99.4421
3345 6 54.8206 17.264 99.4421
3346 6 56.0665 19.422 99.4421
3347 6 54.8206 21.58 99.4421
3348 6 56.0665 23.738 99.4421
3349 6 57.3124 0 99.4421
3350 6 58.5583 2.158 99.4421
3351 6 57.3124 4.316 99.4421
3352 6 58.5583 6.474 99.4421
3353 6 57.3124 8.632 99.4421
3354 6 58.5583 10.79 99.4421
3355 6 57.3124 12.948 99.4421
3356 6 58.5583 15.106 99.4421
3357 6 57.3124 17.264 99.4421
3358 6 58.5583 19.422 99.4421
3359 6 57.3124 21.58 99.4421
3360 6 58.5583 23.738 99.4421
3361 6 59.8043 0 99.4421
3362 6 61.0502 2.158 99.4421
3363 6 59.8043 4.316 99.4421
3364 6 61.0502 6.474 99.4421
3365 6 59.8043 8.632 99.4421
3366 6 61.0502 10.79 99.4421
3367 6 59.8043 12.948 99.4421
3368 6 61.0502 15.106 99.4421
3369 6 59.8043 17.264 99.4421
3370 6 61.0502 19.422 99.4421
3371 6 59.8043 21.58 99.4421
3372 6 61.0502 23.738 99.4421
3373 6 62.2961 0 99.4421
3374 6 63.542 2.158 99.4421
3375 6 62.2961 4.316 99.4421
3376 6 63.542 6.474 99.4421
3377 6 62.2961 8.632 99.4421
3378 6 63.542 10.79 99.4421
3379 6 62.2961 12.948 99.4421
3380 6 63.542 15.106 99.4421
3381 6 62.2961 17.264 99.4421
3382 6 63.542 19.422 99.4421
3383 6 62.2961 21.58 99.4421
3384 6 63.542 23.738 99.4421
3385 6 64.7879 0 99.4421
3386 6 66.0339 2.158 99.4421
3387 6 64.7879 4.316 99.4421
3388 6 66.0339 6.474 99.4421
3389 6 64.7879 8.632 99.4421
3390 6 66.0339 10.79 99.4421
3391 6 64.7879 12.948 99.4421
3392 6 66.0339 15.106 99.4421
3393 6 64.7879 17.264 99.4421
3394 6 66.0339 19.422 99.4421
3395 6 64.7879 21.58 99.4421
3396 6 66.0339 23.738 99.4421
3397 6 67.2798 0 99.4421
3398 6 68.5257 2.158 99.4421
3399 6 67.2798 4.316 99.4421
3400 6 68.5257 6.474 99.4421
3401 6 67.2798 8.632 99.4421
3402 6 68.5257 10.79 99.4421
3403 6 67.2798 12.948 99.4421
3404 6 68.5257 15.106 99.4421
3405 6 67.2798 17.264 99.4421
3406 6 68.5257 19.422 99.4421
3407 6 67.2798 21.58 99.4421
3408 6 68.5257 23.738 99.4421
3409 6 69.7716 0 99.4421
3410 6 71.0176 2.158 99.4421
3411 6 69.7716 4.316 99.4421
3412 6 71.0176 6.474 99.4421
3413 6 69.7716 8.632 99.4421
3414 6 71.0176 10.79 99.4421
3415 6 69.7716 12.948 99.4421
3416 6 71.0176 15.106 99.4421
3417 6 69.7716 17.264 99.4421
3418 6 71.0176 19.422 99.4421
3419 6 69.7716 21.58 99.4421
3420 6 71.0176 23.738 99.4421
3421 6 72.2635 0 99.4421
3422 6 73.5094 2.158 99.4421
3423 6 72.2635 4.316 99.4421
3424 6 73.5094 6.474 99.4421
3425 6 72.2635 8.632 99.4421
3426 6 73.5094 10.79 99.4421
3427 6 72.2635 12.948 99.4421
3428 6 73.5094 15.106 99.4421
3429 6 72.2635 17.264 99.4421
3430 6 73.5094 19.422 99.4421
3431 6 72.2635 21.58 99.4421
3432 6 73.5094 23.738 99.4421
3433 6 74.7553 0 99.4421
3434 6 76.0012 2.158 99.4421
3435 6 74.7553 4.316 99.4421
3436 6 76.0012 6.474 99.4421
3437 6 74.7553 8.632 99.4421
3438 6 76.0012 10.79 99.4421
3439 6 74.7553 12.948 99.4421
3440 6 76.0012 15.106 99.4421
3441 6 74.7553 17.264 99.4421
3442 6 76.0012 19.422 99.4421
3443 6 74.7553 21.58 99.4421
3444 6 76.0012 23.738 99.4421
3445 6 77.2472 0 99.4421
3446 6 78.4931 2.158 99.4421
3447 6 77.2472 4.316 99.4421
3448 6 78.4931 6.474 99.4421
3449 6 77.2472 8.632 99.4421
3450 6 78.4931 10.79 99.4421
3451 6 77.2472 12.948 99.4421
3452 6 78.4931 15.106 99.4421
3453 6 77.2472 17.264 99.4421
3454 6 78.4931 19.422 99.4421
3455 6 77.2472 21.58 99.4421
3456 6 78.4931 23.738 99.4421
3457 6 0.83061 1.43867 101.477
3458 6 2.07654 3.59667 101.477
3459 6 0.83061 5.75467 101.477
3460 6 2.07654 7.91267 101.477
3461 6 0.83061 10.0707 101.477
3462 6 2.07654 12.2287 101.477
3463 6 0.83061 14.3867 101.477
3464 6 2.07654 16.5447 101.477
3465 6 0.83061 18.7027 101.477
3466 6 2.07654 20.8607 101.477
3467 6 0.83061 23.0187 101.477
3468 6 2.07654 25.1767 101.477
3469 6 3.32246 1.43867 101.477
3470 6 4.56838 3.59667 101.477
3471 6 3.32246 5.75467 101.477
3472 6 4.56838 7.91267 101.477
3473 6 3.32246 10.0707 101.477
3474 6 4.56838 12.2287 101.477
3475 6 3.32246 14.3867 101.477
3476 6 4.56838 16.5447 101.477
3477 6 3.32246 18.7027 101.477
3478 6 4.56838 20.8607 101.477
3479 6 3.32246 23.0187 101.477
3480 6 4.56838 25.1767 101.477
3481 6 5.8143 1.43867 101.477
3482 6 7.06023 3.59667 101.477
3483 6 5.8143 5.75467 101.477
3484 6 7.06023 7.91267 101.477
3485 6 5.8143 10.0707 101.477
3486 6 7.06023 12.2287 101.477
3487 6 5.8143 14.3867 101.477
3488 6 7.06023 16.5447 101.477
3489 6 5.8143 18.7027 101.477
3490 6 7.06023 20.8607 101.477
3491 6 5.8143 23.0187 101.477
3492 6 7.06023 25.1767 101.477
3493 6 8.30615 1.43867 101.477
3494 6 9.55207 3.59667 101.477
3495 6 8.30615 5.75467 101.477
3496 6 9.55207 7.91267 101.477
3497 6 8.30615 10.0707 101.477
3498 6 9.55207 12.2287 101.477
3499 6 8.30615 14.3867 101.477
3500 6 9.55207 16.5447 101.477
3501 6 8.30615 18.7027 101.477
3502 6 9.55207 20.8607 101.477
3503 6 8.30615 23.0187 101.477
3504 6 9.55207 25.1767 101.477
3505 6 10.798 1.43867 101.477
3506 6 12.0439 3.59667 101.477
3507 6 10.798 5.75467 101.477
3508 6 12.0439 7.91267 101.477
3509 6 10.798 10.0707 101.477
3510 6 12.0439 12.2287 101.477
3511 6 10.798 14.3867 101.477
3512 6 12.0439 16.5447 101.477
3513 6 10.798 18.7027 101.477
3514 6 12.0439 20.8607 101.477
3515 6 10.798 23.0187 101.477
3516 6 12.0439 25.1767 101.477
3517 6 13.2898 1.43867 101.477
3518 6 14.5358 3.59667 101.477
3519 6 13.2898 5.75467 101.477
3520 6 14.5358 7.91267 101.477
3521 6 13.2898 10.0707 101.477
3522 6 14.5358 12.2287 101.477
3523 6 13.2898 14.3867 101.477
3524 6 14.5358 16.5447 101.477
3525 6 13.2898 18.7027 101.477
3526 6 14.5358 20.8607 101.477
3527 6 13.2898 23.0187 101.477
3528 6 14.5358 25.1767 101.477
3529 6 15.7817 1.43867 101.477
3530 6 17.0276 3.59667 101.477
3531 6 15.7817 5.75467 101.477
3532 6 17.0276 7.91267 101.477
3533 6 15.7817 10.0707 101.477
3534 6 17.0276 12.2287 101.477
3535 6 15.7817 14.3867 101.477
3536 6 17.0276 16.5447 101.477
3537 6 15.7817 18.7027 101.477
3538 6 17.0276 20.8607 101.477
3539 6 15.7817 23.0187 101.477
3540 6 17.0276 25.1767 101.477
3541 6 18.2735 1.43867 101.477
3542 6 19.5194 3.59667 101.477
3543 6 18.2735 5.75467 101.477
3544 6 19.5194 7.91267 101.477
3545 6 18.2735 10.0707 101.477
3546 6 19.5194 12.2287 101.477
3547 6 18.2735 14.3867 101.477
3548 6 19.5194 16.5447 101.477
3549 6 18.2735 18.7027 101.477
3550 6 19.5194 20.8607 101.477
3551 6 18.2735 23.0187 101.477
3552 6 19.5194 25.1767 101.477
3553 6 20.7654 1.43867 101.477
3554 6 22.0113 3.59667 101.477
3555 6 20.7654 5.75467 101.477
3556 6 22.0113 7.91267 101.477
3557 6 20.7654 10.0707 101.477
3558 6 22.0113 12.2287 101.477
3559 6 20.7654 14.3867 101.477
3560 6 22.0113 16.5447 101.477
3561 6 20.7654 18.7027 101.477
3562 6 22.0113 20.8607 101.477
3563 6 20.7654 23.0187 101.477
3564 6 22.0113 25.1767 101.477
3565 6 23.2572 1.43867 101.477
3566 6 24.5031 3.59667 101.477
3567 6 23.2572 5.75467 101.477
3568 6 24.5031 7.91267 101.477
3569 6 23.2572 10.0707 101.477
3570 6 24.5031 12.2287 101.477
3571 6 23.2572 14.3867 101.477
3572 6 24.5031 16.5447 101.477
3573 6 23.2572 18.7027 101.477
3574 6 24.5031 20.8607 101.477
3575 6 23.2572 23.0187 101.477
3576 6 24.5031 25.1767 101.477
3577 6 25.7491 1.43867 101.477
3578 6 26.995 3.59667 101.477
3579 6 25.7491 5.75467 101.477
3580 6 26.995 7.91267 101.477
3581 6 25.7491 10.0707 101.477
3582 6 26.995 12.2287 101.477
3583 6 25.7491 14.3867 101.477
3584 6 26.995 16.5447 101.477
3585 6 25.7491 18.7027 101.477
3586 6 26.995 20.8607 101.477
3587 6 25.7491 23.0187 101.477
3588 6 26.995 25.1767 101.477
3589 6 28.2409 1.43867 101.477
3590 6 29.4868 3.59667 101.477
3591 6 28.2409 5.75467 101.477
3592 6 29.4868 7.91267 101.477
3593 6 28.2409 10.0707 101.477
3594 6 29.4868 12.2287 101.477
3595 6 28.2409 14.3867 101.477
3596 6 29.4868 16.5447 101.477
3597 6 28.2409 18.7027 101.477
3598 6 29.4868 20.8607 101.477
3599 6 28.2409 23.0187 101.477
3600 6 29.4868 25.1767 101.477
3601 6 30.7327 1.43867 101.477
3602 6 31.9787 3.59667 101.477
3603 6 30.7327 5.75467 101.477
3604 6 31.9787 7.91267 101.477
3605 6 30.7327 10.0707 101.477
3606 6 31.9787 12.2287 101.477
3607 6 30.7327 14.3867 101.477
3608 6 31.9787 16.5447 101.477
3609 6 30.7327 18.7027 101.477
3610 6 31.9787 20.8607 101.477
3611 6 30.7327 23.0187 101.477
3612 6 31.9787 25.1767 101.477
3613 6 33.2246 1.43867 101.477
3614 6 34.4705 3.59667 101.477
3615 6 33.2246 5.75467 101.477
3616 6 34.4705 7.91267 101.477
3617 6 33.2246 10.0707 101.477
3618 6 34.4705 12.2287 101.477
3619 6 33.2246 14.3867 101.477
3620 6 34.4705 16.5447 101.477
3621 6 33.2246 18.7027 101.477
3622 6 34.4705 20.8607 101.477
3623 6 33.2246 23.0187 101.477
3624 6 34.4705 25.1767 101.477
3625 6 35.7164 1.43867 101.477
3626 6 36.9624 3.59667 101.477
3627 6 35.7164 5.75467 101.477
3628 6 36.9624 7.91267 101.477
3629 6 35.7164 10.0707 101.477
3630 6 36.9624 12.2287 101.477
3631 6 35.7164 14.3867 101.477
3632 6 36.9624 16.5447 101.477
3633 6 35.7164 18.7027 101.477
3634 6 36.9624 20.8607 101.477
3635 6 35.7164 23.0187 101.477
3636 6 36.9624 25.1767 101.477
3637 6 38.2083 1.43867 101.477
3638 6 39.4542 3.59667 101.477
3639 6 38.2083 5.75467 101.477
3640 6 39.4542 7.91267 101.477
3641 6 38.2083 10.0707 101.477
3642 6 39.4542 12.2287 101.477
3643 6 38.2083 14.3867 101.477
3644 6 39.4542 16.5447 101.477
3645 6 38.2083 18.7027 101.477
3646 6 39.4542 20.8607 101.477
3647 6 38.2083 23.0187 101.477
3648 6 39.4542 25.1767 101.477
3649 6 40.7001 1.43867 101.477
3650 6 41.946 3.59667 101.477
3651 6 40.7001 5.75467 101.477
3652 6 41.946 7.91267 101.477
3653 6 40.7001 10.0707 101.477
3654 6 41.946 12.2287 101.477
3655 6 40.7001 14.3867 101.477
3656 6 41.946 16.5447 101.477
3657 6 40.7001 18.7027 101.477
3658 6 41.946 20.8607 101.477
3659 6 40.7001 23.0187 101.477
3660 6 41.946 25.1767 101.477
3661 6 43.192 1.43867 101.477
3662 6 44.4379 3.59667 101.477
3663 6 43.192 5.75467 101.477
3664 6 44.4379 7.91267 101.477
3665 6 43.192 10.0707 101.477
3666 6 44.4379 12.2287 101.477
3667 6 43.192 14.3867 101.477
3668 6 44.4379 16.5447 101.477
3669 6 43.192 18.7027 101.477
3670 6 44.4379 20.8607 101.477
3671 6 43.192 23.0187 101.477
3672 6 44.4379 25.1767 101.477
3673 6 45.6838 1.43867 101.477
3674 6 46.9297 3.59667 101.477
3675 6 45.6838 5.75467 101.477
3676 6 46.9297 7.91267 101.477
3677 6 45.6838 10.0707 101.477
3678 6 46.9297 12.2287 101.477
3679 6 45.6838 14.3867 101.477
3680 6 46.9297 16.5447 101.477
3681 6 45.6838 18.7027 101.477
3682 6 46.9297 20.8607 101.477
3683 6 45.6838 23.0187 101.477
3684 6 46.9297 25.1767 101.477
3685 6 48.1757 1.43867 101.477
3686 6 49.4216 3.59667 101.477
3687 6 48.1757 5.75467 101.477
3688 6 49.4216 7.91267 101.477
3689 6 48.1757 10.0707 101.477
3690 6 49.4216 12.2287 101.477
3691 6 48.1757 14.3867 101.477
3692 6 49.4216 16.5447 101.477
3693 6 48.1757 18.7027 101.477
3694 6 49.4216 20.8607 101.477
3695 6 48.1757 23.0187 101.477
3696 6 49.4216 25.1767 101.477
3697 6 50.6675 1.43867 101.477
3698 6 51.9134 3.59667 101.477
3699 6 50.6675 5.75467 101.477
3700 6 51.9134 7.91267 101.477
3701 6 50.6675 10.0707 101.477
3702 6 51.9134 12.2287 101.477
3703 6 50.6675 14.3867 101.477
3704 6 51.9134 16.5447 101.477
3705 6 50.6675 18.7027 101.477
3706 6 51.9134 20.8607 101.477
3707 6 50.6675 23.0187 101.477
3708 6 51.9134 25.1767 101.477
3709 6 53.1594 1.43867 101.477
3710 6 54.4053 3.59667 101.477
3711 6 53.1594 5.75467 101.477
3712 6 54.4053 7.91267 101.477
3713 6 53.1594 10.0707 101.477
3714 6 54.4053 12.2287 101.477
3715 6 53.1594 14.3867 101.477
3716 6 54.4053 16.5447 101.477
3717 6 53.1594 18.7027 101.477
3718 6 54.4053 20.8607 101.477
3719 6 53.1594 23.0187 101.477
3720 6 54.4053 25.1767 101.477
3721 6 55.6512 1.43867 101.477
3722 6 56.8971 3.59667 101.477
3723 6 55.6512 5.75467 101.477
3724 6 56.8971 7.91267 101.477
3725 6 55.6512 10.0707 101.477
3726 6 56.8971 12.2287 101.477
3727 6 55.6512 14.3867 101.477
3728 6 56.8971 16.5447 101.477
3729 6 55.6512 18.7027 101.477
3730 6 56.8971 20.8607 101.477
3731 6 55.6512 23.0187 101.477
3732 6 56.8971 25.1767 101.477
3733 6 58.143 1.43867 101.477
3734 6 59.389 3.59667 101.477
3735 6 58.143 5.75467 101.477
3736 6 59.389 7.91267 101.477
3737 6 58.143 10.0707 101.477
3738 6 59.389 12.2287 101.477
3739 6 58.143 14.3867 101.477
3740 6 59.389 16.5447 101.477
3741 6 58.143 18.7027 101.477
3742 6 59.389 20.8607 101.477
3743 6 58.143 23.0187 101.477
3744 6 59.389 25.1767 101.477
3745 6 60.6349 1.43867 101.477
3746 6 61.8808 3.59667 101.477
3747 6 60.6349 5.75467 101.477
3748 6 61.8808 7.91267 101.477
3749 6 60.6349 10.0707 101.477
3750 6 61.8808 12.2287 101.477
3751 6 60.6349 14.3867 101.477
3752 6 61.8808 16.5447 101.477
3753 6 60.6349 18.7027 101.477
3754 6 61.8808 20.8607 101.477
3755 6 60.6349 23.0187 101.477
3756 6 61.8808 25.1767 101.477
3757 6 63.1267 1.43867 101.477
3758 6 64.3726 3.59667 101.477
3759 6 63.1267 5.75467 101.477
3760 6 64.3726 7.91267 101.477
3761 6 63.1267 10.0707 101.477
3762 6 64.3726 12.2287 101.477
3763 6 63.1267 14.3867 101.477
3764 6 64.3726 16.5447 101.477
3765 6 63.1267 18.7027 101.477
3766 6 64.3726 20.8607 101.477
3767 6 63.1267 23.0187 101.477
3768 6 64.3726 25.1767 101.477
3769 6 65.6186 1.43867 101.477
3770 6 66.8645 3.59667 101.477
3771 6 65.6186 5.75467 101.477
3772 6 66.8645 7.91267 101.477
3773 6 65.6186 10.0707 101.477
3774 6 66.8645 12.2287 101.477
3775 6 65.6186 14.3867 101.477
3776 6 66.8645 16.5447 101.477
3777 6 65.6186 18.7027 101.477
3778 6 66.8645 20.8607 101.477
3779 6 65.6186 23.0187 101.477
3780 6 66.8645 25.1767 101.477
3781 6 68.1104 1.43867 101.477
3782 6 69.3563 3.59667 101.477
3783 6 68.1104 5.75467 101.477
3784 6 69.3563 7.91267 101.477
3785 6 68.1104 10.0707 101.477
3786 6 69.3563 12.2287 101.477
3787 6 68.1104 14.3867 101.477
3788 6 69.3563 16.5447 101.477
3789 6 68.1104 18.7027 101.477
3790 6 69.3563 20.8607 101.477
3791 6 68.1104 23.0187 101.477
3792 6 69.3563 25.1767 101.477
3793 6 70.6023 1.43867 101.477
3794 6 71.8482 3.59667 101.477
3795 6 70.6023 5.75467 101.477
3796 6 71.8482 7.91267 101.477
3797 6 70.6023 10.0707 101.477
3798 6 71.8482 12.2287 101.477
3799 6 70.6023 14.3867 101.477
3800 6 71.8482 16.5447 101.477
3801 6 70.6023 18.7027 101.477
3802 6 71.8482 20.8607 101.477
3803 6 70.6023 23.0187 101.477
3804 6 71.8482 25.1767 101.477
3805 6 73.0941 1.43867 101.477
3806 6 74.34 3.59667 101.477
3807 6 73.0941 5.75467 101.477
3808 6 74.34 7.91267 101.477
3809 6 73.0941 10.0707 101.477
3810 6 74.34 12.2287 101.477
3811 6 73.0941 14.3867 101.477
3812 6 74.34 16.5447 101.477
3813 6 73.0941 18.7027 101.477
3814 6 74.34 20.8607 101.477
3815 6 73.0941 23.0187 101.477
3816 6 74.34 25.1767 101.477
3817 6 75.5859 1.43867 101.477
3818 6 76.8319 3.59667 101.477
3819 6 75.5859 5.75467 101.477
3820 6 76.8319 7.91267 101.477
3821 6 75.5859 10.0707 101.477
3822 6 76.8319 12.2287 101.477
3823 6 75.5859 14.3867 101.477
3824 6 76.8319 16.5447 101.477
3825 6 75.5859 18.7027 101.477
3826 6 76.8319 20.8607 101.477
3827 6 75.5859 23.0187 101.477
3828 6 76.8319 25.1767 101.477
3829 6 78.0778 1.43867 101.477
3830 6 79.3237 3.59667 101.477
3831 6 78.0778 5.75467 101.477
3832 6 79.3237 7.91267 101.477
3833 6 78.0778 10.0707 101.477
3834 6 79.3237 12.2287 101.477
3835 6 78.0778 14.3867 101.477
3836 6 79.3237 16.5447 101.477
3837 6 78.0778 18.7027 101.477
3838 6 79.3237 20.8607 101.477
3839 6 78.0778 23.0187 101.477
3840 6 79.3237 25.1767 101.477
3841 7 33.8116 20.2899 11.3301
3842 7 38.3813 20.8617 10.6307
3843 7 45.7716 23.3904 25.3934
3844 7 36.1051 22.5819 15.5378
3845 7 42.4034 14.6596 24.9271
3846 7 25.6657 9.42342 25.6441
3847 7 50.342 15.7428 10.6684
3848 7 27.1863 22.0391 11.0323
3849 7 39.6983 27.4477 14.5427
3850 7 42.3564 0.764911 28.7074
3851 7 29.0194 4.31637 22.7895
3852 7 26.9022 7.32988 20.6476
3853 7 45.3146 5.76037 11.2068
3854 7 54.0657 25.6196 16.9142
3855 7 17.3334 8.33354 11.6517
3856 7 33.785 8.21493 11.6513
3857 7 39.8837 6.01 11.5479
3858 7 37.7918 10.3462 11.0056
3859 7 54.6995 17.2821 10.5935
3860 7 48.1065 12.0266 10.5164
3861 7 37.8579 17.628 28.2532
3862 7 29.7034 20.007 10.8157
3863 7 46.1402 26.9562 28.3807
3864 7 32.5625 24.0193 21.5095
3865 7 26.3763 29.6827 22.2302
3866 7 51.3832 4.66743 15.3853
3867 7 35.8124 13.5862 29.7201
3868 7 55.3485 21.9366 10.7983
3869 7 21.9997 14.3877 23.4378
3870 7 56.3735 27.9102 16.3335
3871 7 38.4527 6.9914 23.0737
3872 7 25.4433 16.2405 10.5034
3873 7 23.2119 1.84083 17.1466
3874 7 37.902 2.32533 15.2389
3875 7 41.7202 16.2883 13.0859
3876 7 21.7122 5.78098 12.0508
3877 7 47.6712 7.65201 11.8304
3878 7 48.7776 5.16432 21.09
3879 7 26.505 13.6797 13.7962
3880 7 24.6177 7.60798 23.3749
3881 7 76.7887 28.884 8.32735
3882 7 44.4454 8.41821 13.7302
3883 7 45.2018 4.76008 17.8709
3884 7 29.0876 17.369 12.8777
3885 7 36.7741 18.1529 16.1659
3886 7 48.3532 23.1874 11.0946
3887 7 31.0442 25.8238 10.736
3888 7 34.5566 27.5181 7.43578
3889 7 40.8 1.63793 15.3008
3890 7 34.0932 12.2227 15.7505
3891 7 59.4259 18.4679 20.3214
3892 7 50.1929 5.69738 11.9121
3893 7 28.3548 14.3247 17.048
3894 7 32.5272 5.12055 27.8883
3895 7 44.0212 11.5979 18.8904
3896 7 46.9951 24.6362 19.9663
3897 7 53.768 4.57537 11.1333
3898 7 56.8233 29.7726 10.3329
3899 7 41.6224 19.5156 10.7348
3900 7 36.992 10.0416 16.9387
3901 7 54.9774 7.90763 27.2727
3902 7 58.4513 28.4881 13.4636
3903 7 44.8802 26.2714 16.2806
3904 7 36.4498 17.9796 19.6822
3905 7 37.4999 12.7553 18.6561
3906 7 44.8998 15.8008 11.2417
3907 7 35.5757 5.71518 15.4753
3908 7 24.822 24.204 11.2094
3909 7 20.9655 9.3525 12.8705
3910 7 28.3231 5.07819 14.0026
3911 7 42.5756 1.78586 19.9526
3912 7 42.0491 15.8729 20.2
3913 7 49.7056 24.8266 22.7797
3914 7 46.1418 24.0727 28.3178
3915 7 23.6781 3.35328 13.3771
3916 7 59.3423 14.3419 21.3128
3917 7 56.0733 1.2702 17.9646
3918 7 39.2966 12.5428 29.3901
3919 7 49.1289 29.3322 26.2903
3920 7 35.2322 10.0469 13.8571
3921 7 39.3552 8.91693 16.4385
3922 7 40.8639 27.2551 28.1934
3923 7 40.6934 17.9619 23.4607
3924 7 22.2598 28.3369 8.33244
3925 7 47.0407 18.3882 19.3658
3926 7 42.3478 3.28824 11.6064
3927 7 54.9651 12.8885 16.9141
3928 7 53.3576 5.13033 25.0493
3929 7 60.9056 13.9602 11.0214
3930 7 37.5331 20.6243 21.9537
3931 7 54.2971 3.66357 18.2678
3932 7 43.2152 4.41019 27.951
3933 7 30.7618 13.3687 14.1776
3934 7 28.237 1.66934 11.4739
3935 7 35.8377 23.8635 12.8011
3936 7 40.9793 29.7787 33.0811
3937 7 58.2644 23.2287 14.9656
3938 7 25.5424 15.8625 20.4152
3939 7 51.1071 18.0047 16.7776
3940 7 45.4279 12.0405 27.0574
3941 7 43.7748 28.2665 31.3751
3942 7 22.3802 16.6235 10.799
3943 7 38.964 16.4076 10.7992
3944 7 61.3912 17.294 10.7859
3945 7 32.2089 12.0157 17.6288
3946 7 60.7486 26.2441 10.6389
3947 7 37.6644 27.9148 7.78058
3948 7 44.4075 1.51282 13.8705
3949 7 55.5466 21.5154 24.0649
3950 7 62.9937 23.4745 11.0645
3951 7 49.0968 9.36693 30.441
3952 7 35.9803 28.1723 18.1474
3953 7 46.1467 28.292 25.87
3954 7 23.4088 11.4143 11.1867
3955 7 36.8136 5.74979 20.945
3956 7 57.2859 11.3588 16.0036
3957 7 42.2801 19.9844 16.1218
3958 7 16.1428 21.5947 10.9105
3959 7 33.0771 18.633 27.7934
3960 7 40.565 23.7246 28.1881
3961 7 28.5839 9.39922 17.6946
3962 7 22.3101 26.2625 13.8343
3963 7 43.4255 10.6239 22.3822
3964 7 44.6994 17.1761 14.4118
3965 7 34.1284 28.8559 33.8154
3966 7 35.8372 29.2594 25.9422
3967 7 58.8165 13.2041 18.5231
3968 7 20.4297 9.57301 16.509
3969 7 42.7479 7.64765 28.556
3970 7 41.5851 13.479 10.5477
3971 7 44.1248 15.2549 30.3366
3972 7 30.141 8.06637 13.0561
3973 7 20.1228 26.8669 10.7265
3974 7 38.3992 4.39999 24.1465
3975 7 48.2981 10.139 26.3633
3976 7 56.9896 24.2136 18.0739
3977 7 25.9655 19.235 21.9461
3978 7 35.9175 9.84384 24.2185
3979 7 22.951 28.238 17.8104
3980 7 28.8316 14.7925 11.2263
3981 7 58.3672 21.5353 19.518
3982 7 26.7434 28.185 30.9571
3983 7 31.4867 5.90151 11.0048
3984 7 48.9512 29.2306 22.8074
3985 7 16.33 18.0223 12.3837
3986 7 47.6945 14.2778 20.5619
3987 7 36.9827 13.7106 22.8001
3988 7 39.4475 13.0816 14.0316
3989 7 32.1288 14.8968 10.4968
3990 7 58.4965 27.5943 6.94243
3991 7 43.9607 24.7562 12.9718
3992 7 34.6485 23.3731 10.4628
3993 7 41.5595 12.5609 16.3833
3994 7 36.7808 0.738095 22.9011
3995 7 24.6583 7.31992 17.6752
3996 7 32.9458 2.69112 16.081
3997 7 55.2545 24.9335 27.7806
3998 7 36.1786 7.06795 30.9707
3999 7 73.3569 27.2962 6.91628
4000 7 42.5156 8.4305 11.4972
4001 7 41.9852 27.2915 6.68138
4002 7 57.3294 20.6616 12.8832
4003 7 26.6533 20.1976 14.7099
4004 7 49.4376 1.46059 11.1547
4005 7 54.0789 27.7425 7.33063
4006 7 34.1293 13.7555 12.0478
4007 7 36.1722 17.6142 25.4201
4008 7 21.9798 25.9863 23.1628
4009 7 45.7523 22.064 12.7291
4010 7 35.5833 24.9466 23.8442
4011 7 46.6413 19.8089 25.7463
4012 7 58.9049 14.537 15.0367
4013 7 68.5134 28.8422 9.68547
4014 7 47.4823 19.0726 13.7205
4015 7 40.6476 21.9725 17.7913
4016 7 23.4158 0.65517 10.5567
4017 7 50.7693 17.827 19.7908
4018 7 45.644 9.13975 17.2202
4019 7 53.1759 1.65864 10.667
4020 7 43.3105 25.9465 18.9977
4021 7 46.7843 19.2404 22.2255
4022 7 45.8656 5.10236 21.5337
4023 7 45.3238 8.79681 29.9917
4024 7 57.0939 5.61963 19.9217
4025 7 33.5053 17.735 31.2652
4026 7 50.9781 11.9871 11.3878
4027 7 17.4751 1.6484 10.6714
4028 7 58.3147 9.10089 11.9492
4029 7 29.0521 10.0096 22.3461
4030 7 27.2073 28.154 17.09
4031 7 56.983 2.19392 20.635
4032 7 52.5887 20.3667 10.886
4033 7 48.1734 28.3288 30.4706
4034 7 19.7392 21.8363 10.5991
4035 7 54.1798 26.1251 24.7895
4036 7 28.1475 21.326 20.6896
4037 7 46.6689 17.7698 32.0311
4038 7 48.6326 16.0335 15.9949
4039 7 25.5049 3.03087 11.1218
4040 7 44.2029 22.2224 20.3778
4041 7 29.0059 29.1665 29.8919
4042 7 37.1446 13.4458 10.9915
4043 7 55.0483 9.33722 19.5211
4044 7 36.1032 9.39578 33.437
4045 7 46.5692 8.15447 20.6362
4046 7 57.5209 25.7488 22.4523
4047 7 28.0985 12.3165 27.0666
4048 7 33.8357 15.1799 19.651
4049 7 29.1101 20.2972 24.3725
4050 7 45.2386 1.17384 18.6619
4051 7 41.1814 11.6994 24.9392
4052 7 58.5303 16.0437 10.8811
4053 7 40.9269 17.1615 26.9453
4054 7 45.5961 27.3692 6.54446
4055 7 28.3574 9.63225 10.8165
4056 7 43.9311 27.6515 13.4907
4057 7 60.5358 22.0393 12.5864
4058 7 51.7809 16.8924 24.6664
4059 7 31.6163 28.9994 16.8325
4060 7 33.1096 26.5432 32.5313
4061 7 18.5336 15.5388 10.5611
4062 7 61.4654 1.98474 14.7382
4063 7 1.0069 28.1542 8.211
4064 7 33.0172 11.2084 10.6704
4065 7 60.3837 6.8175 11.6108
4066 7 32.8926 19.383 24.191
4067 7 33.4437 13.5179 25.8948
4068 7 52.5883 9.32728 13.5877
4069 7 42.906 29.8403 16.4231
4070 7 55.5549 25.1226 10.8159
4071 7 49.3914 24.7262 14.079
4072 7 36.3142 18.6101 11.4597
4073 7 54.3905 15.7802 21.7739
4074 7 47.1409 3.94882 11.2679
4075 7 52.313 0.489915 22.7304
4076 7 29.186 23.7808 14.1147
4077 7 32.7783 21.1136 30.4349
4078 7 34.7337 29.2743 10.1804
4079 7 32.6401 18.1494 13.4768
4080 7 41.5519 5.03365 20.0905
4081 7 41.9955 26.5767 34.6759
4082 7 16.0085 5.46125 11.1273
4083 7 51.8102 1.71444 16.992
4084 7 39.5425 25.3509 19.3559
4085 7 57.6388 5.77388 10.7974
4086 7 34.5459 21.8984 25.7036
4087 7 37.2512 26.983 11.3011
4088 7 52.2139 21.9585 20.5467
4089 7 33.1199 2.98657 22.613
4090 7 28.9728 16.8977 26.5049
4091 7 48.4514 26.2848 16.9121
4092 7 48.7837 25.1144 27.1982
4093 7 45.2467 19.7451 16.8053
4094 7 39.8008 1.98901 31.951
4095 7 35.9668 26.0257 16.3943
4096 7 43.033 28.5126 9.24521
4097 7 29.0658 0.487495 14.6315
4098 7 39.4108 20.9764 24.1798
4099 7 54.7413 11.1543 24.6515
4100 7 37.2084 6.81403 10.7013
4101 7 55.5527 1.14053 15.1277
4102 7 19.6184 2.43429 14.0051
4103 7 29.0972 1.86129 20.788
4104 7 36.1014 0.475166 13.5608
4105 7 29.5396 20.2067 18.1583
4106 7 31.6517 0.758745 10.7455
4107 7 28.8049 26.2618 15.6594
4108 7 31.5705 21.5186 20.6355
4109 7 36.9895 2.76191 18.7257
4110 7 18.0542 28.2499 8.30994
4111 7 58.2544 23.204 21.64
4112 7 37.9571 20.4699 14.117
4113 7 26.3691 27.5266 6.31031
4114 7 52.2005 23.5053 28.7243
4115 7 36.0524 28.5402 29.4598
4116 7 51.073 27.9079 7.73008
4117 7 39.3884 5.2609 27.8952
4118 7 57.8796 17.2676 17.4419
4119 7 34.4897 20.2931 20.9596
4120 7 28.4112 28.0402 8.24395
4121 7 43.2163 9.06386 19.1631
4122 7 50.8706 9.48995 17.6698
4123 7 60.3818 0.589517 12.671
4124 7 51.2294 24.5574 36.2971
4125 7 27.4448 15.0888 23.8683
4126 7 45.2002 18.7583 10.8774
4127 7 55.5636 15.6833 18.0949
4128 7 55.6562 6.62842 14.1211
4129 7 39.9673 24.4324 11.7692
4130 7 46.1059 11.2423 12.9335
4131 7 47.5028 16.2208 26.5285
4132 7 49.9595 14.2873 13.4244
4133 7 39.152 2.07786 11.7864
4134 7 59.4888 18.6738 14.7892
4135 7 22.4682 7.12471 14.9652
4136 7 30.8806 26.5758 23.1501
4137 7 36.4555 13.5672 14.7944
4138 7 48.3348 28.2586 12.9508
4139 7 19.2249 12.2286 13.7103
4140 7 26.0104 22.1627 25.0387
4141 7 46.0694 12.6485 22.1914
4142 7 51.4273 17.6917 12.9786
4143 7 17.6935 24.2505 10.5795
4144 7 57.657 13.1151 11.0711
4145 7 43.6596 17.1446 22.8599
4146 7 53.181 12.9421 12.779
4147 7 39.3485 24.5561 15.0804
4148 7 47.9082 10.431 20.1819
4149 7 26.5032 4.12132 21.0784
4150 7 26.2992 2.36409 29.0637
4151 7 30.337 5.11119 17.8987
4152 7 56.2886 3.29217 11.9264
4153 7 38.3993 6.28025 18.1681
4154 7 51.649 12.6159 25.7805
4155 7 36.6967 2.85701 31.0728
4156 7 25.2989 8.64173 10.8028
4157 7 30.1292 14.5479 24.2634
4158 7 32.2556 21.3984 13.3792
4159 7 21.5042 7.40359 18.5721
4160 7 13.267 26.9925 6.62504
4161 7 48.0685 2.76096 14.7791
4162 7 40.9254 27.3509 10.4218
4163 7 33.827 4.02397 10.9819
4164 7 29.8548 12.5596 19.5351
4165 7 54.829 27.8294 13.6389
4166 7 53.9688 1.63231 21.0694
4167 7 23.57 23.4465 22.6151
4168 7 42.4754 0.0320512 12.1448
4169 7 40.8347 0.277844 18.455
4170 7 31.5908 14.2152 31.1982
4171 7 46.4948 27.8819 9.76674
4172 3 44.4478 28.0475 52.8834
4173 3 49.2464 0.165907 84.0299
4174 3 61.0625 10.7233 59.7398
4175 3 7.97996 22.2884 17.0175
4176 3 0.335104 17.5163 31.6882
4177 3 27.5753 16.064 51.2223
4178 3 70.5094 18.7652 38.7387
4179 3 21.7902 6.96506 39.0743
4180 3 79.9091 2.90707 76.9108
4181 3 69.2843 2.3889 37.9564
4182 3 46.4222 12.3384 47.1562
4183 3 79.8613 6.43596 21.7849
4184 3 4.23938 3.37507 44.0408
4185 3 23.4835 14.49 75.7298
4186 3 37.6919 13.692 38.1753
4187 3 67.4405 26.5315 66.251
4188 3 79.5587 29.3202 82.9227
4189 3 79.4794 20.6702 70.3901
4190 3 68.21 6.51468 11.5198
4191 3 45.2179 12.8499 80.8949
4192 3 70.5275 0.333115 26.4936
4193 3 21.2995 12.9268 37.8942
4194 3 55.6594 26.0565 83.1869
4195 3 63.7525 15.1074 59.7737
4196 3 22.7907 4.43531 59.0112
4197 3 17.4433 24.2322 86.5801
4198 3 34.5015 23.0124 44.1752
4199 3 0.182396 10.744 16.0512
4200 3 55.683 5.9703 84.3852
4201 3 78.3148 12.8817 47.1363
4202 3 50.2882 11.0222 84.0898
4203 3 73.8873 1.85631 15.2308
4204 3 62.0388 7.1007 62.7857
4205 3 52.6958 7.77753 37.8342
4206 3 31.4485 9.89492 48.2731
4207 3 69.0168 7.62771 82.0083
4208 3 60.2114 23.94 43.2005
4209 3 61.8106 26.6107 54.0799
4210 3 6.39923 19.417 37.967
4211 3 75.327 8.29979 22.0063
4212 3 34.6293 16.6005 78.9372
4213 3 11.058 19.6184 68.5981
4214 3 42.9902 7.33702 75.9925
4215 3 50.2738 25.1867 54.1848
4216 3 70.6586 2.45411 22.9041
4217 3 25.6519 14.0984 35.298
4218 3 6.54662 28.5965 82.1282
4219 3 62.5423 18.7868 13.0087
4220 3 20.6775 27.2831 60.8512
4221 3 7.54707 12.4552 73.5098
4222 3 14.568 19.2045 67.8213
4223 3 72.5285 17.0824 70.0148
4224 3 23.8328 16.6715 69.5006
4225 3 10.0359 28.4026 68.1449
4226 3 34.5949 22.6984 59.3624
4227 3 18.9531 14.5925 87.8726
4228 3 58.4824 27.0229 86.5996
4229 3 7.93048 6.76013 12.6182
4230 3 24.3387 26.9307 35.2353
4231 3 30.134 11.8463 40.3797
4232 3 26.8393 21.5202 76.4987
4233 3 42.0743 27.5024 59.0062
4234 3 62.1454 15.7884 84.4796
4235 3 72.4793 12.9386 39.3401
4236 3 14.4752 19.1663 59.0955
4237 3 12.934 14.9407 42.8463
4238 3 50.5468 12.376 49.1029
4239 3 77.8681 28.1994 12.7132
4240 3 52.6119 0.315775 35.3688
4241 3 51.9526 0.23639 89.0526
4242 3 60.7388 11.4858 73.9602
4243 3 40.6806 15.4995 88.8057
4244 3 37.6404 15.613 83.5093
4245 3 79.8498 11.1238 74.3618
4246 3 18.1463 5.9532 21.384
4247 3 8.65558 1.47846 84.798
4248 3 54.4043 19.7343 71.9102
4249 3 78.7559 26.0673 32.9371
4250 3 43.7987 6.64835 60.3959
4251 3 6.85015 22.083 56.9659
4252 3 47.2024 29.6527 66.0413
4253 3 38.6772 19.83 69.5205
4254 3 41.1491 4.61624 73.7421
4255 3 39.1647 24.5132 76.7491
4256 3 68.3546 0.053771 56.5337
4257 3 4.73456 1.99125 75.7626
4258 3 33.0064 4.69254 76.8806
4259 3 14.5598 5.97319 75.401
4260 3 62.559 26.9232 88.4993
4261 3 6.14455 9.03983 72.2803
4262 3 7.55364 0.61183 39.2533
4263 3 49.0767 21.0873 36.3347
4264 3 67.1485 25.8512 71.8443
4265 3 11.6086 24.1086 75.9912
4266 3 28.1707 0.700803 79.8493
4267 3 55.3852 20.1037 51.2398
4268 3 17.2705 11.4075 38.8511
4269 3 0.198261 2.61611 29.0802
4270 3 12.9132 22.3658 19.6896
4271 3 7.79066 20.7359 47.4226
4272 3 11.6145 2.27293 36.6695
4273 3 70.9708 27.8902 61.9251
4274 3 68.534 11.349 22.4713
4275 3 66.3515 9.26072 55.4828
4276 3 79.0232 7.03475 85.7492
4277 3 35.4051 26.2018 72.5404
4278 3 74.7532 6.83284 79.6404
4279 3 42.3365 4.72193 46.3425
4280 3 15.4796 16.2009 89.2504
4281 3 41.4182 9.96642 79.4977
4282 3 13.27 10.3351 74.1967
4283 3 41.2871 9.96561 72.9801
4284 3 24.3652 7.10661 44.9617
4285 3 17.1793 17.9392 60.9161
4286 3 69.6509 6.30512 48.9333
4287 3 3.96534 9.33236 43.2658
4288 3 6.32347 27.1726 37.2427
4289 3 73.0239 9.02338 37.6703
4290 3 65.3908 6.63556 15.0096
4291 3 18.5027 4.07551 43.1736
4292 3 68.4265 14.6589 55.1079
4293 3 50.1864 10.2412 39.3826
4294 3 76.4055 8.79464 33.1276
4295 3 14.8025 16.0824 38.2983
4296 3 46.2394 3.5682 36.996
4297 3 38.2481 26.4199 52.6477
4298 3 71.8466 6.1016 29.5508
4299 3 0.0893975 24.2289 59.9394
4300 3 29.0232 25.0007 60.5163
4301 3 3.11823 23.2633 87.769
4302 3 79.7879 11.6686 35.1941
4303 3 70.8845 22.0948 75.6585
4304 3 35.5479 5.03775 68.9169
4305 3 31.5493 24.0158 68.7828
4306 3 63.3336 20.411 22.994
4307 3 57.3705 29.64 56.801
4308 3 4.75103 12.4066 33.6994
4309 3 67.2999 13.4167 47.713
4310 3 56.0882 13.1341 84.5605
4311 3 19.7913 12.067 27.4351
4312 3 51.6856 24.3809 39.9818
4313 3 71.142 8.82405 65.2626
4314 3 75.7298 13.2385 83.2665
4315 3 12.7238 27.0332 50.3205
4316 3 18.8733 24.0959 55.7468
4317 3 5.64955 4.84745 71.1962
4318 3 32.1042 0.653048 74.6732
4319 3 70.8838 28.5013 45.5357
4320 3 11.5805 7.19383 46.4683
4321 3 4.32288 11.0341 59.6798
4322 3 10.266 21.621 62.6908
4323 3 13.1629 12.8743 52.7182
4324 3 27.4301 17.7458 61.9218
4325 3 63.9428 13.8927 27.1882
4326 3 54.1024 20.8586 47.5143
4327 3 64.6703 11.603 38.4184
4328 3 51.1646 16.2676 44.5452
4329 3 8.32448 19.0457 25.8018
4330 3 72.3354 7.98961 51.1447
4331 3 31.7637 28.0542 86.2618
4332 3 77.6854 6.55148 43.3644
4333 3 43.3626 10.3988 58.2726
4334 3 51.5055 24.4855 73.5284
4335 3 8.06402 5.48302 60.6434
4336 3 40.8914 21.0271 41.1189
4337 3 30.7736 12.1337 84.673
4338 3 62.9042 20.7256 83.7764
4339 3 55.1072 2.86126 33.9315
4340 3 66.2482 18.7366 37.7295
4341 3 67.124 23.0972 69.3154
4342 3 3.59929 28.2932 59.9217
4343 3 62.7748 27.8584 27.2603
4344 3 6.93396 21.1557 12.9874
4345 3 49.6938 11.3276 43.3078
4346 3 59.8434 5.43526 25.7126
4347 3 31.1043 29.194 55.0085
4348 3 69.3885 2.12236 15.0763
4349 3 71.7599 1.7842 33.5052
4350 3 23.9884 25.6722 58.5272
4351 3 33.5536 5.39064 35.9844
4352 3 58.5811 1.79006 64.0203
4353 3 22.7874 28.1071 68.0718
4354 3 54.4739 2.78503 50.469
4355 3 29.2213 5.44351 69.1093
4356 3 15.0035 2.7155 64.545
4357 3 30.1699 0.740687 62.2218
4358 3 9.07955 4.19712 21.7001
4359 3 0.0996816 19.3932 64.8887
4360 3 49.4067 5.11364 53.897
4361 3 2.5407 25.8598 75.7264
4362 3 37.9056 6.11492 65.7808
4363 3 15.8962 20.6145 45.7369
4364 3 26.0749 24.3295 83.6546
4365 3 2.59709 16.5226 65.2847
4366 3 31.9919 8.68973 35.7485
4367 3 19.6032 11.9858 45.2517
4368 3 13.9577 5.15115 58.429
4369 3 17.3942 26.5386 46.0991
4370 3 0.745582 7.90194 81.5798
4371 3 66.6422 15.5043 32.6135
4372 3 50.5708 5.54321 41.1657
4373 3 53.839 18.4343 59.1625
4374 3 59.8879 0.508858 88.6515
4375 3 41.437 14.0787 44.0031
4376 3 2.87067 13.7942 28.4304
4377 3 23.4588 11.7116 29.8916
4378 3 70.3687 27.2655 78.2069
4379 3 17.3056 3.33391 35.0593
4380 3 18.8435 16.9632 40.7005
4381 3 26.8704 14.4714 72.5587
4382 3 61.6295 5.30403 81.2469
4383 3 0.13879 26.1986 51.5361
4384 3 63.9828 6.69533 45.8771
4385 3 69.102 17.0061 77.7543
4386 3 35.0586 28.7605 78.8226
4387 3 58.7315 23.4776 83.0906
4388 3 7.44924 27.7283 75.0132
4389 3 43.5402 3.58578 39.8812
4390 3 76.0515 9.22415 47.1073
4391 3 56.2898 5.11357 77.0258
4392 3 1.04667 26.0855 12.7227
4393 3 57.0972 22.1289 54.5636
4394 3 6.23474 4.21855 27.2625
4395 3 65.8504 18.916 20.7927
4396 3 78.2367 12.192 65.3379
4397 3 10.331 5.65713 43.6073
4398 3 27.0936 24.6121 33.0396
4399 3 21.0445 1.82964 50.8946
4400 3 75.2055 17.7824 43.4669
4401 3 24.5175 20.7254 79.5344
4402 3 74.2437 18.7557 17.8546
4403 3 12.3372 26.5482 87.4235
4404 3 42.1341 12.9369 39.9219
4405 3 5.19884 12.8751 83.5391
4406 3 46.7423 21.4075 84.7505
4407 3 12.1876 19.2978 44.9597
4408 3 78.1426 7.11262 60.7775
4409 3 43.8318 12.8899 52.5652
4410 3 68.2899 1.35522 87.3298
4411 3 43.5949 15.8833 47.608
4412 3 35.4529 8.98229 78.9927
4413 3 41.3129 29.0883 75.8754
4414 3 55.4558 24.5504 60.0717
4415 3 75.3419 29.7907 56.5515
4416 3 6.05711 14.7002 22.1935
4417 3 53.1147 29.952 84.7718
4418 3 45.7458 28.2519 71.819
4419 3 57.6355 11.6263 37.5102
4420 3 40.1783 12.0805 90.1311
4421 3 72.3471 28.8975 69.0915
4422 3 35.1749 22.5782 54.3803
4423 3 65.4339 16.2941 46.0791
4424 3 11.9611 20.7146 75.0807
4425 3 14.9479 23.0102 59.5905
4426 3 8.23206 20.5885 31.4334
4427 3 8.25883 23.1134 37.4105
4428 3 52.9353 6.54518 86.8639
4429 3 32.6062 5.19252 40.1175
4430 3 11.2231 7.75744 88.0933
4431 3 71.2977 5.4319 38.2275
4432 3 72.4437 6.93007 83.1471
4433 3 78.3055 22.8987 30.519
4434 3 10.6387 25.5525 24.7833
4435 3 7.62253 25.2019 40.3608
4436 3 22.9415 22.5107 60.6619
4437 3 17.8806 29.5364 87.5242
4438 3 6.18563 27.5887 53.8399
4439 3 51.9705 14.2287 60.604
4440 3 76.751 3.72061 25.9747
4441 3 73.3058 8.35364 55.2853
4442 3 33.5073 18.0547 75.4847
4443 3 2.19006 14.8007 53.7296
4444 3 62.3655 18.2427 34.1097
4445 3 14.3057 2.87344 90.8654
4446 3 61.7346 26.891 76.2807
4447 3 71.2606 21.9439 80.8559
4448 3 40.2642 17.4431 50.368
4449 3 62.0622 22.0387 35.0809
4450 3 52.5162 21.2774 55.3024
4451 3 64.3265 24.6151 39.771
4452 3 56.8035 25.7622 50.4818
4453 3 17.4928 9.00391 80.3608
4454 3 31.2476 2.20243 33.4107
4455 3 49.9472 13.238 35.3605
4456 3 20.2266 1.64838 22.1658
4457 3 63.1532 24.8507 18.2774
4458 3 55.3667 22.6818 75.2041
4459 3 36.6761 4.72819 81.0093
4460 3 10.3537 3.41197 58.3863
4461 3 5.49507 10.7142 63.433
4462 3 72.6154 4.33288 59.7254
4463 3 60.9702 5.25773 36.6401
4464 3 0.606064 12.1871 42.189
4465 3 45.8046 15.4556 66.1601
4466 3 59.4374 4.70718 46.7947
4467 3 11.4137 7.98356 23.7563
4468 3 36.3329 16.3271 56.71
4469 3 25.9051 13.2596 89.5379
4470 3 74.5304 2.99098 84.6449
4471 3 41.1306 27.9709 68.1846
4472 3 74.185 27.4885 44.3818
4473 3 72.7292 6.84287 42.05
4474 3 62.1048 3.63746 28.2671
4475 3 7.24531 29.0104 33.4337
4476 3 29.0767 2.61909 42.9053
4477 3 43.4015 23.5029 39.6275
4478 3 56.9209 5.37908 53.3027
4479 3 52.1759 9.4693 51.7029
4480 3 75.254 0.022069 67.0961
4481 3 44.2428 23.042 49.3912
4482 3 11.1031 23.9897 31.2565
4483 3 3.82847 21.6355 65.429
4484 3 27.8892 22.9138 68.8958
4485 3 0.795844 18.1199 24.8151
4486 3 64.5258 8.37969 19.1063
4487 3 4.31319 14.9411 85.9606
4488 3 64.7427 12.8031 71.1324
4489 3 1.87283 22.755 55.0439
4490 3 27.4902 12.1763 81.7252
4491 3 3.36801 7.66251 87.0112
4492 3 24.2277 9.81725 41.0983
4493 3 62.1346 14.2519 62.6629
4494 3 27.996 18.6567 55.9407
4495 3 65.4585 10.2723 28.2809
4496 3 10.3359 16.4053 20.145
4497 3 68.134 22.5807 33.1963
4498 3 42.5996 29.1852 42.7787
4499 3 49.7507 9.35496 77.9166
4500 3 58.612 3.1412 68.5271
4501 3 28.7625 6.56935 87.3686
4502 3 55.2613 19.7596 64.0242
4503 3 4.06687 5.31438 31.08
4504 3 27.9769 11.2983 52.8853
4505 3 41.3568 2.40828 66.4336
4506 3 24.8404 28.3611 89.3048
4507 3 15.7892 6.48107 48.8194
4508 3 5.56143 19.2309 74.1346
4509 3 58.865 0.541256 76.1534
4510 3 45.6264 14.5468 89.0534
4511 3 74.2094 28.2464 86.6279
4512 3 32.5745 10.6215 76.0799
4513 3 2.13094 26.1369 72.0473
4514 3 57.4049 3.28621 40.4966
4515 3 17.743 7.61891 88.2643
4516 3 39.2991 9.27485 40.2202
4517 3 76.7324 10.6431 43.7275
4518 3 35.3177 2.31193 54.2114
4519 3 19.6935 2.46471 62.8277
4520 3 63.8209 11.2362 33.9193
4521 3 12.0895 11.3899 49.158
4522 3 64.6898 2.62401 46.4051
4523 3 75.5876 5.98081 68.7364
4524 3 61.4213 17.237 56.5314
4525 3 1.8851 11.5191 87.5044
4526 3 11.1789 24.8248 67.6892
4527 3 67.2147 5.51436 51.9956
4528 3 3.66892 5.13765 60.1597
4529 3 53.2086 26.8751 48.1832
4530 3 34.8467 4.6794 61.5284
4531 3 33.3503 20.2605 35.4098
4532 3 64.2114 2.76494 85.9763
4533 3 43.8563 3.3138 83.0314
4534 3 24.7156 3.85613 41.7282
4535 3 70.2195 28.4732 12.4918
4536 3 76.0241 18.7924 35.6006
4537 3 19.1384 18.6243 20.4198
4538 3 3.9311 16.0588 46.4215
4539 3 76.9015 0.225992 28.2594
4540 3 46.2433 11.3888 63.6942
4541 3 37.5843 20.0547 59.944
4542 3 25.4945 27.1991 74.1879
4543 3 18.6467 8.07578 30.8127
4544 3 23.5235 21.4144 83.299
4545 3 35.0546 24.6121 63.5885
4546 3 11.4639 11.065 42.5226
4547 3 30.5252 19.6434 77.5267
4548 3 63.6744 27.4905 85.4638
4549 3 62.1337 10.033 85.4023
4550 3 68.8928 27.921 21.1727
4551 3 39.6817 12.6636 60.7111
4552 3 70.8634 4.77846 71.3367
4553 3 76.2508 23.7819 45.0747
4554 3 6.80733 6.7667 87.0511
4555 3 79.9552 23.8719 80.6114
4556 3 50.6057 20.724 68.4681
4557 3 63.3229 23.6884 14.2822
4558 3 25.5761 29.1667 61.5051
4559 3 21.8758 22.5608 72.5821
4560 3 46.157 2.35825 86.6253
4561 3 46.5978 6.5316 85.8905
4562 3 69.9296 18.1868 72.6262
4563 3 17.4985 20.137 54.7905
4564 3 5.86641 3.96952 36.9804
4565 3 77.1688 26.6264 22.5357
4566 3 70.7499 26.3053 27.2013
4567 3 15.9794 1.33065 81.2358
4568 3 77.1054 29.6783 18.8111
4569 3 43.3374 16.1074 81.8222
4570 3 27.6807 4.21113 73.305
4571 3 79.0451 3.46975 38.0864
4572 3 26.2247 18.6966 37.0234
4573 3 78.6529 1.874 54.9987
4574 3 20.9809 27.4151 77.8149
4575 3 41.2399 6.67715 63.3557
4576 3 9.68878 11.1253 52.6453
4577 3 74.593 11.4552 28.1019
4578 3 46.0966 28.1255 60.4942
4579 3 63.9145 26.2219 80.3329
4580 3 66.0862 15.7567 67.0777
4581 3 13.626 13.6041 84.5037
4582 3 23.7757 22.5458 39.1961
4583 3 62.6289 0.700116 50.9905
4584 3 68.3839 16.5352 82.9637
4585 3 70.9855 23.4163 59.3936
4586 3 55.0162 14.7026 69.5602
4587 3 6.18762 6.50187 55.3518
4588 3 40.2269 12.8227 53.2214
4589 3 75.876 8.05336 13.4651
4590 3 24.9744 3.98099 77.7931
4591 3 9.60596 13.0414 78.5295
4592 3 28.9636 22.6427 37.1726
4593 3 71.2498 9.76467 77.2872
4594 3 77.2681 29.3335 39.8947
4595 3 70.3992 29.5145 72.7887
4596 3 3.20463 15.3369 40.5913
4597 3 30.9355 6.06268 46.8107
4598 3 63.7284 10.6423 79.274
4599 3 36.1599 13.6576 51.7833
4600 3 3.73963 10.1706 53.3077
4601 3 72.2725 21.2951 14.5048
4602 3 44.0564 5.27072 78.9946
4603 3 2.39101 21.8019 38.1605
4604 3 57.7595 16.6083 38.2908
4605 3 46.3557 2.70131 52.7894
4606 3 66.709 17.4107 53.5431
4607 3 2.02859 25.3285 37.3921
4608 3 68.1776 19.585 86.3674
4609 3 5.93015 23.1233 19.895
4610 3 59.9245 6.20211 87.1368
4611 3 66.8668 16.042 50.3463
4612 3 54.9101 23.9097 86.9133
4613 3 45.0058 25.5152 76.9212
4614 3 62.302 10.025 70.889
4615 3 27.5219 29.2797 83.4766
4616 3 65.6595 8.68357 42.175
4617 3 27.8054 7.26238 43.0678
4618 3 79.2467 25.7801 42.6454
4619 3 7.35306 25.9326 48.5406
4620 3 50.5 17.5162 89.0032
4621 3 53.2999 27.6151 56.762
4622 3 41.124 20.8697 57.8144
4623 3 63.9934 13.8838 13.5639
4624 3 31.1576 23.7909 54.4991
4625 3 75.0351 15.2861 47.5843
4626 3 12.3307 23.5612 42.6508
4627 3 68.1472 20.3519 51.5939
4628 3 75.9307 8.24867 64.7021
4629 3 60.4086 0.804277 38.853
4630 3 72.0664 20.6203 21.2068
4631 3 20.7742 26.5749 38.2135
4632 3 19.7436 7.70401 57.5685
4633 3 48.4062 2.69652 77.3149
4634 3 55.0015 16.6668 67.152
4635 3 26.2231 10.309 60.4478
4636 3 63.2534 0.876887 74.7085
4637 3 23.2082 24.2748 48.6849
4638 3 6.70607 26.556 63.3151
4639 3 54.3639 28.0092 72.6069
4640 3 65.0021 27.193 36.5121
4641 3 1.08864 27.5838 47.132
4642 3 16.4885 16.1477 82.1519
4643 3 47.5486 6.73931 74.1496
4644 3 45.6437 26.5339 36.813
4645 3 66.7209 2.2465 73.1012
4646 3 31.0327 29.4346 50.8735
4647 3 14.2733 25.8603 27.439
4648 3 66.7345 27.8046 42.8105
4649 3 50.4568 11.9542 57.3882
4650 3 50.1085 13.0831 63.5602
4651 3 55.4016 6.91984 50.1198
4652 3 10.7234 28.8587 29.0348
4653 3 74.9319 25.7276 30.2364
4654 3 70.8598 17.0172 52.4517
4655 3 50.0946 12.1857 53.55
4656 3 42.5654 1.58751 62.4452
4657 3 17.5343 7.43438 45.6
4658 3 47.4897 11.6415 75.6612
4659 3 47.0172 24.0842 46.3978
4660 3 5.14259 11.0906 37.6581
4661 3 13.8838 15.5342 46.7782
4662 3 25.7995 19.0317 49.4555
4663 3 37.7647 18.8796 88.8604
4664 3 56.7891 28.7776 53.1786
4665 3 55.2854 19.9884 36.5946
4666 3 15.5894 10.6253 60.668
4667 3 74.9006 21.7326 88.1391
4668 3 77.435 24.7021 53.8378
4669 3 8.32456 8.73336 35.8985
4670 3 54.2883 4.08486 68.3422
4671 3 65.2883 19.8145 15.0297
4672 3 62.2723 8.72905 31.1372
4673 3 39.9447 6.84698 83.2444
4674 3 12.2814 14.2463 72.8859
4675 3 65.4575 27.0933 16.9025
4676 3 7.41207 25.2375 68.2812
4677 3 11.4156 8.28048 51.6866
4678 3 13.8456 17.8976 28.0606
4679 3 61.4899 24.4335 26.0431
4680 3 70.3219 18.8149 26.1027
4681 3 32.9624 20.3716 87.5868
4682 3 45.226 21.627 59.9637
4683 3 19.1374 16.161 23.8005
4684 3 35.9 20.9568 79.752
4685 3 6.84016 10.7931 86.5425
4686 3 21.4874 8.55087 53.4243
4687 3 70.4415 21.6147 63.7386
4688 3 70.6549 16.1254 30.3185
4689 3 8.07374 26.1116 85.2784
4690 3 79.038 29.251 31.7785
4691 3 24.7139 25.1528 66.0917
4692 3 18.3331 26.0721 68.1645
4693 3 53.5073 16.8466 49.5871
4694 3 56.6589 6.65462 38.0244
4695 3 69.4053 24.4286 51.8074
4696 3 10.5628 29.6602 45.5125
4697 3 77.9702 1.30425 23.6547
4698 3 21.7963 14.4059 58.3094
4699 3 54.3451 0.360559 41.5848
4700 3 0.512342 16.9475 47.2514
4701 3 18.437 5.56925 78.8484
4702 3 72.0714 29.3206 20.1927
4703 3 59.8891 28.2137 46.9682
4704 3 43.2259 27.2382 47.0922
4705 3 75.0649 9.31387 17.7325
4706 3 74.1834 15.6091 64.1679
4707 3 54.1151 16.1722 31.2492
4708 3 39.5352 29.1017 84.4219
4709 3 64.1571 21.1054 47.7011
4710 3 38.8831 6.77884 45.3214
4711 3 19.7837 27.3111 83.3405
4712 3 49.0541 7.74166 67.5585
4713 3 24.4419 7.34939 28.08
4714 3 29.0719 22.0853 80.673
4715 3 65.3266 20.8058 41.2145
4716 3 78.018 14.7573 79.0584
4717 3 64.9692 16.7651 41.7318
4718 3 20.0254 17.5863 57.7192
4719 3 62.5414 29.2966 58.1349
4720 3 4.20734 0.262592 17.5873
4721 3 12.8355 19.4473 13.2025
4722 3 16.4753 22.9826 25.8097
4723 3 21.5129 25.5987 32.5192
4724 3 64.9858 9.36497 67.219
4725 3 9.37429 1.38737 19.4946
4726 3 20.7501 16.1675 66.665
4727 3 60.4104 10.5659 64.2436
4728 3 21.1475 13.518 41.8484
4729 3 16.3999 15.1903 70.4818
4730 3 6.7648 19.0388 67.8499
4731 3 52.7095 12.2646 32.4763
4732 3 59.6745 20.8375 69.2222
4733 3 59.6613 18.462 30.3114
4734 3 21.4475 14.7489 81.2262
4735 3 74.1768 15.6315 33.1325
4736 3 36.5344 7.85842 73.6936
4737 3 8.16603 13.6752 88.2503
4738 3 0.519603 8.6651 57.75
4739 3 13.6993 28.064 18.4822
4740 3 65.0379 2.47632 67.1538
4741 3 9.51198 23.0346 86.59
4742 3 41.6608 3.00589 53.1487
4743 3 73.0018 24.4966 34.3684
4744 3 47.0408 11.8407 57.2265
4745 3 10.9627 1.11609 32.43
4746 3 46.7509 28.8183 47.8835
4747 3 30.1566 19.373 38.7127
4748 3 61.1916 24.19 61.5445
4749 3 0.173974 29.7127 43.3137
4750 3 75.7598 4.47636 74.3438
4751 3 42.9099 18.8199 86.5787
4752 3 76.7878 17.2523 75.5521
4753 3 64.0501 4.61459 77.1734
4754 3 4.68124 2.88777 57.2302
4755 3 77.5999 11.4399 60.0403
4756 3 10.1569 26.2322 20.8179
4757 3 43.4834 20.6041 69.0765
4758 3 49.6191 15.4458 83.2842
4759 3 37.3635 29.3136 47.3583
4760 3 65.7397 4.15881 54.6517
4761 3 70.4399 3.32314 74.9401
4762 3 33.5003 24.8949 38.8019
4763 3 66.7045 4.86573 28.9451
4764 3 78.1917 9.52828 88.6037
4765 3 71.3434 19.3865 29.763
4766 3 65.5728 7.87193 23.2069
4767 3 4.87627 15.2662 15.4035
4768 3 43.1108 25.4466 86.8209
4769 3 30.5341 27.7617 78.2513
4770 3 13.7023 26.9452 73.8429
4771 3 59.7644 8.61651 23.3236
4772 3 57.7282 26.4695 33.7904
4773 3 61.474 24.2999 85.5953
4774 3 15.3235 3.23178 69.9179
4775 3 44.8272 3.8511 48.8027
4776 3 8.56482 14.0788 59.1284
4777 3 24.4186 12.0138 55.3579
4778 3 34.2552 14.5939 62.704
4779 3 42.1371 16.3423 36.8441
4780 3 3.52692 8.84507 29.5228
4781 3 29.9598 12.6007 88.9722
4782 3 14.7907 9.66961 42.2521
4783 3 62.5075 16.2025 49.5494
4784 3 34.5457 15.7126 71.085
4785 3 11.8276 22.6163 83.4233
4786 3 17.183 25.8076 19.174
4787 3 47.741 4.19006 60.5684
4788 3 60.3738 20.5566 86.9766
4789 3 23.8756 20.987 28.7087
4790 3 77.1935 3.15748 79.0172
4791 3 19.3086 16.9067 54.4876
4792 3 23.7541 21.5764 42.9342
4793 3 35.6209 21.697 37.899
4794 3 58.2914 20.2648 59.5152
4795 3 76.873 15.3782 15.8841
4796 3 7.48286 17.4151 12.9299
4797 3 6.01199 4.14512 49.905
4798 3 44.3205 6.76676 51.2735
4799 3 60.8592 2.78245 55.866
4800 3 42.1797 11.4011 64.3393
4801 3 17.2201 5.20376 39.1726
4802 3 76.6527 15.6876 69.5988
4803 3 71.148 15.1733 12.9109
4804 3 6.20712 0.072099 46.8941
4805 3 6.38225 7.64885 16.648
4806 3 28.8234 26.5381 88.3284
4807 3 18.4482 27.1222 71.789
4808 3 10.1242 16.5642 36.9148
4809 3 75.2698 16.3353 60.8914
4810 3 1.03204 6.41911 63.6893
4811 3 78.131 21.9702 34.8755
4812 3 37.3592 25.4005 70.1098
4813 3 3.9167 4.3497 14.9347
4814 3 4.52276 24.6944 83.6816
4815 3 38.2524 0.0484555 51.8916
4816 3 14.605 23.9529 54.1609
4817 3 0.904325 15.0997 14.001
4818 3 20.2217 9.11397 65.1371
4819 3 6.87418 10.8718 48.2802
4820 3 0.631866 23.2434 22.9766
4821 3 14.4914 6.64124 65.9108
4822 3 61.545 23.7542 51.6467
4823 3 12.4101 18.9605 50.706
4824 3 22.5852 1.8909 31.1864
4825 3 42.1513 1.06574 86.8738
4826 3 8.47117 10.7596 29.7004
4827 3 65.1274 26.2238 50.7271
4828 3 72.1876 5.43987 21.4922
4829 3 8.85213 10.5273 57.6512
4830 3 12.2054 14.8269 32.9954
4831 3 52.3595 15.0651 85.0126
4832 3 3.1607 28.2863 21.3629
4833 3 19.0473 28.3705 27.2439
4834 3 53.3379 18.1447 75.6257
4835 3 44.8184 4.3732 70.6767
4836 3 70.1407 23.4006 48.1331
4837 3 72.9088 13.5034 71.7048
4838 3 75.5645 5.26747 37.2639
4839 3 12.2267 29.0755 40.7158
4840 3 9.26811 19.981 79.5821
4841 3 68.001 1.53479 30.8137
4842 3 62.7601 0.0504338 32.0757
4843 3 40.8516 4.78558 36.9561
4844 3 0.872013 29.3176 73.7757
4845 3 36.0138 17.3413 38.9323
4846 3 66.6055 23.6816 81.7875
4847 3 64.6905 25.6486 21.4783
4848 3 6.6389 9.81293 20.4232
4849 3 57.0006 10.1647 59.8117
4850 3 64.7944 8.36186 76.9446
4851 3 38.1978 2.85538 44.4912
4852 3 79.5527 24.5737 68.2826
4853 3 29.1526 1.88888 66.2169
4854 3 32.1482 26.0628 57.7134
4855 3 54.7141 0.972347 62.6135
4856 3 18.9283 7.1936 35.6262
4857 3 67.5024 16.818 17.9719
4858 3 27.0104 12.5984 42.6866
4859 3 77.1095 18.117 39.5221
4860 3 59.0463 28.2855 66.963
4861 3 79.0313 3.47926 66.4463
4862 3 78.0555 23.9673 39.2063
4863 3 63.4904 0.789648 42.2875
4864 3 29.9217 1.8481 47.0752
4865 3 18.9165 22.4583 61.5739
4866 3 40.8536 15.9826 70.4453
4867 3 57.7403 10.7441 47.0257
4868 3 63.3411 4.46351 72.7071
4869 3 15.4684 13.0635 35.1488
4870 3 21.0356 19.1342 63.8002
4871 3 29.5566 0.883433 69.717
4872 3 39.1428 18.6214 63.6671
4873 3 45.6772 10.392 87.0203
4874 3 1.91661 18.504 35.546
4875 3 3.9001 21.2519 44.0638
4876 3 79.7594 25.0481 19.3749
4877 3 54.3644 11.1778 72.9927
4878 3 9.53897 5.4913 32.9106
4879 3 7.56126 15.7585 51.4955
4880 3 1.0729 16.1075 77.0249
4881 3 18.9304 21.8922 33.5397
4882 3 32.4329 6.75879 85.5803
4883 3 18.8577 14.7405 48.1508
4884 3 39.646 11.0341 48.2404
4885 3 68.4535 18.1538 57.1605
4886 3 10.8468 29.2457 76.9177
4887 3 57.8005 13.0343 56.3562
4888 3 1.21628 18.1453 61.0308
4889 3 64.5041 21.0179 61.6647
4890 3 28.0391 10.7405 35.9417
4891 3 52.2823 13.327 71.197
4892 3 13.2902 18.9698 63.3744
4893 3 9.15502 7.86068 68.0676
4894 3 75.0104 13.1827 23.9447
4895 3 5.4506 17.2088 61.3957
4896 3 48.8334 29.7368 69.64
4897 3 77.487 7.70975 54.0617
4898 3 12.8608 3.44088 40.5887
4899 3 78.9378 19.031 19.2071
4900 3 16.5049 12.6496 17.0153
4901 3 79.1551 28.9622 62.3683
4902 3 58.2574 13.8089 88.71
4903 3 24.2013 10.8895 84.0789
4904 3 13.4573 8.08006 39.3272
4905 3 78.9222 18.0941 87.1283
4906 3 43.673 15.9236 55.2294
4907 3 59.6697 9.5146 79.0541
4908 3 23.9453 7.16579 49.496
4909 3 62.016 13.3277 23.6843
4910 3 62.2059 19.7102 78.5229
4911 3 68.7756 21.8205 45.2292
4912 3 66.4085 3.52641 21.8116
4913 3 45.3392 10.5794 33.7362
4914 3 71.958 17.848 45.9
4915 3 7.81054 20.3936 52.7435
4916 3 32.6856 0.201729 58.4694
4917 3 28.8857 11.2148 64.4048
4918 3 15.6876 19.9244 75.8047
4919 3 17.6395 11.5342 69.7937
4920 3 2.2074 25.3718 27.2772
4921 3 57.2607 13.3561 77.1163
4922 3 0.78498 3.94156 86.9038
4923 3 52.0361 4.43377 59.1447
4924 3 58.4108 20.2289 42.3899
4925 3 39.045 27.2322 61.819
4926 3 69.2758 4.11975 67.8788
4927 3 27.0055 9.79817 48.9283
4928 3 52.9802 20.1374 85.4063
4929 3 14.2563 12.4712 68.8451
4930 3 15.1506 12.0093 56.2792
4931 3 78.6642 12.4284 29.4563
4932 3 78.0826 13.5679 86.1301
4933 3 18.0944 0.57442 54.6435
4934 3 23.4439 24.9843 54.607
4935 3 58.8284 0.187002 30.5818
4936 3 26.5416 24.3582 72.7556
4937 3 53.6967 24.1114 79.7542
4938 3 71.2447 13.1679 63.8602
4939 3 50.2257 5.33568 83.9803
4940 3 60.9043 14.2412 52.9187
4941 3 26.9538 2.73098 59.6919
4942 3 17.6967 15.6048 75.8336
4943 3 60.3893 20.8314 27.2996
4944 3 35.6861 12.7076 89.9116
4945 3 52.7375 28.1278 32.1515
4946 3 64.4125 3.67709 62.7192
4947 3 52.9384 11.9278 44.7706
4948 4 11.4748 21.8024 79.3514
4949 4 46.451 22.7815 57.5493
4950 4 45.0148 22.406 46.9669
4951 4 28.9515 5.0704 42.6986
4952 4 60.4401 8.03295 85.1252
4953 4 52.2879 26.9334 79.2056
4954 4 72.7554 17.9667 62.1249
4955 4 47.6656 6.25755 83.1546
4956 4 2.33178 7.30573 45.7886
4957 4 29.8731 22.5181 60.8938
4958 4 49.6727 1.01737 88.3881
4959 4 78.181 3.43745 73.482
4960 4 1.4738 28.5196 30.1543
4961 4 15.9739 2.03262 87.2705
4962 4 11.6576 26.9022 75.6241
4963 4 48.9359 14.1135 33.0995
4964 4 42.9376 0.742697 45.16
4965 4 48.8218 21.0772 88.527
4966 4 74.3315 10.7493 42.5355
4967 4 45.9705 29.7249 86.0889
4968 4 36.362 9.22474 83.3782
4969 4 30.768 2.17003 57.9615
4970 4 50.5112 0.791961 61.8811
4971 4 15.7196 28.7732 89.2065
4972 4 33.4579 6.73604 88.2862
4973 4 49.7533 12.7607 61.1491
4974 4 45.4009 3.34958 65.0585
4975 4 64.3093 23.5625 80.3509
4976 4 17.2302 17.7764 25.3651
4977 4 66.282 14.5377 77.4196
4978 4 55.6411 21.9704 85.2142
4979 4 26.0936 26.2218 42.32
4980 4 70.5726 4.99044 85.6608
4981 4 61.2348 10.8515 88.7987
4982 4 65.5719 1.1975 87.3748
4983 4 3.58568 20.0132 15.8685
4984 4 10.7507 9.68808 74.5592
4985 4 7.62476 24.5991 87.7106
4986 4 1.01554 20.4615 20.1678
4987 4 22.6398 18.1439 37.8003
4988 4 51.3179 22.7735 85.7006
4989 4 64.1159 25.16 84.303
4990 4 71.6093 29.1081 30.5508
4991 4 23.6483 29.7008 57.7985
4992 4 50.9669 14.4763 52.0989
4993 4 67.1275 21.3483 57.2062
4994 4 30.8685 18.522 87.8321
4995 4 42.124 3.52294 49.1833
4996 4 48.0359 22.6862 34.4704
4997 4 63.9064 6.90284 25.0171
4998 4 37.5673 10.1053 62.6893
4999 4 77.8678 5.45191 64.8783
5000 4 33.4065 25.4267 83.4911
5001 4 55.6537 27.0003 76.9096
5002 4 40.3342 7.0032 66.5898
5003 4 27.2213 26.4963 61.8777
5004 4 60.2284 8.82668 62.0539
5005 4 73.8255 15.692 68.0137
5006 4 64.045 2.18754 27.8569
5007 4 76.4804 16.2095 82.6009
5008 4 54.8557 4.51682 43.6202
5009 4 73.4792 18.1155 33.3614
5010 4 79.7128 14.21 43.6346
5011 4 0.521953 6.65259 72.7302
5012 4 11.0817 6.27532 69.4275
5013 4 17.8161 18.4404 56.7372
5014 4 47.4412 25.6626 50.7986
5015 4 71.2269 8.10901 81.0184
5016 4 59.1528 4.43258 57.4115
5017 4 4.46349 15.0851 62.7637
5018 4 75.6152 27.9721 50.6112
5019 4 53.3821 27.832 89.3443
5020 4 34.8811 16.2154 88.2449
5021 4 73.6502 15.1658 40.2823
5022 4 16.6998 23.8017 44.8641
5023 4 28.027 25.3395 55.6827
5024 4 38.809 8.72071 72.9556
5025 4 3.08822 2.15979 19.7726
5026 4 3.48501 29.7776 62.4411
5027 4 16.9984 24.325 57.5835
5028 4 63.1241 10.4173 13.346
5029 4 62.5907 1.16335 44.7826
5030 4 54.4973 25.0161 39.7988
5031 4 6.62246 4.76827 46.7106
5032 4 32.746 0.585119 61.2801
5033 4 76.7642 7.57138 87.0403
5034 4 19.4292 16.049 36.8454
5035 4 34.8544 19.3763 77.8136
5036 4 30.6927 24.0875 35.6947
5037 4 31.5349 25.4278 52.7779
5038 4 11.8264 1.52842 61.4235
5039 4 66.2914 12.6876 27.4499
5040 4 39.6277 14.9891 37.0638
5041 4 52.7196 11.264 64.4542
5042 4 21.6464 6.34632 36.4171
5043 4 42.5629 7.64873 78.4227
5044 4 70.5234 29.9568 22.1548
5045 4 62.9225 21.5689 40.3276
5046 4 5.31831 27.2897 57.8624
5047 4 59.7412 22.6027 25.3501
5048 4 1.86061 21.5321 45.4702
5049 4 2.40613 11.3761 51.2304
5050 4 25.533 10.8898 38.6392
5051 4 39.1157 8.60451 42.8292
5052 4 52.4985 23.0164 57.0762
5053 4 47.3001 28.5616 80.1038
5054 4 11.2775 27.5355 64.299
5055 4 22.8233 25.3329 30.232
5056 4 11.2828 21.4533 13.3467
5057 4 28.8483 28.275 58.5347
5058 4 24.5539 23.2382 81.7513
5059 4 8.49951 5.77547 85.2754
5060 4 64.3104 29.1873 35.0723
5061 4 68.4392 17.9215 51.5763
5062 4 57.3575 23.9503 58.3499
5063 4 67.5535 29.0771 52.2742
5064 4 58.717 1.06151 34.7417
5065 4 32.336 28.3354 44.3341
5066 4 7.37939 17.6543 87.076
5067 4 31.4369 2.18859 70.9011
5068 4 3.81275 1.21913 46.0347
5069 4 59.9157 26.1823 81.8103
5070 4 62.3389 24.2103 33.1549
5071 4 0.584527 3.97494 79.2628
5072 4 50.3486 13.624 73.5064
5073 4 3.81494 5.09962 27.6748
5074 4 66.7928 0.247679 41.7093
5075 4 55.3102 29.796 51.1764
5076 4 17.6893 12.4664 56.0516
5077 4 21.1341 11.1919 43.2834
5078 4 11.4666 26.4422 30.5563
5079 4 66.3679 24.6133 41.4256
5080 4 67.0932 1.53959 58.8837
5081 4 4.10815 21.6996 79.7584
5082 4 12.2992 10.5776 51.9132
5083 4 15.3801 8.44263 24.3425
5084 4 42.8751 22.8884 36.9558
5085 4 79.1628 0.644891 34.5307
5086 4 14.0897 23.8186 63.1427
5087 4 62.1791 10.703 54.6813
5088 4 35.0021 21.0812 40.6491
5089 4 72.9783 27.9906 63.7029
5090 4 76.0493 21.5024 49.7974
5091 4 76.9098 14.6888 19.0426
5092 4 73.419 26.3018 28.3324
5093 4 27.374 17.5304 69.0257
5094 4 61.5661 9.30991 28.5321
5095 4 74.1563 3.44092 26.1893
5096 4 68.7563 16.5201 74.2195
5097 4 15.9058 28.4005 84.8737
5098 4 18.7288 2.10238 80.2259
5099 4 7.67979 13.6545 56.6479
5100 4 73.8111 11.3411 66.899
5101 4 41.7993 4.25897 62.622
5102 4 26.0388 13.7237 79.9652
5103 4 7.97029 19.2287 22.8033
5104 4 3.71671 15.6657 31.8926
5105 4 63.302 20.2652 17.5908
5106 4 7.92958 11.1844 37.1206
5107 4 64.9686 28.3247 48.945
5108 4 66.892 20.6632 47.4139
5109 4 39.5032 25.0794 68.4932
5110 4 60.6659 28.877 51.0608
5111 4 51.1053 14.1907 40.532
5112 4 50.0863 13.4588 84.9974
5113 4 72.4348 17.4737 49.8853
5114 4 65.329 27.7601 65.4698
5115 4 70.8033 26.7649 69.9318
5116 4 56.3586 29.4787 59.0129
5117 4 43.8246 28.3997 40.3912
5118 4 39.5184 0.30154 39.7661
5119 4 38.4194 29.316 43.4214
5120 4 20.6997 22.924 57.3427
5121 4 4.36369 24.3175 65.1283
5122 4 30.8847 21.8042 38.6786
5123 4 24.7262 16.0543 71.8791
5124 4 73.6378 22.0179 44.8835
5125 4 70.1159 5.85395 51.4394
5126 4 47.6361 4.71897 51.924
5127 4 2.59699 18.9728 74.8948
5128 4 63.0096 26.875 58.952
5129 4 64.1424 8.96961 61.7625
5130 4 9.51694 8.0809 44.7377
5131 4 68.5198 0.00750927 80.4661
5132 4 5.14204 25.4384 31.5278
5133 4 63.0879 15.6428 34.5994
5134 4 78.6924 15.7724 33.0423
5135 4 34.9835 19.0153 37.1211
5136 4 20.0434 14.1655 18.7561
5137 4 10.774 17.9183 25.8931
5138 4 8.57443 17.4141 53.1044
5139 4 78.4976 19.6684 68.2402
5140 4 52.2449 21.7254 39.49
5141 4 14.0991 18.0891 46.2663
5142 4 69.9341 6.51994 65.7732
5143 4 26.6419 6.04656 58.6066
5144 4 77.1731 13.1503 69.7931
5145 4 28.837 5.84263 75.2147
5146 4 9.15421 8.50151 53.2877
5147 4 13.4691 23.646 67.4288
5148 4 76.6708 7.91646 37.5313
5149 4 27.3215 7.057 63.017
5150 4 43.3031 0.14569 37.0115
5151 4 3.1267 9.88792 67.1351
5152 4 47.4621 27.4513 69.0228
5153 4 17.174 18.0149 74.4754
5154 4 72.5493 1.83482 46.6759
5155 4 38.8785 5.76235 80.2495
5156 4 16.3921 14.0039 67.9124
5157 4 30.1133 4.11864 81.6374
5158 4 70.63 24.6459 43.8237
5159 4 54.3156 14.1006 86.727
5160 4 38.0834 15.4989 67.2166
5161 4 6.50404 6.59998 50.8579
5162 4 65.6708 25.3448 53.0883
5163 4 36.6547 9.53013 76.3666
5164 4 22.4972 21.8537 47.5746
5165 4 8.20424 26.7684 35.2832
5166 4 64.6051 1.84407 31.951
5167 4 10.3831 11.8504 59.257
5168 4 33.5329 11.0168 49.6586
5169 4 70.7605 23.0767 25.0318
5170 4 21.3736 6.9515 50.8395
5171 4 15.1199 13.2673 47.1548
5172 4 67.0345 21.0963 79.781
5173 4 59.1589 3.21192 50.4594
5174 4 67.0406 16.3469 44.023
5175 4 44.8621 9.47574 82.697
5176 4 8.07457 3.09139 16.2409
5177 4 17.0685 22.8082 54.1798
5178 4 1.23062 23.115 36.0438
5179 4 8.86058 8.23632 25.5786
5180 4 14.9224 19.8467 61.4067
5181 4 71.2283 3.30879 13.0465
5182 4 75.5492 22.6244 79.4517
5183 4 3.47342 21.2295 58.9426
5184 4 1.50144 1.2033 85.9752
5185 4 19.4756 6.9369 43.6525
5186 4 31.8855 26.0175 79.7225
5187 4 14.273 0.442498 79.4378
5188 4 42.1872 16.5274 67.7231
5189 4 5.83548 12.4064 20.1705
5190 4 8.58352 0.437248 82.0768
5191 4 58.7929 8.19597 70.3194
5192 4 40.5167 26.0759 72.2952
5193 4 51.9695 10.052 42.9851
5194 4 66.0743 7.19236 37.079
5195 4 26.0828 16.5683 59.3882
5196 4 39.7572 18.9032 55.0165
5197 4 46.3718 5.56461 90.1368
5198 4 23.2907 27.1379 80.9023
5199 4 8.72671 2.69784 41.2256
5200 4 56.3743 7.81173 57.6447
5201 4 56.6496 13.1208 47.6977
5202 4 63.1081 13.1934 47.6726
5203 4 11.6486 22.4694 47.6389
5204 4 35.012 19.8511 60.0562
5205 4 57.1564 1.30741 84.924
5206 4 12.2749 4.89599 45.4014
5207 4 37.9305 17.2381 72.7261
5208 4 11.1368 20.077 64.9222
5209 4 51.773 14.1076 82.1221
5210 4 40.3603 17.9137 88.538
5211 4 32.2305 5.46309 50.8831
5212 4 3.30567 27.8594 37.3571
5213 4 21.7829 2.81479 61.3155
5214 4 1.04666 12.9075 30.3639
5215 4 26.7173 27.0853 71.8259
5216 4 76.111 3.42587 23.083
5217 4 68.5853 1.74911 68.9022
5218 4 28.019 9.88564 46.5195
5219 4 57.1048 26.685 88.9842
5220 4 12.1504 0.719815 49.6297
5221 4 61.267 5.44193 71.5216
5222 4 61.0214 26.9296 86.1438
5223 4 18.0945 3.8425 71.8184
5224 4 4.05135 26.9564 77.7535
5225 4 49.5983 4.17226 66.2624
5226 4 27.4338 25.8495 75.2258
5227 4 76.1024 8.48872 56.3241
5228 4 24.8708 15.2455 40.3975
5229 4 69.7709 17.4563 70.1555
5230 4 53.2308 23.86 43.7263
5231 4 75.2409 27.8563 38.7185
5232 4 3.39634 7.88614 61.271
5233 4 0.502567 2.14296 59.479
5234 4 12.9088 9.49092 47.0408
5235 4 1.12008 6.48841 86.6293
5236 4 69.6256 24.177 14.1056
5237 4 73.2531 6.36215 37.0288
5238 4 28.9753 15.7469 62.9108
5239 4 19.6607 29.5885 56.5534
5240 4 53.7413 16.2098 34.8438
5241 4 11.3832 24.5462 85.7713
5242 4 14.0014 18.219 21.4543
5243 4 18.1149 12.5126 89.2786
5244 4 64.0241 0.387867 20.2105
5245 4 59.2599 1.81799 72.5265
5246 4 76.3714 17.2509 87.0253
5247 4 71.8102 19.3202 16.5137
5248 4 53.5934 8.74638 71.1011
5249 4 62.463 13.839 67.3335
5250 4 27.1041 6.68043 30.5173
5251 4 48.3212 11.3 88.4487
5252 4 33.9291 10.5971 36.6803
5253 4 42.7202 9.60558 45.6686
5254 4 60.2579 29.6195 28.5318
5255 4 71.9794 26.9071 34.9013
5256 4 58.5538 13.7005 86.0272
5257 4 70.237 22.9191 88.2378
5258 4 13.982 15.8853 79.2936
5259 4 7.29635 15.6025 72.0532
5260 4 42.051 14.4628 54.095
5261 4 72.6094 14.452 31.0828
5262 4 8.47149 28.9786 47.1217
5263 4 16.8341 14.8039 20.7776
5264 4 38.3746 17.893 82.4755
5265 4 57.4383 19.9482 62.2822
5266 4 61.9795 26.4732 63.7293
5267 4 76.1743 1.22868 58.5807
5268 4 78.0928 18.876 80.1165
5269 4 60.1022 1.93771 24.6039
5270 4 6.54746 14.9683 84.7125
5271 4 43.4398 17.4788 63.1158
5272 4 24.1962 14.4452 30.6875
5273 4 46.8925 11.7437 68.4862
5274 4 16.581 27.2149 27.3018
5275 4 47.6017 24.4071 77.8044
5276 4 61.6116 23.2604 73.5115
5277 4 64.5386 13.7649 61.9868
5278 4 64.4613 4.47236 13.7398
5279 4 52.7942 25.8039 53.0796
5280 4 13.7397 9.80614 68.8508
5281 4 4.54919 7.76767 19.9624
5282 4 69.4129 19.9034 74.467
5283 4 49.6019 9.72848 56.3101
5284 4 14.5565 17.0369 86.7806
5285 4 68.5137 14.9578 85.096
5286 4 40.6646 15.0204 61.1265
5287 4 56.2164 19.6993 48.7589
5288 4 74.6746 15.508 35.851
5289 4 59.7568 18.3115 37.8633
5290 4 9.15657 15.829 47.3208
5291 4 56.3098 0.972517 31.518
5292 4 15.9056 1.59078 41.9996
5293 4 2.43683 16.8372 21.5248
5294 4 25.5158 7.8473 42.059
5295 4 2.80515 19.2286 64.7123
5296 4 51.9805 5.53004 52.7568
5297 4 42.507 11.574 86.0269
5298 4 6.48755 26.3132 83.3411
5299 4 43.5539 20.1496 58.5809
5300 4 58.4324 16.1675 40.7807
5301 4 25.1007 1.17799 45.5658
5302 4 56.1272 8.64974 48.2149
5303 4 1.19935 15.5739 90.6126
5304 4 68.7148 4.01701 31.0317
5305 4 30.8772 20.4352 34.652
5306 4 61.0355 7.35523 45.1044
5307 4 53.7199 10.4079 55.5519
5308 4 28.1398 28.157 79.3788
5309 4 53.5977 24.5437 82.335
5310 4 47.5882 16.1596 47.788
5311 4 47.0817 10.5894 44.9923
5312 4 3.45243 25.9201 22.5336
5313 4 11.2069 8.81667 62.5977
5314 4 29.1919 8.58602 49.6816
5315 4 67.6509 20.5417 63.0085
5316 4 62.9478 3.85255 50.6782
5317 4 32.6008 1.60542 36.2228
5318 4 64.2626 21.2592 13.057
5319 4 56.0751 15.888 57.2053
5320 4 21.0773 15.9688 56.1191
5321 4 79.0871 22.9591 28.0686
5322 4 78.445 14.2667 13.627
5323 4 55.0403 17.588 73.521
5324 4 74.0972 27.5488 15.0525
5325 4 47.5598 9.22808 50.2188
5326 4 2.89476 22.4417 30.2921
5327 4 63.5055 25.7667 15.8688
5328 4 1.35427 3.68483 15.2651
5329 4 9.67567 25.8798 69.434
5330 4 6.48562 5.60063 31.6801
5331 4 16.8261 15.8351 43.9124
5332 4 36.1286 1.44751 84.1943
5333 4 54.816 19.6247 68.3257
5334 4 65.0071 5.80698 59.0334
5335 4 77.6491 26.092 30.3156
5336 4 44.8299 7.86753 37.2942
5337 4 11.3873 11.9273 88.6715
5338 4 60.7603 22.036 84.534
5339 4 66.0492 25.9573 69.3659
5340 4 78.8223 23.5544 70.5553
5341 4 48.4475 28.4218 55.8465
5342 4 4.80165 28.8466 25.176
5343 4 61.668 18.9194 54.4448
5344 4 75.5015 22.8877 20.2896
5345 4 10.8213 13.159 50.4454
5346 4 69.5934 18.2559 28.4875
5347 4 15.5439 9.88901 82.8468
5348 4 66.8938 5.43919 70.7869
5349 4 13.2985 10.8083 39.8701
5350 4 0.724402 10.8584 22.761
5351 4 48.8353 14.7164 44.1139
5352 4 21.573 18.4447 25.7555
5353 4 52.7013 18.9704 56.6634
5354 4 57.3226 4.41363 79.3226
5355 4 41.0905 10.4682 60.1908
5356 4 10.975 18.8991 16.746
5357 4 25.4184 27.5721 65.5902
5358 4 24.3807 8.66117 53.509
5359 4 2.99881 27.8132 73.7625
5360 4 67.4537 11.4679 37.806
5361 4 20.8783 1.42815 39.4487
5362 4 75.8811 5.34498 83.0534
5363 4 77.2009 29.4846 21.5604
5364 4 22.2693 11.2476 88.708
5365 4 12.4514 2.45325 67.9055
5366 4 52.4088 2.07529 30.7364
5367 4 67.4558 20.8109 43.3712
5368 4 65.3684 8.39194 30.2981
5369 4 5.72823 15.6247 12.8935
5370 4 22.029 16.4287 47.2678
5371 4 39.7286 23.084 86.3615
5372 4 26.4211 7.64114 85.6557
5373 4 37.3648 21.869 49.6975
5374 4 71.0526 8.34402 40.7962
5375 4 5.79176 13.073 87.4504
5376 4 1.42431 25.1136 86.5842
5377 4 58.0371 23.645 78.848
5378 4 13.979 17.5488 34.7281
5379 4 69.0475 17.2305 54.7238
5380 4 18.8918 23.5874 29.0156
5381 4 75.1467 25.5741 32.9567
5382 4 26.787 4.78067 69.8543
5383 4 71.4014 9.15583 53.315
5384 4 49.9002 6.96622 36.1081
5385 4 7.73161 18.277 39.857
5386 4 74.8671 21.8522 60.5195
5387 4 76.2292 27.2452 18.5462
5388 4 73.1654 15.037 53.6492
5389 4 63.1886 18.8707 48.8481
5390 4 5.80036 18.197 76.8427
5391 4 72.982 7.71766 18.5631
5392 4 22.6518 27.0189 70.5889
5393 4 54.9306 21.2284 53.5689
5394 4 23.7116 24.2634 62.3366
5395 4 59.4794 25.6316 53.7961
5396 4 1.79142 28.0231 56.5429
5397 4 42.8823 1.8956 68.7719
5398 4 73.34 7.70645 25.3352
5399 4 16.1724 6.96919 35.4043
5400 4 55.3576 26.6914 32.2594
5401 4 17.6457 4.09183 32.721
5402 4 19.2146 25.1052 84.8717
5403 4 27.0221 5.10585 46.747
5404 4 42.7698 12.3183 77.1674
5405 4 23.7204 22.2687 87.5874
5406 4 55.6434 24.1374 48.6109
5407 4 79.6576 23.646 13.4157
5408 4 67.5728 6.13654 21.8368
5409 4 55.4418 8.7203 36.9644
5410 4 66.5753 12.9746 23.302
5411 4 11.3136 6.29817 77.417
5412 4 71.3736 2.15589 16.6273
5413 4 66.1532 13.5803 50.1853
5414 4 7.41808 18.8058 59.8382
5415 4 53.8049 4.4763 85.3071
5416 4 43.9655 9.14733 88.8791
5417 4 78.4924 22.7566 44.4485
5418 4 2.54993 17.4255 48.6639
5419 4 76.3654 8.28568 44.8159
5420 4 48.4932 17.2309 71.2509
5421 4 73.5285 24.2895 74.2905
5422 4 2.74368 13.5751 15.5557
5423 4 44.8053 25.2555 70.5586
5424 4 13.2947 16.3367 74.4188
5425 4 53.4293 21.2094 62.7496
5426 4 6.13991 2.5483 84.3654
5427 4 68.9257 11.8263 14.6748
5428 4 7.62508 24.6429 46.3303
5429 4 35.4362 5.00273 66.363
5430 4 0.986867 16.2395 84.3799
5431 4 75.0166 25.2773 87.6962
5432 4 41.3747 16.3158 45.5089
5433 4 12.6155 17.5618 54.9302
5434 4 79.3145 9.52341 59.8123
5435 4 3.16103 29.1795 52.8593
5436 4 9.12365 17.9009 30.154
5437 4 19.8429 7.73193 75.4606
5438 4 58.7948 24.5285 86.1672
5439 4 10.5376 23.5125 26.49
5440 4 72.485 1.28984 85.342
5441 4 34.5313 28.9343 74.1227
5442 4 39.6139 4.8258 43.6869
5443 4 24.669 19.5045 84.4763
5444 4 30.4646 20.1723 66.3759
5445 4 20.9725 20.7651 61.6065
5446 4 15.9926 5.03824 64.5115
5447 4 22.8033 19.6925 81.1487
5448 4 76.1539 1.44271 80.4988
5449 4 78.3195 7.65394 80.7043
5450 4 63.7308 26.3128 25.6052
5451 4 49.1437 24.3099 44.6292
5452 4 38.8165 29.1971 63.4242
5453 4 21.947 22.9883 41.2025
5454 4 63.1761 16.3399 13.5732
5455 4 65.4632 7.25934 64.9545
5456 4 34.8637 5.82829 75.3136
5457 4 35.0505 9.41287 44.5186
5458 4 10.3611 23.4507 55.2555
5459 4 75.488 20.8925 16.5949
5460 4 18.9768 11.0077 47.5566
5461 4 14.7164 25.4217 18.0282
5462 4 43.8343 23.7526 61.3969
5463 4 15.7341 5.25667 20.4592
5464 4 2.28495 6.11364 55.2027
5465 4 7.24234 0.812138 73.2779
5466 4 37.3378 13.7135 45.669
5467 4 59.9248 4.00942 85.1289
5468 4 40.5109 26.7808 84.2942
5469 4 17.8546 29.7291 31.989
5470 4 70.8269 21.0303 78.1421
5471 4 5.69569 8.81889 87.9283
5472 4 38.3727 14.1547 89.7382
5473 4 59.5809 14.5542 64.2154
5474 4 42.5665 2.72499 78.2432
5475 4 69.2937 8.73878 70.2389
5476 4 47.9184 8.9789 76.0053
5477 4 47.9701 2.69069 80.4723
5478 4 5.56769 17.5996 36.1953
5479 4 18.7302 7.27225 39.3457
5480 4 61.7729 0.225528 56.0353
5481 4 21.5476 4.81197 67.2167
5482 4 42.289 13.6653 89.8646
5483 4 30.1412 24.5893 43.374
5484 4 16.6543 22.6855 49.4031
5485 4 23.3041 4.39574 32.1335
5486 4 65.7542 24.0709 49.1212
5487 4 50.2956 10.0229 81.7489
5488 4 77.0377 4.20503 41.841
5489 4 72.1833 4.64111 40.7873
5490 4 1.61641 11.9671 81.465
5491 4 62.3096 3.47699 75.1203
5492 4 78.9402 0.86292 66.5033
5493 4 32.6935 10.5657 67.1365
5494 4 1.08152 18.5049 56.03
5495 4 46.0799 12.9177 53.6367
5496 4 1.53951 13.6364 39.7673
5497 4 73.9528 11.531 56.9685
5498 4 15.7436 13.5297 14.5783
5499 4 43.2334 15.3195 50.3678
5500 4 56.8453 12.8612 80.0435
5501 4 2.43318 9.84001 85.6179
5502 4 69.2787 18.6422 33.6016
5503 4 52.5343 2.10117 40.6618
5504 4 15.7859 26.9301 23.5252
5505 4 13.9935 14.0609 70.6667
5506 4 15.2607 28.8794 38.6117
5507 4 63.5145 15.8254 57.1989
5508 4 29.3702 2.21834 77.4257
5509 4 46.1578 15.1009 86.4269
5510 4 79.8917 14.6971 62.9294
5511 4 20.0668 3.70214 26.2378
5512 4 19.7851 28.2418 24.6294
5513 4 77.2819 19.6112 33.6305
5514 4 79.3688 4.15095 45.1429
5515 4 28.5277 17.8812 47.002
5516 4 20.9492 9.56075 56.0773
5517 4 7.34878 15.518 42.8835
5518 4 58.5976 10.6173 76.5687
5519 4 67.7957 25.9782 24.6132
5520 4 28.669 0.232239 73.8363
5521 4 29.0045 8.85688 40.0813
5522 4 3.0925 15.056 72.1914
5523 4 34.233 8.0836 53.8612
5524 4 61.8256 4.92029 66.7845
5525 4 9.78446 24.7377 39.0712
5526 4 65.4902 19.0934 27.2337
5527 4 44.953 29.9688 61.8574
5528 4 20.0325 4.4361 88.941
5529 4 36.9081 25.5277 56.842
5530 4 45.9087 5.49971 72.618
5531 4 0.677398 21.9233 88.7752
5532 4 21.3237 15.6648 69.4594
5533 4 73.5332 25.1237 49.167
5534 4 75.2147 17.7136 70.649
5535 4 18.507 14.4235 40.27
5536 4 28.6064 15.4194 38.3786
5537 4 5.00308 23.2394 41.5689
5538 4 18.8734 5.52241 55.9323
5539 4 62.2082 18.3562 83.1565
5540 4 66.8851 1.60398 45.6066
5541 4 43.4441 27.6696 74.5699
5542 4 30.5933 22.2132 56.577
5543 4 74.7008 3.69303 71.4264
5544 4 29.231 10.6041 80.1178
5545 4 39.5816 4.16257 84.1526
5546 4 69.0355 1.47223 73.9223
5547 4 27.0932 11.7296 87.6239
5548 4 17.9541 10.7168 59.5487
5549 4 10.2742 16.0429 68.8239
5550 4 18.5432 18.9366 88.3614
5551 4 63.3733 20.5617 33.2495
5552 4 79.3409 8.36579 15.5867
5553 4 73.851 9.28846 78.1846
5554 4 19.5026 24.898 61.1429
5555 4 28.6916 14.1116 57.2069
5556 4 75.4856 5.7133 77.179
5557 4 46.6618 13.0772 40.8801
5558 4 79.2161 9.59694 30.0444
5559 4 65.9156 6.36318 47.8498
5560 4 76.4449 25.86 43.2632
5561 4 73.7753 7.95227 60.0025
5562 4 9.16761 13.2582 25.8997
5563 4 63.5338 17.7264 87.253
5564 4 70.1603 29.213 88.1507
5565 4 75.0518 11.6108 62.7851
5566 4 8.03596 8.13372 18.8949
5567 4 9.25936 3.88951 36.8434
5568 4 34.1539 29.2384 51.3877
5569 4 37.2528 20.951 74.5631
5570 4 24.7272 16.7678 44.4994
5571 4 40.4428 9.22343 36.4606
5572 4 39.3541 25.6276 64.1005
5573 4 15.7069 12.4416 62.6156
5574 4 12.4954 13.0655 82.0527
5575 4 60.2588 12.2552 37.1451
5576 4 73.887 0.586506 11.5704
5577 4 71.1545 19.0276 23.4707
5578 4 2.15068 2.72701 75.8219
5579 4 79.3729 0.583207 27.6815
5580 4 53.7081 17.6769 85.2061
5581 4 39.4154 0.918385 57.359
5582 4 3.45199 27.6482 19.0644
5583 4 8.31845 28.671 41.7441
5584 4 76.2503 2.11211 50.6512
5585 4 78.9109 14.302 76.7936
5586 4 28.2708 29.4614 50.9499
5587 4 62.2338 11.9444 21.5565
5588 4 31.9873 14.9137 49.7171
5589 4 5.62123 5.06669 58.0145
5590 4 74.7838 4.4509 56.0733
5591 4 58.4024 12.4752 73.025
5592 4 78.804 14.5 27.5487
5593 4 53.5254 2.06363 55.2918
5594 4 75.8712 11.9126 45.9206
5595 4 0.838312 26.9889 66.571
5596 4 74.7826 4.08343 15.8203
5597 4 30.1419 17.6181 55.0599
5598 4 15.7086 16.7419 62.9702
5599 4 36.0428 3.06183 78.8354
5600 4 18.8407 16.1275 78.0736
5601 4 45.2224 0.814222 48.9387
5602 4 54.9038 12.1275 70.6183
5603 4 57.3816 13.054 33.6046
5604 4 76.8943 0.0691304 62.4966
5605 4 14.5796 5.42025 40.1298
5606 4 65.7834 6.28833 75.7754
5607 4 17.6572 21.5035 69.2772
5608 4 65.3904 1.92994 76.3083
5609 4 0.65374 19.9711 37.9183
5610 4 65.516 25.6451 19.0934
5611 4 27.6958 10.6258 33.365
5612 4 10.6252 4.23061 25.6105
5613 4 31.6081 19.4694 70.9463
5614 4 55.8894 4.31461 38.4452
5615 4 41.6857 21.8777 49.3487
5616 4 8.49239 20.6971 36.928
5617 4 73.9577 4.33991 64.43
5618 4 29.2107 21.9094 75.3922
5619 4 13.7658 24.8131 71.6197
5620 4 38.5192 7.00328 49.7108
5621 4 72.044 22.2669 33.7044
5622 4 34.8192 4.10591 56.7503
5623 4 63.627 11.1431 17.6379
5624 4 66.3961 4.66939 17.4403
5625 4 43.662 24.7458 43.339
5626 4 13.5536 8.34099 88.4526
5627 4 39.1294 13.8271 40.1229
5628 4 11.2457 7.87232 35.4785
5629 4 60.7941 2.11108 41.1812
5630 4 19.9382 27.4228 66.583
5631 4 49.7374 4.6396 86.4893
5632 4 70.0137 20.9757 39.9077
5633 4 48.8151 28.9771 35.8298
5634 4 32.9665 28.3171 56.8281
5635 4 31.0519 25.1132 66.4703
5636 4 19.4887 25.9644 73.7525
5637 4 20.8943 15.2905 62.1015
5638 4 9.29096 0.303192 34.6338
5639 4 72.403 10.0005 32.3686
5640 4 53.8703 16.1995 60.7622
5641 4 8.20296 16.8963 65.6206
5642 4 0.691014 2.63392 40.2283
5643 4 12.2043 26.3721 80.1034
5644 4 35.2519 26.7952 69.4424
5645 4 42.5265 18.7756 81.8169
5646 4 42.1939 4.88796 56.503
5647 4 43.9211 28.8121 82.5847
5648 4 32.7984 21.7814 53.8195
5649 4 23.0945 21.7373 35.3659
5650 4 77.0271 9.95816 23.9207
5651 4 6.18164 24.5325 37.9779
5652 4 1.71195 10.2206 55.7601
5653 4 7.49532 6.567 71.9332
5654 4 61.883 8.01225 35.7049
5655 4 8.08412 20.4263 50.0829
5656 4 70.2935 21.2636 60.8341
5657 4 5.84204 5.54898 13.8829
5658 4 38.3641 17.375 42.6418
5659 4 6.51079 2.36773 51.8804
5660 4 77.1653 4.06223 28.9479
5661 4 60.0266 13.1409 57.5547
5662 4 6.7912 7.04272 39.3779
5663 4 22.8525 0.132895 85.9059
5664 4 11.8431 28.1157 20.2512
5665 4 24.1214 9.72552 66.1447
5666 4 17.1883 10.5207 31.1058
5667 4 20.963 25.1788 49.747
5668 4 38.0164 1.09274 49.4185
5669 4 59.3333 26.1181 41.8362
5670 4 55.9748 7.8061 89.5594
5671 4 66.2997 5.09451 84.264
5672 4 42.0259 8.34241 51.9946
5673 4 2.47164 11.6508 36.1152
5674 4 16.0798 1.01139 69.28
5675 4 0.136212 26.6503 76.7595
5676 4 7.66234 10.6761 50.9672
5677 4 72.7037 18.8295 88.3815
5678 4 58.0335 26.1998 63.9369
5679 4 36.7259 7.33439 38.4433
5680 4 61.2958 24.8582 49.5627
5681 4 61.2242 17.8379 26.1943
5682 4 56.1927 2.69422 67.258
5683 4 20.6733 10.5813 37.1
5684 4 8.78369 25.0867 18.4022
5685 4 28.9532 0.983806 89.6576
5686 4 55.3336 14.9683 43.8243
5687 4 18.7917 12.8987 74.1172
5688 4 5.80798 10.1905 32.6138
5689 4 18.9419 2.14897 19.9602
5690 4 0.276662 27.3447 44.6925
5691 4 4.08478 19.0278 42.4542
5692 4 8.76065 23.3586 66.9703
5693 4 49.4738 2.80002 45.8401
5694 4 34.1062 17.1708 81.7476
5695 4 65.9383 9.36339 78.9517
5696 4 0.635435 14.3363 47.5412
5697 4 66.8447 14.4403 35.1127
5698 4 5.91478 23.1596 69.327
5699 4 41.2062 12.5191 82.1645
5700 4 51.7398 21.9959 73.8468
5701 4 53.0148 25.9242 71.9681
5702 4 45.5592 2.65705 55.4686
5703 4 47.3953 4.98636 76.1973
5704 4 25.97 26.5074 87.561
5705 4 43.6814 27.1114 49.655
5706 4 62.3727 13.7876 73.472
5707 4 61.0991 7.26005 79.2215
5708 4 66.0504 21.7096 67.1423
5709 4 61.0358 29.2255 75.0458
5710 4 50.6772 18.627 50.5393
5711 4 14.298 14.5935 50.8921
5712 4 12.6437 8.26334 41.9989
5713 4 64.7211 16.4934 52.1172
5714 4 77.4531 16.6813 59.5043
5715 4 31.8585 13.3286 82.07
5716 4 30.4889 8.40947 86.3363
5717 4 16.3895 5.23454 44.1248
5718 4 51.1729 10.9564 35.0432
5719 4 53.3939 15.462 64.6692
5720 4 22.0474 15.6562 88.0806
5721 4 64.1558 22.8278 36.3631
5722 4 49.0215 3.27521 38.6128
5723 4 79.6246 26.4695 36.989
5724 1 59.8026 22.3654 80.2408
5725 2 60.6171 22.4942 79.6752
5726 2 59.0635 22.9451 79.8977
5727 1 0.690086 8.21871 61.7528
5728 2 1.62588 7.92231 61.5619
5729 2 0.414319 8.90563 61.0805
5730 1 62.6866 16.3262 81.5476
5731 2 62.5629 17.1617 82.0829
5732 2 62.5989 16.538 80.5742
5733 1 72.0175 0.853498 80.4167
5734 2 71.9663 29.9015 80.1148
5735 2 71.2174 1.35231 80.0835
5736 1 41.8137 21.2284 46.5215
5737 2 41.643 21.2879 47.505
5738 2 42.2457 22.0734 46.2065
5739 1 57.8405 24.3313 36.2095
5740 2 57.3406 24.7179 36.9845
5741 2 57.276 23.6384 35.7609
5742 1 22.8628 18.3784 66.1355
5743 2 23.0051 19.363 66.237
5744 2 23.7395 17.9046 66.2183
5745 1 4.51891 23.9189 81.0821
5746 2 4.20072 23.1569 80.518
5747 2 4.7947 24.6778 80.4923
5748 1 74.8464 21.8235 14.2457
5749 2 75.6609 21.9283 13.6751
5750 2 75.1035 21.4157 15.1218
5751 1 77.0025 20.1017 14.3452
5752 2 77.711 20.7875 14.5117
5753 2 76.304 20.1643 15.058
5754 1 63.6187 8.66482 47.6079
5755 2 62.9063 9.33493 47.3995
5756 2 63.5593 8.40382 48.5714
5757 1 68.2762 7.51692 27.7074
5758 2 68.363 8.51147 27.7653
5759 2 68.2328 7.13195 28.6293
5760 1 66.0499 8.3891 50.3944
5761 2 65.2192 8.33995 50.9489
5762 2 66.0009 7.71213 49.66
5763 1 17.1966 22.3297 38.6871
5764 2 17.4958 23.2519 38.9322
5765 2 17.8545 21.6621 39.0358
5766 1 40.0115 18.7692 90.9898
5767 2 40.7471 19.1943 91.5172
5768 2 40.273 18.7291 90.0255
5769 1 75.3752 28.7698 59.4398
5770 2 75.8994 29.604 59.2688
5771 2 75.8844 28.1784 60.065
5772 1 0.276664 2.12856 80.7599
5773 2 0.19218 2.94935 80.1949
5774 2 1.21897 1.79562 80.7253
5775 1 77.3487 23.5023 42.0679
5776 2 76.8954 24.3424 42.3658
5777 2 77.9027 23.1388 42.8168
5778 1 79.4656 15.5217 71.4568
5779 2 0.0311092 14.7268 71.237
5780 2 79.1834 15.4753 72.415
5781 1 50.1569 13.2052 87.6671
5782 2 49.5065 12.6012 88.1277
5783 2 50.3003 12.8877 86.7297
5784 1 10.4407 9.3651 72.0164
5785 2 10.5781 9.64018 72.9679
5786 2 10.5977 8.38148 71.9278
5787 1 62.3358 22.1845 62.7185
5788 2 62.4631 22.41 63.6844
5789 2 62.1103 21.2143 62.6297
5790 1 74.8829 25.1536 67.8021
5791 2 74.0879 25.35 68.376
5792 2 75.4324 24.4351 68.2284
5793 1 24.3544 11.9601 59.0468
5794 2 23.6454 11.9672 58.3416
5795 2 24.1538 12.664 59.7282
5796 1 79.4233 5.47547 28.7382
5797 2 79.4518 5.51438 27.7394
5798 2 78.5882 5.00913 29.0299
5799 1 7.28017 1.3609 21.0373
5800 2 6.55364 1.45653 20.3569
5801 2 7.26221 2.14583 21.6566
5802 1 56.9784 24.2012 88.3756
5803 2 57.6786 24.112 87.6672
5804 2 57.0223 25.1173 88.7741
5805 1 66.8126 22.1564 36.8681
5806 2 65.8471 22.2314 36.6184
5807 2 66.9697 22.6262 37.7367
5808 1 70.5576 11.6608 44.8471
5809 2 71.5229 11.4066 44.9072
5810 2 70.4417 12.3665 44.1481
5811 1 42.4941 0.987894 48.7761
5812 2 43.4811 0.831875 48.8149
5813 2 42.3055 1.96195 48.9011
5814 1 78.3397 2.50065 43.4006
5815 2 77.9172 3.08224 42.7054
5816 2 78.8164 3.07218 44.0685
5817 1 37.6738 28.0862 39.0617
5818 2 38.2817 28.851 39.275
5819 2 37.9891 27.6321 38.2284
5820 1 73.8456 26.7384 17.5897
5821 2 74.7633 26.8328 17.9756
5822 2 73.8368 27.1013 16.6579
5823 1 13.7076 0.174271 90.4206
5824 2 12.9625 29.5636 90.6886
5825 2 14.3363 29.687 89.8144
5826 1 35.7437 28.9522 59.9535
5827 2 36.452 29.4466 60.4574
5828 2 36.1339 28.5749 59.1137
5829 1 26.6151 6.83488 48.6487
5830 2 27.0862 6.60492 49.5003
5831 2 26.8324 6.15083 47.9524
5832 1 21.7495 2.94321 28.1479
5833 2 22.2344 2.06879 28.1309
5834 2 21.1344 2.99861 27.3614
5835 1 65.3871 20.2656 10.9897
5836 2 64.9698 20.4112 11.8867
5837 2 64.8695 20.7665 10.296
5838 1 30.4833 7.45061 90.772
5839 2 29.8576 7.91 91.4024
5840 2 30.98 8.13466 90.2378
5841 1 71.4593 16.0859 39.0874
5842 2 72.2925 15.7517 39.5281
5843 2 71.5642 16.035 38.0942
5844 1 0.156337 26.775 28.5404
5845 2 0.604025 27.4927 29.0737
5846 2 79.4131 26.3754 29.077
5847 1 71.3851 14.1485 51.4478
5848 2 72.1878 14.4543 51.9599
5849 2 71.2545 13.167 51.5877
5850 1 17.3777 0.990973 65.2371
5851 2 17.9139 0.200657 65.5335
5852 2 17.3112 1.64897 65.9872
5853 1 76.5306 21.1663 67.1058
5854 2 76.3374 21.7982 67.8563
5855 2 77.3642 20.6525 67.3088
5856 1 41.3279 7.47227 49.6614
5857 2 40.3497 7.35202 49.492
5858 2 41.4651 7.82375 50.5874
5859 1 37.4513 11.6596 83.6303
5860 2 36.9514 10.7973 83.5493
5861 2 37.5772 11.8824 84.597
5862 1 14.2411 18.5693 88.7357
5863 2 13.2965 18.5086 89.0583
5864 2 14.3482 18.0133 87.9115
5865 1 57.7909 7.87842 42.3092
5866 2 57.5485 8.66348 42.8792
5867 2 58.2737 8.19559 41.4929
5868 1 68.4022 13.9214 73.0034
5869 2 68.5615 14.8613 73.3054
5870 2 68.2135 13.3435 73.7974
5871 1 12.3645 8.19167 29.384
5872 2 13.3146 7.89326 29.2927
5873 2 11.7653 7.54583 28.9108
5874 1 9.58259 10.9374 34.9543
5875 2 9.07845 11.1647 35.7875
5876 2 10.5464 10.7911 35.1773
5877 1 29.152 4.78589 48.4346
5878 2 28.2775 4.62086 47.9786
5879 2 29.103 4.45812 49.3781
5880 1 1.19097 8.54822 18.4594
5881 2 1.68126 7.86362 18.9988
5882 2 0.671705 8.09323 17.736
5883 1 36.5687 19.0523 66.0881
5884 2 36.1686 19.6749 66.7606
5885 2 35.8563 18.4525 65.7239
5886 1 76.2216 12.1433 30.6551
5887 2 75.7843 11.4972 31.2806
5888 2 76.2632 13.0459 31.0837
5889 1 20.1452 9.56268 60.7304
5890 2 19.2741 9.86792 60.3457
5891 2 20.6274 10.3447 61.1254
5892 1 3.30163 4.91154 66.5564
5893 2 3.16251 5.61748 65.8619
5894 2 4.18634 5.05123 67.0011
5895 1 1.66934 5.48859 75.1086
5896 2 1.48346 5.82779 74.1864
5897 2 2.05334 4.5669 75.0536
5898 1 4.8033 16.1055 75.336
5899 2 4.83043 16.4077 74.3831
5900 2 4.96859 16.8865 75.9382
5901 1 26.3489 18.1407 75.564
5902 2 25.5136 17.5988 75.4707
5903 2 26.3438 18.8798 74.8904
5904 1 23.7944 11.7788 72.6164
5905 2 24.2974 11.0302 72.1844
5906 2 23.0509 12.0716 72.0151
5907 1 73.7047 14.1878 61.9101
5908 2 73.431 14.5302 61.0113
5909 2 74.0048 13.2375 61.8276
5910 1 29.9756 22.7015 33.4774
5911 2 30.1606 23.3437 34.2213
5912 2 30.33 21.7986 33.7206
5913 1 18.0874 14.7911 14.7038
5914 2 17.1754 14.3956 14.5943
5915 2 18.7032 14.106 15.093
5916 1 39.8135 28.0361 74.0273
5917 2 39.9312 27.1625 73.5551
5918 2 39.0614 28.5436 73.6068
5919 1 48.0994 15.4079 39.5673
5920 2 47.3617 14.779 39.8129
5921 2 48.8578 14.8925 39.1685
5922 1 33.0461 14.3389 40.791
5923 2 32.9209 13.3746 41.0241
5924 2 32.7791 14.9073 41.5693
5925 1 34.302 3.14904 83.4266
5926 2 33.4313 2.77217 83.7427
5927 2 35.0505 2.56099 83.7329
5928 1 67.2521 26.1724 74.3365
5929 2 67.0157 25.265 74.6841
5930 2 66.6764 26.8595 74.7797
5931 1 65.6306 16.2245 62.2578
5932 2 65.5585 16.6963 61.379
5933 2 65.3502 15.2709 62.1481
5934 1 59.3782 14.7193 37.0036
5935 2 60.2152 15.2224 37.2186
5936 2 59.5423 13.7385 37.1093
5937 1 12.2268 18.4639 72.8561
5938 2 12.8116 17.671 73.0274
5939 2 11.653 18.2882 72.0562
5940 1 66.3731 24.3584 23.0736
5941 2 67.0211 23.7612 22.6009
5942 2 66.8661 24.9374 23.723
5943 1 20.2013 6.04874 71.227
5944 2 21.0243 5.54191 70.9703
5945 2 19.5311 5.41915 71.6201
5946 1 49.0248 2.10771 85.9603
5947 2 49.1763 1.76472 86.8874
5948 2 49.3047 3.06641 85.9097
5949 1 47.0744 8.94066 59.607
5950 2 46.7652 8.39375 60.385
5951 2 47.5737 8.35697 58.9667
5952 1 15.745 23.1043 14.0154
5953 2 14.7509 23.2106 13.9921
5954 2 15.9738 22.1663 14.2756
5955 1 24.6938 29.523 34.7376
5956 2 24.1219 0.298718 34.4708
5957 2 25.5951 29.6121 34.3137
5958 1 44.9236 0.6157 43.3429
5959 2 45.7426 0.54868 43.9128
5960 2 44.1506 0.912328 43.9037
5961 1 3.15003 7.49802 52.8837
5962 2 2.87817 7.40378 53.8415
5963 2 3.99278 6.98385 52.7244
5964 1 56.0715 1.00881 64.8384
5965 2 56.0707 1.36415 65.7732
5966 2 56.4973 0.104063 64.8262
5967 1 16.1073 11.3318 13.2045
5968 2 16.1436 11.5981 12.2413
5969 2 16.0719 12.1517 13.7759
5970 1 13.4157 27.9594 53.0834
5971 2 13.4007 28.9241 53.3464
5972 2 14.1548 27.4929 53.5693
5973 1 17.4724 8.97661 40.8961
5974 2 17.8382 8.31536 40.2411
5975 2 17.2788 8.51576 41.7621
5976 1 73.5846 5.98465 75.3311
5977 2 74.3299 5.91941 75.9946
5978 2 72.9991 5.17754 75.4071
5979 1 18.7013 23.0036 90.2506
5980 2 19.1724 22.133 90.1086
5981 2 19.0938 23.4695 91.0435
5982 1 9.05048 22.5149 14.4975
5983 2 9.87304 22.1416 14.0686
5984 2 9.14648 23.5054 14.5965
5985 1 2.55336 2.84768 68.6387
5986 2 2.26362 3.71147 68.2265
5987 2 3.37852 2.51924 68.1791
5988 1 57.5298 27.3585 36.6021
5989 2 57.4324 26.6876 37.3373
5990 2 58.3187 27.9443 36.7878
5991 1 77.7445 2.26388 64.1456
5992 2 77.5265 1.82567 63.2735
5993 2 78.6396 1.94981 64.4619
5994 1 73.303 4.32449 34.3486
5995 2 72.9579 5.21526 34.6443
5996 2 74.2793 4.2599 34.5553
5997 1 77.7004 6.45916 17.1645
5998 2 76.7244 6.28503 17.0336
5999 2 78.0037 7.1592 16.518
6000 1 66.2024 4.65408 68.0783
6001 2 66.4287 5.01003 68.985
6002 2 66.3699 5.36114 67.3913
6003 1 3.97044 19.8975 19.9391
6004 2 3.21945 20.303 20.4603
6005 2 3.7303 18.9615 19.6817
6006 1 20.1287 13.4826 56.4184
6007 2 20.2299 14.3985 56.0299
6008 2 19.1763 13.1891 56.3361
6009 1 4.46844 17.7054 54.5212
6010 2 5.02736 17.1661 55.1511
6011 2 3.84431 18.2865 55.0434
6012 1 17.035 14.3247 90.8712
6013 2 17.5372 13.573 90.4436
6014 2 17.6706 15.0611 91.1026
6015 1 32.0231 6.90985 71.6192
6016 2 31.5602 7.23046 70.7928
6017 2 32.5179 6.06459 71.4175
6018 1 62.2021 25.7937 74.1572
6019 2 62.5452 26.3148 73.3756
6020 2 61.8973 24.8926 73.849
6021 1 5.52175 14.0553 81.255
6022 2 4.799 13.6451 80.6987
6023 2 5.19274 14.9136 81.6488
6024 1 68.6779 17.6244 11.8175
6025 2 69.615 17.9333 11.655
6026 2 68.544 17.4663 12.7958
6027 1 30.059 17.2736 37.0906
6028 2 29.6858 16.4209 37.4562
6029 2 30.7533 17.0653 36.4017
6030 1 61.1044 2.28915 83.3489
6031 2 60.6072 1.42709 83.4475
6032 2 60.8856 2.88989 84.1178
6033 1 40.9578 1.36547 60.3608
6034 2 41.1223 2.05889 59.6593
6035 2 41.5722 0.590277 60.2137
6036 1 5.7067 22.8628 46.017
6037 2 6.45251 23.5169 46.1429
6038 2 5.16678 22.8072 46.8569
6039 1 65.5788 6.5839 12.3559
6040 2 64.9076 7.16166 11.8914
6041 2 65.1287 5.75893 12.6977
6042 1 44.7849 1.30678 84.3783
6043 2 45.3997 0.754592 84.9413
6044 2 44.4726 0.766126 83.5971
6045 1 76.4041 21.6436 40.485
6046 2 76.8738 22.1017 41.2397
6047 2 75.6241 22.1971 40.193
6048 1 6.91495 7.80275 58.0066
6049 2 7.1894 8.0786 58.9278
6050 2 6.6053 6.85202 58.0217
6051 1 36.7845 6.18393 53.7275
6052 2 36.7052 5.50982 52.9931
6053 2 35.9518 6.73649 53.764
6054 1 67.5056 20.0789 39.7741
6055 2 68.0779 20.8838 39.6176
6056 2 68.0132 19.4092 40.3162
6057 1 79.6695 22.6667 18.1132
6058 2 78.8177 22.1874 18.3249
6059 2 0.258184 22.0735 17.5641
6060 1 1.34161 11.4696 25.4941
6061 2 1.41067 11.0627 24.5833
6062 2 0.557875 12.09 25.5235
6063 1 3.89697 10.2305 78.9791
6064 2 2.99742 9.99895 79.3494
6065 2 4.07521 9.67675 78.1657
6066 1 35.5383 1.11891 89.925
6067 2 34.5961 1.40545 90.0984
6068 2 36.1485 1.90564 90.0184
6069 1 55.9478 28.3378 81.6055
6070 2 55.3459 28.2786 80.8091
6071 2 55.6348 29.0736 82.2059
6072 1 15.9897 13.2938 43.0591
6073 2 16.13 14.2095 43.4355
6074 2 16.8762 12.8733 42.8662
6075 1 79.5694 6.4178 78.5723
6076 2 79.2123 6.90881 79.3669
6077 2 79.7981 5.48039 78.8349
6078 1 37.4446 4.05198 88.9869
6079 2 38.3119 3.55415 88.991
6080 2 37.0999 4.11332 88.0502
6081 1 40.4908 1.58612 35.7046
6082 2 40.6615 0.616339 35.8789
6083 2 41.3218 2.01166 35.3463
6084 1 77.6649 8.27228 51.3275
6085 2 78.018 9.20742 51.2981
6086 2 78.4216 7.62689 51.2233
6087 1 4.64081 8.54946 69.7511
6088 2 3.89977 8.10991 70.2587
6089 2 4.25605 9.10672 69.0153
6090 1 15.2407 2.00069 27.5444
6091 2 14.5639 2.59141 27.105
6092 2 15.2049 1.08977 27.1333
6093 1 18.8454 12.2885 76.6533
6094 2 18.4054 12.9496 77.2609
6095 2 18.5319 12.4377 75.7155
6096 1 14.0171 23.5044 85.0408
6097 2 14.5451 24.335 84.8636
6098 2 13.1802 23.7405 85.5346
6099 1 0.514197 9.57346 42.5854
6100 2 79.8118 9.42408 43.2813
6101 2 0.675149 8.72208 42.0861
6102 1 36.9815 15.4054 79.4427
6103 2 37.1758 14.7372 80.1609
6104 2 37.6508 15.3072 78.7062
6105 1 54.1798 22.217 49.7592
6106 2 54.3384 22.9963 49.153
6107 2 53.9731 22.5477 50.68
6108 1 74.4478 8.58802 82.2163
6109 2 74.7101 8.10607 83.0524
6110 2 75.237 9.08624 81.8573
6111 1 0.337447 29.1723 70.8786
6112 2 79.4962 29.1181 71.4164
6113 2 0.201043 29.7952 70.1082
6114 1 54.5854 13.3402 41.6728
6115 2 54.685 14.0095 42.409
6116 2 54.1237 13.7665 40.8949
6117 1 24.0715 25.3656 72.2684
6118 2 23.5952 25.6655 71.4418
6119 2 23.4688 25.4754 73.0588
6120 1 73.8702 23.3134 40.3455
6121 2 73.5372 22.4224 40.0368
6122 2 73.4617 23.5332 41.2314
6123 1 63.728 2.87697 38.5708
6124 2 64.3369 2.08423 38.5996
6125 2 64.2515 3.70655 38.7651
6126 1 57.7478 25.674 31.1906
6127 2 56.7926 25.96 31.2668
6128 2 58.2061 26.2251 30.4933
6129 1 39.5889 3.11893 62.0629
6130 2 40.4717 3.56312 62.2153
6131 2 39.6473 2.5284 61.258
6132 1 1.74195 22.6294 27.8556
6133 2 2.07626 22.6289 28.798
6134 2 0.774001 22.8804 27.8454
6135 1 64.6845 16.545 31.0924
6136 2 64.9955 17.128 31.843
6137 2 64.4734 17.1115 30.2958
6138 1 79.622 28.9635 51.2914
6139 2 79.5664 29.2897 52.235
6140 2 78.8068 29.2534 50.7899
6141 1 73.2132 12.1499 74.243
6142 2 73.9224 11.7286 74.8083
6143 2 72.8891 12.987 74.6837
6144 1 9.28313 28.1065 14.0355
6145 2 10.2017 28.0884 13.6405
6146 2 8.67964 28.6489 13.451
6147 1 43.1109 29.6746 59.86
6148 2 43.5678 29.8579 58.9895
6149 2 43.7088 29.9463 60.614
6150 1 66.6771 23.159 72.1398
6151 2 67.3639 23.1766 72.8665
6152 2 65.8337 22.7501 72.4882
6153 1 79.545 10.3467 86.437
6154 2 78.6841 10.6483 86.0273
6155 2 0.209657 10.1571 85.7143
6156 1 37.6345 8.81857 51.4076
6157 2 36.6522 8.9062 51.2416
6158 2 38.0348 8.20802 50.7243
6159 1 59.1188 9.06158 82.9521
6160 2 59.5616 8.73988 83.789
6161 2 59.4206 9.99385 82.7525
6162 1 45.0333 14.0152 72.6534
6163 2 44.8429 13.9926 73.6348
6164 2 45.6334 13.2523 72.4126
6165 1 39.0414 6.73842 39.5427
6166 2 38.9023 6.03191 40.2366
6167 2 38.18 6.91056 39.0649
6168 1 52.1501 28.8821 29.5307
6169 2 52.4719 28.3661 28.7369
6170 2 51.5712 29.6379 29.2246
6171 1 13.3002 7.29985 44.3676
6172 2 13.2087 7.53525 43.4
6173 2 13.0978 6.32889 44.495
6174 1 54.7882 1.68656 59.8873
6175 2 55.3378 0.933709 59.5252
6176 2 54.9082 2.49449 59.3104
6177 1 28.4546 12.0869 72.2637
6178 2 28.4676 11.1058 72.4567
6179 2 29.3818 12.4538 72.3392
6180 1 74.5957 4.89119 48.9493
6181 2 74.708 3.91069 49.1106
6182 2 74.1667 5.31333 49.7479
6183 1 54.3998 1.11931 75.9242
6184 2 53.488 1.25729 76.3108
6185 2 54.4638 0.197442 75.542
6186 1 76.6626 15.7549 42.7579
6187 2 76.4832 15.2469 41.9154
6188 2 77.5585 16.195 42.6973
6189 1 0.0900528 19.2296 75.5706
6190 2 79.5324 19.9995 75.8808
6191 2 0.978291 19.566 75.2578
6192 1 76.2149 4.34231 34.2939
6193 2 75.7023 4.31398 33.4358
6194 2 76.7876 5.16184 34.3131
6195 1 61.0496 29.7988 42.717
6196 2 61.3543 0.322082 43.5129
6197 2 60.4396 0.363102 42.1607
6198 1 23.7528 9.12963 74.0099
6199 2 23.3773 10.0564 74.0167
6200 2 24.7013 9.1566 73.6942
6201 1 72.8023 9.12753 57.7078
6202 2 73.1308 10.0287 57.425
6203 2 73.0834 8.95127 58.6512
6204 1 20.9739 25.0236 71.7605
6205 2 21.3741 25.8516 71.3675
6206 2 20.4214 25.2666 72.5578
6207 1 75.9596 24.9409 15.241
6208 2 75.4228 25.6603 14.8001
6209 2 75.3444 24.2998 15.6999
6210 1 76.8351 20.6589 78.4081
6211 2 77.2885 20.0809 79.0867
6212 2 76.4645 21.472 78.857
6213 1 37.3701 2.18308 73.187
6214 2 36.797 2.50024 73.9426
6215 2 38.0494 2.88326 72.9672
6216 1 25.0948 15.3238 46.7905
6217 2 24.1281 15.3297 47.0462
6218 2 25.2346 15.9219 46.0014
6219 1 77.9953 6.9576 89.2082
6220 2 77.6708 6.09448 89.5952
6221 2 77.5022 7.14859 88.3595
6222 1 8.998 26.2201 29.4655
6223 2 8.42172 27.029 29.5822
6224 2 9.85969 26.3512 29.9557
6225 1 3.85735 21.8434 34.3004
6226 2 4.37375 22.0657 33.4734
6227 2 3.05745 22.4401 34.3644
6228 1 35.2396 21.6971 86.8766
6229 2 35.3542 21.4236 85.9216
6230 2 34.59 22.4555 86.9305
6231 1 43.8898 22.709 70.7333
6232 2 42.9392 22.7276 71.0433
6233 2 44.188 23.6385 70.5163
6234 1 68.7061 6.9489 14.2557
6235 2 68.2915 6.0689 14.4875
6236 2 68.0918 7.68908 14.5293
6237 1 50.0334 16.5421 48.8279
6238 2 49.136 16.5611 48.3873
6239 2 50.0365 17.1713 49.6051
6240 1 24.1886 1.00389 69.5912
6241 2 24.5601 0.262135 70.1496
6242 2 24.4563 1.88344 69.9846
6243 1 32.0728 2.0978 76.8496
6244 2 32.4603 1.69018 77.6764
6245 2 31.0905 2.23709 76.9756
6246 1 31.6956 3.15579 85.2888
6247 2 32.0026 3.40385 86.2077
6248 2 31.1579 3.9056 84.9033
6249 1 20.6933 29.9942 77.1118
6250 2 19.8396 0.511848 77.1685
6251 2 21.436 0.531426 77.5116
6252 1 28.4126 18.6545 58.6539
6253 2 28.8864 17.9787 59.2185
6254 2 28.9388 19.5047 58.6395
6255 1 11.6807 29.4559 26.5763
6256 2 11.7613 28.7451 25.8774
6257 2 11.6894 0.35536 26.1395
6258 1 35.8886 19.7286 48.333
6259 2 36.6081 20.1177 48.9082
6260 2 35.0117 20.149 48.566
6261 1 21.2981 6.58638 65.0112
6262 2 21.5317 6.02564 65.8056
6263 2 21.0085 5.99452 64.259
6264 1 0.853082 23.2824 43.51
6265 2 1.54917 22.8606 44.091
6266 2 79.9485 23.1259 43.9065
6267 1 74.898 29.7116 43.1258
6268 2 75.7663 0.198023 43.2234
6269 2 74.1484 0.37238 43.0862
6270 1 6.41668 2.15204 25.7154
6271 2 7.1818 1.5111 25.7769
6272 2 5.57553 1.69584 26.0058
6273 1 69.7623 26.9788 39.3628
6274 2 70.128 26.2503 39.942
6275 2 70.3646 27.7758 39.4094
6276 1 75.8225 22.0992 55.5226
6277 2 75.206 21.3226 55.3924
6278 2 76.6918 21.9152 55.064
6279 1 33.5919 22.0971 75.0669
6280 2 33.5569 21.4283 75.8095
6281 2 32.8235 22.7313 75.153
6282 1 14.7422 29.7016 58.3544
6283 2 15.6703 0.0729742 58.3791
6284 2 14.6207 29.0576 59.1098
6285 1 28.5857 14.6034 90.4009
6286 2 29.2593 14.7108 91.1321
6287 2 28.6531 15.376 89.7695
6288 1 27.1567 0.945433 68.8219
6289 2 26.545 0.597011 69.5322
6290 2 26.7434 1.74697 68.3898
6291 1 29.3804 13.9247 83.0633
6292 2 30.2969 13.7926 82.6856
6293 2 29.108 14.8802 82.9506
6294 1 71.4189 6.90877 35.3028
6295 2 72.1863 6.77741 35.9304
6296 2 70.8821 7.70071 35.5939
6297 1 5.0965 11.1432 25.7762
6298 2 4.7757 10.2661 25.4187
6299 2 5.8046 11.5101 25.173
6300 1 51.3624 27.5783 76.7374
6301 2 51.7159 27.3983 77.6553
6302 2 50.5316 27.0418 76.589
6303 1 31.4052 21.8375 47.0507
6304 2 31.5146 22.813 47.2412
6305 2 30.4913 21.5436 47.3309
6306 1 5.57883 9.93993 66.1453
6307 2 6.02169 10.6083 66.7429
6308 2 4.61343 9.85917 66.3932
6309 1 33.9074 28.6059 63.0589
6310 2 33.9101 28.8907 64.0175
6311 2 33.5252 29.3378 62.4948
6312 1 67.3267 4.64499 14.8585
6313 2 66.4692 4.43306 14.3897
6314 2 67.2399 4.42157 15.8293
6315 1 9.49595 13.5254 61.8092
6316 2 9.72454 14.4647 62.0653
6317 2 10.2489 12.9182 62.0627
6318 1 73.0211 10.4191 61.6337
6319 2 73.2923 9.68995 61.0054
6320 2 73.8382 10.8529 62.0135
6321 1 0.124153 13.2593 37.6294
6322 2 0.611424 13.6824 36.8655
6323 2 0.697289 13.2899 38.4482
6324 1 6.59365 12.687 69.1029
6325 2 5.69517 12.3976 68.7728
6326 2 6.84202 13.5559 68.6747
6327 1 69.5228 16.9849 40.6219
6328 2 69.708 17.3583 41.531
6329 2 70.2901 16.4117 40.3344
6330 1 5.0756 12.4431 14.6696
6331 2 5.05059 11.7683 13.9319
6332 2 4.14141 12.6838 14.9328
6333 1 31.7055 1.20125 53.1369
6334 2 31.2433 2.04516 53.4093
6335 2 32.3615 1.40052 52.4089
6336 1 19.8443 16.7968 63.9866
6337 2 18.9069 16.6147 64.2836
6338 2 20.0778 16.1881 63.2283
6339 1 70.2131 0.494567 46.8952
6340 2 69.4506 1.02534 47.2651
6341 2 71.0724 0.970561 47.0824
6342 1 26.735 0.00825175 65.6613
6343 2 26.3489 29.0889 65.5853
6344 2 26.0459 0.629343 66.0347
6345 1 48.5234 10.8551 48.4921
6346 2 48.2681 10.1572 49.1613
6347 2 48.6179 10.4333 47.5903
6348 1 26.3561 9.80628 54.7595
6349 2 27.2152 9.29557 54.7928
6350 2 25.6057 9.18244 54.541
6351 1 1.34636 9.58963 69.1544
6352 2 1.94266 10.0254 68.4802
6353 2 0.490602 10.1024 69.2233
6354 1 76.684 27.507 79.7253
6355 2 77.626 27.3019 79.9911
6356 2 76.1167 27.5883 80.5448
6357 1 3.75512 5.78708 49.9616
6358 2 3.22886 6.53712 50.3622
6359 2 3.21344 5.34423 49.2471
6360 1 44.0078 25.1032 51.5294
6361 2 44.0244 25.3465 52.4993
6362 2 43.9173 25.9332 50.9791
6363 1 1.2508 26.3773 58.5612
6364 2 2.10704 25.8677 58.6464
6365 2 1.24969 26.8855 57.7
6366 1 66.2363 17.7882 86.7284
6367 2 65.2763 17.9942 86.9179
6368 2 66.6501 17.3598 87.5317
6369 1 54.5718 21.4052 44.7839
6370 2 55.0339 20.7868 44.1483
6371 2 54.038 22.0754 44.2681
6372 1 26.8945 26.7384 47.0946
6373 2 27.099 27.6968 47.294
6374 2 26.933 26.2064 47.9404
6375 1 16.2916 2.64635 20.0117
6376 2 16.2442 3.58635 20.3496
6377 2 17.2374 2.32431 20.0537
6378 1 27.8362 13.5852 54.2664
6379 2 27.2276 13.7182 55.0486
6380 2 28.7654 13.8567 54.517
6381 1 18.6148 0.923666 48.1931
6382 2 18.1836 1.22193 49.0446
6383 2 18.3746 1.55753 47.4579
6384 1 24.4165 1.50155 65.359
6385 2 24.3239 2.38163 65.8247
6386 2 23.6361 1.36327 64.7493
6387 1 15.355 10.1877 50.9555
6388 2 14.7852 10.8581 50.4801
6389 2 16.0505 10.6635 51.494
6390 1 64.6929 12.1732 77.1994
6391 2 65.3592 11.5139 76.8512
6392 2 65.11 13.0814 77.235
6393 1 52.2924 0.61356 56.9753
6394 2 52.4378 1.04266 57.8668
6395 2 52.8037 1.11441 56.2769
6396 1 71.8374 24.4207 76.8292
6397 2 72.3746 24.0426 77.5832
6398 2 72.4535 24.7656 76.1211
6399 1 77.0307 29.4814 65.1996
6400 2 77.2062 29.6962 64.2388
6401 2 77.7143 29.9335 65.7725
6402 1 10.6318 19.8673 32.3104
6403 2 11.3328 19.5482 31.6726
6404 2 11.0509 20.0584 33.198
6405 1 22.5875 17.1668 79.624
6406 2 23.056 16.3988 80.0606
6407 2 22.5356 17.9331 80.2644
6408 1 66.7699 8.83306 14.6392
6409 2 67.0458 9.37286 13.8439
6410 2 66.2931 9.42144 15.2922
6411 1 78.0612 19.3745 59.3937
6412 2 77.7387 18.4302 59.4588
6413 2 77.3112 19.9627 59.0911
6414 1 21.2833 8.71029 35.2746
6415 2 21.486 7.88237 35.7975
6416 2 21.0253 9.44556 35.9013
6417 1 74.8442 23.5839 37.6901
6418 2 74.9287 24.4731 37.2405
6419 2 74.0382 23.585 38.2821
6420 1 74.6114 24.0849 27.0071
6421 2 74.3175 25.0406 27.0191
6422 2 75.559 24.0236 27.3207
6423 1 16.1495 9.98118 57.8994
6424 2 16.6003 9.6026 57.0911
6425 2 16.8184 10.0868 58.6353
6426 1 78.3761 3.59996 60.2611
6427 2 77.6653 3.0808 60.7356
6428 2 79.1696 3.01194 60.1039
6429 1 74.4073 22.7732 17.9102
6430 2 74.9061 22.1508 17.307
6431 2 74.7872 22.7181 18.8336
6432 1 51.8529 4.46257 67.8157
6433 2 51.9538 5.45621 67.766
6434 2 50.9705 4.19735 67.427
6435 1 36.2421 13.5127 70.442
6436 2 36.1149 12.8769 71.2032
6437 2 36.2267 13.0072 69.5793
6438 1 66.7254 23.5495 51.6732
6439 2 66.3691 23.4595 50.7432
6440 2 66.3074 24.3434 52.1149
6441 1 78.9374 5.41914 25.7888
6442 2 79.687 4.8486 25.4531
6443 2 78.9796 6.31683 25.3502
6444 1 27.2001 7.13466 40.0535
6445 2 26.5509 7.43371 40.7528
6446 2 27.9157 7.8248 39.9461
6447 1 46.2464 5.18605 39.2312
6448 2 47.2041 4.9368 39.3748
6449 2 46.0652 6.07262 39.6568
6450 1 30.0008 18.6241 84.9684
6451 2 30.8445 18.4276 84.4688
6452 2 30.1734 18.5619 85.9514
6453 1 11.5261 3.20398 52.3673
6454 2 11.5617 2.20826 52.2821
6455 2 11.0364 3.44959 53.2039
6456 1 57.962 5.92183 64.8639
6457 2 58.2472 5.92495 65.8224
6458 2 57.0603 5.49663 64.7859
6459 1 7.86311 15.4936 24.2614
6460 2 7.14918 15.8849 24.8421
6461 2 8.46051 14.9122 24.8137
6462 1 19.4127 18.4767 48.6338
6463 2 20.2393 17.9872 48.9114
6464 2 19.6661 19.3521 48.222
6465 1 51.6444 27.5067 51.4867
6466 2 52.0755 26.8949 52.1499
6467 2 51.0122 26.985 50.9139
6468 1 57.0922 8.92008 68.1568
6469 2 56.2432 9.35079 68.4628
6470 2 57.645 8.67092 68.952
6471 1 58.6268 27.3155 51.7541
6472 2 59.3969 27.8993 51.497
6473 2 58.9631 26.5291 52.2723
6474 1 4.44606 5.1546 87.323
6475 2 3.94953 4.90935 88.1557
6476 2 4.11225 4.60049 86.5604
6477 1 34.5826 20.0071 89.8362
6478 2 34.8806 19.113 90.1707
6479 2 34.4546 20.6269 90.6105
6480 1 37.9538 0.215857 82.4231
6481 2 38.3461 1.05698 82.0508
6482 2 37.1907 0.443261 83.028
6483 1 10.5931 19.0024 56.6502
6484 2 10.8387 18.7245 57.5789
6485 2 11.194 18.5443 55.9952
6486 1 64.2067 10.757 41.4032
6487 2 64.6717 11.6198 41.6017
6488 2 63.258 10.8103 41.7147
6489 1 72.191 1.00984 44.2936
6490 2 72.4298 1.49076 45.1372
6491 2 72.2981 1.62865 43.5154
6492 1 22.9101 4.97118 47.789
6493 2 22.5468 4.26056 48.3915
6494 2 23.7569 4.64869 47.3661
6495 1 35.7438 17.5421 90.2574
6496 2 35.292 17.088 89.4894
6497 2 36.556 17.0218 90.5212
6498 1 51.1844 25.1896 47.8183
6499 2 50.857 25.0239 48.7485
6500 2 50.7937 24.5069 47.2008
6501 1 5.4537 22.7011 60.0821
6502 2 6.30223 22.2057 59.8961
6503 2 4.68528 22.2132 59.668
6504 1 4.7469 28.1989 35.0396
6505 2 4.12262 28.1514 35.8194
6506 2 4.5579 27.4414 34.4147
6507 1 70.8336 0.833384 70.3723
6508 2 71.0711 1.5967 70.9731
6509 2 70.006 1.05882 69.8582
6510 1 52.3604 12.3333 51.4714
6511 2 53.3373 12.541 51.5215
6512 2 51.8344 13.1777 51.5734
6513 1 67.8702 14.0344 37.5669
6514 2 67.6629 13.0655 37.7021
6515 2 67.3298 14.3875 36.8032
6516 1 15.1146 26.3753 13.4213
6517 2 14.6525 26.3475 14.3077
6518 2 14.7183 25.6843 12.8169
6519 1 72.4822 13.8264 24.1778
6520 2 71.7509 13.5019 24.7777
6521 2 72.5131 14.8256 24.2003
6522 1 60.0952 2.74914 36.1493
6523 2 60.9834 2.29171 36.1073
6524 2 59.4189 2.21076 35.6465
6525 1 32.2562 10.4853 38.6883
6526 2 32.7653 10.6422 39.5346
6527 2 32.8562 10.6439 37.9041
6528 1 37.8419 3.02693 82.5858
6529 2 37.2028 2.60474 83.2287
6530 2 38.5476 3.52119 83.0934
6531 1 18.6917 24.5539 39.3044
6532 2 18.8383 24.5395 40.2935
6533 2 18.268 25.4211 39.0428
6534 1 51.9477 2.78419 49.8153
6535 2 51.0088 3.12805 49.8288
6536 2 52.1666 2.37804 50.7025
6537 1 79.6967 15.8833 58.3882
6538 2 79.4464 15.957 57.4228
6539 2 78.9302 16.1848 58.9552
6540 1 4.85977 8.03479 13.97
6541 2 3.92883 8.10876 14.3276
6542 2 5.2295 7.13142 14.1873
6543 1 47.9813 3.16991 54.7926
6544 2 47.111 2.96611 55.241
6545 2 48.474 2.31739 54.6181
6546 1 14.5689 11.9192 80.8984
6547 2 13.7777 12.395 81.2825
6548 2 14.948 11.2964 81.5828
6549 1 11.5829 28.5687 32.3629
6550 2 11.5782 27.9081 31.6122
6551 2 11.7293 28.089 33.2281
6552 1 74.6039 25.6705 85.1549
6553 2 74.7254 25.4528 86.1233
6554 2 75.3426 25.2543 84.6246
6555 1 52.1143 20.3211 81.8381
6556 2 52.7532 19.7243 81.3527
6557 2 52.6178 21.0741 82.2617
6558 1 77.5505 19.9666 48.4972
6559 2 76.7883 20.4147 48.9643
6560 2 78.302 20.6168 48.386
6561 1 67.2391 23.3194 39.2736
6562 2 67.1513 23.7416 40.1758
6563 2 68.1948 23.354 38.981
6564 1 68.2029 8.70691 47.122
6565 2 69.0474 8.61155 46.595
6566 2 67.6184 7.91144 46.9619
6567 1 78.7049 17.6068 49.0345
6568 2 78.3324 18.5348 49.0479
6569 2 78.7305 17.2444 49.9661
6570 1 51.3939 0.712782 42.5402
6571 2 50.5272 0.991745 42.9536
6572 2 51.704 1.42118 41.9061
6573 1 47.614 5.28531 67.6702
6574 2 48.4269 4.86633 67.2657
6575 2 46.8065 4.74675 67.4293
6576 1 66.3127 23.6942 75.2195
6577 2 65.3839 23.481 74.9162
6578 2 66.6381 22.972 75.8299
6579 1 69.8247 26.0539 22.6816
6580 2 69.1177 26.1101 23.3867
6581 2 70.3245 25.1932 22.7786
6582 1 13.1523 11.961 72.0213
6583 2 12.6096 11.3936 71.4019
6584 2 13.5448 12.7277 71.5132
6585 1 55.913 4.69565 72.7008
6586 2 56.7827 4.95623 73.1199
6587 2 55.1678 4.86744 73.3452
6588 1 7.71297 18.0079 43.7801
6589 2 7.76587 17.3403 43.0374
6590 2 7.05644 17.6928 44.4654
6591 1 11.3591 25.3409 60.8597
6592 2 12.3158 25.4533 61.1281
6593 2 11.3042 24.7319 60.0685
6594 1 50.2772 23.2774 32.6744
6595 2 50.5428 22.4051 32.2638
6596 2 49.4904 23.1369 33.2754
6597 1 65.3136 11.5621 25.0133
6598 2 65.5261 12.1702 25.7782
6599 2 65.8634 11.8208 24.2191
6600 1 74.3642 12.8102 47.9037
6601 2 74.7966 12.5165 47.0512
6602 2 74.1715 12.0106 48.4724
6603 1 16.1055 26.7203 57.2964
6604 2 16.5224 27.5197 57.7292
6605 2 16.6087 25.8977 57.561
6606 1 34.3488 2.32399 34.3222
6607 2 33.6862 1.8982 34.9383
6608 2 35.2251 2.4249 34.7934
6609 1 43.5285 27.7187 78.3443
6610 2 44.1716 27.66 79.1078
6611 2 43.7423 28.5226 77.7894
6612 1 23.7265 14.9355 42.7781
6613 2 24.0239 15.4883 43.5565
6614 2 24.2025 15.2387 41.9526
6615 1 52.306 5.93556 55.3494
6616 2 52.9721 6.62465 55.6349
6617 2 52.0277 6.11202 54.4053
6618 1 19.9517 10.6689 78.4649
6619 2 19.6227 11.2739 77.7399
6620 2 20.9325 10.811 78.5982
6621 1 11.5498 3.35027 49.2263
6622 2 10.6891 3.38961 48.7187
6623 2 11.7442 2.4027 49.4799
6624 1 79.3952 19.2366 72.7627
6625 2 79.8461 18.3983 72.4562
6626 2 79.4156 19.28 73.7616
6627 1 19.6269 28.133 69.455
6628 2 20.292 28.8702 69.5741
6629 2 18.932 28.4147 68.7933
6630 1 8.20513 5.13449 56.0761
6631 2 8.63321 4.82019 55.2288
6632 2 8.89693 5.19814 56.7954
6633 1 64.7252 14.9602 48.5388
6634 2 63.9839 14.3511 48.2567
6635 2 65.2265 14.5455 49.2982
6636 1 45.7969 21.4342 50.9689
6637 2 46.2847 20.5612 50.9676
6638 2 46.3953 22.1498 51.3291
6639 1 68.1752 2.74525 60.9348
6640 2 67.7149 2.2137 60.2237
6641 2 67.6143 3.5378 61.1741
6642 1 72.2698 19.1781 71.6613
6643 2 72.3557 20.1561 71.8513
6644 2 73.1759 18.7553 71.6733
6645 1 2.15646 21.0084 70.2071
6646 2 2.56624 20.505 70.9678
6647 2 2.62389 21.8856 70.0976
6648 1 44.2574 15.3775 68.8541
6649 2 43.4998 15.8797 68.4372
6650 2 44.2666 15.5459 69.8398
6651 1 45.0344 18.1476 65.1177
6652 2 44.4455 17.7715 64.4024
6653 2 45.1902 19.12 64.9441
6654 1 45.1106 21.0344 78.4406
6655 2 44.1875 21.3226 78.1862
6656 2 45.5821 21.7898 78.8957
6657 1 52.2093 16.9945 52.001
6658 2 51.8437 16.0869 52.2075
6659 2 51.6149 17.4505 51.3386
6660 1 17.8779 18.8244 46.2333
6661 2 17.3095 18.008 46.1314
6662 2 18.4659 18.7232 47.0358
6663 1 72.1373 9.43756 88.1243
6664 2 72.3582 10.3356 87.7438
6665 2 72.6601 9.29388 88.9646
6666 1 68.4064 15.2726 23.9698
6667 2 68.6299 15.1839 24.9405
6668 2 67.9866 14.4248 23.6456
6669 1 19.632 17.0379 15.7264
6670 2 19.1285 16.2704 15.3296
6671 2 20.4312 17.2405 15.1605
6672 1 49.7941 16.072 68.7718
6673 2 48.9642 15.5176 68.7094
6674 2 50.2312 15.9191 69.6581
6675 1 75.239 29.7676 16.4639
6676 2 74.9334 29.6013 17.4014
6677 2 74.9022 29.0377 15.8691
6678 1 61.2371 8.47786 87.6677
6679 2 60.7151 8.44363 86.8154
6680 2 60.9566 9.27768 88.1984
6681 1 21.4499 21.582 37.4992
6682 2 21.5912 20.9211 38.2362
6683 2 21.9948 21.316 36.704
6684 1 63.4598 8.51994 33.6079
6685 2 64.4245 8.53013 33.8711
6686 2 62.8928 8.40678 34.4239
6687 1 77.7069 0.107028 44.1632
6688 2 77.807 1.08237 43.9665
6689 2 77.2508 29.99 45.0454
6690 1 39.3145 13.9479 84.7256
6691 2 39.8443 13.6676 83.9252
6692 2 38.6783 13.2183 84.9765
6693 1 79.0261 5.3696 62.556
6694 2 78.419 5.23508 63.3392
6695 2 79.0101 4.55377 61.9779
6696 1 77.3052 21.0289 27.8202
6697 2 77.8865 21.8396 27.8897
6698 2 77.7408 20.2646 28.2957
6699 1 13.859 10.5956 44.5224
6700 2 13.2518 9.81789 44.685
6701 2 13.7483 11.2643 45.2576
6702 1 24.6123 24.2513 28.3822
6703 2 24.7969 24.6456 27.4819
6704 2 23.841 24.7285 28.8034
6705 1 18.7127 14.429 27.0271
6706 2 17.7193 14.3254 27.0759
6707 2 18.9607 15.3723 27.2476
6708 1 61.4403 20.8425 47.0419
6709 2 61.5452 19.8485 47.0713
6710 2 60.4982 21.0711 46.7963
6711 1 38.5905 4.56481 46.732
6712 2 39.104 3.81013 47.1403
6713 2 37.9753 4.95778 47.4154
6714 1 31.4246 0.0295914 38.0328
6715 2 32.1384 29.9263 38.7255
6716 2 31.7598 0.61322 37.2932
6717 1 25.6881 17.1594 33.9868
6718 2 25.218 17.2021 33.1052
6719 2 26.6666 17.0183 33.8364
6720 1 54.1308 18.3071 80.6696
6721 2 54.609 18.1306 81.5299
6722 2 53.3877 17.647 80.5599
6723 1 57.6073 12.911 59.227
6724 2 56.786 13.1446 59.7475
6725 2 58.412 13.0087 59.8126
6726 1 33.4858 13.2465 84.0654
6727 2 32.8953 13.466 83.2889
6728 2 34.3896 13.6494 83.9213
6729 1 53.3846 12.376 35.4936
6730 2 54.0925 12.0876 34.8489
6731 2 52.5601 11.8286 35.3503
6732 1 66.3612 7.38691 17.3411
6733 2 66.6299 6.4239 17.3607
6734 2 67.1739 7.96177 17.4364
6735 1 37.4928 11.4371 50.232
6736 2 37.3229 10.5707 50.7017
6737 2 36.6941 11.6799 49.6814
6738 1 31.3826 5.54836 73.953
6739 2 31.7036 6.10912 73.1898
6740 2 30.436 5.78859 74.1682
6741 1 33.3675 8.50709 64.4164
6742 2 33.1437 8.34581 63.4552
6743 2 32.5779 8.90982 64.8794
6744 1 72.7661 1.44504 75.1283
6745 2 73.5877 1.32629 75.6859
6746 2 72.3557 0.551759 74.945
6747 1 15.7326 14.1772 80.35
6748 2 15.0754 14.8086 79.9386
6749 2 15.2839 13.303 80.5352
6750 1 66.4305 1.00168 70.6846
6751 2 66.2007 0.0461235 70.8693
6752 2 67.1624 1.04304 70.0045
6753 1 24.0577 26.6399 47.3613
6754 2 25.0504 26.5194 47.3593
6755 2 23.8238 27.4864 46.8832
6756 1 10.4951 15.9772 54.3077
6757 2 9.81191 16.5348 53.8361
6758 2 11.2264 16.5663 54.6514
6759 1 57.1763 21.4458 35.3547
6760 2 56.3772 21.9215 34.9869
6761 2 57.9525 21.5711 34.7368
6762 1 26.9109 0.360572 33.0677
6763 2 27.4333 0.3098 32.2165
6764 2 27.353 1.00443 33.6922
6765 1 3.67431 10.5893 82.4801
6766 2 3.74757 9.6117 82.283
6767 2 2.97043 10.9951 81.897
6768 1 12.4995 8.01843 75.7708
6769 2 11.8901 8.58872 75.2199
6770 2 11.9568 7.37133 76.3063
6771 1 11.8861 5.62027 15.9571
6772 2 11.5771 6.02836 16.8162
6773 2 12.4847 4.84364 16.1533
6774 1 51.5956 14.4942 48.0432
6775 2 51.044 15.3092 48.2208
6776 2 51.9147 14.5077 47.0955
6777 1 62.0978 23.946 64.9314
6778 2 62.8447 23.7368 65.5626
6779 2 62.1917 24.8862 64.6037
6780 1 48.9364 26.5646 43.4408
6781 2 49.5082 26.6073 42.6215
6782 2 49.0414 25.6696 43.8743
6783 1 3.1358 19.8581 55.9678
6784 2 3.67228 19.8326 56.8114
6785 2 2.28298 19.3529 56.0998
6786 1 41.4004 5.09137 68.0221
6787 2 42.0103 5.78608 68.4036
6788 2 40.9104 5.47223 67.238
6789 1 24.949 20.474 40.4197
6790 2 25.747 20.8496 40.8911
6791 2 24.8942 19.49 40.5893
6792 1 23.5432 27.1511 78.015
6793 2 24.136 27.8319 77.5846
6794 2 23.4389 27.3663 78.986
6795 1 17.691 3.06958 17.5048
6796 2 18.0278 3.07003 18.4463
6797 2 16.9368 3.72069 17.4203
6798 1 58.8206 6.24496 44.1228
6799 2 59.667 6.66197 44.454
6800 2 58.302 6.91755 43.5949
6801 1 53.8358 0.768295 32.5336
6802 2 53.1676 1.16374 31.9034
6803 2 54.7542 0.865809 32.15
6804 1 42.1175 19.7826 88.8611
6805 2 41.3279 19.1816 88.7373
6806 2 42.9442 19.2295 88.9651
6807 1 46.2158 18.4181 51.1068
6808 2 45.9347 18.2775 50.1575
6809 2 45.4103 18.6075 51.6684
6810 1 20.3178 25.866 54.6015
6811 2 20.9061 26.6736 54.5592
6812 2 19.6597 25.8932 53.8491
6813 1 35.149 21.5445 84.1218
6814 2 35.3575 22.5036 83.9304
6815 2 35.9169 20.9725 83.8335
6816 1 62.7313 17.2293 43.1883
6817 2 62.4824 18.0263 43.7386
6818 2 61.9126 16.6882 42.996
6819 1 60.004 18.0161 70.0847
6820 2 60.4253 18.5888 70.788
6821 2 59.382 17.3624 70.5158
6822 1 0.174008 28.2607 34.5061
6823 2 79.7277 29.1516 34.5903
6824 2 0.311668 27.8695 35.4161
6825 1 3.94281 11.4865 56.5647
6826 2 3.15382 10.9347 56.2946
6827 2 3.72717 12.456 56.4479
6828 1 70.5684 5.53789 25.699
6829 2 70.7841 4.60927 26.0008
6830 2 71.2759 6.16628 26.0222
6831 1 40.9372 17.4715 42.8593
6832 2 39.9635 17.2616 42.7711
6833 2 41.1848 17.504 43.8276
6834 1 16.6873 24.8345 28.2217
6835 2 16.8801 25.7893 27.9955
6836 2 17.424 24.4719 28.7926
6837 1 45.2147 12.6801 66.4572
6838 2 45.6478 12.3153 67.2814
6839 2 44.223 12.7028 66.584
6840 1 52.9963 2.53352 83.4779
6841 2 53.682 2.77757 82.7922
6842 2 53.0348 3.18598 84.2347
6843 1 27.4227 12.9617 69.9441
6844 2 27.1435 12.1585 69.418
6845 2 27.9754 12.6726 70.7257
6846 1 23.4951 24.2143 45.0268
6847 2 22.7452 24.8094 45.3157
6848 2 24.2346 24.26 45.6984
6849 1 11.9016 20.8095 90.4333
6850 2 12.8457 20.9213 90.7435
6851 2 11.7364 19.8494 90.2077
6852 1 77.8388 26.4707 45.8146
6853 2 78.6702 27.02 45.7304
6854 2 77.4715 26.2803 44.9042
6855 1 63.8715 14.2183 51.1436
6856 2 64.1016 15.1146 51.5227
6857 2 64.7099 13.7471 50.8697
6858 1 37.655 19.8596 72.2756
6859 2 37.5144 20.2354 73.1916
6860 2 37.903 18.8934 72.3462
6861 1 25.946 24.5479 35.4172
6862 2 26.0097 23.5512 35.4669
6863 2 26.7879 24.9539 35.7728
6864 1 3.69318 4.90199 82.5271
6865 2 3.88662 4.31989 81.7374
6866 2 4.50501 4.95551 83.1086
6867 1 19.5196 20.3914 83.5489
6868 2 20.2157 19.9374 84.105
6869 2 19.7098 21.3725 83.5124
6870 1 74.9166 8.66812 51.3471
6871 2 74.9149 9.15681 52.2195
6872 2 75.8563 8.43396 51.098
6873 1 62.1352 8.78374 81.1708
6874 2 61.7304 8.19505 80.4711
6875 2 63.115 8.59568 81.2387
6876 1 60.5071 4.13619 22.1459
6877 2 61.1284 3.69336 22.7923
6878 2 59.67 3.59525 22.0643
6879 1 4.71312 0.149042 11.1952
6880 2 5.71309 0.154316 11.2011
6881 2 4.38119 29.3424 11.6842
6882 1 67.1434 18.6642 29.3679
6883 2 66.4562 18.769 28.6491
6884 2 68.0537 18.6254 28.9557
6885 1 1.31376 13.8194 65.2732
6886 2 1.22728 12.9438 65.7484
6887 2 0.656316 13.8566 64.5207
6888 1 1.88503 11.6179 13.8791
6889 2 2.08877 11.9588 12.9613
6890 2 2.32144 12.208 14.5583
6891 1 0.822552 27.2124 18.3712
6892 2 1.81208 27.1635 18.507
6893 2 0.409742 27.7392 19.1142
6894 1 26.9208 16.207 79.3834
6895 2 26.5096 15.3785 79.7637
6896 2 27.0613 16.875 80.1142
6897 1 11.4634 1.14553 29.4954
6898 2 12.4552 1.18439 29.6168
6899 2 11.1275 2.04209 29.2066
6900 1 1.70638 6.96373 36.3789
6901 2 2.19303 7.83567 36.3252
6902 2 1.59465 6.7029 37.3378
6903 1 9.94447 27.599 23.5268
6904 2 9.10339 28.0969 23.3152
6905 2 10.7348 28.1604 23.2812
6906 1 16.2165 20.558 88.4766
6907 2 16.9315 19.9232 88.1838
6908 2 15.6066 20.0984 89.1221
6909 1 75.3555 19.1952 88.8079
6910 2 75.8996 18.5239 88.3047
6911 2 74.3863 19.0612 88.6013
6912 1 16.1999 5.71502 72.6087
6913 2 17.1137 5.31535 72.5375
6914 2 16.2046 6.63127 72.2081
6915 1 13.8392 20.1196 17.0823
6916 2 12.8692 20.0178 16.8616
6917 2 14.0488 21.0869 17.2251
6918 1 79.0964 24.4913 84.3963
6919 2 79.8299 24.4943 85.076
6920 2 78.62 23.6125 84.4238
6921 1 47.6327 26.4316 88.6169
6922 2 47.5903 26.0975 89.5585
6923 2 47.3767 27.3981 88.5943
6924 1 11.0575 13.6703 67.8499
6925 2 10.7704 14.5892 68.1206
6926 2 11.0573 13.0716 68.6508
6927 1 79.4027 14.8995 74.1527
6928 2 79.1719 14.6189 75.0844
6929 2 0.268221 15.4004 74.1603
6930 1 73.1956 20.7795 85.2135
6931 2 72.8666 21.057 86.1162
6932 2 74.1705 20.5633 85.2661
6933 1 23.9236 17.2166 89.3093
6934 2 23.6321 18.1685 89.2156
6935 2 23.316 16.6279 88.7761
6936 1 58.899 2.42131 42.9489
6937 2 59.3047 2.27997 43.8519
6938 2 59.62 2.42177 42.256
6939 1 62.3455 0.960924 89.5853
6940 2 62.9585 1.73968 89.7185
6941 2 62.825 0.241331 89.0831
6942 1 38.4562 26.72 37.1044
6943 2 39.345 26.3553 36.8269
6944 2 37.747 26.372 36.4913
6945 1 6.65411 1.75282 66.0956
6946 2 7.51858 1.25021 66.0869
6947 2 6.83901 2.7327 66.1709
6948 1 8.67865 25.4728 72.1006
6949 2 9.534 25.3023 72.5898
6950 2 8.87991 25.876 71.2079
6951 1 29.2285 1.07958 59.6689
6952 2 29.888 1.45713 59.0189
6953 2 29.0888 0.108404 59.4758
6954 1 31.3582 11.3055 44.0997
6955 2 31.2194 12.0307 44.774
6956 2 32.3305 11.0764 44.0519
6957 1 18.7973 28.6527 46.4153
6958 2 19.7917 28.548 46.4246
6959 2 18.5313 29.3674 47.0622
6960 1 10.6635 14.2764 83.4414
6961 2 11.0656 13.5989 82.8256
6962 2 9.73896 14.5001 83.1329
6963 1 69.5149 20.0526 80.251
6964 2 68.6148 20.4757 80.3553
6965 2 69.8447 20.1963 79.318
6966 1 32.2712 16.2406 47.0962
6967 2 32.0506 15.8564 47.9927
6968 2 33.2123 16.0039 46.8546
6969 1 66.8667 11.5399 81.5369
6970 2 67.3822 10.9512 82.1597
6971 2 66.7543 11.0773 80.6575
6972 1 10.1291 16.2316 90.827
6973 2 10.5294 15.336 90.6329
6974 2 10.0193 16.3405 91.815
6975 1 20.1627 14.9799 45.911
6976 2 20.3891 15.1017 44.9446
6977 2 20.8786 15.3909 46.4754
6978 1 40.5078 16.8135 81.5098
6979 2 41.0605 17.6248 81.7003
6980 2 39.5696 16.9692 81.8191
6981 1 54.4565 6.56798 52.8234
6982 2 53.5729 6.18105 53.0871
6983 2 54.6662 7.35019 53.4101
6984 1 69.2978 24.4451 70.7457
6985 2 69.8423 25.2059 70.3925
6986 2 69.7771 23.5844 70.5745
6987 1 66.4317 26.7004 26.7474
6988 2 67.0421 26.603 25.9613
6989 2 65.494 26.4921 26.4692
6990 1 48.4536 3.80942 41.2919
6991 2 48.6651 3.10378 41.9682
6992 2 48.6092 3.44752 40.3728
6993 1 37.7352 5.35265 41.6984
6994 2 38.5464 5.23492 42.2712
6995 2 37.2064 6.13555 42.0263
6996 1 57.4727 16.7098 68.6696
6997 2 57.6569 16.1196 67.8836
6998 2 57.8265 16.2791 69.4999
6999 1 30.5785 27.1117 42.7964
7000 2 30.3751 26.1688 43.0602
7001 2 31.2837 27.4823 43.4009
7002 1 51.1408 19.1595 53.7682
7003 2 51.9185 18.7824 53.2653
7004 2 50.4402 19.4611 53.1215
7005 1 61.7195 0.399547 67.4671
7006 2 62.3448 1.07445 67.859
7007 2 62.0648 0.10276 66.5768
7008 1 1.57496 5.76842 47.8873
7009 2 1.8474 6.40135 47.1626
7010 2 0.597938 5.87421 48.0723
7011 1 13.6989 3.92533 56.1404
7012 2 14.045 3.73704 55.2213
7013 2 12.7739 3.5561 56.2304
7014 1 17.7977 23.0189 31.3309
7015 2 16.8297 23.2651 31.282
7016 2 18.2362 23.2151 30.4539
7017 1 11.1787 24.7077 46.2159
7018 2 10.3688 24.4566 45.6858
7019 2 11.4154 23.9606 46.8371
7020 1 59.3423 5.57852 77.9528
7021 2 59.9483 6.24186 78.3919
7022 2 58.5929 5.34942 78.574
7023 1 48.7068 20.0493 33.1335
7024 2 48.3038 20.962 33.2004
7025 2 48.3702 19.4805 33.8839
7026 1 65.1783 14.4479 24.9657
7027 2 65.7697 13.9012 24.373
7028 2 65.6877 15.2373 25.3083
7029 1 10.2709 3.63489 85.3662
7030 2 10.9378 3.79329 84.6381
7031 2 9.48266 4.23561 85.2327
7032 1 68.7421 26.7186 55.4444
7033 2 68.1775 26.5278 54.6414
7034 2 68.2739 26.3933 56.266
7035 1 64.9419 21.5028 44.1117
7036 2 65.9125 21.2674 44.0612
7037 2 64.8444 22.4904 44.2348
7038 1 28.7823 10.1088 43.7916
7039 2 28.5618 10.0617 44.7659
7040 2 29.7489 10.3389 43.6793
7041 1 14.245 21.8197 24.0486
7042 2 14.3221 20.83 23.9279
7043 2 13.4611 22.1589 23.5285
7044 1 45.2148 11.2013 77.6496
7045 2 44.2728 11.522 77.5515
7046 2 45.2129 10.2332 77.9005
7047 1 1.94971 13.1181 73.9773
7048 2 1.88287 12.5057 73.1896
7049 2 2.21984 14.0301 73.6685
7050 1 60.1332 15.2389 77.2999
7051 2 60.5504 15.9591 76.7456
7052 2 60.7445 14.4482 77.334
7053 1 45.0774 7.07815 41.0818
7054 2 44.5067 7.72135 40.5713
7055 2 44.4985 6.37789 41.4995
7056 1 64.4476 11.3738 48.9137
7057 2 64.0634 11.1674 49.8136
7058 2 63.9278 12.1167 48.4918
7059 1 49.4735 21.2133 51.9042
7060 2 48.8555 20.521 51.5316
7061 2 49.078 22.1215 51.7671
7062 1 55.9603 5.93 41.568
7063 2 56.6271 6.43575 42.1154
7064 2 55.4957 5.25858 42.1453
7065 1 69.013 2.15726 12.3041
7066 2 68.4682 2.69974 11.6646
7067 2 69.9623 2.47096 12.2827
7068 1 19.1171 12.1386 50.3898
7069 2 18.2143 11.7262 50.5117
7070 2 19.6837 11.5392 49.8244
7071 1 62.5241 29.2262 82.5976
7072 2 62.1996 28.2805 82.5815
7073 2 63.2585 29.3381 81.9282
7074 1 66.8344 4.83038 61.7024
7075 2 67.549 5.19075 62.302
7076 2 66.1304 5.52741 61.5666
7077 1 26.2844 14.4557 66.9198
7078 2 26.5836 14.8172 67.8028
7079 2 25.616 13.7266 67.0672
7080 1 0.416669 20.6636 30.9221
7081 2 1.27845 20.6622 30.4148
7082 2 0.521154 21.2069 31.7551
7083 1 30.5012 5.18235 84.0763
7084 2 29.9195 5.99542 84.0547
7085 2 30.5363 4.77336 83.1644
7086 1 43.2714 6.43107 73.2963
7087 2 42.9158 6.93171 72.507
7088 2 44.2535 6.28188 73.1814
7089 1 78.6887 17.5634 42.1645
7090 2 79.1546 18.0867 42.8781
7091 2 79.3465 16.9656 41.7064
7092 1 77.3146 10.7005 27.9304
7093 2 76.7073 10.1725 27.3367
7094 2 78.1617 10.1904 28.079
7095 1 5.38019 26.4488 13.0888
7096 2 4.87582 27.2796 13.3241
7097 2 6.2861 26.4779 13.5113
7098 1 76.6917 18.0282 73.0928
7099 2 77.2741 18.8318 72.9699
7100 2 76.1594 17.872 72.2608
7101 1 75.2538 25.0357 23.8373
7102 2 74.5025 25.1569 23.1885
7103 2 75.1925 24.128 24.2523
7104 1 7.35636 13.1395 18.0817
7105 2 6.70212 12.7806 18.7474
7106 2 7.31306 12.5943 17.2445
7107 1 13.534 7.44268 69.7748
7108 2 12.5766 7.15453 69.7531
7109 2 13.6201 8.34509 69.3526
7110 1 7.02147 20.8243 34.7856
7111 2 7.42332 20.6393 35.6824
7112 2 7.60582 21.4619 34.2837
7113 1 74.497 0.395189 51.2413
7114 2 75.2665 0.951041 50.9269
7115 2 74.625 29.4494 50.9427
7116 1 24.6994 28.666 45.7017
7117 2 24.6425 29.6641 45.7233
7118 2 25.3457 28.3842 44.9925
7119 1 75.1226 16.3661 54.6331
7120 2 74.2918 15.9521 54.2611
7121 2 75.173 16.1872 55.6157
7122 1 17.1317 17.8295 52.8865
7123 2 16.348 18.061 52.3101
7124 2 17.7007 17.1526 52.4194
7125 1 8.03617 24.2104 31.256
7126 2 7.05984 24.4042 31.3519
7127 2 8.38953 24.6729 30.4428
7128 1 9.16077 15.5582 40.4107
7129 2 9.27989 16.5192 40.1612
7130 2 8.43607 15.4789 41.0952
7131 1 17.122 12.9124 58.5142
7132 2 17.2895 12.9862 57.5311
7133 2 17.6459 12.1455 58.8849
7134 1 25.9291 10.0629 80.9526
7135 2 25.0311 9.63911 81.0712
7136 2 26.3148 9.78572 80.0726
7137 1 15.0787 24.2868 34.4317
7138 2 15.697 24.9353 33.9875
7139 2 14.6609 24.7188 35.231
7140 1 52.744 17.6812 65.7997
7141 2 52.7691 16.8624 65.2262
7142 2 52.4386 18.4613 65.2537
7143 1 62.6803 3.38179 42.3564
7144 2 62.3839 3.75506 43.2355
7145 2 61.9076 2.93332 41.9072
7146 1 4.38745 12.4198 89.758
7147 2 4.72708 13.152 90.3484
7148 2 4.74142 12.5475 88.8315
7149 1 52.3452 7.59887 31.5438
7150 2 52.787 7.62837 32.4405
7151 2 51.6897 6.84408 31.5199
7152 1 53.143 29.2632 64.2351
7153 2 53.7209 28.9673 64.9956
7154 2 52.682 0.116456 64.479
7155 1 19.8078 18.6845 60.0841
7156 2 20.0433 19.6128 60.372
7157 2 20.6075 18.0922 60.1821
7158 1 62.1706 14.2257 37.0617
7159 2 62.2932 14.7315 36.2079
7160 2 61.635 13.3997 36.8859
7161 1 12.5698 23.7488 80.9574
7162 2 12.0591 23.1501 80.3403
7163 2 12.3279 24.7015 80.7734
7164 1 56.4266 27.8958 70.7129
7165 2 56.5819 27.1415 71.3508
7166 2 57.1526 28.5755 70.8174
7167 1 18.9457 24.5356 52.1682
7168 2 18.8101 25.4348 51.7522
7169 2 19.2082 23.8779 51.4621
7170 1 44.8825 5.10089 56.2734
7171 2 43.8925 5.02689 56.3936
7172 2 45.2587 4.20263 56.0464
7173 1 1.53799 13.5442 70.6846
7174 2 2.06833 14.21 71.2095
7175 2 1.93782 12.6348 70.799
7176 1 65.6471 16.3943 19.9368
7177 2 64.84 16.3909 19.3464
7178 2 65.6141 15.6059 20.5511
7179 1 15.6865 21.6804 67.5278
7180 2 16.4539 21.7456 68.1656
7181 2 15.1203 22.5012 67.6024
7182 1 66.7351 16.733 26.4309
7183 2 66.3131 17.566 26.7889
7184 2 67.3496 16.3482 27.1196
7185 1 27.3434 7.86863 60.4389
7186 2 27.0073 7.07407 59.9332
7187 2 27.5855 7.59356 61.3693
7188 1 13.4332 2.5316 78.1462
7189 2 13.7859 1.74247 78.6491
7190 2 12.5861 2.84761 78.5734
7191 1 22.2231 14.8487 64.3396
7192 2 23.1479 15.1704 64.1366
7193 2 21.6324 15.0118 63.5493
7194 1 20.7281 12.1315 30.0103
7195 2 20.7553 13.0445 30.4174
7196 2 20.3729 11.4787 30.6793
7197 1 25.9051 21.7252 34.8339
7198 2 26.2493 21.2067 34.0512
7199 2 24.9063 21.6808 34.85
7200 1 12.0278 13.6983 22.2366
7201 2 11.2515 13.2985 22.7239
7202 2 12.281 14.5648 22.6667
7203 1 72.5784 19.0238 41.4618
7204 2 72.7962 19.7865 40.8527
7205 2 72.431 19.369 42.3887
7206 1 13.7865 17.1433 51.9347
7207 2 13.9152 16.2691 51.4666
7208 2 13.4328 16.9794 52.8556
7209 1 66.6845 18.7936 45.5923
7210 2 66.2781 19.3194 44.8451
7211 2 66.8491 19.3963 46.3731
7212 1 77.3772 20.5037 75.702
7213 2 76.7493 21.0978 75.1992
7214 2 77.3321 20.7202 76.6772
7215 1 29.0935 4.05156 38.0313
7216 2 28.1165 3.84098 38.0646
7217 2 29.5704 3.53394 38.7416
7218 1 68.4183 15.8981 68.4693
7219 2 68.9649 15.0607 68.4648
7220 2 68.8655 16.585 69.0421
7221 1 55.7204 4.60463 65.525
7222 2 55.4981 5.4235 66.0541
7223 2 56.0202 3.87887 66.1441
7224 1 44.3092 18.5078 53.2101
7225 2 45.0672 18.3832 53.8504
7226 2 43.4548 18.6067 53.7201
7227 1 20.3584 16.6755 18.3055
7228 2 20.059 16.8061 17.3603
7229 2 20.4611 15.6981 18.4906
7230 1 0.316258 28.9364 13.938
7231 2 0.48929 29.8882 13.6845
7232 2 0.992924 28.643 14.6133
7233 1 57.6551 24.8805 81.2495
7234 2 58.385 25.4935 81.5517
7235 2 57.7167 24.7512 80.2598
7236 1 58.3533 12.2831 63.5908
7237 2 58.7776 13.1611 63.8123
7238 2 57.3591 12.3666 63.6596
7239 1 57.786 20.192 28.4619
7240 2 57.113 19.4527 28.4386
7241 2 57.3345 21.0456 28.7217
7242 1 9.89928 1.60426 78.0743
7243 2 10.4361 2.32823 78.5075
7244 2 8.97187 1.93552 77.9006
7245 1 75.512 13.7126 71.8337
7246 2 76.2809 13.474 71.2405
7247 2 75.8499 13.9112 72.7537
7248 1 73.7208 14.9233 83.1266
7249 2 74.0523 15.5523 82.4235
7250 2 73.4543 15.4419 83.939
7251 1 71.2485 17.944 32.0612
7252 2 70.6233 18.4089 32.6881
7253 2 72.1313 17.8079 32.5108
7254 1 79.3746 12.0252 69.5215
7255 2 78.488 12.4751 69.6291
7256 2 0.0993893 12.6367 69.8388
7257 1 39.0817 16.8587 75.3355
7258 2 38.611 16.8223 74.454
7259 2 39.9846 17.2713 75.2146
7260 1 72.4429 25.6049 64.6451
7261 2 72.6318 26.5107 64.2658
7262 2 72.3296 25.6755 65.6362
7263 1 73.0432 23.463 31.1661
7264 2 72.6626 24.3855 31.1011
7265 2 72.7118 23.0238 32.0012
7266 1 8.46041 14.8487 34.4135
7267 2 8.49222 15.5854 33.738
7268 2 7.5712 14.8542 34.871
7269 1 28.8041 10.3479 75.8049
7270 2 29.4495 11.0828 76.0133
7271 2 29.0347 9.5386 76.3451
7272 1 0.544407 7.31087 89.9488
7273 2 79.6105 6.95854 89.8882
7274 2 0.519788 8.30632 90.0409
7275 1 9.69078 13.6978 32.184
7276 2 8.94918 14.2035 32.6248
7277 2 9.4763 12.7211 32.1875
7278 1 43.9105 18.4433 67.586
7279 2 44.3657 18.3708 66.6986
7280 2 43.4056 17.6002 67.7715
7281 1 63.2413 24.3085 53.2978
7282 2 63.2476 23.7514 54.1282
7283 2 64.1661 24.6405 53.1121
7284 1 57.7983 18.0937 80.6329
7285 2 57.988 17.1373 80.8553
7286 2 56.8961 18.3448 80.9835
7287 1 6.97938 29.1585 43.8067
7288 2 7.41876 29.0703 42.9127
7289 2 7.27202 28.4067 44.3975
7290 1 60.8241 5.4769 50.9324
7291 2 61.7607 5.12677 50.9179
7292 2 60.2155 4.81951 50.488
7293 1 47.8075 1.18061 37.1515
7294 2 48.2649 0.403876 36.7186
7295 2 48.4708 1.70046 37.6897
7296 1 13.7007 19.7505 79.6017
7297 2 12.9518 20.378 79.3887
7298 2 14.566 20.1487 79.2972
7299 1 32.4002 2.98926 73.4076
7300 2 32.1983 3.95051 73.5952
7301 2 32.0672 2.75057 72.4954
7302 1 72.2441 11.5673 52.579
7303 2 73.0957 11.8529 53.0187
7304 2 71.9293 10.7105 52.9874
7305 1 65.7462 22.6445 19.2154
7306 2 65.4589 23.5989 19.1339
7307 2 66.6314 22.5234 18.7662
7308 1 49.6814 4.79787 75.0381
7309 2 50.1315 3.91558 75.1758
7310 2 48.7978 4.79792 75.5064
7311 1 62.3228 22.8186 30.7397
7312 2 62.618 23.4028 29.9837
7313 2 62.3591 23.336 31.5946
7314 1 8.32637 17.9735 72.2393
7315 2 8.72168 17.8185 73.1447
7316 2 7.80254 17.168 71.962
7317 1 5.3365 13.6702 72.3171
7318 2 6.1305 14.1635 71.9618
7319 2 4.52352 14.2473 72.2397
7320 1 2.20554 13.4399 49.475
7321 2 1.7235 13.6783 48.6319
7322 2 2.10892 12.4598 49.6483
7323 1 38.3504 13.3329 65.4457
7324 2 38.3952 14.1666 65.9961
7325 2 37.5866 13.398 64.8036
7326 1 22.4261 26.7932 65.7652
7327 2 21.4711 26.9112 66.0371
7328 2 22.472 26.5975 64.7856
7329 1 15.4396 16.7213 59.3069
7330 2 15.6113 16.375 58.3846
7331 2 15.4529 15.9609 59.9563
7332 1 76.9212 12.6081 90.2908
7333 2 77.6184 13.3169 90.398
7334 2 76.0291 13.0369 90.1483
7335 1 55.3544 11.6039 64.1492
7336 2 55.9452 11.3717 64.9219
7337 2 54.3975 11.4809 64.4124
7338 1 37.0622 28.3202 76.6966
7339 2 37.2065 28.6037 77.6447
7340 2 37.5515 28.9415 76.0847
7341 1 24.0037 29.9544 55.2501
7342 2 23.6053 29.8926 56.1652
7343 2 24.9897 0.103234 55.3251
7344 1 67.308 19.8395 71.966
7345 2 66.3336 20.0463 71.8775
7346 2 67.5606 19.8317 72.9335
7347 1 76.8948 9.35435 15.5748
7348 2 76.8448 10.3264 15.3454
7349 2 77.8449 9.04728 15.5196
7350 1 71.0638 3.5589 80.5544
7351 2 72.0262 3.74632 80.358
7352 2 70.9501 3.39064 81.5336
7353 1 24.7117 3.44966 70.6565
7354 2 24.4412 3.87633 71.5195
7355 2 25.4366 3.9906 70.23
7356 1 21.1807 5.65885 85.1091
7357 2 20.6538 6.50608 85.0414
7358 2 21.7451 5.55112 84.2907
7359 1 48.9607 24.7219 72.7903
7360 2 48.1581 24.9578 72.2424
7361 2 48.7491 24.8419 73.7603
7362 1 71.3968 12.0433 59.9868
7363 2 72.0869 11.6148 60.57
7364 2 70.6372 11.4081 59.8473
7365 1 47.6638 21.8177 61.3913
7366 2 47.9278 22.5724 61.992
7367 2 48.2883 21.7786 60.6113
7368 1 31.2365 14.516 79.85
7369 2 31.5105 14.097 80.7157
7370 2 30.3443 14.1583 79.5743
7371 1 2.20131 26.443 43.1962
7372 2 2.71402 25.5971 43.3436
7373 2 1.63823 26.6358 43.9998
7374 1 54.1719 24.3576 68.13
7375 2 54.7513 25.1704 68.0697
7376 2 53.7808 24.1596 67.2312
7377 1 32.6481 21.148 58.0331
7378 2 33.0948 20.3515 57.6256
7379 2 31.8277 21.3749 57.5082
7380 1 40.9739 2.51044 82.3937
7381 2 40.6677 3.17562 83.0748
7382 2 40.667 2.79723 81.4862
7383 1 48.2774 10.2017 80.0361
7384 2 49.0249 10.2767 80.6961
7385 2 47.8432 9.30522 80.1248
7386 1 1.93284 6.17667 38.95
7387 2 1.81383 6.59354 39.8511
7388 2 1.97734 5.18228 39.046
7389 1 70.7717 3.72477 29.455
7390 2 69.9484 3.81829 30.0148
7391 2 71.421 3.11963 29.9156
7392 1 60.6893 15.3391 41.9017
7393 2 60.8509 14.3524 41.9204
7394 2 59.8618 15.5314 41.3743
7395 1 27.1116 3.45094 67.6358
7396 2 26.3472 3.80751 67.0986
7397 2 27.2118 3.99044 68.4718
7398 1 64.4061 3.45849 16.2031
7399 2 65.1013 3.98742 16.6898
7400 2 64.3694 3.7546 15.2487
7401 1 8.55372 5.87452 16.2717
7402 2 9.51579 6.14116 16.3294
7403 2 8.48739 4.87931 16.1999
7404 1 16.8182 9.85332 15.3127
7405 2 15.9047 9.47221 15.4549
7406 2 16.8096 10.4489 14.5095
7407 1 8.22913 9.07386 47.045
7408 2 7.69857 8.2822 47.3479
7409 2 8.39421 9.00766 46.0609
7410 1 22.5234 1.35937 45.981
7411 2 23.5095 1.38515 45.8171
7412 2 22.1203 0.600079 45.4701
7413 1 1.31559 7.82577 84.3434
7414 2 1.56086 7.14623 85.0348
7415 2 1.86173 8.65227 84.4799
7416 1 10.9517 3.12123 87.9775
7417 2 11.9044 3.02289 88.265
7418 2 10.9084 3.17448 86.9798
7419 1 1.48065 19.2774 50.3866
7420 2 1.65964 18.605 49.6684
7421 2 1.43541 18.8152 51.2722
7422 1 28.9791 15.1356 70.4791
7423 2 28.3998 14.5734 69.889
7424 2 28.9562 16.084 70.1628
7425 1 11.8263 13.8671 26.1676
7426 2 12.0064 13.9535 27.1475
7427 2 10.9198 13.4684 26.0292
7428 1 58.9975 22.9752 60.2263
7429 2 58.3641 23.3334 59.5403
7430 2 58.7031 23.2672 61.1363
7431 1 11.3275 6.6535 38.2826
7432 2 11.2467 7.00486 37.3498
7433 2 10.5525 6.97346 38.8276
7434 1 53.9494 10.1882 84.3935
7435 2 53.4743 10.7587 85.0633
7436 2 53.5951 10.3828 83.4788
7437 1 49.8716 8.44818 58.5314
7438 2 49.7149 8.96689 57.691
7439 2 50.2635 9.05065 59.2268
7440 1 37.6439 7.33629 89.5758
7441 2 38.62 7.12929 89.5101
7442 2 37.1406 6.50186 89.8004
7443 1 52.9236 11.8631 86.1999
7444 2 52.0875 11.5742 86.6662
7445 2 53.2827 12.6866 86.6391
7446 1 46.1082 27.8667 50.4537
7447 2 45.2748 27.4988 50.0413
7448 2 46.72 27.114 50.697
7449 1 75.2737 1.92087 65.2838
7450 2 76.2187 2.04132 64.9798
7451 2 74.7739 2.77904 65.1666
7452 1 34.5309 17.1787 60.5533
7453 2 33.6057 17.0723 60.9176
7454 2 34.7271 18.1502 60.4204
7455 1 28.5508 25.0374 41.1789
7456 2 29.045 24.8955 42.0366
7457 2 27.6992 25.5285 41.3623
7458 1 71.7433 14.6652 33.4203
7459 2 70.7791 14.433 33.5479
7460 2 71.9511 14.7006 32.4428
7461 1 28.7686 21.0938 54.9601
7462 2 29.1925 20.975 54.0622
7463 2 29.3799 21.6211 55.5502
7464 1 3.75811 25.8641 33.8456
7465 2 4.05574 25.2287 34.5581
7466 2 4.1446 25.5843 32.9668
7467 1 41.9528 1.02106 39.0954
7468 2 41.0799 0.562771 39.2627
7469 2 42.3888 0.623226 38.2882
7470 1 52.1492 6.51325 50.1826
7471 2 52.2508 6.09049 51.0832
7472 2 51.1976 6.79081 50.0502
7473 1 69.6878 14.5908 15.1478
7474 2 70.2735 14.5787 15.9582
7475 2 69.3694 13.6632 14.9528
7476 1 13.336 15.9058 23.1752
7477 2 13.0913 16.7312 22.6664
7478 2 13.5854 16.1531 24.1115
7479 1 17.183 1.35556 89.5845
7480 2 16.7234 0.484422 89.7576
7481 2 16.8732 1.72773 88.7096
7482 1 15.735 23.2537 74.768
7483 2 16.5578 22.9718 75.2616
7484 2 15.9593 23.4054 73.8054
7485 1 46.6108 0.341074 73.4313
7486 2 47.5572 0.284903 73.7494
7487 2 45.9954 0.36629 74.2191
7488 1 26.0543 13.2755 57.1077
7489 2 25.7941 12.7951 57.9453
7490 2 27.0151 13.547 57.164
7491 1 11.2802 18.8575 53.1946
7492 2 11.7878 18.4153 53.9341
7493 2 10.337 18.5254 53.1927
7494 1 49.6397 5.37843 47.4071
7495 2 49.679 4.42113 47.1207
7496 2 49.5241 5.42499 48.3993
7497 1 74.3923 6.14062 20.0948
7498 2 73.849 6.76653 19.5352
7499 2 75.1119 5.73123 19.5338
7500 1 56.7174 2.44822 76.2457
7501 2 56.1531 2.52635 75.4239
7502 2 56.2596 1.85665 76.9094
7503 1 70.7404 6.30191 19.3259
7504 2 71.4642 6.89929 18.9806
7505 2 70.6593 5.50002 18.734
7506 1 40.8786 6.50302 58.1264
7507 2 40.9768 7.48036 57.9389
7508 2 41.3935 5.97996 57.4472
7509 1 53.8887 24.5768 32.9465
7510 2 54.5243 25.2871 32.6438
7511 2 52.9618 24.9507 32.979
7512 1 13.1234 23.071 32.9618
7513 2 13.5901 22.1907 32.8772
7514 2 13.5934 23.6335 33.6421
7515 1 64.8935 10.5845 15.3619
7516 2 64.3204 10.775 16.1589
7517 2 64.3214 10.5394 14.543
7518 1 43.6974 1.104 80.984
7519 2 43.3492 1.09193 80.0466
7520 2 43.9749 0.180367 81.2484
7521 1 74.4532 16.4483 51.1426
7522 2 73.6765 17.0427 50.9346
7523 2 75.0672 16.913 51.7806
7524 1 71.8138 16.3317 36.0567
7525 2 71.2717 15.7237 35.4767
7526 2 72.7807 16.0871 35.984
7527 1 13.6038 9.6872 58.9769
7528 2 13.0617 10.3464 58.4557
7529 2 14.3085 9.29415 58.3862
7530 1 3.79444 27.4533 39.9782
7531 2 3.66146 27.5617 38.9931
7532 2 3.89061 26.4822 40.1967
7533 1 39.7947 20.5506 75.8314
7534 2 39.5688 20.9212 76.7323
7535 2 39.0362 20.7191 75.2019
7536 1 22.4637 2.47645 48.3676
7537 2 22.0992 2.12557 47.505
7538 2 23.4625 2.42937 48.3511
7539 1 47.4926 28.0529 37.9894
7540 2 47.7773 28.5596 38.8031
7541 2 47.9476 28.4329 37.184
7542 1 21.2318 0.0312929 25.9104
7543 2 20.7034 29.3622 25.3877
7544 2 21.5463 0.758105 25.2998
7545 1 68.579 26.9434 28.607
7546 2 67.737 26.9521 28.0676
7547 2 68.3929 26.5536 29.509
7548 1 33.2578 28.6613 88.4706
7549 2 34.0854 28.8485 87.9415
7550 2 33.3248 29.1072 89.3632
7551 1 61.7883 23.6715 41.1106
7552 2 62.1524 22.797 40.79
7553 2 61.2377 24.0885 40.3875
7554 1 9.70021 6.93864 83.2543
7555 2 9.84178 6.21442 82.5795
7556 2 9.07821 6.6135 83.9667
7557 1 59.0341 19.4644 73.3756
7558 2 60.007 19.246 73.3001
7559 2 58.8318 19.7677 74.3068
7560 1 23.5949 21.5977 68.9218
7561 2 22.8195 22.2204 69.0277
7562 2 23.5872 21.2096 68.0002
7563 1 13.17 11.5237 24.8255
7564 2 12.5595 10.7318 24.8396
7565 2 12.735 12.2885 25.3008
7566 1 30.3332 20.7202 52.8132
7567 2 31.1754 20.8221 53.3427
7568 2 30.1473 21.5679 52.3163
7569 1 12.4865 5.08535 67.3524
7570 2 12.5051 4.09296 67.4742
7571 2 12.0996 5.51408 68.1689
7572 1 8.33187 22.5215 59.4484
7573 2 8.69519 22.4092 60.3733
7574 2 9.08706 22.6649 58.8087
7575 1 1.69415 10.1212 30.7774
7576 2 0.808577 9.87136 30.3858
7577 2 1.7556 11.1163 30.8546
7578 1 12.186 10.4636 35.5507
7579 2 11.9332 9.50307 35.4347
7580 2 11.7852 10.8139 36.3972
7581 1 62.1582 16.5569 53.3345
7582 2 63.0929 16.4618 52.992
7583 2 62.0165 17.4911 53.6618
7584 1 12.8045 26.7291 39.4312
7585 2 12.9565 25.7603 39.6271
7586 2 13.1642 26.946 38.5237
7587 1 8.72635 28.0301 63.4171
7588 2 8.81802 28.8262 62.8189
7589 2 9.628 27.6289 63.5785
7590 1 4.1311 27.2408 65.23
7591 2 4.1721 26.2571 65.0548
7592 2 3.46582 27.4229 65.9541
7593 1 68.2146 9.39379 24.2608
7594 2 67.4423 9.20403 24.8671
7595 2 68.7438 8.55654 24.123
7596 1 27.7824 5.5132 81.0077
7597 2 28.1371 6.44812 81.0177
7598 2 28.4183 4.91029 81.4896
7599 1 7.10952 12.4121 24.4084
7600 2 7.85457 12.7499 24.9835
7601 2 7.48939 11.9812 23.5898
7602 1 36.2353 28.1053 57.4452
7603 2 36.4338 27.1811 57.1189
7604 2 35.4312 28.4614 56.9691
7605 1 28.1856 6.84096 51.3092
7606 2 28.5237 5.90191 51.3709
7607 2 28.6288 7.30505 50.5422
7608 1 60.8504 5.77283 64.5329
7609 2 59.9568 6.21363 64.6174
7610 2 61.1834 5.51772 65.4407
7611 1 56.5098 21.8119 57.1085
7612 2 55.662 21.5043 57.5404
7613 2 56.8341 22.6411 57.5637
7614 1 5.01681 7.74938 27.3873
7615 2 4.41076 6.96592 27.5247
7616 2 5.27404 7.8066 26.4226
7617 1 8.65394 26.8049 53.1039
7618 2 9.04431 26.6698 54.0146
7619 2 9.33469 27.2332 52.5097
7620 1 15.5214 27.6378 35.0158
7621 2 16.5179 27.6138 34.9362
7622 2 15.1702 28.4558 34.5603
7623 1 17.2112 22.6832 23.2147
7624 2 18.1361 23.032 23.0633
7625 2 17.1297 21.7704 22.8145
7626 1 69.6147 11.7992 51.8197
7627 2 68.8917 12.3471 52.2406
7628 2 70.3884 11.7281 52.4492
7629 1 6.91533 3.13471 23.0076
7630 2 6.74026 2.77439 23.9239
7631 2 6.27533 3.87828 22.814
7632 1 35.3257 9.44817 57.7122
7633 2 35.1813 8.54922 57.2986
7634 2 35.367 9.35468 58.707
7635 1 5.82014 13.6011 41.4232
7636 2 6.41357 14.0601 42.0843
7637 2 5.27255 12.9079 41.8918
7638 1 21.5897 29.8305 35.2076
7639 2 21.7435 0.544083 35.8911
7640 2 20.9451 0.162274 34.5187
7641 1 0.593346 14.2323 86.2955
7642 2 1.16215 14.7159 86.9608
7643 2 0.633011 14.7064 85.416
7644 1 32.6096 11.2057 34.3116
7645 2 32.9419 11.1632 33.3694
7646 2 33.3868 11.1842 34.9405
7647 1 30.2827 26.6561 68.4807
7648 2 30.5904 26.0921 67.7145
7649 2 30.982 26.6576 69.1955
7650 1 67.8581 4.91157 76.2849
7651 2 67.6002 4.37688 77.0896
7652 2 67.1098 5.52832 76.0406
7653 1 61.0219 2.92413 48.767
7654 2 60.3444 2.99355 49.4993
7655 2 61.8802 3.34084 49.0665
7656 1 36.389 25.4786 35.6464
7657 2 36.3589 25.365 34.6534
7658 2 35.5616 25.949 35.9534
7659 1 13.5497 12.6948 32.7178
7660 2 13.365 11.7463 32.975
7661 2 14.0494 12.714 31.8518
7662 1 40.056 6.82252 35.4065
7663 2 40.0524 7.77752 35.7031
7664 2 39.192 6.39017 35.6644
7665 1 64.4486 17.6023 67.7843
7666 2 64.0354 17.7016 68.6896
7667 2 64.4172 18.4797 67.3056
7668 1 38.7269 8.60887 47.6547
7669 2 37.8954 9.07572 47.3538
7670 2 38.5093 7.99772 48.4157
7671 1 45.5155 25.4065 48.8888
7672 2 44.6964 25.8808 49.2113
7673 2 46.2958 25.6635 49.4591
7674 1 69.5198 6.71218 77.0761
7675 2 70.0824 6.3249 77.8065
7676 2 68.8455 6.03555 76.7805
7677 1 51.4376 16.0674 58.7128
7678 2 50.7547 16.7303 59.0198
7679 2 51.6459 16.2263 57.7477
7680 1 61.4024 12.8464 65.0602
7681 2 60.6033 13.4327 64.9272
7682 2 62.021 13.2708 65.7214
7683 1 33.0659 13.1876 51.3664
7684 2 32.6229 13.9426 50.883
7685 2 33.1568 12.4051 50.7504
7686 1 46.7119 17.2917 80.0137
7687 2 45.9824 16.8309 79.5084
7688 2 46.3108 17.8791 80.7166
7689 1 28.4125 18.2964 66.7413
7690 2 29.1878 18.9254 66.7987
7691 2 28.042 18.1395 67.6568
7692 1 45.0169 8.35514 49.1847
7693 2 45.8874 8.57078 49.6272
7694 2 44.6882 9.15778 48.687
7695 1 73.0642 0.353996 87.6862
7696 2 72.5913 0.63878 86.8523
7697 2 72.3994 0.242164 88.4248
7698 1 76.4672 18.188 84.5091
7699 2 76.2137 17.5536 83.7788
7700 2 76.376 17.7311 85.394
7701 1 18.3206 26.2418 78.4925
7702 2 18.5991 26.4898 79.4203
7703 2 17.3276 26.3259 78.4089
7704 1 55.2083 14.4735 33.1534
7705 2 56.0113 13.9802 33.4881
7706 2 54.8319 15.036 33.8895
7707 1 15.8497 25.4372 68.0187
7708 2 15.1974 25.6249 68.7532
7709 2 15.4347 24.8145 67.3554
7710 1 71.2006 8.40486 48.7201
7711 2 71.9676 8.34888 48.0808
7712 2 70.8108 9.32536 48.6932
7713 1 77.4399 29.4058 49.4657
7714 2 77.1563 0.364539 49.4823
7715 2 76.7664 28.8504 49.9534
7716 1 50.9801 4.3535 64.0482
7717 2 51.2505 5.31543 64.0085
7718 2 50.5802 4.15631 64.9433
7719 1 79.4062 22.5317 46.9632
7720 2 79.3637 23.0788 46.1272
7721 2 0.0581394 21.7836 46.8392
7722 1 2.68166 0.425043 57.8464
7723 2 1.72266 0.299943 58.1007
7724 2 2.88582 29.8764 57.0357
7725 1 52.2935 2.47288 79.8615
7726 2 53.1965 2.05061 79.9405
7727 2 51.6182 1.90659 80.3341
7728 1 49.0315 11.4585 67.1531
7729 2 49.8007 11.7931 67.6976
7730 2 48.2011 11.4649 67.7102
7731 1 31.9246 13.4855 90.3874
7732 2 32.5423 14.2643 90.4969
7733 2 32.4126 12.64 90.6038
7734 1 68.89 19.0901 83.4795
7735 2 69.42 19.9307 83.591
7736 2 68.3582 19.1409 82.6342
7737 1 25.8771 21.565 70.4527
7738 2 26.3922 21.0415 69.7741
7739 2 24.9955 21.8356 70.0658
7740 1 4.28797 21.8232 24.675
7741 2 4.52133 22.2873 25.5294
7742 2 3.29371 21.7521 24.595
7743 1 49.4833 23.7491 69.1183
7744 2 50.3278 24.0931 69.5286
7745 2 49.0403 24.4825 68.6027
7746 1 19.5322 10.8627 41.1068
7747 2 18.8057 10.1766 41.0691
7748 2 19.9193 10.888 42.0286
7749 1 37.7149 20.5261 46.561
7750 2 38.392 19.7962 46.6547
7751 2 36.9704 20.3756 47.2114
7752 1 40.413 12.1136 87.4588
7753 2 40.3403 13.021 87.0448
7754 2 41.1976 11.6314 87.069
7755 1 33.5888 20.3291 51.7221
7756 2 32.8874 19.6254 51.8352
7757 2 33.4845 21.0214 52.436
7758 1 21.4431 23.1964 53.4611
7759 2 20.5924 22.7174 53.2446
7760 2 21.4635 24.0732 52.9807
7761 1 55.7275 12.1162 45.1332
7762 2 56.0268 12.6292 44.3287
7763 2 55.8233 12.6881 45.9479
7764 1 63.8574 8.35646 11.333
7765 2 63.5952 9.13083 11.9088
7766 2 63.5036 8.49423 10.4079
7767 1 49.0015 0.451295 54.3089
7768 2 49.0471 0.0232024 53.4063
7769 2 48.9159 29.7431 55.0098
7770 1 42.6927 8.93226 86.5672
7771 2 43.1888 8.98611 87.4338
7772 2 42.2978 9.8257 86.3531
7773 1 76.4632 19.4473 41.8787
7774 2 76.4071 20.281 41.3294
7775 2 77.407 19.3087 42.1787
7776 1 73.0496 23.9166 79.1184
7777 2 72.8497 24.8564 79.3954
7778 2 74.0364 23.7598 79.1593
7779 1 57.7334 21.4126 67.0655
7780 2 58.1702 22.3121 67.0642
7781 2 56.74 21.5243 67.0388
7782 1 17.2538 28.7027 80.5763
7783 2 18.2427 28.5589 80.5372
7784 2 16.8611 28.5674 79.6667
7785 1 57.3022 6.71449 26.1865
7786 2 56.7988 7.51092 25.8513
7787 2 57.2043 5.96071 25.5366
7788 1 51.5204 29.6754 47.1281
7789 2 52.2322 29.3985 46.4827
7790 2 51.622 0.647443 47.3396
7791 1 73.5164 8.87827 11.4073
7792 2 73.7424 7.92837 11.6232
7793 2 73.9806 9.14786 10.5636
7794 1 71.0478 9.39202 12.3943
7795 2 70.9416 8.76894 13.1692
7796 2 71.961 9.28307 12.0017
7797 1 48.1509 17.578 35.1479
7798 2 47.2098 17.7313 35.4491
7799 2 48.7518 17.5255 35.9454
7800 1 13.5743 3.65093 17.2572
7801 2 14.4046 4.1911 17.1205
7802 2 13.6093 2.83421 16.6813
7803 1 35.3474 20.5203 68.0934
7804 2 35.311 21.5165 68.0142
7805 2 35.1034 20.2509 69.025
7806 1 55.3021 17.5884 44.0728
7807 2 54.3322 17.8321 44.0689
7808 2 55.3984 16.6016 43.9427
7809 1 78.4508 16.7824 51.4583
7810 2 78.8607 16.2119 52.1699
7811 2 77.7245 17.3422 51.857
7812 1 15.8849 15.0639 12.5176
7813 2 15.8988 14.4004 13.2656
7814 2 16.7677 15.5313 12.4703
7815 1 71.3305 27.9444 15.251
7816 2 72.3024 27.7144 15.2003
7817 2 70.8237 27.1691 15.6278
7818 1 28.027 15.6954 85.9413
7819 2 27.277 15.0413 86.0391
7820 2 28.3206 16.0036 86.8462
7821 1 0.310966 6.27053 57.3726
7822 2 1.00103 6.07145 56.6768
7823 2 79.4956 5.71759 57.2012
7824 1 41.733 16.4165 52.328
7825 2 42.5457 16.0539 51.8718
7826 2 41.5402 15.8746 53.146
7827 1 42.759 23.8083 47.4459
7828 2 43.5929 23.2956 47.2417
7829 2 42.0757 23.1914 47.8364
7830 1 75.8612 16.5926 78.3398
7831 2 75.4681 17.3762 77.8587
7832 2 75.6919 16.6848 79.3211
7833 1 20.9326 18.0942 87.4667
7834 2 20.0224 18.3828 87.7636
7835 2 21.0806 17.1397 87.7258
7836 1 69.1871 22.3511 73.3965
7837 2 69.2532 21.4278 73.7747
7838 2 68.9971 22.297 72.4162
7839 1 7.841 4.7323 73.9464
7840 2 7.5082 5.32858 73.2159
7841 2 8.46745 5.24368 74.5347
7842 1 31.5853 12.2918 72.0503
7843 2 32.3246 11.9814 72.6479
7844 2 31.9279 12.3807 71.115
7845 1 15.5775 16.9482 16.6016
7846 2 15.9719 16.3495 17.2987
7847 2 14.5817 16.9562 16.6937
7848 1 21.8782 14.0115 51.1114
7849 2 20.9636 13.9751 51.5142
7850 2 22.0921 13.1303 50.6899
7851 1 58.2615 26.4618 57.9114
7852 2 57.9725 25.654 58.4251
7853 2 58.886 27.0068 58.4709
7854 1 36.1249 7.17817 45.9515
7855 2 35.6627 7.6997 45.2343
7856 2 35.4886 7.01057 46.7044
7857 1 75.7198 20.4155 21.6552
7858 2 74.9246 20.453 22.2604
7859 2 75.772 21.2591 21.1207
7860 1 58.0958 17.7065 43.1858
7861 2 57.1027 17.595 43.2221
7862 2 58.4661 17.1548 42.4385
7863 1 29.5856 29.7222 76.5188
7864 2 29.0341 29.768 75.6858
7865 2 29.5067 0.5847 77.0186
7866 1 67.9961 26.5924 52.6784
7867 2 67.8713 27.5805 52.5883
7868 2 67.1214 26.1656 52.9083
7869 1 75.2031 24.7709 54.8405
7870 2 75.0468 23.8749 55.2563
7871 2 75.5345 25.408 55.5363
7872 1 11.4666 18.6113 10.6014
7873 2 11.4135 18.8419 9.62981
7874 2 11.8363 17.6879 10.705
7875 1 52.6956 13.3915 62.9631
7876 2 52.9351 12.5517 63.4503
7877 2 53.0069 14.1826 63.4896
7878 1 26.0519 24.6661 68.2634
7879 2 25.1745 24.8932 68.6861
7880 2 26.6882 25.4276 68.3865
7881 1 74.8102 5.05074 43.2318
7882 2 75.0655 5.08876 44.1979
7883 2 75.5547 4.63915 42.7062
7884 1 69.8816 16.8613 19.5014
7885 2 69.949 16.0082 20.0188
7886 2 69.995 17.6373 20.1218
7887 1 79.3039 21.5205 14.8424
7888 2 79.463 22.3973 14.3887
7889 2 79.9479 21.4156 15.6002
7890 1 8.98444 29.8114 55.7484
7891 2 8.91158 0.159579 54.8138
7892 2 8.35423 29.0443 55.8684
7893 1 22.239 11.8292 57.0843
7894 2 21.6635 12.4651 56.5702
7895 2 21.886 10.8996 56.9779
7896 1 69.4159 29.7506 29.1944
7897 2 68.7012 29.1224 29.5019
7898 2 70.2855 29.5002 29.6199
7899 1 57.6345 21.1115 87.1978
7900 2 57.0566 21.8037 87.6301
7901 2 57.3577 20.9945 86.244
7902 1 2.56035 27.0795 50.5215
7903 2 2.64868 26.3672 49.8251
7904 2 2.95567 27.9316 50.1787
7905 1 64.616 29.358 81.0123
7906 2 65.3644 29.1802 81.6512
7907 2 64.9761 29.399 80.0803
7908 1 65.7978 29.5943 55.1955
7909 2 65.4097 28.9399 54.5466
7910 2 66.0416 0.436269 54.7142
7911 1 66.1909 4.64834 73.4042
7912 2 66.5969 5.12357 72.6236
7913 2 66.1082 5.2816 74.1737
7914 1 25.4197 12.8834 45.3279
7915 2 25.2174 13.6265 45.9658
7916 2 26.4097 12.7561 45.2677
7917 1 24.5055 22.262 72.8812
7918 2 25.1532 21.8572 72.2358
7919 2 24.7811 22.0367 73.8157
7920 1 39.8225 11.6343 41.3303
7921 2 39.5852 11.719 42.2981
7922 2 39.4488 12.4129 40.8261
7923 1 42.6688 13.0008 66.5314
7924 2 41.7117 12.916 66.8084
7925 2 42.816 13.8959 66.1106
7926 1 18.0121 18.47 17.9992
7927 2 17.3695 17.7053 17.951
7928 2 18.7083 18.3656 17.289
7929 1 44.4471 10.7258 73.5844
7930 2 44.4223 11.6925 73.839
7931 2 44.4155 10.6425 72.5884
7932 1 35.6642 13.8698 43.4933
7933 2 36.2936 14.2214 42.8003
7934 2 36.1488 13.7667 44.3619
7935 1 39.3639 17.8787 46.3379
7936 2 40.1581 17.3548 46.0301
7937 2 38.5509 17.574 45.8417
7938 1 67.1392 18.6513 78.3405
7939 2 66.231 18.3839 78.0187
7940 2 67.0644 19.4741 78.9039
7941 1 21.6597 28.0462 58.0686
7942 2 20.9775 28.3897 57.4233
7943 2 22.436 28.6759 58.0997
7944 1 52.1793 12.606 55.5726
7945 2 52.7402 11.785 55.6794
7946 2 52.7666 13.4152 55.5887
7947 1 24.1157 16.6683 74.419
7948 2 24.4311 16.38 73.5149
7949 2 23.4164 17.376 74.3182
7950 1 19.6657 13.5738 52.6037
7951 2 20.1881 12.8681 53.0825
7952 2 19.2829 13.1921 51.7625
7953 1 45.1832 3.4736 80.457
7954 2 44.7805 2.61807 80.7824
7955 2 46.1772 3.37627 80.4068
7956 1 55.3347 19.8869 74.4332
7957 2 55.2787 18.9117 74.2191
7958 2 55.0905 20.0322 75.392
7959 1 38.7476 13.8576 50.5816
7960 2 38.26 13.0688 50.2071
7961 2 39.7307 13.7383 50.443
7962 1 22.369 22.7665 30.9007
7963 2 22.4586 23.7233 30.6241
7964 2 21.8713 22.261 30.196
7965 1 58.055 18.3588 56.0911
7966 2 58.1393 17.6793 55.3622
7967 2 57.3953 18.0382 56.7708
7968 1 11.6694 23.0523 38.8768
7969 2 10.9139 23.6977 38.9895
7970 2 12.4348 23.5107 38.4252
7971 1 4.00369 12.1132 85.8704
7972 2 4.64975 12.2704 86.6173
7973 2 3.64548 11.1815 85.93
7974 1 10.1042 21.9675 74.1012
7975 2 10.1878 22.0635 73.1093
7976 2 9.17371 22.203 74.3817
7977 1 15.8355 26.3331 88.6021
7978 2 15.6631 27.2893 88.8384
7979 2 16.821 26.1805 88.528
7980 1 70.9564 2.14699 82.8535
7981 2 71.5786 1.61181 82.2821
7982 2 71.0578 1.86809 83.8085
7983 1 38.2928 6.54907 59.6186
7984 2 37.6102 5.92501 59.2383
7985 2 38.9273 6.82839 58.8979
7986 1 0.658789 0.901106 23.6756
7987 2 1.3587 1.4147 24.1719
7988 2 0.933009 0.802907 22.719
7989 1 7.68302 16.5379 37.8057
7990 2 7.69017 17.0223 38.6805
7991 2 6.94366 16.8934 37.2339
7992 1 2.29958 24.5355 24.7655
7993 2 2.73062 25.1898 24.1442
7994 2 3.00379 24.0768 25.3075
7995 1 45.6771 10.8299 51.8468
7996 2 46.2951 11.4433 52.3387
7997 2 46.1864 10.3418 51.1381
7998 1 33.992 3.17295 51.7107
7999 2 33.5556 4.04283 51.4807
8000 2 33.8997 2.5402 50.9419
8001 1 39.1804 19.9446 42.649
8002 2 38.9517 18.9784 42.7675
8003 2 39.0256 20.4316 43.5086
8004 1 32.2983 23.8901 60.1747
8005 2 31.956 24.3531 60.9923
8006 2 31.7704 23.0553 60.0186
8007 1 46.6423 29.3536 82.6574
8008 2 46.9918 28.9324 81.8204
8009 2 45.649 29.2445 82.6957
8010 1 36.8989 6.91577 61.8263
8011 2 36.4597 7.81362 61.7953
8012 2 37.483 6.80254 61.0225
8013 1 29.2017 29.115 67.4221
8014 2 28.2658 29.19 67.078
8015 2 29.4096 28.1563 67.6162
8016 1 76.4693 17.048 90.6075
8017 2 76.8089 17.962 90.3855
8018 2 75.5608 17.1208 91.019
8019 1 51.5073 21.8441 66.0615
8020 2 50.538 22.0026 66.2496
8021 2 51.6105 21.004 65.529
8022 1 77.957 4.61935 84.7198
8023 2 78.2559 3.72977 84.3744
8024 2 77.2228 4.97247 84.1398
8025 1 68.6266 12.6724 19.8524
8026 2 68.6046 11.9739 19.1371
8027 2 68.1288 13.4825 19.5426
8028 1 57.7217 8.03489 62.9522
8029 2 58.7018 8.00738 62.7553
8030 2 57.5 7.3417 63.638
8031 1 58.2279 8.35019 88.2825
8032 2 57.3799 8.01844 88.6957
8033 2 58.7507 8.86486 88.962
8034 1 22.6745 25.2479 52.0387
8035 2 23.1783 26.0382 51.6899
8036 2 21.7834 25.1953 51.5879
8037 1 44.9496 27.4976 84.8796
8038 2 45.3771 28.2373 85.3992
8039 2 44.6501 27.8444 83.9908
8040 1 15.5076 19.0575 30.6506
8041 2 15.1619 19.6906 29.958
8042 2 16.3648 18.6519 30.3333
8043 1 51.7551 28.4173 37.2478
8044 2 51.7938 29.0207 38.0442
8045 2 50.8023 28.1872 37.0499
8046 1 6.12483 5.10831 84.3319
8047 2 6.98708 5.43754 84.7168
8048 2 6.14955 4.11095 84.2637
8049 1 48.9537 1.50663 43.4997
8050 2 48.2923 0.799549 43.75
8051 2 48.9933 2.19674 44.2223
8052 1 59.4922 19.854 79.2668
8053 2 59.1904 20.7981 79.4
8054 2 59.0122 19.2568 79.9093
8055 1 8.08817 13.0783 28.4638
8056 2 7.90244 14.0448 28.6411
8057 2 8.40097 12.9666 27.5206
8058 1 14.6569 12.2513 49.583
8059 2 15.0645 12.5245 48.7117
8060 2 14.3001 13.0592 50.052
8061 1 15.0107 29.1737 71.7931
8062 2 14.6116 29.7749 72.4853
8063 2 15.3279 29.7213 71.0188
8064 1 60.7514 21.1625 42.4569
8065 2 61.197 21.1988 41.5624
8066 2 61.3834 20.7759 43.1286
8067 1 78.6925 20.008 24.196
8068 2 78.5632 20.6662 24.9376
8069 2 78.6652 20.4856 23.3179
8070 1 64.7033 19.6823 66.1628
8071 2 65.1991 20.4161 66.6272
8072 2 65.338 19.1589 65.5943
8073 1 74.9037 15.3934 74.9978
8074 2 74.7336 15.1603 75.9553
8075 2 75.5243 14.72 74.596
8076 1 69.842 10.6834 49.4673
8077 2 68.9283 10.4836 49.1135
8078 2 69.7653 11.2509 50.2871
8079 1 16.2915 6.20606 60.7192
8080 2 16.1071 7.09934 61.1291
8081 2 16.8779 6.32189 59.9175
8082 1 51.9453 14.7708 33.6024
8083 2 51.126 15.3302 33.477
8084 2 52.6752 15.3315 33.9934
8085 1 27.4021 2.13803 75.4904
8086 2 28.0216 2.20518 76.2725
8087 2 27.7089 1.40439 74.8841
8088 1 25.1342 13.2023 53.1356
8089 2 24.7937 13.8269 52.4329
8090 2 26.1336 13.1818 53.1076
8091 1 3.53564 18.7347 62.3501
8092 2 3.47935 19.6064 61.8634
8093 2 3.37298 18.8861 63.3251
8094 1 31.3233 19.517 80.1327
8095 2 31.4194 18.5763 80.458
8096 2 31.9534 20.1093 80.6348
8097 1 52.0222 5.06834 36.6516
8098 2 51.9975 4.52245 37.4891
8099 2 51.093 5.34554 36.407
8100 1 15.8565 13.9223 39.2688
8101 2 16.8039 14.0521 38.9763
8102 2 15.695 14.4346 40.1123
8103 1 64.4651 27.1169 54.7577
8104 2 64.844 27.0197 55.678
8105 2 64.9916 26.5553 54.1195
8106 1 42.0954 21.2414 38.7536
8107 2 42.4266 20.3007 38.6803
8108 2 42.615 21.8271 38.1316
8109 1 60.9754 25.7456 31.3016
8110 2 61.6725 25.1795 31.7415
8111 2 60.1687 25.1883 31.1051
8112 1 75.0867 0.592834 76.2195
8113 2 75.1291 0.283686 77.1696
8114 2 75.4962 29.9007 75.6252
8115 1 47.9305 25.1148 53.5108
8116 2 47.8769 25.943 54.0687
8117 2 47.552 25.2989 52.6037
8118 1 51.4724 11.281 69.0045
8119 2 50.8518 10.6981 69.529
8120 2 52.3421 10.8061 68.8701
8121 1 25.3431 11.7397 78.1972
8122 2 25.589 12.1006 79.0968
8123 2 25.9602 10.9898 77.9589
8124 1 66.0257 24.1943 89.1389
8125 2 65.5782 24.1318 90.031
8126 2 66.5271 23.3483 88.9575
8127 1 36.6994 27.0721 43.0234
8128 2 36.9539 26.5897 43.8616
8129 2 37.31 27.8526 42.8895
8130 1 2.45908 21.4529 73.9875
8131 2 2.58739 20.5091 74.2922
8132 2 1.67884 21.4987 73.3637
8133 1 69.8038 2.41068 77.4793
8134 2 69.261 2.7531 78.2462
8135 2 69.7294 1.41435 77.4368
8136 1 22.4189 7.70047 76.4264
8137 2 22.8664 8.4135 75.8867
8138 2 21.4267 7.8086 76.3642
8139 1 67.1637 9.94071 53.0239
8140 2 67.2042 9.19241 52.3618
8141 2 67.6451 10.7368 52.6571
8142 1 34.6035 29.5275 47.0505
8143 2 34.52 29.3691 46.0667
8144 2 33.9033 29.0017 47.5334
8145 1 18.6322 10.8206 72.4157
8146 2 18.7875 9.87784 72.7109
8147 2 18.8375 11.4441 73.17
8148 1 55.5303 18.0508 82.9683
8149 2 56.3976 17.7335 83.352
8150 2 54.855 18.1405 83.7003
8151 1 33.0958 23.7511 56.2357
8152 2 32.5039 22.9717 56.4412
8153 2 34.0181 23.568 56.576
8154 1 57.5112 6.55089 22.8892
8155 2 56.5443 6.60071 22.639
8156 2 57.7202 5.63486 23.2316
8157 1 0.729241 2.60693 73.3988
8158 2 1.17609 2.86894 74.2542
8159 2 79.7803 2.92226 73.4083
8160 1 48.3549 19.6498 49.93
8161 2 47.655 18.9695 50.1477
8162 2 49.2526 19.3032 50.2022
8163 1 38.1537 20.539 57.2786
8164 2 38.4378 21.1831 56.5683
8165 2 37.5042 19.8833 56.8935
8166 1 6.50893 17.3663 21.4836
8167 2 7.25448 18.0019 21.6842
8168 2 5.85374 17.3721 22.2391
8169 1 59.839 27.8893 24.4271
8170 2 59.1952 28.5318 24.0115
8171 2 60.404 28.3703 25.0975
8172 1 30.173 7.69467 60.2597
8173 2 29.2193 7.99199 60.3056
8174 2 30.2257 6.71365 60.4463
8175 1 55.41 24.7537 42.5159
8176 2 54.5561 24.4648 42.9487
8177 2 55.2572 24.8942 41.5377
8178 1 41.5315 1.7519 75.9233
8179 2 42.32 1.74744 75.3081
8180 2 41.8112 2.09199 76.8211
8181 1 21.0824 2.6788 43.8415
8182 2 21.4529 2.25071 44.6658
8183 2 21.1126 2.02602 43.0846
8184 1 50.1217 20.5401 56.5093
8185 2 49.5675 20.1398 55.7795
8186 2 50.806 19.876 56.8106
8187 1 75.9677 20.6727 58.5234
8188 2 75.6506 21.1935 57.7308
8189 2 75.6814 21.1354 59.3625
8190 1 8.1417 21.7771 68.8965
8191 2 7.40521 22.2775 69.3516
8192 2 8.54777 22.3535 68.1874
8193 1 59.9925 20.6183 62.0335
8194 2 59.0895 20.2132 62.177
8195 2 60.0193 21.528 62.4478
8196 1 72.03 4.14703 47.9432
8197 2 72.8855 4.59699 48.1993
8198 2 72.2328 3.31098 47.4334
8199 1 1.20086 16.5843 37.2374
8200 2 0.824943 17.0255 38.0523
8201 2 0.455133 16.2047 36.6899
8202 1 61.616 29.2439 19.7573
8203 2 62.4111 29.8363 19.8872
8204 2 60.7892 29.7282 20.0435
8205 1 24.4504 26.2085 32.7037
8206 2 24.5347 27.185 32.5051
8207 2 24.162 25.7241 31.8777
8208 1 68.5904 9.17705 78.0019
8209 2 68.792 8.39568 77.4113
8210 2 67.656 9.09976 78.3496
8211 1 46.4758 5.826 50.0693
8212 2 46.9382 5.37883 50.8349
8213 2 47.1307 6.39259 49.5693
8214 1 15.826 6.62226 78.8958
8215 2 15.522 6.99871 79.7709
8216 2 15.1214 6.01284 78.5323
8217 1 65.9034 24.2883 78.3639
8218 2 65.3385 23.7728 79.0081
8219 2 66.3764 23.6533 77.7531
8220 1 16.924 20.6662 21.2372
8221 2 16.0791 20.1824 21.0088
8222 2 17.1608 21.2923 20.4942
8223 1 50.8109 29.5755 86.4798
8224 2 50.3048 0.0626086 87.1916
8225 2 50.4035 28.6731 86.3394
8226 1 35.4553 12.8677 49.2635
8227 2 34.6528 12.2825 49.3804
8228 2 35.371 13.3825 48.4104
8229 1 4.81803 0.429373 22.9372
8230 2 4.68455 29.8145 23.7144
8231 2 5.78953 0.649503 22.8493
8232 1 75.3355 20.0135 64.8447
8233 2 75.8259 20.3526 65.6475
8234 2 75.6658 20.4865 64.0279
8235 1 29.5711 9.80697 69.4491
8236 2 29.8906 10.7064 69.1509
8237 2 28.8808 9.46944 68.8092
8238 1 4.33198 17.5817 16.6613
8239 2 4.24618 18.5337 16.3675
8240 2 4.25359 17.5318 17.657
8241 1 30.5508 11.9578 68.3868
8242 2 31.224 11.3793 67.9262
8243 2 30.7327 12.9172 68.1714
8244 1 27.0159 9.2423 64.5616
8245 2 27.1283 8.38893 64.0526
8246 2 26.3456 9.82138 64.0975
8247 1 19.0207 17.3547 72.4595
8248 2 19.5472 16.6934 72.9939
8249 2 18.2072 17.6265 72.9737
8250 1 52.5125 28.201 42.1149
8251 2 51.9417 28.9686 42.4065
8252 2 52.7613 27.6493 42.911
8253 1 51.0841 27.6636 54.6655
8254 2 50.1552 28.0302 54.7183
8255 2 51.7006 28.3673 54.3124
8256 1 64.0328 4.64911 23.1523
8257 2 63.3809 3.89362 23.0869
8258 2 63.597 5.42719 23.6047
8259 1 75.7331 17.4039 63.5321
8260 2 76.5603 17.5339 64.0788
8261 2 75.2956 18.289 63.3737
8262 1 25.5128 10.3668 44.8891
8263 2 25.4624 11.3648 44.9261
8264 2 26.4575 10.075 45.0385
8265 1 55.7977 3.01899 25.1977
8266 2 55.8809 3.36783 26.1312
8267 2 55.093 2.31009 25.1684
8268 1 42.2037 5.0227 51.3986
8269 2 41.3529 5.52337 51.5581
8270 2 42.1391 4.52222 50.5353
8271 1 48.6087 8.70077 83.4496
8272 2 48.5768 9.09351 82.5305
8273 2 48.3758 7.7293 83.4052
8274 1 1.99141 1.16074 63.9318
8275 2 2.55984 0.666284 63.2742
8276 2 1.55855 0.508988 64.5545
8277 1 59.3655 7.67424 36.9179
8278 2 59.5001 7.24904 37.8129
8279 2 60.2476 7.97625 36.5563
8280 1 52.112 4.68878 29.2956
8281 2 51.2875 5.17376 29.5871
8282 2 52.2082 3.84635 29.8258
8283 1 27.7735 22.8583 85.4111
8284 2 26.9576 22.9845 85.9753
8285 2 27.8732 21.8902 85.181
8286 1 25.0661 20.7921 31.18
8287 2 24.3601 20.6143 31.8655
8288 2 25.9681 20.6337 31.5818
8289 1 1.62142 5.9424 33.4721
8290 2 1.62371 6.5903 34.2339
8291 2 0.950404 6.23252 32.7898
8292 1 32.0044 15.1526 35.2484
8293 2 31.7371 14.5352 35.9882
8294 2 32.6597 15.8238 35.5949
8295 1 7.83966 17.4979 57.4501
8296 2 8.38519 16.6854 57.6554
8297 2 7.60791 17.9678 58.3018
8298 1 37.5802 2.02473 58.9349
8299 2 38.3098 1.71777 58.3238
8300 2 37.579 1.46192 59.7615
8301 1 60.9934 2.82137 70.8892
8302 2 60.9981 3.82035 70.934
8303 2 60.2024 2.46897 71.3894
8304 1 29.5991 24.5666 48.8392
8305 2 29.8585 24.5708 47.8734
8306 2 30.402 24.7657 49.4009
8307 1 6.71305 18.3036 18.4616
8308 2 6.42416 18.1246 19.4021
8309 2 7.52294 17.7558 18.2517
8310 1 34.5656 12.7542 53.7082
8311 2 34.8982 11.8787 54.0588
8312 2 33.8129 12.5933 53.0698
8313 1 15.9539 9.16021 33.0841
8314 2 16.3704 8.25791 32.9728
8315 2 16.2155 9.74509 32.3163
8316 1 10.1981 21.0089 25.6104
8317 2 11.1008 20.5971 25.4855
8318 2 10.3028 21.9548 25.9176
8319 1 35.6429 2.40212 48.5499
8320 2 36.483 1.86069 48.5848
8321 2 35.8636 3.34374 48.2956
8322 1 3.93559 9.78381 48.8107
8323 2 3.08405 10.0648 49.2534
8324 2 4.52993 9.3411 49.4821
8325 1 33.0747 27.8821 65.7508
8326 2 33.1886 28.158 66.7052
8327 2 32.1102 27.9528 65.4963
8328 1 64.188 18.2221 57.6255
8329 2 64.0211 18.8393 56.8566
8330 2 63.9834 17.283 57.3496
8331 1 59.3729 5.90656 67.2818
8332 2 60.2957 5.55743 67.1189
8333 2 59.1536 5.82794 68.2543
8334 1 13.5669 24.2367 37.6086
8335 2 13.6011 25.0866 37.0827
8336 2 14.3504 24.1967 38.2286
8337 1 74.5075 5.222 39.6907
8338 2 75.0522 4.40604 39.8842
8339 2 73.5737 5.08551 40.0215
8340 1 70.6028 13.4806 37.3007
8341 2 69.6868 13.8047 37.5368
8342 2 70.5484 12.5378 36.9717
8343 1 5.1953 1.38914 61.1338
8344 2 6.09006 1.28833 61.5688
8345 2 4.54733 0.753201 61.553
8346 1 33.1122 4.14526 54.5685
8347 2 33.1299 4.97335 54.0082
8348 2 33.8337 4.19472 55.2592
8349 1 19.9927 17.7309 31.8082
8350 2 19.9644 16.9436 32.4241
8351 2 19.1365 17.7828 31.2941
8352 1 15.6521 6.12568 68.3599
8353 2 14.9557 6.40456 69.0212
8354 2 16.392 5.65003 68.8356
8355 1 56.605 17.784 59.0284
8356 2 56.3387 17.0288 58.4295
8357 2 57.2309 17.447 59.7317
8358 1 5.70853 26.8342 60.8224
8359 2 6.10417 27.1538 59.9613
8360 2 6.04727 25.9152 61.0241
8361 1 14.2022 1.65128 72.3885
8362 2 13.319 2.0686 72.6027
8363 2 14.928 2.13978 72.8728
8364 1 18.6002 1.51863 27.174
8365 2 19.064 2.30432 26.7646
8366 2 17.7222 1.81036 27.5533
8367 1 34.455 8.03611 36.6062
8368 2 35.1454 7.75499 37.2728
8369 2 34.35 9.03019 36.6341
8370 1 13.7729 2.02321 75.6366
8371 2 13.3159 1.29349 75.128
8372 2 13.3168 2.15202 76.5171
8373 1 44.2659 0.45773 77.8163
8374 2 44.9653 0.523981 78.5279
8375 2 43.5521 1.13718 77.9863
8376 1 69.1337 4.20105 88.3764
8377 2 69.5123 4.5628 87.5245
8378 2 69.2919 4.85545 89.1158
8379 1 15.7389 4.92971 15.1417
8380 2 15.1432 5.56396 14.6488
8381 2 15.9071 5.27865 16.0637
8382 1 53.614 23.929 63.0437
8383 2 52.785 24.3344 62.6584
8384 2 53.6129 22.9434 62.8743
8385 1 4.22193 27.6402 16.5468
8386 2 3.85463 27.387 17.4418
8387 2 5.21284 27.5058 16.543
8388 1 8.77774 12.2103 41.5758
8389 2 8.34173 11.8813 42.4134
8390 2 8.28755 11.8511 40.7816
8391 1 7.52614 0.200672 11.9757
8392 2 7.84018 0.946656 12.563
8393 2 8.21814 0.0108543 11.2792
8394 1 34.5425 17.9237 43.8512
8395 2 35.3337 17.5358 44.324
8396 2 33.9627 18.4033 44.5099
8397 1 45.7014 26.5338 74.1165
8398 2 45.6622 25.5349 74.0901
8399 2 44.7773 26.9009 74.223
8400 1 64.5861 8.92683 72.6837
8401 2 64.0498 8.14805 73.0091
8402 2 65.4232 8.59625 72.2478
8403 1 7.52962 19.0029 55.1631
8404 2 7.64223 18.575 56.0599
8405 2 7.71467 18.3298 54.4471
8406 1 54.5689 27.4381 50.3358
8407 2 54.5121 26.8236 51.1226
8408 2 54.7591 28.3676 50.6519
8409 1 76.1277 16.263 57.2687
8410 2 75.8591 15.3015 57.3256
8411 2 76.8016 16.4635 57.9798
8412 1 68.7429 28.018 70.9827
8413 2 69.5616 27.6077 70.5813
8414 2 68.274 28.5696 70.2929
8415 1 16.4474 16.0842 56.8634
8416 2 16.9956 16.9152 56.9581
8417 2 16.711 15.6045 56.0265
8418 1 11.4543 22.0919 44.9149
8419 2 10.5608 22.4899 44.7071
8420 2 11.6548 22.2121 45.8872
8421 1 6.97723 23.127 78.0355
8422 2 6.40959 22.304 78.0556
8423 2 7.91598 22.8787 77.7965
8424 1 19.9045 13.7068 60.3607
8425 2 19.5896 12.7638 60.4685
8426 2 20.2701 14.0377 61.2306
8427 1 13.5662 26.2231 35.969
8428 2 12.6785 26.6781 36.0391
8429 2 14.2385 26.8603 35.5922
8430 1 27.8501 17.9875 39.1688
8431 2 28.1769 17.0636 38.97
8432 2 27.0834 17.9394 39.809
8433 1 12.2233 4.14213 83.3643
8434 2 11.7742 4.5621 82.5756
8435 2 12.5555 3.23284 83.1135
8436 1 65.6481 11.6884 54.4343
8437 2 64.7595 11.9327 54.0462
8438 2 66.1407 11.0989 53.7941
8439 1 17.0962 14.8064 29.8885
8440 2 17.1515 14.4298 30.8132
8441 2 17.33 14.096 29.2247
8442 1 13.5078 9.24348 22.6932
8443 2 14.1611 8.85289 23.3418
8444 2 13.8351 9.09471 21.7601
8445 1 1.89307 27.528 69.1827
8446 2 1.33385 27.4429 68.3581
8447 2 1.4611 28.1727 69.8134
8448 1 64.8109 0.421014 57.6778
8449 2 65.6115 0.703284 58.2064
8450 2 65.1071 0.0428925 56.8007
8451 1 75.9671 10.4997 58.4089
8452 2 75.3839 11.1243 57.8896
8453 2 75.8715 9.57351 58.0441
8454 1 74.6707 0.23354 69.827
8455 2 75.0593 1.15481 69.8433
8456 2 75.3666 29.5732 70.1094
8457 1 23.4067 1.42372 78.2031
8458 2 23.3251 0.963006 79.0869
8459 2 23.6792 0.760946 77.5057
8460 1 44.7495 29.8529 75.1914
8461 2 44.1991 29.0354 75.0217
8462 2 44.8885 29.9627 76.1756
8463 1 59.702 29.6272 79.1037
8464 2 59.0347 0.371197 79.1387
8465 2 59.8857 29.3004 80.0308
8466 1 0.718079 4.81729 68.3829
8467 2 0.775045 5.8152 68.3523
8468 2 0.648008 4.51652 69.3341
8469 1 69.6469 19.972 54.0873
8470 2 69.2255 19.0804 54.2528
8471 2 70.1835 20.2406 54.8873
8472 1 13.3843 27.1944 24.7284
8473 2 14.3587 27.1701 24.5048
8474 2 12.9169 27.8294 24.1133
8475 1 3.15517 25.0218 12.2445
8476 2 3.2161 24.0519 12.4802
8477 2 4.06784 25.4296 12.2723
8478 1 32.6843 23.9858 64.8467
8479 2 32.0356 24.3971 65.4871
8480 2 32.7876 23.0133 65.0555
8481 1 29.4701 2.8127 63.582
8482 2 28.579 3.22794 63.765
8483 2 30.141 3.53097 63.3975
8484 1 60.0344 24.8905 34.3757
8485 2 60.8604 24.8406 33.8142
8486 2 60.0713 24.1877 35.0861
8487 1 62.5865 18.6609 15.623
8488 2 62.7332 19.171 16.4705
8489 2 62.3619 17.711 15.8403
8490 1 20.8052 3.8329 79.3917
8491 2 21.3217 4.24776 80.1407
8492 2 20.0402 3.30802 79.7649
8493 1 69.3209 22.9774 16.3948
8494 2 69.337 23.4315 15.504
8495 2 70.2534 22.9037 16.7483
8496 1 59.0494 21.7655 33.5191
8497 2 58.8174 22.3766 32.7624
8498 2 59.0018 20.8164 33.2077
8499 1 77.8136 5.01382 57.8859
8500 2 77.8466 4.54232 58.7671
8501 2 76.8861 5.34965 57.722
8502 1 69.879 14.8611 21.3942
8503 2 69.6643 15.132 22.3326
8504 2 70.1161 13.8898 21.3737
8505 1 32.9922 11.567 86.0142
8506 2 33.2064 10.621 85.7709
8507 2 33.3243 12.1792 85.2966
8508 1 63.1329 16.6729 62.9002
8509 2 64.0825 16.5841 62.5993
8510 2 63.0691 16.4486 63.8726
8511 1 41.9785 28.9138 65.7517
8512 2 42.0223 28.0357 65.2752
8513 2 41.2689 29.4832 65.3367
8514 1 56.403 5.18472 61.0773
8515 2 56.4193 5.98001 61.6833
8516 2 56.9062 5.39417 60.2389
8517 1 59.0418 11.1416 61.3267
8518 2 59.2 10.2333 61.7141
8519 2 58.5386 11.7016 61.9848
8520 1 15.7687 27.1704 43.4995
8521 2 15.5281 28.0475 43.0838
8522 2 15.9806 26.5079 42.781
8523 1 57.9562 21.4953 64.2391
8524 2 57.8893 21.2084 65.1947
8525 2 57.58 20.7807 63.6493
8526 1 2.0312 17.11 67.8504
8527 2 1.78788 18.0798 67.8362
8528 2 2.81653 16.9722 68.454
8529 1 38.5159 17.8675 40.0381
8530 2 38.3019 18.7956 39.7333
8531 2 38.3028 17.7787 41.0111
8532 1 72.221 22.2386 73.132
8533 2 72.9975 21.7395 72.7473
8534 2 72.5518 22.9087 73.7965
8535 1 27.0635 4.42866 40.8899
8536 2 27.6213 4.61119 41.6996
8537 2 27.0677 5.23194 40.2943
8538 1 5.19247 2.65672 73.0896
8539 2 6.08579 2.22485 73.214
8540 2 4.73293 2.25055 72.2998
8541 1 18.2 3.24456 54.5307
8542 2 18.1426 3.71315 53.6491
8543 2 18.241 3.92124 55.2658
8544 1 67.4208 22.4616 86.1641
8545 2 68.1079 22.9895 85.6649
8546 2 67.6147 22.5048 87.1442
8547 1 3.08572 14.4262 67.6816
8548 2 2.21355 14.282 67.2141
8549 2 2.98023 15.1437 68.3701
8550 1 19.8475 24.2755 47.1997
8551 2 19.2058 23.5383 47.4111
8552 2 20.1293 24.7254 48.0471
8553 1 33.7149 16.2562 56.167
8554 2 33.6852 15.261 56.2595
8555 2 32.8255 16.6407 56.4145
8556 1 60.4484 14.9399 60.7441
8557 2 59.5984 14.9333 61.2709
8558 2 60.2801 15.344 59.845
8559 1 0.662499 12.4615 52.9427
8560 2 1.46561 11.9835 52.5869
8561 2 0.149481 12.8619 52.1834
8562 1 5.14333 29.9175 84.1123
8563 2 5.20566 29.6578 85.076
8564 2 5.24607 0.908499 84.0268
8565 1 57.2665 13.3893 70.7886
8566 2 57.7201 13.1919 71.6577
8567 2 56.523 12.7362 70.6449
8568 1 15.7118 26.9778 54.555
8569 2 16.5974 27.2147 54.1554
8570 2 15.8307 26.7604 55.5238
8571 1 27.2619 17.9278 81.5159
8572 2 26.313 17.9307 81.8316
8573 2 27.8589 17.6211 82.2572
8574 1 11.4385 5.6336 40.9981
8575 2 12.188 6.28453 41.1191
8576 2 10.7838 5.9985 40.3362
8577 1 31.9388 15.7566 72.0831
8578 2 31.6366 16.1923 71.2353
8579 2 31.6825 14.7901 72.0709
8580 1 71.643 2.64215 27.0355
8581 2 72.535 3.00249 26.7629
8582 2 71.4638 2.88257 27.9895
8583 1 26.1025 5.02383 44.244
8584 2 26.3173 4.09154 43.9529
8585 2 26.3999 5.15456 45.1898
8586 1 38.2274 1.35109 78.5296
8587 2 37.5093 1.99937 78.7827
8588 2 39.0962 1.64321 78.9295
8589 1 75.9957 28.5199 74.8854
8590 2 75.3119 27.9163 74.4754
8591 2 76.5659 27.9962 75.5183
8592 1 25.8682 8.36191 51.2979
8593 2 25.3799 8.89292 51.9904
8594 2 26.6433 7.89365 51.7222
8595 1 34.6004 29.8906 55.5908
8596 2 33.9531 29.2261 55.964
8597 2 34.8519 0.54682 56.3022
8598 1 47.1951 28.35 53.5687
8599 2 47.8617 28.5228 52.8437
8600 2 47.6627 28.3249 54.4523
8601 1 58.8792 9.35722 40.257
8602 2 59.7559 9.65875 39.8821
8603 2 58.1984 10.0794 40.1348
8604 1 16.5723 1.85691 32.7899
8605 2 16.9885 2.74716 32.6048
8606 2 17.0328 1.15443 32.2472
8607 1 61.5967 11.3841 25.4479
8608 2 62.0065 10.813 24.7365
8609 2 62.1186 11.2866 26.2953
8610 1 20.751 9.12327 69.6229
8611 2 21.2317 9.37334 68.7824
8612 2 21.3761 8.63477 70.2316
8613 1 16.4797 5.15663 57.9527
8614 2 17.1488 5.32478 57.2288
8615 2 16.7898 4.39612 58.5231
8616 1 66.0276 28.8181 86.0908
8617 2 66.8087 28.7185 85.4744
8618 2 65.8817 29.7871 86.2902
8619 1 22.3268 4.74981 69.9443
8620 2 23.1707 4.24062 70.1135
8621 2 21.9555 4.49254 69.0521
8622 1 5.33791 27.4436 47.3671
8623 2 4.47527 27.7287 47.7849
8624 2 5.2431 27.4465 46.3716
8625 1 0.0135738 24.1558 10.7058
8626 2 0.155877 23.6175 11.5365
8627 2 0.439982 23.6906 9.93004
8628 1 45.234 15.4907 63.3897
8629 2 44.4652 16.0085 63.0147
8630 2 46.0895 15.9622 63.1758
8631 1 20.5157 21.1619 24.4719
8632 2 20.9203 20.4134 24.9972
8633 2 19.7455 20.8152 23.9366
8634 1 26.4776 19.526 78.1361
8635 2 27.0777 19.2507 78.887
8636 2 26.4564 18.8041 77.4444
8637 1 36.5775 14.1225 87.8705
8638 2 37.2374 14.1732 88.6201
8639 2 35.9726 14.918 87.9045
8640 1 2.27576 26.3626 53.5249
8641 2 2.46818 27.1714 52.9692
8642 2 3.00799 26.236 54.1941
8643 1 30.0692 4.68696 30.1971
8644 2 30.1178 5.62077 30.5516
8645 2 29.4589 4.66237 29.4053
8646 1 79.1642 3.61862 22.417
8647 2 79.3089 3.08144 21.586
8648 2 78.2007 3.87828 22.4825
8649 1 1.74488 21.0299 17.5616
8650 2 2.47144 20.4648 17.1707
8651 2 1.66158 20.8364 18.5392
8652 1 6.9378 23.4433 72.2578
8653 2 7.67361 24.1193 72.2187
8654 2 6.53518 23.3359 71.3487
8655 1 45.4818 21.5918 40.8967
8656 2 46.1335 22.1908 41.3619
8657 2 45.8598 21.3086 40.0153
8658 1 50.0768 5.91818 31.5451
8659 2 50.1636 5.03806 32.0118
8660 2 49.2674 6.39722 31.8849
8661 1 77.5222 22.6666 81.5585
8662 2 77.1599 21.9164 82.1115
8663 2 77.0137 22.7232 80.6993
8664 1 9.25162 28.2618 83.4266
8665 2 9.1397 29.1861 83.0617
8666 2 10.0617 27.839 83.0205
8667 1 69.6978 10.8195 79.956
8668 2 69.2487 10.3556 79.1924
8669 2 70.6508 10.5219 80.0129
8670 1 10.3201 25.3406 83.5867
8671 2 10.8394 25.9951 83.0372
8672 2 10.8248 25.1349 84.4251
8673 1 32.112 27.7154 47.1603
8674 2 31.7163 26.8283 46.9228
8675 2 32.0111 28.3429 46.3882
8676 1 67.681 15.5802 57.4965
8677 2 67.7055 15.8021 58.4713
8678 2 67.3648 14.6391 57.3767
8679 1 65.7151 1.58941 53.1928
8680 2 66.1352 0.702288 53.0018
8681 2 65.8012 2.17889 52.3896
8682 1 54.9597 15.1783 47.8233
8683 2 55.2717 16.0406 47.4245
8684 2 55.6974 14.5046 47.7794
8685 1 13.671 15.0404 35.5427
8686 2 13.7726 15.9354 35.1083
8687 2 13.0175 15.1082 36.2966
8688 1 71.019 22.0977 70.6424
8689 2 71.3319 22.0682 71.5918
8690 2 70.4507 21.2968 70.4538
8691 1 61.8071 5.94042 83.9932
8692 2 61.0977 5.26109 84.1807
8693 2 61.4555 6.8543 84.1961
8694 1 23.8667 23.7475 36.8652
8695 2 24.6494 24.0588 36.3262
8696 2 23.4174 22.989 36.3931
8697 1 6.77161 4.91996 34.1761
8698 2 6.58333 5.33911 33.2879
8699 2 6.97319 5.63461 34.8459
8700 1 14.4708 20.791 32.689
8701 2 14.9743 21.0095 33.5249
8702 2 14.9923 20.1305 32.1488
8703 1 20.0258 14.4861 84.6776
8704 2 20.6513 15.2097 84.3857
8705 2 20.4325 13.9809 85.4388
8706 1 56.7442 27.8862 84.7073
8707 2 56.4522 28.2129 85.6062
8708 2 57.5908 28.3484 84.4435
8709 1 13.6162 5.99508 87.254
8710 2 13.7263 6.85673 87.7495
8711 2 13.0841 6.15436 86.4225
8712 1 14.9259 21.5878 29.4181
8713 2 13.9715 21.3261 29.5618
8714 2 15.1239 22.4219 29.9328
8715 1 12.0269 16.7021 83.4005
8716 2 11.9963 17.1875 82.5267
8717 2 11.4523 15.8854 83.3484
8718 1 5.39535 24.1127 86.1152
8719 2 5.34168 23.115 86.0733
8720 2 6.22948 24.3817 86.5967
8721 1 3.85759 26.565 55.665
8722 2 3.04215 27.0703 55.9472
8723 2 4.56125 26.6467 56.3708
8724 1 77.6616 14.413 61.1146
8725 2 77.6292 15.1859 60.4809
8726 2 78.415 14.542 61.7594
8727 1 34.3047 16.2128 50.6404
8728 2 33.4677 15.8779 50.2076
8729 2 34.0797 16.9556 51.271
8730 1 26.6462 15.035 43.8826
8731 2 25.917 15.7113 43.9871
8732 2 27.464 15.4802 43.5182
8733 1 73.9798 15.8632 21.4568
8734 2 74.9333 15.6184 21.6324
8735 2 73.483 15.0579 21.1332
8736 1 0.489807 23.1858 62.1677
8737 2 0.0368199 22.6866 62.9063
8738 2 1.40647 23.4566 62.4616
8739 1 0.7837 7.44163 67.2897
8740 2 1.0226 8.1153 67.9891
8741 2 1.5262 7.37555 66.6231
8742 1 50.9758 1.06539 32.7654
8743 2 51.4004 1.4413 31.9418
8744 2 50.141 1.57562 32.9726
8745 1 10.9492 23.67 18.4739
8746 2 10.0059 24.002 18.4783
8747 2 11.4639 24.138 17.7555
8748 1 41.5125 24.4194 50.6956
8749 2 42.4245 24.4445 51.1049
8750 2 41.4109 23.5816 50.159
8751 1 19.2151 18.851 76.4793
8752 2 18.457 18.6333 75.8646
8753 2 18.8532 19.1449 77.3639
8754 1 16.0028 21.8704 85.8799
8755 2 15.7621 21.1717 86.5536
8756 2 15.1899 22.4053 85.6495
8757 1 32.3749 21.6039 83.6126
8758 2 33.2991 21.7684 83.9573
8759 2 31.7648 21.4007 84.3785
8760 1 64.1235 14.7141 69.3025
8761 2 63.8735 15.6352 69.6011
8762 2 63.3784 14.3258 68.7603
8763 1 54.978 6.53939 70.2272
8764 2 55.1256 5.98775 71.0481
8765 2 54.2921 7.24203 70.4166
8766 1 65.0236 28.8006 51.6167
8767 2 65.9793 28.8169 51.9107
8768 2 64.9797 28.8845 50.6212
8769 1 16.8513 26.8505 74.0167
8770 2 16.1508 26.7538 74.7238
8771 2 17.6306 26.2639 74.2372
8772 1 63.0018 1.81963 64.4338
8773 2 62.1176 1.35957 64.3529
8774 2 63.7366 1.15904 64.2798
8775 1 33.5584 10.7261 40.9619
8776 2 33.9882 9.82328 40.975
8777 2 33.4562 11.0602 41.8989
8778 1 3.32953 2.66461 59.606
8779 2 2.40641 2.28117 59.5774
8780 2 3.91789 2.0761 60.1605
8781 1 48.5571 19.4402 86.5768
8782 2 49.2271 19.7768 85.9151
8783 2 48.7442 19.8408 87.4738
8784 1 52.0683 24.3723 69.9338
8785 2 52.3739 24.8438 70.761
8786 2 52.6875 24.5886 69.1789
8787 1 42.911 11.1573 41.7224
8788 2 42.0395 11.1837 42.2121
8789 2 43.6243 10.8078 42.33
8790 1 15.0984 29.3577 26.8003
8791 2 15.8322 28.6912 26.9313
8792 2 14.2237 28.8794 26.7221
8793 1 7.68978 15.9557 29.0647
8794 2 8.16933 16.0035 28.1885
8795 2 8.1565 16.5359 29.7322
8796 1 69.4941 19.0316 46.1334
8797 2 69.5457 18.3429 46.8566
8798 2 68.6448 18.9121 45.6193
8799 1 15.6055 6.85458 42.1833
8800 2 15.8655 6.18257 42.8767
8801 2 15.085 6.40203 41.4592
8802 1 23.0306 14.2963 54.9639
8803 2 23.115 14.4368 53.9774
8804 2 22.407 14.9786 55.3455
8805 1 47.7278 17.6431 42.5066
8806 2 47.3478 16.8215 42.9317
8807 2 47.3157 17.7728 41.6048
8808 1 72.1758 18.5769 14.0736
8809 2 72.4562 17.6172 14.052
8810 2 71.9059 18.8244 15.0041
8811 1 31.6423 26.6401 35.9712
8812 2 31.5279 25.6492 35.8989
8813 2 30.7497 27.0695 36.1079
8814 1 6.4479 20.779 21.14
8815 2 5.60772 20.356 20.8005
8816 2 6.8274 20.2209 21.8779
8817 1 1.3254 21.4421 86.0822
8818 2 1.26499 20.4741 85.8388
8819 2 1.16437 21.5498 87.0632
8820 1 9.74289 6.44929 62.5663
8821 2 9.65381 6.10343 63.5004
8822 2 10.2092 7.3338 62.5815
8823 1 5.89476 7.43467 60.8538
8824 2 4.90768 7.59012 60.8927
8825 2 6.36248 8.12102 61.4108
8826 1 48.4601 11.04 70.575
8827 2 47.7079 11.2266 69.9431
8828 2 48.3894 11.6475 71.3662
8829 1 10.9582 15.8348 30.59
8830 2 10.3923 15.1011 30.9659
8831 2 10.3807 16.6201 30.3667
8832 1 7.73346 28.8603 22.691
8833 2 7.21323 28.0169 22.8254
8834 2 7.3072 29.4032 21.9674
8835 1 5.11451 24.6311 58.0611
8836 2 5.27096 25.6175 58.1123
8837 2 5.54196 24.1846 58.8472
8838 1 59.224 15.8618 53.7176
8839 2 58.3354 15.945 54.1688
8840 2 59.3076 16.5669 53.0134
8841 1 76.7784 21.203 62.6971
8842 2 77.017 22.0065 63.2425
8843 2 76.3856 21.4964 61.8255
8844 1 63.3661 23.2626 20.6004
8845 2 62.5203 22.834 20.9184
8846 2 64.021 22.5537 20.3387
8847 1 9.81245 17.4659 80.4345
8848 2 9.27317 17.5226 81.2747
8849 2 10.786 17.4638 80.6628
8850 1 51.0974 25.7327 66.098
8851 2 51.9058 25.1645 66.2517
8852 2 50.3267 25.3631 66.617
8853 1 13.6024 15.4971 56.4876
8854 2 13.1508 16.129 55.8578
8855 2 14.5873 15.6703 56.4845
8856 1 19.8535 3.52685 86.6009
8857 2 20.0597 3.87139 87.5168
8858 2 20.4556 3.96798 85.9354
8859 1 48.7504 28.6946 91.0784
8860 2 49.635 28.2475 91.2105
8861 2 48.7727 29.2362 90.2381
8862 1 57.2646 20.0698 71.4986
8863 2 58.0007 19.7381 72.0886
8864 2 57.2997 19.5916 70.621
8865 1 76.916 0.91939 84.4239
8866 2 77.3846 1.16009 83.5739
8867 2 77.5899 0.79477 85.1522
8868 1 13.4392 20.7166 57.1011
8869 2 13.9681 21.1286 56.3591
8870 2 12.6005 20.3172 56.7308
8871 1 67.6403 2.11986 81.8221
8872 2 68.2969 2.44437 82.5029
8873 2 68.0636 1.40565 81.2647
8874 1 66.2895 23.1292 13.7025
8875 2 67.2182 22.8455 13.4638
8876 2 65.6511 22.3876 13.4966
8877 1 60.5505 4.11992 53.3972
8878 2 60.4845 5.09226 53.6213
8879 2 60.1079 3.95003 52.5167
8880 1 11.7937 26.3989 71.2419
8881 2 11.1368 26.1523 70.5294
8882 2 12.45 25.654 71.3624
8883 1 14.0196 14.2772 64.0307
8884 2 13.8436 15.037 63.4047
8885 2 14.4918 13.5444 63.5408
8886 1 4.42104 2.78269 64.4233
8887 2 3.56714 2.2745 64.5356
8888 2 5.16998 2.27396 64.8479
8889 1 66.9193 2.57555 43.08
8890 2 67.0151 2.39866 44.0596
8891 2 66.715 1.71952 42.6052
8892 1 61.6468 21.2251 67.546
8893 2 62.511 21.7134 67.4244
8894 2 61.3728 20.8112 66.6779
8895 1 61.2348 7.74542 25.694
8896 2 62.1827 7.48118 25.5156
8897 2 61.1206 7.93941 26.6683
8898 1 41.9228 13.9311 63.3693
8899 2 42.1941 14.6063 64.0553
8900 2 41.4222 14.3866 62.6331
8901 1 39.4047 20.47 35.7824
8902 2 38.9992 21.3522 36.0216
8903 2 38.7784 19.9654 35.1881
8904 1 24.2804 12.7525 67.1158
8905 2 23.2976 12.9216 67.0423
8906 2 24.4523 11.7678 67.0864
8907 1 37.4698 23.6436 84.9611
8908 2 37.7804 23.0765 84.1983
8909 2 38.1818 23.6782 85.6623
8910 1 24.3869 21.0933 75.3952
8911 2 23.5077 21.2946 75.8271
8912 2 24.2655 20.3734 74.7118
8913 1 69.7893 8.44394 89.0794
8914 2 70.6198 8.81268 88.662
8915 2 69.1717 9.19506 89.3127
8916 1 45.077 9.12197 65.4743
8917 2 44.4557 8.36142 65.6626
8918 2 45.7884 9.15288 66.1764
8919 1 64.0001 9.59254 89.2316
8920 2 63.104 9.96168 88.9853
8921 2 64.2805 8.91592 88.5507
8922 1 48.8666 19.9924 70.6142
8923 2 48.9914 20.4509 71.494
8924 2 48.7683 19.0083 70.7622
8925 1 11.2025 11.0819 80.8244
8926 2 11.759 11.8042 81.2352
8927 2 11.7955 10.3361 80.5209
8928 1 29.9694 27.1788 56.2182
8929 2 29.3245 26.6272 55.6892
8930 2 29.5784 27.3783 57.1168
8931 1 5.70644 5.10203 67.6449
8932 2 5.98407 4.2198 68.0251
8933 2 6.02098 5.83749 68.245
8934 1 10.2005 20.7636 84.5964
8935 2 9.54842 20.7623 85.3545
8936 2 9.70901 20.8853 83.7341
8937 1 4.85911 11.1061 71.4194
8938 2 5.1239 11.922 71.9333
8939 2 4.63896 11.3619 70.4781
8940 1 16.1223 23.9201 72.0472
8941 2 16.7547 24.3884 71.4301
8942 2 15.1851 24.2004 71.8396
8943 1 77.2684 1.41185 68.4647
8944 2 77.9381 1.04907 67.8167
8945 2 77.6889 1.49285 69.3683
8946 1 28.7669 1.44118 84.7526
8947 2 27.8292 1.76524 84.8774
8948 2 29.3784 1.94811 85.3601
8949 1 0.591207 2.81328 10.6225
8950 2 0.153394 2.03908 11.0796
8951 2 0.239006 2.89237 9.68994
8952 1 10.8519 24.2766 52.1522
8953 2 11.1119 24.6805 53.0293
8954 2 11.2958 23.3863 52.0505
8955 1 51.6525 3.47432 38.713
8956 2 50.6715 3.29252 38.7807
8957 2 52.1366 2.95921 39.4204
8958 1 62.4847 19.9051 44.2334
8959 2 62.6848 19.2929 44.9984
8960 2 63.3142 20.402 43.9784
8961 1 36.6547 7.63714 42.9405
8962 2 37.575 7.96185 42.7222
8963 2 36.2541 8.22077 43.6469
8964 1 3.90821 4.18177 77.2867
8965 2 3.12955 3.78679 76.7992
8966 2 4.47227 4.70355 76.6467
8967 1 72.5615 29.7291 60.7063
8968 2 73.4331 29.461 60.2958
8969 2 72.7185 0.451393 61.3798
8970 1 33.654 13.631 65.5034
8971 2 33.9156 12.7687 65.9371
8972 2 34.2286 14.3694 65.8565
8973 1 50.8639 23.8406 42.3668
8974 2 51.7566 23.6025 42.7495
8975 2 50.2499 24.1232 43.1038
8976 1 42.4408 28.1967 86.013
8977 2 41.7779 27.6684 85.4826
8978 2 43.23 28.414 85.4387
8979 1 78.5522 16.6155 81.2501
8980 2 78.3612 17.4335 80.7075
8981 2 77.7875 16.4409 81.8704
8982 1 36.883 4.35074 76.4686
8983 2 36.1782 4.77718 75.9017
8984 2 36.4497 3.84073 77.2116
8985 1 53.2381 24.3647 75.5423
8986 2 52.5564 24.4341 76.2707
8987 2 54.02 24.9485 75.7608
8988 1 55.857 9.29474 31.6349
8989 2 55.2603 9.21094 30.8368
8990 2 55.4418 8.82249 32.4125
8991 1 19.54 11.9934 20.2303
8992 2 18.5511 12.0735 20.3551
8993 2 19.8779 12.7888 19.7271
8994 1 11.1116 5.20331 35.2036
8995 2 11.2211 6.18835 35.3365
8996 2 10.3924 4.86313 35.8095
8997 1 27.7568 20.9195 38.69
8998 2 27.9131 21.4942 39.4933
8999 2 27.1313 20.1766 38.9282
9000 1 3.26441 24.6863 19.1983
9001 2 3.54741 24.3612 18.296
9002 2 3.2311 25.6858 19.1971
9003 1 28.0427 16.5474 53.6401
9004 2 28.9207 16.9277 53.9308
9005 2 27.6339 16.0366 54.3964
9006 1 59.4045 10.8671 27.859
9007 2 60.1074 10.1571 27.9036
9008 2 59.4075 11.393 28.7095
9009 1 69.9285 27.2408 59.647
9010 2 70.3026 27.2527 58.7197
9011 2 69.2213 26.5367 59.7121
9012 1 53.4073 23.1205 52.2061
9013 2 53.3494 24.0273 52.6237
9014 2 54.0754 22.5667 52.7031
9015 1 57.405 22.1343 48.5824
9016 2 56.9448 21.252 48.6818
9017 2 56.742 22.8255 48.2948
9018 1 54.6755 13.5211 78.256
9019 2 53.9733 12.8092 78.249
9020 2 55.2201 13.4439 79.0912
9021 1 74.3986 6.33974 87.4439
9022 2 74.0303 6.13604 88.3511
9023 2 75.2388 6.87396 87.5375
9024 1 22.858 20.1756 59.7256
9025 2 23.3376 19.3042 59.6226
9026 2 22.2627 20.1356 60.5281
9027 1 16.2695 11.6972 66.4482
9028 2 16.6292 12.0026 65.5665
9029 2 16.3553 12.4357 67.117
9030 1 41.8923 18.3184 40.4035
9031 2 41.5739 17.8814 41.2447
9032 2 41.573 17.7942 39.614
9033 1 9.10028 29.8446 66.0827
9034 2 9.46078 29.7418 65.1556
9035 2 9.62862 0.539353 66.5707
9036 1 38.9143 0.345318 76.1559
9037 2 38.726 1.05797 75.4801
9038 2 38.771 0.711569 77.0753
9039 1 29.4282 15.9862 42.6876
9040 2 29.7551 16.3163 43.5732
9041 2 29.5067 16.7172 42.0098
9042 1 12.8041 0.376324 70.0081
9043 2 12.6535 1.0771 69.3108
9044 2 13.6178 0.606647 70.5418
9045 1 1.96839 12.408 59.6429
9046 2 1.69416 12.4676 60.6027
9047 2 1.15804 12.4701 59.0603
9048 1 68.3558 22.6143 21.5881
9049 2 68.66 22.966 20.7028
9050 2 69.1526 22.3887 22.1487
9051 1 26.1072 18.5442 46.082
9052 2 25.6556 17.9876 45.3847
9053 2 26.9643 18.1067 46.3541
9054 1 13.6906 24.7132 90.0216
9055 2 14.5181 25.2158 89.7714
9056 2 13.8188 23.7411 89.8253
9057 1 32.6205 17.7497 62.2238
9058 2 32.2432 18.5457 62.697
9059 2 32.2014 16.9171 62.5859
9060 1 10.0736 8.67929 42.2022
9061 2 11.039 8.4312 42.2828
9062 2 9.5742 8.33801 42.9985
9063 1 22.5882 28.6355 42.0773
9064 2 22.4041 27.9155 42.7463
9065 2 21.8715 28.6337 41.3799
9066 1 16.9485 6.74193 32.7837
9067 2 17.2354 5.80683 32.5756
9068 2 16.6632 6.79792 33.7405
9069 1 10.6361 19.7901 47.3434
9070 2 11.2367 20.5347 47.6347
9071 2 10.7781 18.9964 47.9349
9072 1 9.69479 0.582714 43.0339
9073 2 9.28956 29.7195 42.7327
9074 2 9.11352 1.34297 42.7439
9075 1 15.544 28.9866 41.4023
9076 2 15.5336 29.9865 41.4138
9077 2 15.5886 28.6646 40.4567
9078 1 73.7462 22.095 90.7732
9079 2 74.0813 23.0358 90.8229
9080 2 72.7465 22.0982 90.7471
9081 1 29.9225 28.8828 40.772
9082 2 30.212 28.2996 41.5309
9083 2 30.7191 29.1346 40.2224
9084 1 9.25732 5.56405 87.7731
9085 2 8.87286 5.62315 86.8518
9086 2 9.80859 4.73342 87.8515
9087 1 10.985 5.60292 19.8502
9088 2 11.5065 4.78594 19.6042
9089 2 10.9582 6.22859 19.0706
9090 1 1.01502 19.9053 67.4471
9091 2 0.0487612 19.849 67.6984
9092 2 1.38913 20.7801 67.755
9093 1 48.5385 0.571533 39.6395
9094 2 47.5782 0.634843 39.9114
9095 2 48.8491 1.46069 39.3034
9096 1 15.8959 11.9456 84.5833
9097 2 16.7635 11.7258 85.0293
9098 2 15.5947 11.1641 84.0369
9099 1 50.4064 15.5142 71.4803
9100 2 49.6287 16.1168 71.6594
9101 2 50.3603 14.7211 72.0876
9102 1 33.3263 2.78904 89.999
9103 2 32.8611 3.67265 90.0519
9104 2 32.6634 2.0542 90.1421
9105 1 0.897043 29.4058 54.2375
9106 2 1.75758 29.491 53.7353
9107 2 1.01619 28.7662 54.9969
9108 1 62.0527 4.69874 88.277
9109 2 62.9679 5.04101 88.4896
9110 2 61.4163 4.98051 88.9951
9111 1 64.9496 3.6823 11.4171
9112 2 64.7021 4.01883 12.3256
9113 2 64.12 3.53906 10.8773
9114 1 77.8025 7.24102 47.355
9115 2 76.9156 6.85072 47.1078
9116 2 78.4526 7.08929 46.6104
9117 1 28.3295 22.4253 72.8507
9118 2 28.5529 21.5875 72.3525
9119 2 28.4685 22.2779 73.83
9120 1 62.7288 8.46346 50.2636
9121 2 62.3923 7.69983 50.8147
9122 2 62.4588 9.3267 50.6901
9123 1 7.44761 3.20236 13.6677
9124 2 7.69309 2.99998 14.6158
9125 2 6.75523 3.92366 13.6494
9126 1 67.4808 6.72771 66.7862
9127 2 66.8168 7.05805 66.1154
9128 2 68.3909 6.70774 66.3724
9129 1 72.5131 21.1721 39.5485
9130 2 72.7662 21.5149 38.6438
9131 2 71.5225 21.2418 39.6663
9132 1 48.8455 14.7774 65.84
9133 2 48.4953 14.4599 66.7213
9134 2 49.2967 15.6617 65.9597
9135 1 10.1283 22.8505 29.0452
9136 2 9.20012 22.4928 29.1482
9137 2 10.3233 22.9967 28.0753
9138 1 6.55425 24.486 61.6593
9139 2 7.49123 24.1404 61.7105
9140 2 5.94979 23.7623 61.3263
9141 1 73.4225 29.0125 46.8929
9142 2 73.015 29.8949 46.6576
9143 2 73.5496 28.9576 47.8833
9144 1 40.9943 10.72 69.2072
9145 2 40.5966 11.2007 69.9887
9146 2 40.7195 11.1757 68.3605
9147 1 42.2328 27.9481 72.279
9148 2 42.5908 27.9997 73.2113
9149 2 41.572 27.2002 72.2166
9150 1 78.8168 8.12407 65.1431
9151 2 79.2899 8.37848 65.9866
9152 2 78.7081 7.13059 65.1086
9153 1 39.6346 23.0392 48.3704
9154 2 40.4799 22.618 48.6992
9155 2 38.8517 22.4952 48.6723
9156 1 77.099 11.7682 56.0407
9157 2 78.0693 11.6849 55.8135
9158 2 76.8238 10.9976 56.6155
9159 1 47.5228 21.975 69.6578
9160 2 48.0533 21.2034 70.0089
9161 2 48.1189 22.7718 69.5589
9162 1 19.0151 5.03063 61.2591
9163 2 18.8281 4.28222 60.6228
9164 2 18.2188 5.17572 61.8463
9165 1 6.97582 15.6081 77.667
9166 2 6.35026 16.2366 77.2048
9167 2 6.46868 14.8072 77.9854
9168 1 31.3307 5.22555 63.9403
9169 2 32.3186 5.17032 64.0853
9170 2 31.101 6.11483 63.5448
9171 1 58.3207 0.285922 45.2521
9172 2 58.3068 29.3502 44.8997
9173 2 57.5609 0.413305 45.8896
9174 1 34.1124 18.2687 86.5763
9175 2 34.7206 18.1305 85.7946
9176 2 34.2227 17.5132 87.2221
9177 1 77.8178 29.4241 56.2648
9178 2 77.7292 28.8149 55.4767
9179 2 78.239 28.9278 57.024
9180 1 56.1264 11.9554 51.4779
9181 2 55.559 12.3412 50.7504
9182 2 55.9966 12.4832 52.3173
9183 1 65.5139 29.9568 67.0275
9184 2 65.2835 29.1576 66.4723
9185 2 66.4804 0.181472 66.9033
9186 1 44.2826 3.93946 90.1238
9187 2 43.991 3.94947 91.0803
9188 2 45.0759 4.53773 90.0109
9189 1 23.8391 3.2471 67.4238
9190 2 23.6187 2.58221 68.1375
9191 2 23.0993 3.91596 67.3514
9192 1 62.9638 9.48557 38.0993
9193 2 62.2402 10.0541 38.4908
9194 2 62.6594 9.11691 37.2209
9195 1 68.4303 25.2137 49.2834
9196 2 67.6358 24.6088 49.2297
9197 2 68.17 26.1328 48.9877
9198 1 60.6174 9.30245 75.4392
9199 2 59.7123 9.62843 75.7123
9200 2 60.522 8.62888 74.7063
9201 1 74.0195 27.8818 66.2585
9202 2 73.5508 27.9689 65.3794
9203 2 73.9856 26.9293 66.5614
9204 1 73.0347 5.17187 14.1283
9205 2 72.3031 4.5364 13.8814
9206 2 73.6442 4.73718 14.7913
9207 1 73.4431 5.26817 85.1964
9208 2 72.4568 5.17296 85.331
9209 2 73.8446 5.72909 85.9878
9210 1 35.6065 29.7846 87.4727
9211 2 35.8846 0.179741 88.3482
9212 2 35.3115 0.514631 86.8563
9213 1 20.3041 3.02824 73.2667
9214 2 19.3949 3.2817 72.9364
9215 2 20.6139 3.70056 73.939
9216 1 11.6112 2.55935 72.7814
9217 2 11.3661 2.56248 71.8119
9218 2 10.9809 3.14886 73.2865
9219 1 12.5798 25.1462 16.4579
9220 2 13.3303 25.0756 17.115
9221 2 12.4579 26.1027 16.1927
9222 1 19.5608 10.9897 32.4108
9223 2 19.345 11.012 33.387
9224 2 18.7429 10.7361 31.8944
9225 1 56.7459 17.5147 29.1764
9226 2 56.9476 16.8624 28.4459
9227 2 57.1164 17.173 30.0401
9228 1 69.0351 18.5324 21.8242
9229 2 69.8174 18.7484 22.4085
9230 2 68.238 18.3336 22.3944
9231 1 47.7121 25.414 83.7046
9232 2 48.123 25.5157 84.6106
9233 2 48.4047 25.0933 83.0585
9234 1 68.2974 25.6718 43.3234
9235 2 69.1812 25.3317 43.6445
9236 2 67.8435 24.9627 42.7837
9237 1 69.0869 6.20507 69.4697
9238 2 69.2101 7.19742 69.475
9239 2 68.2387 5.97199 69.9455
9240 1 6.09407 19.6408 24.6223
9241 2 5.61038 20.5024 24.468
9242 2 6.76409 19.4996 23.8935
9243 1 34.3697 26.4722 36.8254
9244 2 33.599 26.6894 36.2263
9245 2 34.8006 27.32 37.1348
9246 1 8.09975 27.0866 45.26
9247 2 8.00459 27.8099 45.944
9248 2 8.03775 26.1945 45.7075
9249 1 53.9582 9.28213 39.5781
9250 2 54.9333 9.43007 39.4132
9251 2 53.5929 10.0396 40.1192
9252 1 73.5097 4.16761 53.7281
9253 2 73.738 4.14685 54.7014
9254 2 73.3721 3.23374 53.398
9255 1 64.5942 22.2343 16.3825
9256 2 65.4934 22.269 16.8186
9257 2 64.0032 21.6047 16.8869
9258 1 71.1195 22.9602 45.6405
9259 2 70.9338 23.711 45.0067
9260 2 72.0311 22.5902 45.461
9261 1 40.5349 4.88455 54.5223
9262 2 39.6128 4.84945 54.9075
9263 2 41.2068 4.84867 55.2621
9264 1 59.9936 8.57958 20.8022
9265 2 60.4711 9.27567 20.2661
9266 2 60.1156 7.68535 20.3716
9267 1 70.7835 12.7885 26.0099
9268 2 69.8593 13.1677 26.0556
9269 2 70.8893 12.0827 26.7103
9270 1 29.5896 24.3355 79.3797
9271 2 28.987 24.8595 78.7779
9272 2 30.4922 24.7654 79.4042
9273 1 27.2702 20.1995 32.9761
9274 2 28.1121 20.6763 33.2289
9275 2 27.4981 19.3249 32.5482
9276 1 56.1854 1.72536 46.6109
9277 2 55.3266 1.48798 46.157
9278 2 56.2982 1.15974 47.4278
9279 1 15.6093 21.5921 78.0778
9280 2 16.5823 21.5628 77.8492
9281 2 15.488 22.0436 78.9618
9282 1 57.5999 3.18069 55.3451
9283 2 57.8478 3.81268 56.0793
9284 2 58.0958 2.32048 55.4641
9285 1 3.69257 1.07293 54.6187
9286 2 3.43075 0.303894 54.0356
9287 2 2.89589 1.3852 55.1362
9288 1 18.6891 17.9097 43.4512
9289 2 18.5885 18.6564 44.1087
9290 2 18.0896 17.153 43.712
9291 1 19.2026 6.83955 52.3729
9292 2 19.5045 6.26933 53.137
9293 2 19.9451 6.92747 51.7089
9294 1 69.9678 7.53457 43.0167
9295 2 69.0087 7.59902 42.741
9296 2 70.5524 7.82939 42.2608
9297 1 9.3669 26.6399 76.6427
9298 2 10.2885 26.7774 76.2797
9299 2 9.41958 26.4514 77.6234
9300 1 42.2443 17.7897 58.1112
9301 2 42.8817 18.5546 58.2043
9302 2 42.1714 17.3082 58.9846
9303 1 70.991 15.6259 71.5268
9304 2 70.8232 15.5135 72.5061
9305 2 70.3304 16.2739 71.1476
9306 1 38.1231 9.46574 37.6914
9307 2 38.7981 9.19835 37.0037
9308 2 37.484 8.71151 37.8421
9309 1 21.6271 23.0264 33.5501
9310 2 22.332 22.6785 34.1682
9311 2 21.845 22.7584 32.6116
9312 1 32.5263 10.5129 59.8727
9313 2 32.8584 10.8492 58.9914
9314 2 32.3233 9.53629 59.8017
9315 1 20.8732 16.7537 38.9771
9316 2 20.175 16.5952 38.2791
9317 2 21.6516 17.2299 38.5679
9318 1 62.2993 2.11329 80.9618
9319 2 63.0656 1.47096 80.9773
9320 2 61.8699 2.14158 81.8644
9321 1 57.2976 6.0946 29.1549
9322 2 56.4796 6.19301 29.7216
9323 2 57.1156 6.45741 28.241
9324 1 17.9018 21.7645 76.2613
9325 2 18.4243 21.2594 76.9483
9326 2 18.5075 22.4006 75.7832
9327 1 61.8407 16.4333 73.6769
9328 2 61.7959 15.4413 73.7954
9329 2 62.1983 16.6444 72.7672
9330 1 30.1134 4.83543 60.4314
9331 2 30.8595 4.1935 60.6085
9332 2 29.5432 4.48671 59.6876
9333 1 76.4146 29.5795 46.7305
9334 2 77.0006 29.5664 47.5407
9335 2 75.5605 29.0987 46.929
9336 1 70.0511 6.88058 53.7929
9337 2 70.0996 6.40804 52.9129
9338 2 70.5334 7.75425 53.7291
9339 1 62.5441 2.47164 23.5405
9340 2 63.1527 1.69504 23.3776
9341 2 61.6506 2.13769 23.8408
9342 1 8.23749 10.4863 68.7322
9343 2 7.42531 10.9856 69.0339
9344 2 8.73933 11.0377 68.0658
9345 1 69.2649 8.16552 20.8867
9346 2 69.9878 7.5838 20.5139
9347 2 68.705 7.63489 21.5231
9348 1 53.6524 19.7728 40.7893
9349 2 53.7852 18.9977 40.1715
9350 2 53.1157 20.479 40.3275
9351 1 6.43817 12.2189 77.855
9352 2 6.44576 11.9276 78.8116
9353 2 5.63297 12.7873 77.686
9354 1 20.2863 6.53986 23.0124
9355 2 20.71 7.21683 22.4105
9356 2 19.9897 6.98451 23.8575
9357 1 10.31 18.1977 43.5926
9358 2 10.578 18.4444 42.6613
9359 2 9.35187 18.4433 43.7398
9360 1 74.8111 2.65225 36.8191
9361 2 74.804 2.0249 36.0403
9362 2 74.8997 2.12985 37.6671
9363 1 16.5286 10.604 35.4944
9364 2 16.0787 10.0604 34.7858
9365 2 16.6845 10.0353 36.3021
9366 1 21.0679 21.9933 28.4744
9367 2 20.9205 21.3725 27.7044
9368 2 20.2289 22.507 28.6537
9369 1 7.49941 2.90028 76.6482
9370 2 7.85848 3.48418 75.9201
9371 2 7.59275 3.36803 77.5271
9372 1 70.6215 2.61273 86.4895
9373 2 71.3757 2.1008 86.0781
9374 2 70.6275 3.55087 86.1433
9375 1 17.3917 17.1612 38.4869
9376 2 17.9318 16.5747 37.8835
9377 2 17.0546 17.9492 37.9717
9378 1 39.5027 5.50891 51.6957
9379 2 39.365 6.04202 52.5304
9380 2 39.3452 6.09154 50.8983
9381 1 25.2835 17.8558 51.9742
9382 2 24.6157 17.1447 52.194
9383 2 25.569 18.3162 52.8148
9384 1 0.439548 15.5135 29.4507
9385 2 0.68907 14.7486 30.0446
9386 2 79.9116 15.1729 28.6727
9387 1 72.5223 25.9652 54.6485
9388 2 73.3954 25.538 54.4136
9389 2 71.7867 25.2947 54.5528
9390 1 64.3596 9.1746 26.2442
9391 2 63.9615 8.37713 25.7908
9392 2 64.4858 9.90883 25.5771
9393 1 54.6547 16.8644 53.0473
9394 2 54.963 17.6643 53.5621
9395 2 53.7218 17.0171 52.7213
9396 1 3.95379 24.4817 29.2309
9397 2 4.24016 24.9689 30.056
9398 2 3.62514 23.5705 29.4791
9399 1 75.3101 28.6026 12.8892
9400 2 74.9254 28.1517 13.6947
9401 2 74.7188 29.3621 12.6181
9402 1 47.4542 8.70937 39.3174
9403 2 46.8428 8.81492 38.5332
9404 2 47.1009 9.23827 40.089
9405 1 51.0851 5.34002 90.7612
9406 2 50.3742 5.82303 91.2724
9407 2 50.7159 5.03589 89.883
9408 1 27.1419 6.69065 71.5229
9409 2 26.4123 6.88142 72.1796
9410 2 26.8544 5.95478 70.9098
9411 1 30.5505 12.6393 75.4397
9412 2 30.8148 13.1965 74.6525
9413 2 30.591 13.1951 76.2701
9414 1 69.8582 1.41938 41.2033
9415 2 68.9082 1.11469 41.1339
9416 2 70.1992 1.23985 42.126
9417 1 17.1245 11.2488 52.6545
9418 2 16.6043 12.0764 52.8653
9419 2 18.0697 11.3621 52.9605
9420 1 62.3945 26.6849 20.5685
9421 2 61.9617 27.4824 20.1483
9422 2 62.2951 26.7365 21.5622
9423 1 73.3131 13.2142 20.4366
9424 2 73.5513 12.4483 21.0337
9425 2 74.0346 13.3435 19.7564
9426 1 74.3792 27.2937 22.1555
9427 2 74.5328 26.845 21.2751
9428 2 74.5154 28.2793 22.0555
9429 1 50.3933 20.3468 84.7091
9430 2 50.7601 21.2077 85.0615
9431 2 49.9686 20.5054 83.8177
9432 1 9.21901 15.7433 26.9465
9433 2 9.81975 16.3833 26.4674
9434 2 9.28535 14.8412 26.5202
9435 1 18.6188 25.5172 88.8756
9436 2 19.473 26.0034 88.6914
9437 2 18.8159 24.6763 89.3796
9438 1 21.5598 14.603 31.2004
9439 2 21.1581 15.2662 30.5688
9440 2 22.534 14.4996 31
9441 1 75.6397 14.0291 51.8721
9442 2 75.4523 14.9145 51.4469
9443 2 74.9164 13.8148 52.5286
9444 1 73.5071 28.138 55.6084
9445 2 73.2999 28.8649 54.9537
9446 2 73.1906 27.2618 55.2448
9447 1 3.26643 6.17849 57.5653
9448 2 4.17579 5.78276 57.6937
9449 2 2.98273 6.0602 56.6137
9450 1 33.9625 11.5754 43.7543
9451 2 34.357 12.4728 43.9522
9452 2 34.6185 10.8616 43.9997
9453 1 59.847 13.6648 27.3357
9454 2 59.2717 12.8481 27.3814
9455 2 60.4138 13.7198 28.1577
9456 1 63.4306 29.5072 17.7296
9457 2 63.9738 29.7107 18.5441
9458 2 62.4614 29.478 17.974
9459 1 17.63 22.5592 19.5855
9460 2 18.1384 23.2249 20.1317
9461 2 17.8116 22.7163 18.6148
9462 1 1.873 16.0529 33.7502
9463 2 2.64593 15.9248 33.1288
9464 2 1.74367 15.2252 34.2963
9465 1 61.5276 10.7874 35.365
9466 2 60.8009 11.1801 35.9286
9467 2 61.337 9.81933 35.2024
9468 1 40.6213 24.3676 36.5858
9469 2 41.3308 23.6722 36.7008
9470 2 40.8414 25.1644 37.1486
9471 1 77.3444 17.7574 32.0724
9472 2 77.3093 18.5171 32.7216
9473 2 77.9436 17.041 32.4298
9474 1 60.7878 14.389 81.7612
9475 2 61.3492 15.2037 81.6157
9476 2 60.0227 14.6148 82.3642
9477 1 53.1442 7.31016 79.4946
9478 2 52.8033 6.41378 79.778
9479 2 54.054 7.45856 79.8821
9480 1 34.1335 25.761 44.6615
9481 2 33.6773 26.587 44.3305
9482 2 35.0927 25.9654 44.8567
9483 1 40.2574 10.345 44.4312
9484 2 41.0632 9.91763 44.8413
9485 2 39.8484 9.71767 43.7685
9486 1 58.0826 3.16106 83.1474
9487 2 57.7939 2.62404 83.9401
9488 2 59.0123 3.49878 83.2943
9489 1 67.4915 25.0788 57.2677
9490 2 66.8528 24.4329 56.8496
9491 2 66.9806 25.8338 57.6788
9492 1 8.04136 14.9928 67.7168
9493 2 8.09056 15.4522 66.83
9494 2 8.80583 15.2899 68.289
9495 1 54.7041 2.65613 29.809
9496 2 53.766 2.45173 30.0887
9497 2 55.3374 2.06722 30.3111
9498 1 60.0478 21.2734 57.6932
9499 2 59.4185 21.0588 56.9462
9500 2 60.6095 20.4714 57.8966
9501 1 29.4265 26.1194 71.9895
9502 2 29.7704 26.8476 72.5823
9503 2 28.4271 26.1482 71.9717
9504 1 7.48445 25.6892 20.6924
9505 2 7.50764 24.9392 21.3535
9506 2 7.80088 25.3593 19.803
9507 1 20.9845 3.2577 24.0099
9508 2 21.4606 4.09338 23.7361
9509 2 20.4921 3.4196 24.8651
9510 1 78.9457 11.2263 40.1552
9511 2 79.3271 11.8431 39.4666
9512 2 78.3471 11.7412 40.7689
9513 1 77.4722 12.271 49.5693
9514 2 77.9547 12.5151 50.4104
9515 2 76.7049 12.8972 49.4314
9516 1 79.9275 29.8943 47.8038
9517 2 79.1179 0.480793 47.7814
9518 2 0.572611 0.242468 48.4839
9519 1 40.7833 28.0402 40.4201
9520 2 40.4112 28.8929 40.0535
9521 2 41.7815 28.0607 40.364
9522 1 58.0666 14.9439 62.0459
9523 2 58.5595 14.8699 62.9128
9524 2 57.1021 15.1371 62.2264
9525 1 69.0914 0.437632 62.942
9526 2 69.0362 1.07229 62.1712
9527 2 68.2311 29.9341 63.0214
9528 1 77.9187 8.76407 41.6435
9529 2 78.8171 8.96251 41.2516
9530 2 77.2061 9.02237 40.9913
9531 1 30.8802 17.9385 41.3583
9532 2 31.0435 18.73 41.9473
9533 2 31.5979 17.2583 41.5075
9534 1 4.77841 15.6912 58.7913
9535 2 3.78424 15.6086 58.8607
9536 2 5.02264 16.0207 57.8792
9537 1 10.571 13.6741 43.0007
9538 2 10.0779 14.0144 43.8014
9539 2 9.91588 13.4167 42.2904
9540 1 20.7599 15.9699 49.6968
9541 2 21.2897 16.3275 48.9278
9542 2 21.262 15.22 50.1275
9543 1 5.79248 18.2983 45.9458
9544 2 4.97237 18.6853 46.3673
9545 2 6.54199 18.3044 46.6077
9546 1 65.3013 22.5451 33.786
9547 2 64.7612 21.9415 33.1994
9548 2 64.9567 22.4947 34.7234
9549 1 56.892 22.5967 72.3355
9550 2 57.1383 21.6348 72.217
9551 2 55.9311 22.6641 72.604
9552 1 33.5845 20.7869 48.766
9553 2 33.0398 21.3274 48.1248
9554 2 32.977 20.2286 49.3311
9555 1 53.1962 22.1715 36.9772
9556 2 53.4551 23.1363 36.9303
9557 2 52.9022 21.9501 37.907
9558 1 58.7176 10.5873 33.6928
9559 2 58.2755 11.3702 33.2552
9560 2 58.1792 10.3005 34.4852
9561 1 54.7427 28.2903 79.0744
9562 2 55.1068 27.7579 78.3103
9563 2 53.8165 27.9786 79.2865
9564 1 7.49984 6.59528 27.6909
9565 2 8.28238 7.1945 27.5218
9566 2 6.65587 7.13025 27.652
9567 1 21.2269 21.077 79.5936
9568 2 21.6305 20.4228 80.2332
9569 2 21.1799 21.9783 80.0241
9570 1 67.52 10.0294 89.3855
9571 2 66.8675 10.2039 88.6481
9572 2 67.2585 9.19539 89.8715
9573 1 59.064 18.8144 40.4028
9574 2 58.6769 17.9064 40.563
9575 2 59.4277 18.8623 39.4724
9576 1 74.2152 27.8791 33.834
9577 2 74.7584 27.0745 33.5941
9578 2 73.2729 27.6014 34.021
9579 1 70.6997 21.4993 19.3196
9580 2 71.2162 21.3749 18.4724
9581 2 70.6008 22.4762 19.5092
9582 1 55.4452 10.8151 57.8145
9583 2 54.6156 10.7785 57.2573
9584 2 56.1989 10.3835 57.3188
9585 1 71.728 25.7959 85.0515
9586 2 71.7705 26.4927 85.7676
9587 2 72.654 25.5769 84.7442
9588 1 73.4941 19.2671 35.6481
9589 2 73.186 18.4768 36.1776
9590 2 73.6009 19.0048 34.689
9591 1 75.1736 29.5351 78.8576
9592 2 75.5486 28.6422 79.1067
9593 2 75.5677 0.238843 79.4488
9594 1 49.3053 9.49284 45.7319
9595 2 49.7508 8.68966 45.3364
9596 2 48.5869 9.81335 45.1145
9597 1 50.3542 10.6296 32.6677
9598 2 50.6713 10.8826 33.5817
9599 2 50.0845 9.66673 32.6631
9600 1 68.0828 3.26348 84.7411
9601 2 68.9963 3.63258 84.9123
9602 2 67.4328 4.01652 84.6391
9603 1 14.3295 19.9708 43.6761
9604 2 14.4498 20.6674 42.9688
9605 2 14.4875 19.0652 43.2823
9606 1 56.183 2.19801 42.7454
9607 2 57.1018 2.41351 43.0761
9608 2 55.5278 2.8442 43.1368
9609 1 63.8486 0.774746 47.875
9610 2 62.995 0.470525 47.4521
9611 2 64.2832 0.00377103 48.3405
9612 1 36.1746 9.54317 89.1815
9613 2 35.2194 9.31284 88.9954
9614 2 36.6689 8.71844 89.4562
9615 1 42.3204 8.64191 82.7619
9616 2 41.8806 9.28351 83.3904
9617 2 43.3004 8.83604 82.7191
9618 1 69.23 7.15406 33.5795
9619 2 68.4209 6.66386 33.9037
9620 2 70.0183 6.90502 34.1422
9621 1 43.3225 8.16231 62.9407
9622 2 43.7065 8.35256 63.8442
9623 2 43.2836 9.00899 62.41
9624 1 0.510427 5.46049 53.2503
9625 2 79.6603 5.3426 53.7634
9626 2 1.17887 5.94045 53.8185
9627 1 13.0817 16.2533 26.0565
9628 2 12.3395 16.9175 25.9674
9629 2 12.7132 15.3279 25.968
9630 1 59.3973 12.2123 42.921
9631 2 58.579 12.4427 42.3944
9632 2 59.2539 12.4512 43.8814
9633 1 76.6588 24.316 77.8993
9634 2 76.3662 23.6601 78.5952
9635 2 77.6578 24.3389 77.8619
9636 1 72.6622 1.881 52.3286
9637 2 71.7724 1.95787 51.8787
9638 2 73.2955 1.38726 51.7327
9639 1 68.6268 11.919 32.405
9640 2 67.7413 11.4751 32.2676
9641 2 69.2002 11.3451 32.9896
9642 1 66.6539 4.54783 24.492
9643 2 66.9339 5.45902 24.7943
9644 2 65.7268 4.59037 24.1198
9645 1 57.3776 29.5631 86.949
9646 2 56.7677 29.7394 87.7216
9647 2 57.1087 0.135776 86.1746
9648 1 65.7968 12.047 35.81
9649 2 66.1534 12.8762 35.3796
9650 2 66.5448 11.5539 36.2542
9651 1 17.2687 25.5645 25.1784
9652 2 16.846 25.9143 24.3424
9653 2 17.1669 26.238 25.9104
9654 1 73.4 2.6989 42.2241
9655 2 74.1585 3.18595 42.6571
9656 2 72.8425 3.3456 41.7036
9657 1 42.9825 22.5129 42.078
9658 2 43.8107 21.9536 42.112
9659 2 43.102 23.321 42.6549
9660 1 70.2265 21.7195 12.9952
9661 2 70.1032 22.6637 13.3008
9662 2 69.5365 21.4995 12.3058
9663 1 74.3862 29.0228 26.2409
9664 2 74.8338 28.1402 26.0974
9665 2 73.5425 28.8881 26.7606
9666 1 1.87236 16.0331 55.8706
9667 2 1.63429 17.0018 55.8003
9668 2 1.91614 15.7697 56.8343
9669 1 79.5 26.8188 10.7987
9670 2 79.2908 25.8417 10.8382
9671 2 79.0858 27.2155 9.97957
9672 1 63.4622 13.0497 19.5835
9673 2 62.8283 12.7898 20.3119
9674 2 63.4379 12.3609 18.859
9675 1 9.76432 13.779 52.9135
9676 2 10.3363 13.5385 52.1293
9677 2 10.2125 14.4979 53.4449
9678 1 9.92485 21.9565 81.2931
9679 2 9.3113 22.7345 81.158
9680 2 10.5881 21.9213 80.5456
9681 1 73.0793 11.8779 87.1152
9682 2 73.3032 12.3732 87.9546
9683 2 72.1744 12.1578 86.7943
9684 1 34.6305 19.9102 70.8739
9685 2 34.7554 20.4408 71.7123
9686 2 33.6535 19.7895 70.6982
9687 1 49.6201 10.3524 51.6701
9688 2 49.5689 11.2878 51.3201
9689 2 49.0074 9.76481 51.1415
9690 1 47.8127 25.1656 36.0666
9691 2 47.8861 24.283 35.6021
9692 2 47.7533 25.8962 35.3864
9693 1 78.7002 16.2719 35.5911
9694 2 78.7302 16.1459 34.5995
9695 2 77.9224 15.7687 35.9676
9696 1 57.4713 9.58061 85.7943
9697 2 58.2253 10.0098 85.297
9698 2 57.8282 9.11654 86.6051
9699 1 7.67939 18.3952 82.1446
9700 2 8.02998 17.5252 82.4914
9701 2 6.98002 18.745 82.768
9702 1 39.3814 28.5643 53.8663
9703 2 40.3767 28.5185 53.7805
9704 2 39.1337 28.6506 54.8313
9705 1 78.483 6.36034 74.2822
9706 2 78.6464 5.58729 74.8951
9707 2 79.2558 6.45759 73.655
9708 1 72.3378 8.38361 27.785
9709 2 73.2238 8.61479 28.187
9710 2 72.474 8.02702 26.8608
9711 1 25.3103 0.667944 82.8064
9712 2 24.6086 0.691448 82.0943
9713 2 25.4339 1.58607 83.1829
9714 1 12.1545 0.227064 14.6001
9715 2 11.8936 29.4794 13.9894
9716 2 12.6637 0.916175 14.0846
9717 1 22.8232 23.8381 64.9557
9718 2 21.8646 24.1226 64.9611
9719 2 23.193 23.9297 64.0311
9720 1 17.8224 29.0037 58.6618
9721 2 18.4578 29.0381 57.8904
9722 2 17.9657 28.1569 59.1742
9723 1 11.1682 12.5148 14.5263
9724 2 11.2146 12.4261 13.5313
9725 2 11.8682 13.1581 14.8365
9726 1 24.6773 11.7796 64.3863
9727 2 24.5685 12.6595 64.8488
9728 2 24.5112 11.0384 65.0367
9729 1 11.4329 11.7545 46.3792
9730 2 12.0099 12.5599 46.2437
9731 2 12.0105 10.9468 46.4975
9732 1 59.83 0.0156849 48.8402
9733 2 60.1036 0.975719 48.7811
9734 2 60.0362 29.666 49.7541
9735 1 68.3392 19.8483 19.5816
9736 2 69.1885 19.9176 19.0583
9737 2 68.5442 19.54 20.5105
9738 1 78.6488 17.4947 27.0082
9739 2 78.8637 18.0455 27.8146
9740 2 78.6902 16.5244 27.2466
9741 1 27.2884 6.95907 37.1457
9742 2 27.5694 6.68548 38.0656
9743 2 26.5241 7.60091 37.2077
9744 1 64.2526 16.9646 38.2396
9745 2 64.5605 16.7645 37.3095
9746 2 63.2892 16.7133 38.3331
9747 1 37.8796 13.6544 81.4663
9748 2 37.4334 13.054 82.1299
9749 2 38.6731 13.1879 81.0756
9750 1 11.6133 1.6757 18.0252
9751 2 12.2347 2.34321 18.4353
9752 2 11.429 1.93108 17.0761
9753 1 77.438 23.4947 63.9195
9754 2 77.2325 23.6622 64.8838
9755 2 76.9764 24.1802 63.3565
9756 1 35.3816 15.5455 66.4769
9757 2 36.3242 15.8006 66.6925
9758 2 34.9 16.3367 66.1
9759 1 62.425 17.2939 21.0693
9760 2 62.749 16.9284 21.942
9761 2 62.2932 16.5432 20.4219
9762 1 38.6081 21.9857 83.2427
9763 2 39.5879 21.9422 83.0477
9764 2 38.2964 21.0987 83.5835
9765 1 36.3567 27.4624 62.8836
9766 2 35.4269 27.8078 62.756
9767 2 36.8838 28.1167 63.4259
9768 1 7.17103 1.45485 49.4382
9769 2 7.21885 0.468076 49.2833
9770 2 7.05487 1.63365 50.4152
9771 1 46.77 0.817268 79.1444
9772 2 46.9131 29.858 79.3879
9773 2 47.1425 1.403 79.8642
9774 1 38.4893 17.0687 69.3561
9775 2 38.4049 16.479 68.5529
9776 2 37.5811 17.2513 69.7324
9777 1 68.2544 16.9401 14.4795
9778 2 67.3462 17.347 14.5773
9779 2 68.3252 16.1368 15.0707
9780 1 76.0556 3.68412 31.4529
9781 2 76.5731 3.99045 30.654
9782 2 76.4613 2.84292 31.8104
9783 1 52.3916 11.4434 82.2425
9784 2 52.2651 12.4228 82.0851
9785 2 51.6166 10.9413 81.8588
9786 1 63.8937 8.66579 54.4621
9787 2 63.2845 9.4581 54.4278
9788 2 63.7276 8.15388 55.3049
9789 1 57.6676 0.118815 61.1456
9790 2 57.3262 29.8162 60.2557
9791 2 58.2431 29.4038 61.5426
9792 1 22.4934 13.5939 47.6343
9793 2 22.4006 13.1894 46.7245
9794 2 22.3821 14.5857 47.571
9795 1 70.1918 3.87164 18.4936
9796 2 70.5578 3.53785 17.6249
9797 2 69.2561 3.53913 18.6109
9798 1 20.7903 0.523826 81.0113
9799 2 20.8684 0.39927 82.0005
9800 2 20.0322 1.14487 80.8124
9801 1 73.1913 0.944071 62.8953
9802 2 73.8816 1.44532 63.4171
9803 2 73.271 29.9665 63.0902
9804 1 37.0481 16.2137 52.8834
9805 2 36.2465 16.7932 52.7368
9806 2 37.877 16.7312 52.6709
9807 1 76.4723 14.3593 45.3371
9808 2 76.4727 14.4816 44.3446
9809 2 76.1732 13.4311 45.5585
9810 1 69.2449 2.72094 65.6351
9811 2 68.9517 1.81882 65.9517
9812 2 70.2377 2.7257 65.5153
9813 1 6.14602 26.4146 71.132
9814 2 6.99482 26.0943 71.5526
9815 2 5.70959 27.0857 71.7313
9816 1 3.25596 3.9441 79.8112
9817 2 2.25713 3.94752 79.7628
9818 2 3.63409 4.1475 78.9081
9819 1 39.0538 4.91238 71.8391
9820 2 39.2134 5.82914 71.473
9821 2 38.9682 4.26218 71.0842
9822 1 13.9775 24.6297 20.5633
9823 2 14.9145 24.5102 20.8916
9824 2 13.9944 24.996 19.633
9825 1 18.2497 7.88667 66.2136
9826 2 18.5224 7.14506 66.8265
9827 2 17.2689 8.056 66.311
9828 1 54.9453 4.57763 35.9358
9829 2 54.1055 5.1044 36.0668
9830 2 55.2004 4.13754 36.7968
9831 1 74.0216 10.4528 72.0971
9832 2 73.7025 10.9144 72.9248
9833 2 73.2348 10.1313 71.5703
9834 1 50.9324 1.08474 71.0295
9835 2 50.863 2.06267 70.8324
9836 2 51.8634 0.869403 71.3242
9837 1 67.5607 28.7481 58.9701
9838 2 68.4449 28.4858 59.3567
9839 2 67.4456 29.7388 59.0433
9840 1 28.297 13.5808 61.422
9841 2 28.7426 14.1936 62.0746
9842 2 28.9372 13.3523 60.6887
9843 1 4.30437 8.38957 55.762
9844 2 4.3032 9.21718 56.3233
9845 2 3.37789 8.01591 55.7172
9846 1 52.3825 6.08501 47.6195
9847 2 51.5377 5.7792 47.1805
9848 2 52.2128 6.24882 48.5913
9849 1 36.5358 14.4341 54.749
9850 2 35.5951 14.0964 54.7176
9851 2 36.6688 15.1176 54.0313
9852 1 10.4603 16.8748 62.1516
9853 2 10.2945 16.4153 63.0242
9854 2 11.3118 16.5347 61.7524
9855 1 28.6942 19.4601 80.0155
9856 2 29.6797 19.3793 80.165
9857 2 28.2127 18.8194 80.6135
9858 1 46.2768 22.6457 36.3135
9859 2 45.5423 23.2925 36.108
9860 2 46.9256 22.6255 35.5529
9861 1 14.0671 8.39299 36.5449
9862 2 13.2319 8.02866 36.1329
9863 2 14.8601 7.91001 36.1736
9864 1 52.6151 11.7447 78.3242
9865 2 52.2069 12.4444 78.9105
9866 2 52.4404 10.8402 78.7135
9867 1 9.5623 14.3213 71.4835
9868 2 8.74547 14.8064 71.7957
9869 2 9.82058 14.6531 70.5762
9870 1 13.953 25.8944 61.0429
9871 2 14.1988 25.3363 61.8355
9872 2 14.1048 26.8598 61.2551
9873 1 14.7343 7.59456 46.6975
9874 2 14.7625 6.86504 46.0142
9875 2 14.1233 8.32148 46.3841
9876 1 77.2648 12.0142 79.6529
9877 2 78.0101 12.2341 80.2824
9878 2 77.5022 11.1969 79.1278
9879 1 75.4649 13.6188 57.3525
9880 2 76.3223 13.3531 56.9119
9881 2 74.7649 12.9305 57.1621
9882 1 17.389 16.592 86.9874
9883 2 17.8691 17.3928 87.3455
9884 2 16.4319 16.826 86.8166
9885 1 23.3659 8.91216 88.9255
9886 2 22.9616 9.72584 88.5078
9887 2 24.3116 8.81346 88.6159
9888 1 8.05352 10.6363 71.5329
9889 2 8.18794 11.0333 70.625
9890 2 8.87496 10.1334 71.8017
9891 1 79.9228 17.5862 89.5061
9892 2 79.2026 17.8011 90.1658
9893 2 0.388537 16.7458 89.7831
9894 1 79.6022 29.5507 76.0055
9895 2 79.6162 28.5508 76.0072
9896 2 79.1797 29.8795 76.8501
9897 1 74.7719 0.0738407 22.1404
9898 2 75.7426 29.9039 21.9706
9899 2 74.6571 0.986005 22.5338
9900 1 76.2228 17.8739 52.7062
9901 2 76.09 17.3102 53.5215
9902 2 76.0096 18.8268 52.9215
9903 1 75.8117 26.6211 26.095
9904 2 76.4939 26.1836 26.6808
9905 2 75.393 25.9343 25.5008
9906 1 48.5129 1.24925 59.9997
9907 2 48.3512 0.549822 59.3035
9908 2 49.2962 0.98466 60.5623
9909 1 69.1685 14.4812 78.1038
9910 2 68.1826 14.3186 78.0653
9911 2 69.5308 14.1303 78.9673
9912 1 14.7555 15.5816 76.5732
9913 2 14.1004 15.7814 75.8445
9914 2 14.3681 15.8545 77.4538
9915 1 78.2369 26.0865 17.2331
9916 2 77.8484 25.5058 16.5177
9917 2 77.4978 26.4989 17.7657
9918 1 28.2012 16.7997 73.8798
9919 2 28.9957 17.374 73.6821
9920 2 27.8414 17.0286 74.7843
9921 1 42.2207 8.21767 40.6875
9922 2 42.1896 7.36348 41.2065
9923 2 42.3084 8.98826 41.3188
9924 1 1.09795 13.417 22.0594
9925 2 0.798309 12.4852 22.2645
9926 2 1.93348 13.6185 22.5706
9927 1 9.23157 26.5289 26.7826
9928 2 9.01795 26.0158 27.6139
9929 2 8.41745 27.0229 26.4774
9930 1 10.7617 15.71 75.4504
9931 2 10.6566 15.679 76.4444
9932 2 11.6774 16.0407 75.2222
9933 1 8.5677 20.102 41.5467
9934 2 7.87936 19.9294 42.2513
9935 2 8.36968 19.5413 40.7428
9936 1 30.8077 21.299 68.8419
9937 2 30.906 20.6099 69.5598
9938 2 30.5401 20.8542 67.9872
9939 1 11.8494 9.97239 18.6006
9940 2 12.7448 9.53659 18.6916
9941 2 11.9187 10.9346 18.8638
9942 1 6.157 29.199 55.8683
9943 2 5.7046 29.5734 55.0589
9944 2 5.48532 28.7213 56.4345
9945 1 45.6317 17.8732 48.5029
9946 2 46.27 17.1175 48.3563
9947 2 45.81 18.5947 47.8339
9948 1 26.4893 17.099 29.5434
9949 2 25.8689 17.5471 30.187
9950 2 26.2826 16.1213 29.5069
9951 1 44.4869 19.0893 61.2682
9952 2 43.946 19.2972 60.4532
9953 2 43.8834 18.7571 61.993
9954 1 9.95895 12.4909 23.5401
9955 2 9.58237 12.7377 24.433
9956 2 9.21185 12.2755 22.9112
9957 1 20.3087 3.37949 32.6074
9958 2 19.3306 3.56777 32.5196
9959 2 20.7533 4.13968 33.0813
9960 1 22.4834 0.449522 28.3737
9961 2 22.0957 29.6802 28.8815
9962 2 22.5812 0.198001 27.4108
9963 1 53.1454 13.3177 73.6552
9964 2 53.8859 13.8744 74.0317
9965 2 52.2713 13.6302 74.0272
9966 1 73.0243 13.9587 65.9313
9967 2 73.2257 13.0209 66.2142
9968 2 73.0458 14.5597 66.7302
9969 1 25.7996 23.7872 75.3717
9970 2 26.3445 24.6118 75.5234
9971 2 24.9049 23.8945 75.8051
9972 1 4.44962 18.8451 26.9649
9973 2 4.96047 19.2145 26.1886
9974 2 4.11055 19.5978 27.5292
9975 1 45.1861 29.9568 54.6296
9976 2 45.9766 29.4074 54.3588
9977 2 45.4927 0.733224 55.1802
9978 1 76.3601 13.4545 21.5338
9979 2 76.9331 12.635 21.525
9980 2 76.5718 14.0179 20.7352
9981 1 5.17491 5.37922 75.1684
9982 2 5.91669 4.73736 74.9741
9983 2 4.59393 5.47198 74.3598
9984 1 23.1803 9.11692 43.5387
9985 2 24.0263 9.64978 43.5588
9986 2 22.3974 9.73647 43.4816
9987 1 55.1188 5.12713 80.222
9988 2 56.0601 4.95236 79.9331
9989 2 55.0158 6.09408 80.4552
9990 1 22.4838 3.90832 36.1378
9991 2 22.1325 4.83881 36.2418
9992 2 23.3049 3.92384 35.5673
9993 1 59.639 25.5239 77.415
9994 2 59.0233 24.967 77.9726
9995 2 59.2716 26.4506 77.3372
9996 1 14.0638 26.1296 30.8083
9997 2 14.4819 26.9409 31.217
9998 2 13.1037 26.3177 30.6016
9999 1 10.6043 6.57247 72.1594
10000 2 9.61324 6.45343 72.2197
10001 2 10.8794 6.59554 71.1983
10002 1 18.3372 25.3187 35.3398
10003 2 19.228 25.0649 35.7168
10004 2 17.6374 25.2286 36.0485
10005 1 2.38935 0.47087 40.0254
10006 2 1.82054 1.28664 40.1301
10007 2 1.98367 29.7137 40.5373
10008 1 11.6362 6.85402 65.741
10009 2 11.8847 6.19628 66.4521
10010 2 11.7805 6.44243 64.8411
10011 1 28.8693 4.61703 58.1612
10012 2 27.9891 5.08599 58.234
10013 2 28.9162 4.12958 57.2894
10014 1 51.9218 10.4319 72.146
10015 2 52.6262 9.90267 71.673
10016 2 51.2284 9.81138 72.5124
10017 1 20.9236 2.21625 89.9374
10018 2 20.6313 3.02225 89.4227
10019 2 20.3843 2.14296 90.7764
10020 1 78.5309 2.27331 47.4637
10021 2 78.517 2.99702 46.7737
10022 2 78.5713 2.68255 48.3752
10023 1 10.9525 1.0632 59.0404
10024 2 10.952 0.0861294 58.8275
10025 2 11.2929 1.20148 59.9705
10026 1 57.7288 21.2582 51.4481
10027 2 57.7224 21.7611 50.5838
10028 2 58.3235 21.7263 52.1018
10029 1 40.3971 0.577719 42.28
10030 2 40.192 0.546205 41.3017
10031 2 39.5885 0.301065 42.7992
10032 1 55.0543 11.228 37.6597
10033 2 55.2425 10.2894 37.3705
10034 2 54.4358 11.6612 37.0041
10035 1 27.0372 10.1949 57.7885
10036 2 27.9422 10.5325 58.0472
10037 2 26.9986 10.071 56.797
10038 1 58.6196 18.713 35.3333
10039 2 59.2272 18.448 36.082
10040 2 58.1397 19.556 35.5761
10041 1 19.7155 24.3311 41.9821
10042 2 19.8514 24.3183 42.9727
10043 2 20.4076 23.758 41.5433
10044 1 6.56561 2.46124 32.9617
10045 2 6.34227 1.91657 33.7701
10046 2 6.64315 3.42428 33.2197
10047 1 38.262 2.63777 85.9327
10048 2 37.3493 2.35506 85.6376
10049 2 38.6723 3.22272 85.2331
10050 1 20.7388 7.9103 32.6076
10051 2 21.1688 8.58099 33.212
10052 2 21.0317 6.99044 32.8685
10053 1 5.6035 24.1388 17.3922
10054 2 4.95081 23.698 16.7759
10055 2 5.66398 25.1125 17.1725
10056 1 56.7951 11.1325 66.675
10057 2 56.965 10.1691 66.8823
10058 2 57.4334 11.7024 67.1926
10059 1 45.1019 27.2495 80.7623
10060 2 45.8616 27.7828 80.3905
10061 2 44.7308 27.7139 81.5665
10062 1 59.0688 0.46241 68.5333
10063 2 58.8254 0.237989 69.4769
10064 2 60.0623 0.546009 68.4561
10065 1 59.2205 29.3039 36.744
10066 2 58.9363 0.0903605 36.1956
10067 2 60.0067 28.8626 36.3114
10068 1 24.92 21.2589 48.3861
10069 2 24.0039 21.5585 48.1197
10070 2 25.5206 21.2723 47.5867
10071 1 79.0102 19.6052 62.0403
10072 2 78.6777 19.6914 61.1012
10073 2 78.2625 19.7932 62.6772
10074 1 69.0631 26.2137 63.0875
10075 2 68.1209 26.3194 62.7695
10076 2 69.4025 25.3093 62.8292
10077 1 23.3388 6.43077 41.2566
10078 2 24.1421 6.86758 41.6614
10079 2 22.8404 5.92915 41.9637
10080 1 14.6033 5.45948 51.9203
10081 2 15.0957 6.29233 51.6674
10082 2 13.7345 5.42301 51.4265
10083 1 59.4442 0.870312 52.3475
10084 2 60.031 0.154243 51.9696
10085 2 59.7859 1.76601 52.0629
10086 1 15.4938 4.71399 36.9596
10087 2 15.6884 5.47543 36.3413
10088 2 14.5044 4.58762 37.0316
10089 1 49.4431 7.42706 43.9159
10090 2 50.0644 6.64792 43.9993
10091 2 48.6404 7.15777 43.3838
10092 1 78.2895 13.2209 17.2572
10093 2 77.8608 13.7439 17.9939
10094 2 79.2177 13.5601 17.1041
10095 1 8.18271 13.0881 85.2718
10096 2 9.0818 13.4349 85.5389
10097 2 7.58393 13.8556 85.0429
10098 1 6.52864 9.71612 53.39
10099 2 6.74815 10.1615 52.522
10100 2 7.12738 8.92579 53.5199
10101 1 47.2759 25.3399 41.1351
10102 2 47.3606 26.015 41.8679
10103 2 47.4731 24.4287 41.4969
10104 1 41.6086 29.2946 46.9277
10105 2 41.8906 29.9406 47.637
10106 2 41.9743 29.5886 46.0446
10107 1 10.7386 2.73898 45.3842
10108 2 11.3995 3.47966 45.2633
10109 2 9.92425 2.92594 44.8348
10110 1 70.7304 2.89567 54.8642
10111 2 69.7389 3.02388 54.8405
10112 2 71.126 3.19514 53.9959
10113 1 67.6565 10.7613 70.9116
10114 2 68.413 10.1642 70.6448
10115 2 67.9665 11.7121 70.9122
10116 1 57.1831 21.2088 83.1561
10117 2 56.5775 21.1313 83.9481
10118 2 57.5786 20.3137 82.9501
10119 1 42.4346 28.445 54.7295
10120 2 42.1438 27.4926 54.8215
10121 2 42.2436 28.9354 55.5798
10122 1 66.1108 6.45012 32.0723
10123 2 65.8603 7.04958 31.3122
10124 2 65.2994 5.9613 32.3928
10125 1 49.0726 7.40261 55.5208
10126 2 48.1241 7.60601 55.7635
10127 2 49.6045 8.24942 55.5165
10128 1 19.3553 24.6147 20.3926
10129 2 19.7329 25.5404 20.3705
10130 2 19.4064 24.256 21.3246
10131 1 4.63773 17.3878 40.3405
10132 2 5.60482 17.2202 40.149
10133 2 4.55509 18.0176 41.1128
10134 1 35.17 9.25205 50.4994
10135 2 35.0075 8.36456 50.0681
10136 2 34.5145 9.9194 50.1458
10137 1 0.429522 0.558236 36.8523
10138 2 0.171651 0.584094 35.8865
10139 2 1.41798 0.683976 36.9369
10140 1 31.1903 4.12469 35.1573
10141 2 31.1002 3.68242 36.0497
10142 2 30.4941 4.83673 35.0664
10143 1 9.32772 24.3483 22.5182
10144 2 9.35589 23.3547 22.6272
10145 2 8.61223 24.7278 23.1048
10146 1 18.7323 26.6559 50.1413
10147 2 19.5168 26.0833 49.9034
10148 2 19.0521 27.5644 50.4102
10149 1 63.0421 11.3516 51.5339
10150 2 62.8657 10.9144 52.4158
10151 2 63.3651 12.286 51.6838
10152 1 71.3451 29.3097 10.0724
10153 2 72.3219 29.4117 10.2607
10154 2 71.2094 29.1441 9.0956
10155 1 76.7982 23.0369 69.1191
10156 2 77.5461 23.2949 69.7307
10157 2 76.05 22.6451 69.6545
10158 1 53.3764 22.258 31.291
10159 2 53.5247 23.1367 31.7448
10160 2 52.5896 21.7986 31.7032
10161 1 7.76834 16.1617 89.1665
10162 2 8.5895 16.3685 89.6984
10163 2 7.79634 16.6631 88.3017
10164 1 66.8401 9.54446 83.208
10165 2 66.98 8.61803 83.5575
10166 2 67.175 10.2074 83.8776
10167 1 62.3264 9.99379 19.728
10168 2 62.5228 10.588 18.9481
10169 2 62.3738 10.5263 20.5731
10170 1 62.403 26.6693 82.5355
10171 2 62.7354 26.0115 83.2114
10172 2 61.4641 26.439 82.2799
10173 1 63.0254 6.68952 56.3764
10174 2 63.5189 5.85679 56.6276
10175 2 62.176 6.74471 56.9011
10176 1 14.1566 4.2494 48.9679
10177 2 14.3478 3.90529 48.0486
10178 2 13.2168 4.01991 49.2209
10179 1 55.4301 8.00426 80.7697
10180 2 55.9996 8.58247 80.1854
10181 2 55.7078 8.11819 81.7236
10182 1 10.6987 10.0597 24.8724
10183 2 9.8676 9.65314 25.2518
10184 2 10.4604 10.8763 24.3467
10185 1 66.2109 13.105 58.7815
10186 2 66.5376 13.2062 59.7212
10187 2 66.9701 12.8278 58.1927
10188 1 38.6646 13.5928 56.2064
10189 2 37.9423 13.8034 55.5476
10190 2 38.5615 12.6503 56.5241
10191 1 12.3673 13.7618 79.4561
10192 2 12.3758 13.5498 80.4333
10193 2 12.9338 14.5678 79.2849
10194 1 39.5824 16.7576 65.5141
10195 2 39.077 16.136 66.1126
10196 2 40.0214 17.4673 66.0651
10197 1 43.2477 18.246 77.4921
10198 2 42.8385 18.9146 78.113
10199 2 42.6094 18.0473 76.7484
10200 1 0.122848 29.1046 64.8501
10201 2 0.287229 28.239 65.3231
10202 2 79.8418 29.7985 65.513
10203 1 17.4531 19.197 63.1618
10204 2 16.7982 18.4451 63.2367
10205 2 17.2167 19.9118 63.82
10206 1 54.5241 7.44395 73.3753
10207 2 54.1446 7.85266 72.5452
10208 2 55.5149 7.57837 73.39
10209 1 29.0272 19.7993 72.0716
10210 2 30.0189 19.8178 71.9441
10211 2 28.65 18.9833 71.6337
10212 1 39.4415 8.94394 76.8746
10213 2 39.3175 8.46668 77.7445
10214 2 38.5541 9.25789 76.5372
10215 1 2.77793 29.5072 87.6295
10216 2 2.17439 28.7292 87.804
10217 2 2.31356 0.162182 87.0334
10218 1 15.118 23.8923 65.5309
10219 2 14.4157 23.7584 66.2301
10220 2 14.6818 24.0146 64.6394
10221 1 45.0842 25.7231 45.2995
10222 2 45.745 26.2284 44.7446
10223 2 44.4454 25.2406 44.7002
10224 1 11.2844 18.6844 28.6389
10225 2 10.4814 18.4677 29.194
10226 2 11.0621 18.5666 27.671
10227 1 64.0009 4.45984 48.3048
10228 2 63.4906 4.25875 49.141
10229 2 64.7181 5.12749 48.5044
10230 1 64.7256 15.0349 79.4089
10231 2 65.1277 14.8447 78.5133
10232 2 65.4543 15.2075 80.0716
10233 1 4.79356 14.5177 18.4321
10234 2 4.55751 13.6968 17.9122
10235 2 5.41925 14.2745 19.1733
10236 1 72.6286 16.416 44.0412
10237 2 72.6357 15.5492 44.5398
10238 2 71.9278 16.3849 43.3285
10239 1 79.989 16.9237 64.6751
10240 2 79.1008 16.945 65.1341
10241 2 79.9577 16.2703 63.9187
10242 1 29.1462 5.80541 34.9796
10243 2 29.2065 6.7597 34.6869
10244 2 28.5738 5.74309 35.7973
10245 1 4.45811 8.68017 74.2726
10246 2 3.99369 8.50872 75.1415
10247 2 5.07179 9.46349 74.3716
10248 1 77.9452 11.7556 14.3077
10249 2 78.2604 12.6968 14.1864
10250 2 78.057 11.2535 13.4502
10251 1 23.8584 0.323449 51.2415
10252 2 23.4355 0.842002 51.9847
10253 2 24.7062 0.773618 50.9614
10254 1 44.9403 5.36533 62.6595
10255 2 44.897 4.45385 62.2504
10256 2 44.5343 5.34028 63.573
10257 1 22.7757 29.9279 88.7089
10258 2 22.2385 0.680704 89.0894
10259 2 22.566 29.8271 87.7364
10260 1 29.93 6.68445 54.7653
10261 2 30.2397 6.72616 55.7152
10262 2 30.7187 6.56405 54.1625
10263 1 54.618 8.10536 33.7651
10264 2 55.256 8.18566 34.531
10265 2 53.6952 8.33514 34.0745
10266 1 68.3358 2.0629 48.1122
10267 2 67.8648 2.05173 47.2301
10268 2 68.0195 1.29457 48.6687
10269 1 23.533 5.14856 26.9553
10270 2 22.5888 5.43273 26.7886
10271 2 23.5674 4.56683 27.7679
10272 1 53.7112 4.66048 60.9639
10273 2 53.5092 4.42531 61.9147
10274 2 54.6996 4.62957 60.8157
10275 1 62.8884 15.4593 18.7642
10276 2 63.1125 14.5131 18.9976
10277 2 62.588 15.5055 17.8115
10278 1 64.1856 24.6226 29.166
10279 2 65.0585 24.4555 28.7076
10280 2 64.3406 25.1686 29.9893
10281 1 40.411 16.8225 38.6618
10282 2 39.7263 17.1276 39.3237
10283 2 40.0603 16.0318 38.16
10284 1 17.0315 20.8656 16.6567
10285 2 17.3004 20.1515 17.303
10286 2 16.9717 20.4775 15.737
10287 1 41.5851 18.9749 36.2342
10288 2 40.7809 19.5589 36.3442
10289 2 42.3586 19.5278 35.9242
10290 1 69.9145 13.9433 83.2568
10291 2 69.4348 14.2247 84.0879
10292 2 70.677 13.3434 83.4991
10293 1 73.5905 2.6013 17.9419
10294 2 74.1161 3.23161 17.3705
10295 2 72.6809 2.47298 17.5469
10296 1 17.9669 29.973 83.8758
10297 2 17.1098 29.5274 84.1342
10298 2 18.0287 0.863442 84.3266
10299 1 12.7342 1.05602 46.2935
10300 2 12.7427 1.42125 47.2243
10301 2 12.2185 1.67234 45.6983
10302 1 57.3388 0.928327 38.83
10303 2 56.3921 1.21618 38.9745
10304 2 57.3543 0.11025 38.2551
10305 1 26.9692 27.6133 81.5835
10306 2 26.338 26.8441 81.4843
10307 2 27.3469 27.852 80.6889
10308 1 62.8512 2.93966 68.5758
10309 2 62.5474 3.73155 68.0461
10310 2 62.5651 3.04596 69.5281
10311 1 60.5198 6.68286 57.6166
10312 2 59.9554 5.86461 57.5074
10313 2 60.6408 6.87691 58.5901
10314 1 78.0243 3.08216 87.2373
10315 2 77.0733 3.111 87.5451
10316 2 78.0497 3.00309 86.2407
10317 1 70.2343 28.2876 42.9262
10318 2 69.8448 29.1989 43.0598
10319 2 69.6218 27.6023 43.3203
10320 1 28.4994 25.4531 35.8056
10321 2 29.3553 24.9393 35.8655
10322 2 28.6187 26.3501 36.2314
10323 1 60.4517 22.7206 70.9609
10324 2 60.889 23.2831 70.2592
10325 2 60.7812 22.9977 71.8635
10326 1 22.0495 5.2839 43.4876
10327 2 21.6579 4.38866 43.7002
10328 2 21.3133 5.95056 43.371
10329 1 25.8887 23.8582 55.1544
10330 2 26.7241 24.3783 55.3321
10331 2 25.557 23.4582 56.0088
10332 1 39.79 20.4831 85.6882
10333 2 40.3869 20.4267 84.8878
10334 2 39.8594 21.3954 86.092
10335 1 8.03485 12.28 21.4095
10336 2 7.23909 12.6305 20.9156
10337 2 8.62742 11.7821 20.7762
10338 1 62.5524 6.67777 60.0519
10339 2 63.4324 6.23209 59.8878
10340 2 62.5116 7.53445 59.5377
10341 1 44.7644 13.2537 49.2346
10342 2 44.1356 12.4847 49.3495
10343 2 44.4678 14.0157 49.8103
10344 1 47.1786 14.6247 49.8246
10345 2 46.3034 14.1433 49.7767
10346 2 47.2978 15.182 49.0029
10347 1 3.01918 10.5187 62.1503
10348 2 2.21373 11.1034 62.247
10349 2 2.73851 9.616 61.8243
10350 1 26.5297 2.37072 43.5095
10351 2 26.7648 1.65578 42.851
10352 2 25.9607 1.98227 44.2342
10353 1 69.8492 5.71892 90.5967
10354 2 70.4664 5.53573 91.3618
10355 2 69.9532 6.66971 90.3048
10356 1 60.7916 11.0546 14.7712
10357 2 60.0094 10.4635 14.5739
10358 2 61.5334 10.85 14.1325
10359 1 64.3262 25.3709 42.8983
10360 2 65.0088 25.0845 42.226
10361 2 64.2445 24.6719 43.6088
10362 1 14.8626 0.793785 85.2855
10363 2 15.308 29.8986 85.2704
10364 2 15.1258 1.28316 86.1168
10365 1 45.6161 11.9382 83.3258
10366 2 45.495 10.9494 83.239
10367 2 45.9137 12.1573 84.255
10368 1 21.6457 7.39488 30.0036
10369 2 21.377 6.43225 29.97
10370 2 21.7828 7.66965 30.9552
10371 1 34.7034 25.2133 58.5453
10372 2 35.1768 25.6251 57.7666
10373 2 34.3154 25.9347 59.1189
10374 1 49.5524 5.9586 71.0576
10375 2 49.1355 6.86306 71.1479
10376 2 48.8356 5.27168 70.9377
10377 1 55.1355 27.4339 60.4465
10378 2 55.5019 28.0439 59.7439
10379 2 55.8827 27.1012 61.0218
10380 1 75.5903 24.2711 90.5451
10381 2 76.4056 24.8501 90.5503
10382 2 74.8054 24.8036 90.2281
10383 1 35.779 9.65948 60.7667
10384 2 36.3615 9.86508 61.5531
10385 2 34.8202 9.78913 61.0192
10386 1 69.3966 6.89657 23.6876
10387 2 69.7784 6.3897 24.4605
10388 2 68.6492 6.37119 23.281
10389 1 10.3298 17.7052 23.0971
10390 2 9.40514 18.072 22.9947
10391 2 10.5416 17.6016 24.0689
10392 1 72.1602 10.809 40.4807
10393 2 72.947 10.8455 41.0968
10394 2 71.717 9.91601 40.5587
10395 1 8.59942 28.5114 16.523
10396 2 9.04211 28.2714 15.659
10397 2 9.29214 28.6028 17.2384
10398 1 16.6374 18.9577 42.0877
10399 2 16.3771 19.8026 42.555
10400 2 17.5061 18.6269 42.4564
10401 1 33.8829 9.51789 46.9616
10402 2 34.3109 10.1156 47.6395
10403 2 34.2698 9.70677 46.059
10404 1 43.4175 27.5446 37.8496
10405 2 43.4372 28.4592 37.4457
10406 2 43.9141 27.5528 38.7175
10407 1 18.5646 24.7039 70.2418
10408 2 19.3705 24.6621 70.8324
10409 2 18.574 23.929 69.6097
10410 1 33.3898 22.663 37.1053
10411 2 32.4911 22.3321 37.3933
10412 2 33.3073 23.127 36.2233
10413 1 78.9858 27.5732 59.7271
10414 2 78.7994 28.4904 59.3749
10415 2 79.9194 27.3073 59.4868
10416 1 14.9438 4.39855 25.3046
10417 2 14.2992 4.25764 26.0561
10418 2 15.8334 4.66671 25.6743
10419 1 12.3331 14.9249 49.1281
10420 2 11.5315 14.4233 49.4534
10421 2 13.0836 14.8123 49.7793
10422 1 51.2326 20.0754 88.4851
10423 2 51.9655 20.734 88.3145
10424 2 50.3478 20.5363 88.4168
10425 1 58.2581 26.4438 26.6681
10426 2 58.5621 26.7925 25.7816
10427 2 57.332 26.7715 26.8553
10428 1 14.7409 19.6319 53.5593
10429 2 14.1217 19.0076 54.0355
10430 2 14.2904 19.9881 52.7406
10431 1 45.3724 27.7837 42.9534
10432 2 45.2442 27.8683 41.9653
10433 2 46.1926 28.2859 43.2273
10434 1 75.0698 13.3879 26.5568
10435 2 75.9868 13.7841 26.5107
10436 2 74.3887 14.1196 26.529
10437 1 62.0886 19.4756 65.3688
10438 2 63.0699 19.3922 65.1952
10439 2 61.7833 18.7078 65.9321
10440 1 5.87841 14.1086 46.7597
10441 2 6.08149 14.6182 47.5958
10442 2 6.59247 14.2825 46.0816
10443 1 61.6029 17.4742 76.1386
10444 2 61.4081 17.2544 75.1827
10445 2 61.2652 18.3926 76.3449
10446 1 60.126 15.467 50.4261
10447 2 59.3092 14.8959 50.3455
10448 2 59.8875 16.3285 50.8745
10449 1 2.971 11.6978 38.6471
10450 2 2.7601 11.7217 37.6699
10451 2 2.58131 12.5041 39.092
10452 1 25.8033 8.68024 88.0718
10453 2 25.7951 9.66759 87.9134
10454 2 26.0584 8.20932 87.2273
10455 1 29.4815 2.80049 53.0755
10456 2 28.6644 2.24155 52.9344
10457 2 29.564 3.03139 54.045
10458 1 56.3111 25.135 62.3975
10459 2 55.4951 24.7333 62.8132
10460 2 56.8555 25.5888 63.103
10461 1 54.461 9.52961 53.0419
10462 2 55.4265 9.34207 52.8615
10463 2 54.3742 10.0322 53.9021
10464 1 12.8676 0.574659 56.6798
10465 2 13.6322 0.212291 57.2128
10466 2 12.1657 0.925375 57.2997
10467 1 30.1504 4.63958 77.073
10468 2 29.8358 3.6904 77.0637
10469 2 29.7834 5.12019 76.2766
10470 1 68.9881 14.4853 33.6456
10471 2 68.3232 14.5262 34.3914
10472 2 68.8472 13.6469 33.119
10473 1 42.9028 9.2552 35.5023
10474 2 43.6116 8.78827 36.0311
10475 2 42.0043 9.03516 35.882
10476 1 49.3766 3.2894 50.0154
10477 2 48.7055 2.96608 49.3482
10478 2 48.9024 3.62518 50.8292
10479 1 37.1789 29.1119 65.5191
10480 2 37.3926 28.2057 65.8839
10481 2 37.8961 29.3921 64.8811
10482 1 57.1762 7.97583 72.7325
10483 2 57.0791 8.90218 73.0965
10484 2 57.4952 8.02139 71.7858
10485 1 17.5246 4.60997 51.8705
10486 2 16.637 5.04841 51.729
10487 2 18.2524 5.28605 51.7557
10488 1 25.7467 19.4975 58.4591
10489 2 26.1686 18.6172 58.676
10490 2 24.9481 19.3497 57.8757
10491 1 66.479 12.805 14.5283
10492 2 65.9359 11.967 14.5816
10493 2 67.4402 12.5705 14.3827
10494 1 2.71163 6.43973 25.6273
10495 2 2.2336 7.00643 26.2984
10496 2 3.4123 5.89581 26.089
10497 1 26.7614 28.2395 76.5033
10498 2 27.0438 27.4039 76.0321
10499 2 27.3851 28.4204 77.2637
10500 1 41.8826 9.70481 48.0389
10501 2 41.8078 8.79389 48.4446
10502 2 42.1955 9.62352 47.0925
10503 1 54.426 17.5239 39.1717
10504 2 54.4884 16.5835 39.5063
10505 2 54.0872 17.5211 38.2309
10506 1 73.1106 22.2891 54.099
10507 2 73.134 21.8154 54.9794
10508 2 74.0122 22.2388 53.6693
10509 1 67.7162 5.78903 55.2894
10510 2 67.7617 5.59984 56.2703
10511 2 68.5814 6.18858 54.9865
10512 1 40.5633 21.1628 53.8857
10513 2 41.1298 20.8442 53.1258
10514 2 40.1471 20.3772 54.3435
10515 1 7.66599 23.7092 26.7292
10516 2 7.45741 24.2488 25.9136
10517 2 8.64702 23.5179 26.7604
10518 1 70.7173 28.3209 80.8487
10519 2 70.8398 27.9454 81.7674
10520 2 69.8349 28.7883 80.7946
10521 1 40.547 3.86236 39.4943
10522 2 40.0021 3.17031 39.0209
10523 2 40.7782 3.53517 40.4105
10524 1 3.31246 6.03877 43.4535
10525 2 3.15024 5.8396 44.42
10526 2 2.63821 5.55479 42.8957
10527 1 78.4761 22.5034 25.1877
10528 2 78.8064 22.553 26.1303
10529 2 77.5061 22.7449 25.1614
10530 1 14.326 12.4307 29.4902
10531 2 14.394 11.5931 28.9481
10532 2 13.4909 12.9216 29.2418
10533 1 48.8798 22.8706 39.9515
10534 2 48.9506 22.026 39.4209
10535 2 49.5332 22.8448 40.708
10536 1 50.0429 23.9001 56.5137
10537 2 50.957 23.58 56.7625
10538 2 49.3649 23.4672 57.1077
10539 1 58.5368 12.8326 68.4778
10540 2 59.1469 13.6122 68.3365
10541 2 57.8226 13.0826 69.1317
10542 1 76.957 1.88088 71.9371
10543 2 76.0935 2.3456 71.7411
10544 2 77.4618 2.39429 72.631
10545 1 69.6666 27.4893 74.236
10546 2 70.1474 26.6719 73.9187
10547 2 68.6868 27.3874 74.0643
10548 1 54.1631 22.3881 72.7625
10549 2 53.999 22.5272 71.7859
10550 2 53.2997 22.1713 73.218
10551 1 67.9114 29.8453 22.4549
10552 2 67.4948 29.6795 23.3488
10553 2 68.8418 0.189922 22.5795
10554 1 69.1402 0.676812 43.705
10555 2 68.1406 0.686221 43.7326
10556 2 69.4985 1.31434 44.387
10557 1 61.2905 23.7129 76.2653
10558 2 61.3897 23.5841 75.2786
10559 2 60.4943 24.2899 76.4477
10560 1 37.3215 19.8068 84.1889
10561 2 37.6428 19.0286 83.6493
10562 2 37.8248 19.8442 85.0522
10563 1 1.8909 23.0104 20.7872
10564 2 1.45073 22.3906 20.1375
10565 2 2.50677 23.6261 20.2957
10566 1 68.3455 9.76084 41.0285
10567 2 68.8975 8.97773 40.7421
10568 2 68.623 10.571 40.5121
10569 1 68.5756 29.9441 49.9668
10570 2 68.138 29.7482 50.8443
10571 2 69.5136 29.5976 49.9773
10572 1 19.2944 23.4883 74.7777
10573 2 19.4888 22.8048 74.0741
10574 2 19.205 24.3887 74.3521
10575 1 29.0457 16.9985 77.6474
10576 2 28.6535 16.5569 78.4544
10577 2 28.3181 17.203 76.9927
10578 1 37.1294 3.72977 39.3236
10579 2 37.5971 3.55224 40.1895
10580 2 37.6276 3.28612 38.5787
10581 1 24.1745 12.1027 36.9115
10582 2 24.5447 11.7919 36.0361
10583 2 24.73 11.7354 37.6575
10584 1 66.9757 19.4271 75.2288
10585 2 66.8918 18.5345 75.6718
10586 2 67.9416 19.6775 75.1638
10587 1 54.9364 19.9602 61.0574
10588 2 54.2912 20.5031 61.5949
10589 2 55.8395 19.9961 61.4852
10590 1 7.98814 9.29565 12.5716
10591 2 8.45506 10.0623 12.1309
10592 2 8.25833 9.24919 13.5333
10593 1 36.9079 24.9538 78.7758
10594 2 36.3356 24.8561 79.5899
10595 2 36.4004 24.6425 77.9723
10596 1 18.1332 23.3476 17.1457
10597 2 18.051 22.4281 16.7614
10598 2 17.9981 24.0246 16.4223
10599 1 66.5374 1.02848 20.4155
10600 2 66.9698 0.468568 21.1223
10601 2 65.5548 0.84372 20.3986
10602 1 71.3899 16.4963 88.5539
10603 2 70.5905 16.6255 87.9672
10604 2 71.9501 17.3246 88.5411
10605 1 50.1209 18.5995 59.8969
10606 2 49.4545 18.7346 59.1637
10607 2 50.648 19.4393 60.0271
10608 1 41.5466 13.1181 50.6704
10609 2 42.0965 12.2969 50.5183
10610 2 42.0831 13.9275 50.4314
10611 1 75.6597 20.1388 45.1887
10612 2 74.8236 20.6154 44.917
10613 2 75.7475 20.1611 46.1846
10614 1 0.202701 17.5906 13.0422
10615 2 79.3413 17.8019 12.5803
10616 2 0.526459 18.4009 13.5306
10617 1 64.876 29.9478 39.9499
10618 2 65.6192 29.86 40.6132
10619 2 65.2331 29.7992 39.0277
10620 1 8.00689 13.0926 80.4714
10621 2 7.17515 13.5338 80.8083
10622 2 8.17571 12.2567 80.9936
10623 1 24.3679 28.8697 71.3803
10624 2 23.6666 28.2362 71.0535
10625 2 25.2395 28.3869 71.4658
10626 1 12.853 16.5568 19.8301
10627 2 13.2978 15.6909 20.0585
10628 2 13.2812 17.2981 20.347
10629 1 12.1723 29.2179 79.2509
10630 2 13.0643 29.6698 79.2547
10631 2 12.2711 28.2824 79.5902
10632 1 5.03904 21.2881 86.1797
10633 2 4.79757 20.5886 86.8523
10634 2 4.98767 20.8983 85.2603
10635 1 62.5404 16.8252 78.8574
10636 2 62.1444 16.8746 77.9405
10637 2 63.2902 16.1635 78.8615
10638 1 8.60464 3.60268 63.1219
10639 2 8.63544 4.40481 63.7182
10640 2 9.43322 3.5709 62.5629
10641 1 53.0832 19.6921 49.7037
10642 2 53.0438 20.6659 49.9274
10643 2 52.2166 19.2581 49.9501
10644 1 9.77877 25.7311 79.3195
10645 2 10.7005 25.9192 79.6586
10646 2 9.1069 26.1488 79.9312
10647 1 76.4493 11.3653 18.6066
10648 2 76.6605 11.4082 19.5832
10649 2 76.9453 12.0888 18.1263
10650 1 31.0093 23.363 88.538
10651 2 30.6417 22.4691 88.7944
10652 2 30.2552 23.9894 88.3405
10653 1 5.15467 19.4871 69.9411
10654 2 4.74493 18.7453 70.472
10655 2 5.75556 20.0266 70.5308
10656 1 76.4217 15.6582 12.7251
10657 2 76.5407 16.5147 12.2229
10658 2 77.3169 15.3003 12.9905
10659 1 73.6458 8.8421 90.4973
10660 2 73.2727 7.97755 90.1606
10661 2 73.712 8.81068 91.4946
10662 1 32.3983 7.91069 39.2024
10663 2 33.3367 7.85716 39.5437
10664 2 32.2368 8.81716 38.8122
10665 1 60.2021 4.84569 29.8967
10666 2 59.8372 5.4871 29.2218
10667 2 59.5074 4.6626 30.5923
10668 1 17.6518 1.38471 43.7623
10669 2 17.3736 0.765492 44.4966
10670 2 16.9357 1.41779 43.0651
10671 1 23.8777 13.9322 28.2129
10672 2 23.2526 14.6085 27.8233
10673 2 24.1255 14.2041 29.1428
10674 1 60.5995 7.68396 52.5919
10675 2 60.7175 6.83122 52.0831
10676 2 60.7471 7.51387 53.5662
10677 1 6.38773 22.7051 82.824
10678 2 6.81053 22.9914 81.9642
10679 2 5.53423 22.2211 82.6308
10680 1 43.6685 23.3771 66.2279
10681 2 43.7291 22.9392 65.3309
10682 2 42.835 23.9276 66.2744
10683 1 17.9114 2.68406 40.7126
10684 2 17.1095 2.28208 41.1546
10685 2 18.4249 1.96835 40.2393
10686 1 42.255 22.6058 86.7785
10687 2 41.2642 22.6987 86.6796
10688 2 42.4739 22.3571 87.722
10689 1 52.8216 14.9581 76.6535
10690 2 53.4065 15.0517 75.8479
10691 2 53.2048 14.266 77.2652
10692 1 15.7033 9.0461 66.3722
10693 2 15.7299 9.79068 65.7052
10694 2 15.0006 9.23749 67.0575
10695 1 53.0404 9.56097 67.1022
10696 2 54.0033 9.60654 67.3682
10697 2 52.8581 10.2415 66.3925
10698 1 76.7441 17.2338 18.9849
10699 2 77.1164 17.5921 19.8411
10700 2 76.883 16.2441 18.9494
10701 1 76.2867 25.7304 57.1551
10702 2 76.2992 24.9091 57.7254
10703 2 75.5643 26.3451 57.4717
10704 1 3.86501 13.0334 64.5557
10705 2 3.93484 13.6192 63.7483
10706 2 3.06001 13.2946 65.0884
10707 1 62.4859 26.6125 51.1709
10708 2 62.0893 26.001 50.4861
10709 2 62.1328 27.5382 51.0354
10710 1 75.0088 17.8422 30.9003
10711 2 75.9376 17.7475 31.2586
10712 2 74.3889 18.0939 31.6435
10713 1 0.213007 24.721 65.4661
10714 2 79.2236 24.8373 65.3787
10715 2 0.609351 25.5395 65.8821
10716 1 1.46813 29.2149 80.8406
10717 2 1.29575 28.7694 79.9621
10718 2 2.23207 29.8533 80.7464
10719 1 18.285 1.099 77.6754
10720 2 18.5088 1.35097 78.6169
10721 2 17.5136 0.462689 77.675
10722 1 35.87 7.83766 68.9353
10723 2 36.6605 7.482 69.4339
10724 2 36.0318 8.79417 68.6926
10725 1 23.5766 19.7706 33.4174
10726 2 23.3227 18.8335 33.6567
10727 2 23.311 20.3875 34.1583
10728 1 29.1391 24.4046 31.166
10729 2 28.4452 23.8965 30.6558
10730 2 29.6887 23.7675 31.7064
10731 1 32.5183 24.8359 49.698
10732 2 32.7939 25.7966 49.667
10733 2 33.2668 24.2862 50.069
10734 1 50.515 24.438 50.4159
10735 2 51.1183 23.687 50.6844
10736 2 49.5759 24.2234 50.6842
10737 1 20.1326 0.782116 42.1709
10738 2 20.1493 0.976739 41.1902
10739 2 19.2396 1.03221 42.5452
10740 1 51.4331 25.7449 32.7716
10741 2 51.0623 26.3268 33.4954
10742 2 50.9487 24.8701 32.7661
10743 1 21.5793 6.44691 61.2544
10744 2 20.7722 5.8814 61.424
10745 2 21.356 7.40646 61.4258
10746 1 78.8649 10.5335 51.843
10747 2 78.5692 11.0962 52.6149
10748 2 79.8566 10.6069 51.7376
10749 1 70.8945 6.14445 79.1233
10750 2 70.9371 6.98995 79.6556
10751 2 71.0039 5.36023 79.7341
10752 1 19.6985 4.82799 19.8156
10753 2 20.5105 4.97905 19.2517
10754 2 19.4483 3.86023 19.7871
10755 1 55.9746 25.6326 72.3123
10756 2 56.2255 25.4369 73.2603
10757 2 55.0484 25.2988 72.137
10758 1 70.6114 27.6179 83.5749
10759 2 70.5611 28.4048 84.1899
10760 2 71.0275 26.8457 84.055
10761 1 71.0208 12.4389 22.0193
10762 2 71.5834 11.9778 22.7055
10763 2 71.607 12.9803 21.4167
10764 1 12.264 27.4587 45.773
10765 2 11.8142 26.5777 45.9193
10766 2 12.2344 27.9925 46.6181
10767 1 17.5013 19.0626 67.9261
10768 2 17.6249 19.8058 68.5837
10769 2 17.6681 18.1864 68.3782
10770 1 31.6286 15.4944 63.2728
10771 2 30.6867 15.4467 62.9403
10772 2 31.6468 15.2945 64.2524
10773 1 58.1719 16.1406 30.9198
10774 2 57.9961 16.3823 31.8741
10775 2 57.9146 15.1868 30.7647
10776 1 77.6211 10.2584 37.8464
10777 2 77.9499 10.383 38.7825
10778 2 77.319 9.31323 37.7222
10779 1 21.2563 0.158139 83.7191
10780 2 21.9724 0.169594 84.417
10781 2 20.3721 0.348533 84.1457
10782 1 45.8235 20.0098 57.2024
10783 2 44.9635 19.9422 57.7083
10784 2 46.0936 20.9699 57.131
10785 1 50.0131 26.4145 63.582
10786 2 50.5595 27.005 62.9881
10787 2 50.3567 26.4747 64.5192
10788 1 78.2989 22.0217 85.2909
10789 2 77.882 22.3818 86.1254
10790 2 79.2383 21.7376 85.4833
10791 1 79.2112 13.8019 50.9447
10792 2 79.6018 13.8425 50.0251
10793 2 78.7037 14.6436 51.1287
10794 1 75.0742 22.018 74.6333
10795 2 74.8296 22.9413 74.3371
10796 2 74.7538 21.8724 75.5693
10797 1 69.6856 7.20045 59.6619
10798 2 70.4235 6.632 60.0257
10799 2 69.2271 7.67313 60.4145
10800 1 55.4083 1.70014 69.6656
10801 2 55.9972 2.30398 70.2028
10802 2 55.6194 1.80671 68.694
10803 1 17.7302 24.8879 14.922
10804 2 18.3449 25.3032 14.2514
10805 2 17.0626 24.3119 14.4504
10806 1 73.9547 16.0018 13.7462
10807 2 74.8074 16.1049 13.2341
10808 2 74.161 15.8923 14.7186
10809 1 16.2581 7.66038 51.7383
10810 2 16.2381 8.51398 51.2177
10811 2 16.6016 7.84007 52.6601
10812 1 59.4962 20.8562 38.2805
10813 2 58.8128 20.8821 39.0101
10814 2 59.4649 19.966 37.826
10815 1 36.1425 18.4396 74.8478
10816 2 36.7323 18.0092 74.1644
10817 2 36.3403 19.419 74.8894
10818 1 4.07809 12.2171 68.4246
10819 2 3.76952 13.1682 68.4379
10820 2 3.6353 11.7336 67.6695
10821 1 68.3933 13.8962 26.5616
10822 2 67.4806 13.5367 26.7559
10823 2 68.6124 14.6205 27.2153
10824 1 67.0482 29.0727 82.5941
10825 2 67.552 29.4038 81.7963
10826 2 67.5025 29.385 83.4284
10827 1 59.7635 17.3344 64.2328
10828 2 60.2549 17.3316 65.1037
10829 2 59.6172 16.3927 63.9297
10830 1 17.9275 0.509618 16.3383
10831 2 18.8715 0.185441 16.2757
10832 2 17.9067 1.3833 16.8244
10833 1 43.7651 8.55618 33.0903
10834 2 43.3374 8.57593 33.994
10835 2 43.0555 8.52505 32.3864
10836 1 21.7525 15.4759 77.4132
10837 2 22.0041 15.9192 78.2736
10838 2 20.763 15.5387 77.2828
10839 1 27.0561 20.41 83.9189
10840 2 26.1287 20.061 84.0536
10841 2 27.71 19.8004 84.3669
10842 1 26.3704 17.9803 71.3642
10843 2 25.8752 17.1543 71.6334
10844 2 26.824 17.8257 70.4865
10845 1 64.254 22.364 73.4641
10846 2 64.2943 21.368 73.3845
10847 2 63.2985 22.6571 73.4994
10848 1 38.2105 17.4089 59.2665
10849 2 38.0379 16.5317 59.7144
10850 2 38.7846 17.2644 58.4605
10851 1 66.2952 28.5913 69.3247
10852 2 66.1754 27.5986 69.3427
10853 2 65.9377 28.9545 68.4643
10854 1 29.7452 2.03476 39.8176
10855 2 29.9911 1.32965 39.1525
10856 2 29.0364 1.68339 40.4293
10857 1 3.32881 15.6849 50.5233
10858 2 2.8788 14.8019 50.3897
10859 2 2.89351 16.3722 49.9417
10860 1 55.6446 19.9176 79.2926
10861 2 55.8714 20.6853 79.8919
10862 2 55.0414 19.2837 79.7767
10863 1 52.7195 11.2828 40.832
10864 2 52.5252 10.755 41.6589
10865 2 52.6627 12.2595 41.0389
10866 1 76.3824 13.6575 63.7278
10867 2 75.7683 12.8941 63.5277
10868 2 76.9254 13.8702 62.9154
10869 1 12.2145 21.0286 29.8239
10870 2 11.6048 21.7925 29.6125
10871 2 11.931 20.2224 29.3046
10872 1 10.104 10.7293 16.4942
10873 2 10.727 10.5496 17.2556
10874 2 10.6022 11.1843 15.7561
10875 1 79.884 22.4786 72.917
10876 2 79.0409 22.3967 73.4485
10877 2 79.6921 22.9549 72.0589
10878 1 15.7277 22.7545 51.8523
10879 2 16.4312 22.8013 52.5615
10880 2 16.156 22.5561 50.9707
10881 1 71.3092 7.31886 14.4237
10882 2 71.7687 6.43108 14.3979
10883 2 70.3698 7.21758 14.0961
10884 1 13.0447 22.0298 77.1081
10885 2 12.3606 21.8071 77.8026
10886 2 13.9569 21.8175 77.4586
10887 1 18.8808 20.091 38.7554
10888 2 19.6148 20.4678 39.3205
10889 2 19.2757 19.5434 38.0178
10890 1 17.2166 21.3921 28.0583
10891 2 17.938 21.9836 28.4185
10892 2 16.4383 21.3955 28.6863
10893 1 22.1657 5.88088 88.0185
10894 2 21.8405 5.63926 87.1042
10895 2 21.5467 5.49823 88.7044
10896 1 42.8239 4.02854 60.2218
10897 2 42.0926 3.6894 59.6301
10898 2 42.4598 4.19926 61.1374
10899 1 63.2715 19.9691 20.351
10900 2 62.7943 19.1018 20.4921
10901 2 63.1624 20.2587 19.4001
10902 1 25.4589 4.6653 65.8935
10903 2 24.8137 4.29609 66.5625
10904 2 25.2979 5.64585 65.7812
10905 1 53.1839 24.6335 58.8783
10906 2 52.3536 24.9481 59.3383
10907 2 52.9353 24.0831 58.0813
10908 1 17.8908 11.5385 86.491
10909 2 18.4669 10.7736 86.203
10910 2 18.1283 11.801 87.4263
10911 1 11.9856 15.6044 40.2832
10912 2 11.7659 16.4543 39.8042
10913 2 11.139 15.1365 40.537
10914 1 61.8776 24.1585 69.0057
10915 2 61.5894 23.4124 68.4054
10916 2 61.5529 25.0287 68.6352
10917 1 31.4773 11.8808 65.0026
10918 2 31.827 11.2639 65.7077
10919 2 32.0934 12.6628 64.9085
10920 1 75.1147 6.49656 54.0817
10921 2 75.0916 6.01935 54.9602
10922 2 74.6044 5.96915 53.4024
10923 1 71.7875 3.17062 89.4358
10924 2 71.8799 2.19303 89.6249
10925 2 70.8315 3.38179 89.2321
10926 1 32.2432 13.8536 77.484
10927 2 33.2118 13.6057 77.467
10928 2 31.9861 14.1302 78.41
10929 1 44.4512 8.6407 53.1139
10930 2 44.831 9.51684 52.817
10931 2 43.4986 8.57269 52.8174
10932 1 65.6729 10.1404 57.9419
10933 2 65.8932 11.0853 58.1841
10934 2 65.5411 9.6046 58.7759
10935 1 53.8232 1.92044 88.7239
10936 2 54.0114 1.83421 87.7456
10937 2 53.2484 2.72311 88.8833
10938 1 60.0119 7.16242 28.3396
10939 2 60.6153 7.93885 28.5215
10940 2 59.0934 7.36775 28.6776
10941 1 76.6384 9.87931 81.7197
10942 2 76.9592 10.7101 81.2649
10943 2 77.1638 9.09485 81.3901
10944 1 14.8743 19.9772 19.7907
10945 2 14.3865 19.2171 20.2199
10946 2 14.8485 19.8711 18.7967
10947 1 9.21939 24.0657 61.9369
10948 2 9.95838 24.6861 61.6742
10949 2 9.17784 24 62.9338
10950 1 69.0832 10.2374 55.2412
10951 2 69.3082 9.91548 54.3216
10952 2 69.3137 9.52886 55.9081
10953 1 11.4691 16.1003 45.0213
10954 2 10.9414 16.7584 44.4843
10955 2 10.8869 15.7082 45.7336
10956 1 56.1899 11.5865 40.1885
10957 2 55.6906 11.9212 40.9878
10958 2 55.5595 11.4893 39.4184
10959 1 22.0477 24.8486 26.9385
10960 2 21.2954 25.1538 26.3548
10961 2 21.8037 23.98 27.3699
10962 1 66.7807 24.0936 28.1995
10963 2 66.4014 23.172 28.1173
10964 2 67.3287 24.3019 27.3894
10965 1 71.3309 29.5111 17.395
10966 2 71.4282 0.50461 17.3363
10967 2 71.2099 29.1332 16.4771
10968 1 4.43854 13.6284 26.0991
10969 2 4.74876 12.681 26.0207
10970 2 5.22962 14.24 26.0896
10971 1 57.6777 24.7241 44.5269
10972 2 57.532 25.1188 45.4341
10973 2 57.0979 25.1946 43.8617
10974 1 13.7554 8.33601 49.4615
10975 2 13.6786 8.6853 48.5276
10976 2 14.2388 9.00318 50.0282
10977 1 29.5796 28.1371 36.6728
10978 2 29.399 27.8386 37.61
10979 2 30.2036 28.9183 36.6862
10980 1 65.6671 8.34362 59.9273
10981 2 65.0667 8.6183 60.6784
10982 2 65.3007 7.52178 59.4911
10983 1 40.2945 11.6754 66.4302
10984 2 39.4511 12.1725 66.2261
10985 2 40.2016 10.7252 66.1328
10986 1 23.0162 13.5926 34.0504
10987 2 22.5405 13.9069 34.8719
10988 2 23.0481 14.3336 33.3796
10989 1 17.6366 23.9304 82.9159
10990 2 18.4018 24.1599 83.5174
10991 2 17.7134 24.4508 82.0654
10992 1 14.7737 16.1781 67.1155
10993 2 13.8327 16.101 67.4451
10994 2 15.2832 15.355 67.3664
10995 1 78.2889 15.2296 84.0749
10996 2 77.5414 15.7589 83.6735
10997 2 79.1431 15.7428 83.9911
10998 1 13.5735 8.2072 63.8009
10999 2 12.6645 8.08046 63.404
11000 2 13.6621 9.14431 64.1385
11001 1 70.1347 3.15774 58.7708
11002 2 70.4189 3.78697 58.0474
11003 2 69.1615 3.28655 58.9613
11004 1 60.2653 6.29205 54.9622
11005 2 60.6328 6.23897 55.8908
11006 2 59.2713 6.3938 55.0024
11007 1 79.3592 6.73971 31.2571
11008 2 79.3975 7.6506 30.8462
11009 2 79.3858 6.0474 30.536
11010 1 11.0302 8.83812 10.9611
11011 2 11.3762 9.00863 11.8837
11012 2 10.5876 9.66458 10.6131
11013 1 71.1596 29.4976 34.9897
11014 2 70.2408 29.6378 35.3586
11015 2 71.3377 28.5175 34.9023
11016 1 70.5982 8.10985 38.2629
11017 2 70.8212 8.4771 39.1659
11018 2 69.7386 8.5089 37.9437
11019 1 4.2531 22.9121 53.5932
11020 2 5.01121 22.4175 54.0182
11021 2 4.06945 22.5273 52.6886
11022 1 58.4205 17.7572 61.0938
11023 2 58.1316 18.2697 61.9024
11024 2 58.5439 16.7948 61.3357
11025 1 64.5698 9.56101 64.2331
11026 2 64.902 8.64048 64.4387
11027 2 64.3378 9.62255 63.2623
11028 1 8.07332 29.9044 27.2044
11029 2 8.70733 29.8994 26.4311
11030 2 7.61752 29.0165 27.2675
11031 1 64.8231 16.9353 72.6554
11032 2 65.3249 16.2704 72.1021
11033 2 64.8818 16.6781 73.62
11034 1 15.4966 10.7517 70.6638
11035 2 15.1297 10.7613 71.5939
11036 2 14.9574 10.1268 70.0992
11037 1 62.5624 8.83433 58.3518
11038 2 63.2619 8.41511 57.7731
11039 2 61.7438 9.01601 57.8069
11040 1 45.3278 25.0703 63.4317
11041 2 45.785 25.89 63.0868
11042 2 45.0028 24.521 62.6619
11043 1 12.9293 4.38872 38.1503
11044 2 12.2005 5.05837 38.293
11045 2 13.726 4.641 38.6995
11046 1 79.5051 24.3993 77.9038
11047 2 79.8356 23.7468 77.222
11048 2 79.6979 25.3306 77.5948
11049 1 46.6464 18.6887 77.6617
11050 2 45.8464 19.1883 77.9938
11051 2 47.0976 18.2337 78.4295
11052 1 77.0912 11.3586 35.3805
11053 2 76.6012 12.2265 35.2989
11054 2 77.1187 11.0804 36.3406
11055 1 67.1934 1.89441 39.6314
11056 2 66.8212 2.77806 39.9153
11057 2 66.8686 1.18092 40.2522
11058 1 19.9712 15.2884 73.877
11059 2 19.5917 14.3689 73.7746
11060 2 20.8039 15.3681 73.329
11061 1 0.348862 24.6875 54.5075
11062 2 0.863206 25.5172 54.2908
11063 2 79.9002 24.7955 55.3946
11064 1 22.495 17.8702 45.2498
11065 2 23.3298 17.4128 44.9434
11066 2 22.2235 17.5065 46.1409
11067 1 19.3143 12.7512 16.6851
11068 2 19.627 11.8014 16.692
11069 2 19.6671 13.2242 17.4924
11070 1 39.518 3.27897 69.2599
11071 2 40.4189 3.68416 69.1043
11072 2 39.5024 2.34949 68.8914
11073 1 65.4087 21.8206 28.0708
11074 2 65.3545 21.5177 29.0223
11075 2 65.435 21.0231 27.4681
11076 1 16.9543 15.1342 46.4049
11077 2 16.8391 15.4659 45.4686
11078 2 16.2087 14.5072 46.6305
11079 1 58.6703 15.1189 83.4517
11080 2 58.6941 14.5383 84.2655
11081 2 58.3398 16.0291 83.7012
11082 1 5.74856 4.29163 16.8868
11083 2 6.60688 4.04357 16.4376
11084 2 5.92342 4.99763 17.573
11085 1 15.836 19.3169 81.4039
11086 2 14.9332 19.0577 81.061
11087 2 15.7393 20.0522 82.0747
11088 1 47.2198 1.64485 69.0684
11089 2 46.3227 1.34406 69.3919
11090 2 47.2021 1.73486 68.0726
11091 1 62.1434 28.9406 46.1772
11092 2 62.9815 28.4742 46.4602
11093 2 62.356 29.5996 45.4557
11094 1 41.1115 22.7947 56.0375
11095 2 41.6823 23.6157 56.0434
11096 2 41.1525 22.3667 55.1346
11097 1 27.8931 0.240242 41.3874
11098 2 28.6598 29.6402 41.1592
11099 2 27.0659 29.692 41.5103
11100 1 62.4739 7.05212 39.1435
11101 2 62.6337 8.00319 39.4079
11102 2 63.3426 6.5568 39.1393
11103 1 66.7199 9.27153 21.0949
11104 2 66.2398 9.84946 20.435
11105 2 67.5872 8.96624 20.7016
11106 1 57.5936 13.8815 39.2134
11107 2 56.8574 13.5396 39.7974
11108 2 57.9872 14.7053 39.6211
11109 1 63.8461 26.6536 13.394
11110 2 64.0555 27.6234 13.5187
11111 2 63.5638 26.2584 14.2681
11112 1 13.7166 8.61854 72.4415
11113 2 12.812 8.20615 72.5494
11114 2 14.1467 8.26585 71.6104
11115 1 21.666 28.4539 54.6665
11116 2 21.1588 28.7355 55.481
11117 2 22.6302 28.6965 54.7739
11118 1 51.6981 27.6863 67.7376
11119 2 51.5647 26.9965 67.026
11120 2 51.4629 27.2965 68.6279
11121 1 42.9952 8.38797 55.6145
11122 2 42.1622 8.00581 55.2144
11123 2 43.6949 8.47717 54.9058
11124 1 35.2762 10.4763 54.9233
11125 2 34.8027 9.68415 54.5383
11126 2 35.38 10.3553 55.9105
11127 1 13.7546 21.1659 51.5231
11128 2 12.9355 21.5359 51.0848
11129 2 14.4365 21.8907 51.621
11130 1 32.9359 14.221 59.8676
11131 2 32.7382 13.521 60.5538
11132 2 32.0816 14.5255 59.4464
11133 1 26.3006 10.432 85.3536
11134 2 26.6001 10.9346 86.1646
11135 2 26.478 9.45628 85.4817
11136 1 60.3524 6.46223 34.3415
11137 2 60.9687 7.14127 34.7404
11138 2 60.4894 6.42856 33.3515
11139 1 79.1592 22.2278 37.2586
11140 2 79.9141 22.6856 36.789
11141 2 79.3924 21.2667 37.4064
11142 1 18.4684 20.5004 78.7018
11143 2 18.0349 19.9183 79.3898
11144 2 19.4312 20.6338 78.9368
11145 1 61.5832 20.6945 73.7428
11146 2 61.7319 21.6797 73.6578
11147 2 61.5554 20.4438 74.7105
11148 1 50.1402 8.75081 73.9555
11149 2 50.0807 9.62677 74.4342
11150 2 50.541 8.06533 74.5633
11151 1 39.0638 2.77374 52.2323
11152 2 38.0684 2.72651 52.1485
11153 2 39.3572 3.72866 52.1869
11154 1 59.5388 27.0828 71.8052
11155 2 59.4825 27.0021 72.8004
11156 2 58.9736 26.3753 71.381
11157 1 27.2016 27.5884 44.5013
11158 2 26.8218 27.0861 43.7244
11159 2 27.2373 26.9886 45.3006
11160 1 15.2691 22.9933 80.7585
11161 2 14.3643 23.3373 81.0096
11162 2 15.6974 22.5687 81.5561
11163 1 10.8291 29.7804 37.1534
11164 2 10.1883 29.7937 36.3858
11165 2 10.3782 29.3924 37.9573
11166 1 78.2847 9.64693 78.8586
11167 2 78.5862 8.9674 79.5275
11168 2 77.5468 9.26345 78.3032
11169 1 21.1353 0.695036 73.9056
11170 2 21.0601 1.62736 73.5519
11171 2 20.5475 0.594679 74.7084
11172 1 57.5387 21.577 40.0662
11173 2 58.1615 22.3508 40.1818
11174 2 56.6147 21.9163 39.8898
11175 1 32.5274 18.0259 83.7661
11176 2 32.8017 17.6831 84.6645
11177 2 33.1318 17.6464 83.0657
11178 1 73.6178 11.1524 22.3308
11179 2 73.3001 10.8621 23.2335
11180 2 73.4345 10.4296 21.6645
11181 1 2.73434 14.1269 83.526
11182 2 2.09341 13.5144 83.0633
11183 2 2.22731 14.8632 83.9741
11184 1 51.037 22.6017 53.4985
11185 2 51.9083 22.7787 53.0408
11186 2 50.5601 21.8574 53.0311
11187 1 76.3639 2.19039 61.072
11188 2 76.2355 1.80875 60.1567
11189 2 76.4725 1.44626 61.7312
11190 1 36.1845 21.3251 52.1568
11191 2 35.5002 20.6209 51.9673
11192 2 36.5622 21.6634 51.2949
11193 1 54.1014 7.04093 75.9897
11194 2 54.1551 7.92036 76.4627
11195 2 53.9904 7.19661 75.0082
11196 1 54.0822 0.0575516 27.309
11197 2 53.9166 0.708122 28.0502
11198 2 53.792 0.460297 26.4409
11199 1 61.324 23.9804 45.6161
11200 2 60.9081 24.6363 46.246
11201 2 61.0841 23.051 45.8964
11202 1 79.8001 4.36523 70.9966
11203 2 79.9696 5.07008 71.6854
11204 2 79.6895 3.47911 71.4467
11205 1 7.48761 1.30426 62.5627
11206 2 7.95794 2.05888 63.0203
11207 2 6.97464 0.773311 63.2372
11208 1 42.8195 5.72157 82.2489
11209 2 42.4172 5.52029 81.3558
11210 2 42.7376 6.7 82.4386
11211 1 64.8333 18.5935 83.2183
11212 2 63.864 18.375 83.1056
11213 2 65.3181 17.79 83.5638
11214 1 12.841 9.06577 79.6821
11215 2 13.5653 8.71089 80.2731
11216 2 12.3925 8.30587 79.2116
11217 1 76.2633 10.1707 86.4213
11218 2 75.7239 10.6905 87.0838
11219 2 76.3398 9.22113 86.7255
11220 1 70.3515 7.30164 45.8118
11221 2 70.4026 7.49911 44.8329
11222 2 71.275 7.26917 46.194
11223 1 71.4976 26.8573 20.8637
11224 2 72.1558 26.2606 20.4047
11225 2 71.3772 26.5556 21.8095
11226 1 49.8019 23.6795 79.9682
11227 2 49.9651 23.9923 80.9039
11228 2 48.9691 24.1055 79.6148
11229 1 57.7567 6.1704 59.0208
11230 2 58.2306 5.43966 58.5294
11231 2 57.2987 6.7705 58.365
11232 1 3.53107 13.3293 23.4192
11233 2 3.55497 13.4754 24.4082
11234 2 3.74946 12.3745 23.2179
11235 1 70.4497 8.3793 56.8834
11236 2 71.3802 8.60699 57.1703
11237 2 70.2911 7.4005 57.013
11238 1 12.3456 9.90017 90.442
11239 2 12.0413 10.7585 90.0288
11240 2 12.8374 9.3581 89.7607
11241 1 25.6853 13.454 32.6732
11242 2 25.1132 14.0346 32.0938
11243 2 25.868 12.5907 32.2028
11244 1 72.1724 26.3128 45.4328
11245 2 71.837 25.5094 44.9408
11246 2 71.9426 26.2299 46.4025
11247 1 7.07306 28.0433 67.4536
11248 2 7.57754 28.7498 66.9573
11249 2 6.09545 28.1373 67.2653
11250 1 63.7289 25.3885 35.3103
11251 2 63.1007 25.2391 34.5467
11252 2 63.9066 24.5188 35.7708
11253 1 8.39781 12.8639 14.9979
11254 2 9.38693 12.8109 14.8607
11255 2 8.0712 12.0099 15.4028
11256 1 0.727474 18.6957 85.256
11257 2 0.937871 17.762 84.9663
11258 2 0.705123 19.2957 84.4563
11259 1 66.2709 1.58388 64.3319
11260 2 66.3353 0.629537 64.0402
11261 2 67.1546 1.88265 64.6922
11262 1 71.6346 16.2194 63.7881
11263 2 70.9124 16.633 64.3426
11264 2 71.9258 16.8666 63.0835
11265 1 30.2723 10.3475 51.2134
11266 2 31.2317 10.0817 51.3073
11267 2 29.7562 9.59455 50.8051
11268 1 6.55652 7.23001 47.8159
11269 2 6.70185 6.3537 47.3566
11270 2 6.54886 7.09015 48.806
11271 1 71.7763 2.91233 65.0789
11272 2 71.9239 2.24146 64.3521
11273 2 72.4732 3.62701 65.0194
11274 1 75.4913 10.4713 89.0637
11275 2 75.886 11.192 89.6336
11276 2 75.0804 9.77166 89.6483
11277 1 79.7879 6.70587 45.1971
11278 2 0.75456 6.93192 45.3178
11279 2 79.6741 5.71244 45.2082
11280 1 55.0532 0.424616 82.7758
11281 2 54.9924 1.08721 82.0293
11282 2 55.7294 0.735937 83.4436
11283 1 76.3011 10.7159 70.1598
11284 2 75.3931 10.5676 70.5516
11285 2 76.5362 11.686 70.2213
11286 1 39.5885 29.2316 59.4044
11287 2 39.8206 29.8219 60.1775
11288 2 39.4673 29.7897 58.5836
11289 1 5.68245 23.3366 89.1535
11290 2 6.40577 23.9601 88.8567
11291 2 6.08083 22.6 89.7
11292 1 8.64511 5.79186 24.5173
11293 2 8.541 6.62749 25.0567
11294 2 9.36249 5.22288 24.9194
11295 1 46.6509 7.13067 61.5971
11296 2 47.5711 6.74109 61.6354
11297 2 46.0118 6.52303 62.0686
11298 1 70.7048 21.4055 84.0116
11299 2 70.4125 22.2993 84.3518
11300 2 71.596 21.1753 84.4024
11301 1 58.127 19.5378 75.8719
11302 2 57.801 20.4763 75.9852
11303 2 57.5031 18.9097 76.337
11304 1 13.3889 27.2034 91.6688
11305 2 14.2703 27.6265 91.8788
11306 2 13.5383 26.2799 91.3153
11307 1 9.64204 15.4744 13.1793
11308 2 10.3103 15.6253 12.4509
11309 2 9.02045 14.7374 12.914
11310 1 42.9983 12.1573 56.5688
11311 2 43.9258 12.491 56.4004
11312 2 42.3489 12.9105 56.4643
11313 1 59.8008 10.4138 71.8097
11314 2 59.2277 9.5955 71.7656
11315 2 59.2258 11.2148 71.9765
11316 1 0.00911568 20.4985 83.2632
11317 2 0.16729 20.4597 82.2766
11318 2 79.078 20.8181 83.4392
11319 1 0.833476 21.763 51.1743
11320 2 1.10279 20.907 50.733
11321 2 1.58968 22.4155 51.1253
11322 1 34.1401 4.9484 79.0986
11323 2 34.6754 5.75699 79.3426
11324 2 34.7526 4.16753 78.9762
11325 1 34.3062 9.99641 81.5723
11326 2 35.1299 9.91334 82.1333
11327 2 33.9192 9.0884 81.4118
11328 1 44.8291 29.0483 45.9218
11329 2 44.2635 29.8511 45.7329
11330 2 45.239 28.7215 45.0702
11331 1 26.6343 5.81529 55.7626
11332 2 26.4672 6.11266 56.7026
11333 2 27.5503 6.10069 55.4806
11334 1 53.4554 14.6343 39.6186
11335 2 52.5189 14.6548 39.9687
11336 2 53.4514 14.3025 38.6753
11337 1 77.3245 13.9675 25.3855
11338 2 77.626 13.2518 24.7556
11339 2 78.0622 14.1798 26.0265
11340 1 64.4116 13.7487 33.187
11341 2 65.2253 13.4422 33.6808
11342 2 63.9801 14.4986 33.6883
11343 1 26.6925 13.5429 83.8154
11344 2 26.2098 13.7825 84.6577
11345 2 27.5811 14.0013 83.7985
11346 1 4.63466 16.2439 43.3078
11347 2 4.67172 17.2427 43.2753
11348 2 5.5614 15.8786 43.3957
11349 1 16.1233 23.154 89.2892
11350 2 16.3978 22.2096 89.1079
11351 2 16.8773 23.6416 89.7293
11352 1 50.7834 10.5701 59.9422
11353 2 51.2886 10.2181 60.7302
11354 2 50.3388 11.4312 60.1891
11355 1 74.0312 8.43913 43.8635
11356 2 74.032 9.29435 43.3452
11357 2 74.9028 8.3393 44.3433
11358 1 45.3166 4.5934 59.052
11359 2 44.359 4.33013 59.1687
11360 2 45.5479 4.58709 58.0792
11361 1 3.86487 7.69906 81.4599
11362 2 3.80025 6.80659 81.9064
11363 2 4.77443 8.08445 81.6154
11364 1 65.1838 17.5379 60.0629
11365 2 65.9869 18.0911 60.2842
11366 2 64.8228 17.8156 59.1726
11367 1 29.02 11.168 55.3277
11368 2 29.9339 10.814 55.129
11369 2 29.0905 11.9306 55.9706
11370 1 6.19299 8.36578 24.9904
11371 2 5.8845 7.99189 24.1157
11372 2 7.1468 8.10831 25.1451
11373 1 38.4911 23.5239 74.3499
11374 2 37.9637 22.6777 74.2739
11375 2 39.4664 23.3065 74.3881
11376 1 24.4064 6.00346 36.4923
11377 2 24.8428 6.9003 36.4202
11378 2 23.4267 6.12158 36.6542
11379 1 25.1577 17.0988 66.7079
11380 2 25.3298 16.1801 66.3525
11381 2 25.8192 17.3069 67.4284
11382 1 47.963 23.1979 50.6147
11383 2 47.5521 24.1084 50.6607
11384 2 48.0704 22.9286 49.6577
11385 1 21.6593 9.66321 28.3522
11386 2 22.0597 9.16147 27.5854
11387 2 21.6488 9.07896 29.1637
11388 1 22.0581 3.43302 76.9913
11389 2 22.7186 2.72053 77.2283
11390 2 21.4966 3.64628 77.7908
11391 1 66.995 18.4598 42.4055
11392 2 66.9543 17.7066 43.0621
11393 2 67.3732 19.2709 42.8516
11394 1 6.61232 8.34515 82.8048
11395 2 6.66406 7.49619 82.2789
11396 2 7.4546 8.86867 82.6764
11397 1 9.72529 8.50234 33.4147
11398 2 10.3681 8.28038 34.1479
11399 2 10.2022 9.00643 32.6947
11400 1 0.379082 22.9212 40.613
11401 2 79.9352 22.0345 40.7429
11402 2 0.736781 23.2463 41.4884
11403 1 30.7003 10.8692 82.2946
11404 2 30.1438 10.6133 81.5041
11405 2 31.2089 11.7049 82.0877
11406 1 48.5535 15.1272 90.088
11407 2 48.5261 15.1764 89.0896
11408 2 48.8528 14.2153 90.3688
11409 1 51.787 6.85141 63.5609
11410 2 52.4436 7.2088 62.8967
11411 2 51.9468 7.27892 64.4507
11412 1 50.586 16.7967 41.6376
11413 2 49.5932 16.6781 41.6216
11414 2 51.0079 16.1635 40.9887
11415 1 47.3484 4.57918 87.7676
11416 2 48.3235 4.59866 87.5466
11417 2 47.1955 5.04012 88.6418
11418 1 78.7811 27.5498 53.8874
11419 2 79.5853 28.117 54.0651
11420 2 78.0611 28.1109 53.4791
11421 1 13.2744 10.0782 33.1097
11422 2 14.152 9.68528 32.8351
11423 2 13.1334 9.92763 34.0882
11424 1 10.5323 18.0002 70.4887
11425 2 10.3298 17.2886 69.8159
11426 2 9.7887 18.0498 71.1554
11427 1 3.00725 23.8055 77.8811
11428 2 3.36191 23.1778 78.5741
11429 2 2.78981 24.6838 78.3069
11430 1 8.44554 12.9236 76.1521
11431 2 8.20943 13.7962 75.7245
11432 2 7.6987 12.6325 76.75
11433 1 47.9385 12.9632 72.7207
11434 2 48.8725 12.9651 73.0779
11435 2 47.6977 13.8834 72.4122
11436 1 52.7894 18.53 69.9541
11437 2 53.4984 19.0238 69.4507
11438 2 52.1022 18.1882 69.313
11439 1 57.7848 29.0492 33.0493
11440 2 58.2695 29.6657 33.6697
11441 2 57.0549 29.5503 32.5843
11442 1 26.0979 19.8326 73.395
11443 2 26.0557 18.962 72.9047
11444 2 26.6172 20.4946 72.8546
11445 1 8.83179 15.0297 21.7441
11446 2 9.15946 14.0856 21.7064
11447 2 8.59414 15.2627 22.6871
11448 1 63.7945 22.97 66.9047
11449 2 64.0027 23.9165 67.1513
11450 2 64.6313 22.4238 66.9427
11451 1 10.7754 27.2666 35.7223
11452 2 10.9556 28.1085 36.2309
11453 2 9.79137 27.1727 35.5709
11454 1 33.5135 26.4774 77.7099
11455 2 32.9237 26.2515 78.4852
11456 2 33.7408 25.642 77.2095
11457 1 44.2949 13.3524 75.3052
11458 2 43.5106 12.9674 75.7917
11459 2 45.0181 13.5723 75.9599
11460 1 0.875013 21.8895 33.7954
11461 2 1.02832 22.393 34.6457
11462 2 0.952293 22.515 33.0191
11463 1 71.0825 24.2001 62.7059
11464 2 71.7326 24.6 63.3519
11465 2 71.5414 23.4956 62.1644
11466 1 25.3873 25.4532 80.9125
11467 2 24.6886 26.1685 80.9018
11468 2 24.9623 24.5754 81.1335
11469 1 62.0591 19.3818 36.4878
11470 2 62.7502 19.7912 37.0834
11471 2 61.3149 19.0134 37.045
11472 1 39.6131 20.4832 50.5908
11473 2 40.398 20.9191 50.1505
11474 2 38.7699 20.7937 50.152
11475 1 38.7856 22.1175 77.9322
11476 2 37.9401 21.8746 77.4567
11477 2 38.6001 22.2229 78.9092
11478 1 60.3938 10.7086 56.8025
11479 2 60.3026 11.6355 57.1666
11480 2 61.1298 10.6871 56.1259
11481 1 37.8135 1.84081 54.8625
11482 2 38.3427 1.47172 55.6265
11483 2 37.7005 2.82732 54.981
11484 1 59.4984 0.441804 84.0717
11485 2 58.6407 0.785856 84.4537
11486 2 59.7045 29.547 84.4678
11487 1 35.2962 28.6626 38.0366
11488 2 35.3316 29.6467 37.8625
11489 2 35.9875 28.4195 38.7171
11490 1 76.5542 11.0275 74.8786
11491 2 76.6967 10.0632 74.6556
11492 2 75.7087 11.127 75.4031
11493 1 62.2713 24.3093 38.1535
11494 2 62.9368 23.7311 37.6814
11495 2 61.4386 24.3762 37.6038
11496 1 21.7431 19.3744 84.8855
11497 2 21.3253 18.9439 85.6856
11498 2 22.7291 19.4588 85.0291
11499 1 13.9828 13.3305 44.8579
11500 2 14.5961 13.276 45.6458
11501 2 14.4133 12.8913 44.0693
11502 1 65.4771 2.90377 50.506
11503 2 65.955 3.65601 50.0524
11504 2 64.5004 2.95561 50.2978
11505 1 45.6139 21.5261 72.409
11506 2 46.535 21.5291 72.0195
11507 2 45.0351 22.1638 71.9008
11508 1 39.6696 22.1179 60.5362
11509 2 40.4291 22.5751 60.0735
11510 2 39.9613 21.826 61.4471
11511 1 24.4416 7.09834 65.3325
11512 2 23.46 6.9093 65.3055
11513 2 24.592 8.08626 65.2949
11514 1 37.458 0.224442 61.4492
11515 2 38.0036 0.00551246 62.2581
11516 2 36.7988 0.941502 61.6758
11517 1 49.4526 20.6373 82.3061
11518 2 48.9644 20.6613 81.4337
11519 2 50.4319 20.5258 82.1371
11520 1 55.521 15.3032 62.6835
11521 2 55.0925 15.6096 61.8335
11522 2 54.8401 15.2943 63.4157
11523 1 45.6686 21.2833 82.0574
11524 2 44.8198 21.5348 82.5224
11525 2 45.6186 21.5623 81.0984
11526 1 69.7658 21.1314 34.6059
11527 2 69.773 20.3047 34.0433
11528 2 70.5763 21.6805 34.402
11529 1 57.4632 9.47319 35.8485
11530 2 58.1602 8.81075 36.1232
11531 2 56.5665 9.1642 36.1653
11532 1 5.50216 9.07062 50.8312
11533 2 5.73886 8.10177 50.9041
11534 2 6.32446 9.62515 50.959
11535 1 8.36465 21.8305 19.7064
11536 2 7.84873 21.2318 20.3191
11537 2 9.31023 21.5108 19.6461
11538 1 66.5062 19.4434 55.3854
11539 2 66.8369 20.2191 55.923
11540 2 65.5243 19.5437 55.2247
11541 1 40.4574 29.9593 50.2378
11542 2 41.2771 29.9639 49.665
11543 2 39.8623 0.718423 49.974
11544 1 55.782 22.7654 80.5606
11545 2 56.746 23.0294 80.528
11546 2 55.4804 22.7221 81.513
11547 1 67.2379 26.9296 40.2961
11548 2 68.1685 26.8158 39.9482
11549 2 66.954 26.0949 40.768
11550 1 11.7569 11.2845 83.9761
11551 2 12.095 11.8747 83.243
11552 2 11.9348 10.3284 83.7431
11553 1 78.2857 6.02315 38.6263
11554 2 78.8005 6.09487 39.4807
11555 2 77.9277 6.92279 38.3764
11556 1 2.12697 15.3869 88.0087
11557 2 2.90264 15.9996 87.8572
11558 2 1.73855 15.5585 88.9141
11559 1 13.6949 12.3565 41.9109
11560 2 14.6264 12.7175 41.866
11561 2 13.4762 11.8909 41.0533
11562 1 24.835 11.131 90.4124
11563 2 24.6339 10.2332 90.8042
11564 2 24.0101 11.5002 89.9844
11565 1 49.404 15.8148 53.8699
11566 2 50.1036 15.2242 53.4679
11567 2 48.7576 16.0962 53.1606
11568 1 24.8014 5.98148 76.058
11569 2 25.2103 6.51385 75.3168
11570 2 23.8977 6.35104 76.2746
11571 1 9.48727 21.7776 23.1295
11572 2 8.90151 21.0439 22.7853
11573 2 9.79664 21.5516 24.0532
11574 1 42.4802 15.4582 74.218
11575 2 43.0827 16.1941 74.5268
11576 2 42.7559 14.5988 74.6487
11577 1 40.3337 7.96015 88.6658
11578 2 40.6194 8.01772 87.7092
11579 2 41.0627 7.54058 89.2067
11580 1 62.0112 0.479083 35.8652
11581 2 62.8663 0.109843 35.5014
11582 2 61.2708 29.8267 35.7033
11583 1 23.9612 8.85838 32.4362
11584 2 23.4407 9.70912 32.5088
11585 2 24.6665 8.83767 33.1448
11586 1 20.3628 12.1298 81.2428
11587 2 20.5484 11.8819 80.2919
11588 2 19.4016 11.9505 81.4524
11589 1 64.5856 20.8453 30.9304
11590 2 64.1901 21.6858 30.5601
11591 2 64.2139 20.6761 31.8432
11592 1 16.9024 17.7806 34.5369
11593 2 17.3069 16.8661 34.5307
11594 2 15.9078 17.7056 34.4657
11595 1 39.6036 26.3351 50.0772
11596 2 40.3511 25.6728 50.0263
11597 2 39.3543 26.628 49.1541
11598 1 42.8082 12.0565 34.8642
11599 2 42.5925 11.0825 34.9333
11600 2 43.4716 12.3019 35.5711
11601 1 12.3086 25.3615 22.6651
11602 2 12.6661 26.1177 23.2131
11603 2 12.8842 25.234 21.8574
11604 1 7.67319 6.36326 44.263
11605 2 6.74051 6.46808 44.6081
11606 2 8.25837 7.06771 44.6646
11607 1 70.9337 20.8688 66.27
11608 2 71.2796 20.1875 65.625
11609 2 71.6144 21.0263 66.9855
11610 1 69.4297 23.281 56.3205
11611 2 68.8281 22.4913 56.441
11612 2 68.8972 24.1226 56.411
11613 1 21.6931 5.56677 33.6697
11614 2 22.4888 5.28063 33.1358
11615 2 21.9506 5.65164 34.6322
11616 1 48.1981 6.36256 58.6659
11617 2 48.445 5.53564 58.1607
11618 2 48.9611 7.00851 58.6413
11619 1 39.1769 28.5775 56.5505
11620 2 38.234 28.2803 56.7007
11621 2 39.2765 29.5295 56.84
11622 1 47.9865 1.11644 33.9859
11623 2 48.3015 0.329641 34.5166
11624 2 46.9872 1.15119 34.0024
11625 1 70.1238 23.5698 85.4869
11626 2 70.2502 23.3118 86.4448
11627 2 70.8135 24.2469 85.2304
11628 1 14.3502 8.27532 18.0475
11629 2 13.8907 7.8972 18.8512
11630 2 15.2424 8.63973 18.3142
11631 1 22.5321 12.0903 75.0006
11632 2 23.2313 12.2504 74.3038
11633 2 21.7467 11.6312 74.5854
11634 1 24.6238 4.76688 39.0104
11635 2 23.6835 4.48792 39.2051
11636 2 24.6631 5.20178 38.1108
11637 1 11.1289 26.6876 90.0264
11638 2 10.7891 25.7987 90.3337
11639 2 11.9321 26.9418 90.5653
11640 1 29.1826 29.5601 64.5506
11641 2 29.5056 28.6435 64.7863
11642 2 28.2133 29.6419 64.7827
11643 1 51.5907 3.70656 56.6128
11644 2 51.9725 4.48974 56.122
11645 2 52.0795 2.8758 56.3465
11646 1 25.5169 23.3213 78.5836
11647 2 24.713 23.5963 78.0563
11648 2 26.1391 24.099 78.6729
11649 1 12.4159 6.57304 10.6324
11650 2 11.8747 7.41387 10.6426
11651 2 12.9496 6.53039 9.78775
11652 1 57.4922 25.5415 47.1783
11653 2 56.7363 25.0175 47.5707
11654 2 57.2825 26.5179 47.2288
11655 1 30.4334 14.9057 55.2253
11656 2 29.9907 14.4476 55.9961
11657 2 30.2804 15.8918 55.291
11658 1 1.11961 4.57435 24.7184
11659 2 1.9308 5.15343 24.7999
11660 2 1.11204 4.13588 23.8197
11661 1 1.54486 3.33024 65.2388
11662 2 2.30985 3.58917 65.8285
11663 2 1.78376 2.50585 64.7256
11664 1 25.3521 9.68296 71.2049
11665 2 24.9641 9.01384 70.571
11666 2 26.3067 9.85663 70.9631
11667 1 30.9548 11.2328 78.0317
11668 2 30.2526 10.9348 78.6784
11669 2 31.1375 12.2071 78.1636
11670 1 68.7561 28.6208 18.3827
11671 2 68.0937 28.8893 17.6833
11672 2 69.636 29.0566 18.1934
11673 1 41.7426 22.627 79.1637
11674 2 41.4473 23.2047 79.9246
11675 2 41.404 21.6961 79.301
11676 1 26.2775 23.9356 59.0562
11677 2 26.7454 24.7548 58.7245
11678 2 26.4928 23.1636 58.4582
11679 1 28.0465 21.644 66.4451
11680 2 28.8289 21.0293 66.3452
11681 2 28.3443 22.5881 66.3036
11682 1 71.2618 11.2002 16.0526
11683 2 71.1333 10.4604 16.713
11684 2 70.4325 11.3048 15.5037
11685 1 7.08134 9.73947 90.2267
11686 2 6.48739 9.59749 91.0186
11687 2 6.58093 9.51571 89.3904
11688 1 29.9801 9.17817 37.7654
11689 2 30.5154 10.0216 37.7201
11690 2 29.599 9.07416 38.684
11691 1 79.669 10.3157 90.5879
11692 2 79.0799 10.6797 91.3094
11693 2 0.429119 10.9457 90.4288
11694 1 63.9108 22.8884 82.8773
11695 2 63.8492 23.344 81.9893
11696 2 64.1101 23.5651 83.5861
11697 1 48.4016 25.4413 60.5575
11698 2 48.1943 25.8895 61.427
11699 2 49.3085 25.7237 60.2447
11700 1 3.45163 13.0913 31.3431
11701 2 3.31888 14.0248 31.6762
11702 2 2.568 12.7007 31.085
11703 1 5.7659 25.5652 79.1382
11704 2 6.1027 24.843 78.534
11705 2 5.17454 26.1838 78.6208
11706 1 59.1179 13.9102 46.4224
11707 2 58.4048 13.6733 47.0822
11708 2 58.7396 14.5228 45.7284
11709 1 2.85957 2.79604 50.936
11710 2 3.19591 3.30265 51.7298
11711 2 3.20184 3.22269 50.0988
11712 1 35.0421 3.93724 73.4198
11713 2 34.2107 3.38701 73.343
11714 2 34.934 4.60351 74.1576
11715 1 54.3374 20.5699 76.845
11716 2 54.8175 20.3676 77.6985
11717 2 53.3746 20.7568 77.0402
11718 1 41.5707 25.833 76.1683
11719 2 41.5865 26.3914 75.3389
11720 2 42.1879 26.2288 76.8483
11721 1 0.206519 1.49715 31.6217
11722 2 79.8067 2.39999 31.7798
11723 2 1.1906 1.53335 31.7957
11724 1 35.0713 7.89417 40.3163
11725 2 35.7381 7.52981 39.6663
11726 2 35.3761 7.70264 41.2493
11727 1 76.5792 2.66728 56.4166
11728 2 76.5511 2.45209 57.3927
11729 2 75.7612 3.18479 56.1656
11730 1 23.2668 1.23729 41.5734
11731 2 22.734 1.43231 40.7499
11732 2 22.8321 0.495291 42.0837
11733 1 77.645 17.3582 65.6624
11734 2 76.9538 16.6376 65.7162
11735 2 77.9423 17.6045 66.5849
11736 1 3.29087 3.14509 85.7437
11737 2 4.25082 3.04584 85.4817
11738 2 2.83727 2.25545 85.6909
11739 1 51.816 9.5026 79.7213
11740 2 51.174 9.68264 80.4665
11741 2 52.3282 8.66643 79.9174
11742 1 33.0707 28.0735 72.2108
11743 2 32.1374 28.1671 72.5575
11744 2 33.7204 28.2832 72.9416
11745 1 44.8278 12.9633 69.9729
11746 2 45.6266 12.5035 69.5848
11747 2 44.685 13.8353 69.5047
11748 1 44.9098 5.61003 35.695
11749 2 45.1094 6.34493 36.3431
11750 2 44.1384 5.87593 35.1168
11751 1 67.5627 11.7282 68.0819
11752 2 67.7732 10.751 68.054
11753 2 67.8294 12.1013 68.9705
11754 1 68.1596 29.7461 13.0047
11755 2 67.1689 29.6297 13.0746
11756 2 68.3732 0.714704 12.8774
11757 1 53.9452 21.9524 83.0009
11758 2 53.7125 22.8858 82.7279
11759 2 54.5332 21.9784 83.8093
11760 1 29.5775 13.3268 42.5252
11761 2 29.5016 14.2914 42.2729
11762 2 29.8598 13.2536 43.4818
11763 1 39.8003 14.0851 34.7158
11764 2 39.82 13.0918 34.8296
11765 2 39.78 14.5232 35.6145
11766 1 59.1933 27.2737 74.4333
11767 2 58.3997 27.6906 74.8765
11768 2 59.9652 27.9086 74.466
11769 1 19.9184 20.8905 47.4888
11770 2 20.7074 21.4866 47.6378
11771 2 19.2239 21.382 46.9633
11772 1 77.0537 8.11555 19.4339
11773 2 77.2653 7.42665 18.7406
11774 2 77.8791 8.63811 19.6473
11775 1 75.5861 9.92357 26.1402
11776 2 75.9567 10.158 25.2415
11777 2 74.8751 9.22806 26.0364
11778 1 25.8217 13.0617 74.6017
11779 2 26.4462 12.3362 74.3126
11780 2 26.1018 13.4051 75.4982
11781 1 13.402 11.6902 12.6895
11782 2 13.65 12.6399 12.8811
11783 2 14.2146 11.1121 12.7638
11784 1 22.0838 25.5785 35.1766
11785 2 21.3608 26.2335 35.396
11786 2 21.9035 24.7137 35.6453
11787 1 4.70085 19.914 83.9158
11788 2 4.16261 19.9225 83.073
11789 2 5.33489 19.1409 83.8986
11790 1 24.5605 12.3543 41.4992
11791 2 24.2458 13.2417 41.8361
11792 2 24.9031 12.4548 40.5651
11793 1 13.7576 29.019 87.5247
11794 2 13.9833 29.027 86.5506
11795 2 14.5914 28.8792 88.0589
11796 1 4.12765 18.3887 31.6311
11797 2 4.08871 17.3933 31.5432
11798 2 3.95792 18.6462 32.5824
11799 1 22.9475 24.8122 90.1456
11800 2 22.451 25.6689 90.0059
11801 2 22.4477 24.0627 89.7114
11802 1 58.364 16.9466 46.4529
11803 2 58.1759 16.1485 45.8804
11804 2 57.5246 17.2292 46.917
11805 1 18.3758 16.9737 90.4419
11806 2 18.347 17.8809 90.0221
11807 2 19.2893 16.5831 90.329
11808 1 45.0891 14.6292 59.7616
11809 2 44.0995 14.713 59.6441
11810 2 45.4298 15.4096 60.2858
11811 1 74.0586 28.1822 31.1194
11812 2 74.1548 27.7474 32.0148
11813 2 73.1201 28.5084 31.0063
11814 1 45.5958 0.387795 40.5828
11815 2 45.5896 0.695395 41.5343
11816 2 44.9131 29.6674 40.461
11817 1 23.6328 23.6231 56.8137
11818 2 24.3806 23.0119 57.0729
11819 2 22.7577 23.173 56.9912
11820 1 58.3039 15.3332 66.5835
11821 2 59.0856 15.3965 67.204
11822 2 58.6243 15.0926 65.6672
11823 1 52.8997 22.16 87.7113
11824 2 52.2764 22.3481 86.9523
11825 2 52.9947 22.98 88.2757
11826 1 2.37425 26.5276 84.0539
11827 2 2.25719 26.0508 84.9251
11828 2 2.39471 27.5144 84.2141
11829 1 2.91032 10.8238 27.5706
11830 2 2.08493 10.8648 27.0075
11831 2 3.71231 10.7323 26.9803
11832 1 8.39333 16.6178 32.4674
11833 2 7.55863 17.1338 32.6598
11834 2 8.89069 17.0557 31.7184
11835 1 18.9553 13.7842 67.7514
11836 2 19.2368 13.7819 68.711
11837 2 17.9571 13.7582 67.6968
11838 1 36.2381 21.4318 76.9055
11839 2 35.8016 20.5669 77.1535
11840 2 36.5788 21.3761 75.967
11841 1 60.2544 25.5836 47.325
11842 2 59.2995 25.2868 47.3393
11843 2 60.7006 25.312 48.1777
11844 1 57.6238 6.82203 55.5075
11845 2 57.3129 7.04968 56.4302
11846 2 57.4865 7.60898 54.9059
11847 1 62.1999 4.08122 60.529
11848 2 62.2405 5.07982 60.4951
11849 2 63.0515 3.70062 60.1684
11850 1 10.033 21.5083 56.9187
11851 2 10.2794 20.5991 56.583
11852 2 10.1985 22.1848 56.2011
11853 1 57.1968 5.93685 34.5209
11854 2 58.0826 6.13598 34.9402
11855 2 56.6413 5.39893 35.155
11856 1 72.9257 23.5964 42.7886
11857 2 71.9773 23.7533 43.0641
11858 2 73.394 23.064 43.4938
11859 1 77.632 6.44838 33.4678
11860 2 78.292 6.57769 32.7277
11861 2 78.0959 6.54425 34.3485
11862 1 37.3567 6.99019 82.9027
11863 2 36.9124 6.32912 83.5073
11864 2 36.9695 7.89863 83.0601
11865 1 28.3862 1.9419 82.2633
11866 2 28.7971 2.79393 81.939
11867 2 28.7078 1.74851 83.1902
11868 1 3.71075 9.80012 40.7853
11869 2 4.50788 9.2918 40.4595
11870 2 3.33297 10.3438 40.0359
11871 1 61.62 15.4069 47.0811
11872 2 60.6446 15.2691 46.9093
11873 2 62.0387 14.5369 47.3415
11874 1 29.9421 21.0711 88.5418
11875 2 30.0866 20.112 88.2986
11876 2 28.9617 21.2678 88.5539
11877 1 75.1676 0.704234 34.7627
11878 2 75.6627 29.9903 35.2577
11879 2 74.2683 0.360126 34.4926
11880 1 79.8564 22.0633 64.7303
11881 2 78.884 22.2664 64.6154
11882 2 0.351496 22.9079 64.934
11883 1 16.027 3.61929 75.4205
11884 2 16.3413 3.30399 74.525
11885 2 15.2862 3.02876 75.7406
11886 1 42.436 5.97967 34.0862
11887 2 42.5606 6.54799 33.2728
11888 2 41.559 6.19802 34.5142
11889 1 17.743 14.5003 54.4308
11890 2 18.3871 14.3523 53.6803
11891 2 17.6408 13.6543 54.954
11892 1 7.61302 13.571 12.5805
11893 2 7.79329 13.2481 13.5096
11894 2 6.76425 14.0997 12.5702
11895 1 67.3892 12.9857 52.6744
11896 2 67.0565 13.0691 51.7351
11897 2 66.6122 12.8803 53.295
11898 1 75.8021 10.774 65.117
11899 2 75.1185 10.8854 65.8383
11900 2 75.414 11.0643 64.2423
11901 1 0.355368 18.0167 39.5726
11902 2 0.462347 18.8053 38.9671
11903 2 0.757152 18.2243 40.4645
11904 1 17.4015 6.32714 75.456
11905 2 18.2388 6.86343 75.3502
11906 2 17.6321 5.40897 75.7781
11907 1 61.1025 21.0613 52.6381
11908 2 61.0135 20.6786 51.7185
11909 2 61.3114 20.3283 53.2854
11910 1 27.2635 16.1844 56.9435
11911 2 26.9599 16.436 57.8625
11912 2 27.7058 15.288 56.9724
11913 1 48.9871 15.2066 75.4031
11914 2 48.9128 16.0804 74.9225
11915 2 49.6756 14.6369 74.9543
11916 1 74.0917 11.332 38.1409
11917 2 74.9155 11.2537 38.7022
11918 2 74.2591 11.9715 37.3906
11919 1 31.4879 9.85931 54.8537
11920 2 31.7351 9.82053 53.8855
11921 2 31.2044 8.95124 55.162
11922 1 24.9881 0.236895 37.4402
11923 2 24.1662 0.752481 37.6826
11924 2 24.9188 29.9256 36.4925
11925 1 50.2829 15.2483 77.8676
11926 2 51.1486 15.2651 77.3673
11927 2 49.529 15.4263 77.2353
11928 1 17.6467 2.29011 85.2143
11929 2 18.3865 2.85002 85.5873
11930 2 16.9161 2.20863 85.8922
11931 1 16.2507 24.9427 42.0753
11932 2 17.1433 24.5009 41.9857
11933 2 15.8324 24.6758 42.9435
11934 1 66.4653 11.154 46.6835
11935 2 67.0156 10.3285 46.8095
11936 2 65.6295 11.0837 47.228
11937 1 27.8568 17.5911 32.034
11938 2 28.627 17.087 32.4248
11939 2 27.5397 17.1267 31.207
11940 1 53.1539 24.4292 84.9059
11941 2 53.2525 24.2948 83.9199
11942 2 52.3983 23.8686 85.2448
11943 1 29.5719 23.6515 70.737
11944 2 29.4423 22.9547 71.4425
11945 2 29.7661 24.5319 71.1697
11946 1 73.7326 22.9684 83.2403
11947 2 73.9998 22.4306 82.4406
11948 2 73.7611 22.3901 84.0555
11949 1 24.679 4.28536 73.2785
11950 2 24.0559 5.06318 73.3605
11951 2 24.7919 3.85296 74.1731
11952 1 5.31332 15.3678 34.6392
11953 2 4.86858 15.6216 33.7803
11954 2 5.31645 16.1535 35.2578
11955 1 9.4493 18.884 66.736
11956 2 9.01965 18.0195 66.4753
11957 2 9.97485 19.2413 65.9639
11958 1 56.6047 25.2538 53.2884
11959 2 56.2674 24.9676 54.1852
11960 2 57.582 25.4565 53.349
11961 1 74.0578 18.0193 47.9339
11962 2 73.927 18.9678 47.6453
11963 2 73.4544 17.8197 48.706
11964 1 2.08248 18.0004 53.1098
11965 2 3.01683 17.8294 53.4225
11966 2 1.55218 18.4098 53.8522
11967 1 7.58336 21.0823 62.0986
11968 2 7.45869 20.2565 61.5485
11969 2 6.74705 21.2688 62.6141
11970 1 55.0909 19.0851 31.7585
11971 2 54.9916 19.9115 31.2042
11972 2 54.1878 18.6985 31.9453
11973 1 62.0799 22.5287 78.6468
11974 2 61.9163 22.9117 77.7376
11975 2 62.8289 23.0237 79.0871
11976 1 72.4165 16.7685 80.1459
11977 2 73.3362 17.0514 80.4182
11978 2 72.4028 15.7801 79.9948
11979 1 64.1325 2.07709 71.6237
11980 2 63.4459 1.46539 71.2308
11981 2 65.0245 1.88292 71.2155
11982 1 43.9479 16.2029 71.336
11983 2 44.3559 17.0205 71.7423
11984 2 43.9862 15.4498 71.9927
11985 1 76.2226 21.2169 31.8921
11986 2 76.6321 20.5978 32.5621
11987 2 75.2265 21.187 31.9758
11988 1 44.4003 16.4725 79.1267
11989 2 44.2675 15.5566 78.7479
11990 2 43.8737 17.1337 78.5925
11991 1 61.847 26.7078 41.5768
11992 2 62.3502 25.8437 41.5935
11993 2 60.8649 26.5222 41.6068
11994 1 21.4529 23.1395 69.2663
11995 2 21.0553 23.5023 68.4236
11996 2 20.7388 22.696 69.8079
11997 1 60.1558 26.5892 65.4728
11998 2 60.9409 26.478 64.8635
11999 2 59.3402 26.2065 65.0389
12000 1 50.5101 16.4597 61.74
12001 2 50.2663 17.0767 60.9918
12002 2 51.2487 16.8647 62.2788
12003 1 9.74284 2.18441 38.8325
12004 2 9.40033 2.40974 39.7446
12005 2 9.45485 2.88966 38.1847
12006 1 47.3578 27.4369 34.2444
12007 2 47.5178 27.8601 33.3526
12008 2 47.7604 28.0068 34.9608
12009 1 17.1386 10.1531 43.5891
12010 2 18.1165 10.068 43.7803
12011 2 16.6779 10.5542 44.3809
12012 1 24.5465 15.9422 63.212
12013 2 25.0635 15.589 62.4323
12014 2 24.7191 16.9223 63.3099
12015 1 45.4096 13.7771 56.1076
12016 2 45.8101 14.6767 56.282
12017 2 45.5655 13.5222 55.1533
12018 1 76.7868 13.8396 74.2513
12019 2 76.7884 12.8713 74.5009
12020 2 77.7061 14.2154 74.3679
12021 1 33.1889 12.386 69.5583
12022 2 33.7273 13.1964 69.327
12023 2 33.2132 11.7406 68.7949
12024 1 26.0045 14.8924 61.276
12025 2 26.7854 14.2682 61.2978
12026 2 26.0497 15.4541 60.4499
12027 1 48.6192 25.7248 86.2453
12028 2 48.5539 26.1982 87.1237
12029 2 48.787 24.7516 86.4029
12030 1 75.0976 7.34037 35.0874
12031 2 75.7154 7.71328 35.7797
12032 2 74.1814 7.24261 35.4761
12033 1 66.4832 14.5054 29.962
12034 2 65.5591 14.7601 30.2468
12035 2 66.446 13.6628 29.4247
12036 1 1.7012 19.2121 22.2123
12037 2 1.42001 19.7289 21.4036
12038 2 1.95887 18.2844 21.942
12039 1 1.65132 4.17221 42.4086
12040 2 1.58633 3.69677 41.5312
12041 2 1.41375 3.54189 43.1477
12042 1 42.0106 27.3753 51.6773
12043 2 42.5279 27.5408 50.8376
12044 2 41.0974 27.0401 51.4456
12045 1 73.9579 18.922 20.3852
12046 2 73.918 17.9396 20.5674
12047 2 74.8053 19.2966 20.7615
12048 1 57.7408 3.11815 86.7542
12049 2 58.5168 3.64218 86.4031
12050 2 57.3893 2.52018 86.0339
12051 1 66.0083 10.6484 18.8706
12052 2 65.1786 11.1275 18.584
12053 2 66.662 10.6321 18.114
12054 1 43.9312 11.9174 46.5932
12055 2 43.3677 11.2352 46.1274
12056 2 43.63 12.8341 46.3305
12057 1 1.3674 3.77438 35.068
12058 2 0.401558 3.60731 35.266
12059 2 1.47956 4.70362 34.7159
12060 1 78.7786 10.2928 32.5159
12061 2 78.7976 11.282 32.6613
12062 2 78.9578 10.0941 31.5524
12063 1 42.0702 7.52038 71.0947
12064 2 42.6422 7.26688 70.3146
12065 2 41.1135 7.31704 70.8865
12066 1 54.6729 11.6807 48.1668
12067 2 54.9458 10.996 47.491
12068 2 55.3138 12.4478 48.1417
12069 1 79.6366 9.87635 20.2844
12070 2 0.298456 9.43128 19.6813
12071 2 0.113815 10.2707 21.0698
12072 1 48.6315 15.5562 87.2498
12073 2 49.2708 14.8079 87.0731
12074 2 47.755 15.3562 86.8118
12075 1 26.6738 27.3164 51.7207
12076 2 27.1779 28.1624 51.5469
12077 2 26.8711 26.656 50.9962
12078 1 55.0348 18.6365 54.8631
12079 2 54.3915 18.6401 55.6288
12080 2 55.489 19.5255 54.8053
12081 1 47.6658 5.48388 63.8706
12082 2 48.188 4.79547 64.374
12083 2 46.7012 5.22093 63.8494
12084 1 48.2645 17.4402 73.816
12085 2 47.8363 18.2706 74.1724
12086 2 48.1493 17.4053 72.8233
12087 1 71.22 16.9876 75.138
12088 2 71.3627 17.6293 75.8916
12089 2 70.241 16.904 74.9522
12090 1 40.2234 7.07517 74.8655
12091 2 39.8736 7.921 74.4628
12092 2 39.8224 6.9472 75.7726
12093 1 36.9264 9.92984 67.432
12094 2 37.7917 9.50734 67.7017
12095 2 36.632 9.55473 66.5531
12096 1 13.8578 3.49925 88.2436
12097 2 13.932 4.46538 87.9964
12098 2 14.4812 2.96123 87.6762
12099 1 37.6493 16.0206 33.6699
12100 2 37.9713 16.507 32.8577
12101 2 38.242 15.2343 33.8443
12102 1 5.81196 20.5217 64.244
12103 2 6.70928 20.6968 64.6491
12104 2 5.70974 19.5421 64.0711
12105 1 12.3507 9.48012 13.6092
12106 2 12.5859 10.3305 13.1384
12107 2 13.0483 9.27537 14.2958
12108 1 37.9569 6.21049 85.4919
12109 2 38.6289 5.48675 85.3351
12110 2 38.3615 7.09611 85.264
12111 1 58.3982 24.2412 70.1816
12112 2 59.1798 23.6352 70.3294
12113 2 57.6966 24.054 70.8692
12114 1 64.8462 8.50762 81.2395
12115 2 65.3695 8.4394 80.3901
12116 2 65.3472 9.07238 81.8953
12117 1 61.0453 18.3561 88.2257
12118 2 61.3865 18.6755 89.1097
12119 2 61.81 18.0237 87.6737
12120 1 51.818 2.46508 47.0592
12121 2 50.8436 2.4199 46.839
12122 2 51.9367 2.87631 47.963
12123 1 61.0685 19.9362 50.3032
12124 2 60.3411 19.5744 49.72
12125 2 61.9546 19.7785 49.8674
12126 1 4.95014 23.5555 26.8589
12127 2 4.72501 24.0793 27.6804
12128 2 5.94323 23.467 26.7817
12129 1 63.2549 12.3964 87.3868
12130 2 63.2041 13.3357 87.726
12131 2 62.6453 11.8143 87.9249
12132 1 9.03468 23.5133 44.3563
12133 2 8.54649 23.3748 43.4946
12134 2 8.38359 23.769 45.0709
12135 1 71.9481 14.8186 90.4739
12136 2 71.6393 15.4769 89.7874
12137 2 71.5021 13.9377 90.3152
12138 1 68.3236 0.316122 84.8104
12139 2 68.1545 1.2184 84.4138
12140 2 69.3045 0.198987 84.966
12141 1 26.3756 21.3821 81.3417
12142 2 25.7711 22.1771 81.3934
12143 2 26.7867 21.2171 82.2382
12144 1 55.175 27.4128 87.4415
12145 2 55.964 27.0315 87.9231
12146 2 54.481 27.6901 88.1059
12147 1 35.9954 15.5157 73.6049
12148 2 36.8381 15.9108 73.2391
12149 2 36.2201 14.8618 74.3273
12150 1 50.6776 11.279 75.1508
12151 2 50.5651 11.7349 76.0337
12152 2 50.8 11.9658 74.4342
12153 1 11.5613 19.1933 20.867
12154 2 11.0781 19.0366 21.7284
12155 2 12.544 19.075 21.0098
12156 1 72.8802 17.7738 27.2411
12157 2 73.1674 17.0743 27.8955
12158 2 73.6758 18.3058 26.9513
12159 1 59.5332 2.41626 78.1032
12160 2 59.8338 3.02713 77.3708
12161 2 58.6999 2.77991 78.5196
12162 1 22.5322 7.15692 91.0211
12163 2 23.1198 6.34822 91.0477
12164 2 22.9105 7.82269 90.3779
12165 1 51.2485 3.39897 76.8368
12166 2 51.4845 2.44856 77.0394
12167 2 51.9227 4.00657 77.2567
12168 1 43.3405 6.62931 68.8318
12169 2 44.216 6.66615 69.3135
12170 2 43.4369 7.05483 67.932
12171 1 71.4505 24.1056 82.2532
12172 2 72.2401 23.945 82.8454
12173 2 71.6093 24.9237 81.7005
12174 1 41.733 0.17253 83.6588
12175 2 41.4149 0.98062 83.163
12176 2 42.4334 29.7049 83.1195
12177 1 46.0831 6.85046 69.7752
12178 2 46.8431 6.51807 69.2167
12179 2 46.4109 7.05176 70.6982
12180 1 64.8489 28.4488 32.3244
12181 2 64.5259 27.5159 32.1649
12182 2 64.9673 28.5972 33.3063
12183 1 42.4643 3.05179 71.7481
12184 2 42.4457 2.57534 70.8691
12185 2 42.9546 2.49501 72.4187
12186 1 13.1863 12.9548 66.3082
12187 2 13.3033 13.5883 65.5433
12188 2 12.2392 12.989 66.6273
12189 1 34.6075 0.0949172 44.3196
12190 2 33.8269 29.4834 44.1903
12191 2 34.6487 0.747502 43.563
12192 1 67.2459 10.392 43.3089
12193 2 67.9131 10.6911 43.9911
12194 2 67.7016 10.2731 42.4268
12195 1 23.8889 9.02324 61.3112
12196 2 23.9733 8.76725 60.3483
12197 2 24.1118 8.23597 61.8862
12198 1 68.9149 8.79066 10.5937
12199 2 69.8509 9.09952 10.7621
12200 2 68.6601 8.99829 9.64927
12201 1 58.6453 15.1983 34.4843
12202 2 58.949 15.0634 35.4274
12203 2 58.0609 14.4347 34.2098
12204 1 75.0044 18.7896 77.2367
12205 2 75.6817 19.4397 77.5811
12206 2 74.1041 19.2246 77.2183
12207 1 74.7445 19.9521 52.8442
12208 2 75.2137 20.8016 53.0857
12209 2 74.0081 20.1504 52.1973
12210 1 30.7103 24.4581 84.5636
12211 2 31.1124 23.5438 84.613
12212 2 31.3845 25.0993 84.1972
12213 1 61.7573 6.11787 31.6075
12214 2 62.4098 5.58773 32.1489
12215 2 61.2227 5.49985 31.0311
12216 1 44.5743 10.5613 43.7123
12217 2 45.479 10.6158 44.1349
12218 2 43.9556 10.0553 44.3133
12219 1 70.6902 14.1266 61.3919
12220 2 71.14 14.9938 61.1781
12221 2 70.9984 13.4242 60.7503
12222 1 56.4424 2.80844 27.7938
12223 2 56.7299 1.85194 27.8439
12224 2 55.9259 3.04478 28.6168
12225 1 4.21122 24.3867 71.4286
12226 2 4.43646 23.8023 70.649
12227 2 4.96442 25.0225 71.5971
12228 1 72.6942 0.125226 37.2531
12229 2 72.1382 29.8246 38.028
12230 2 72.3254 29.738 36.4081
12231 1 41.472 29.1433 62.4955
12232 2 41.7284 28.2581 62.8836
12233 2 40.5434 29.3772 62.7835
12234 1 64.3977 25.6023 67.2138
12235 2 64.3943 26.3067 66.504
12236 2 65.078 25.8332 67.9094
12237 1 69.1959 20.0081 70.1205
12238 2 68.3077 20.0752 70.5752
12239 2 69.4167 19.0459 69.961
12240 1 67.1936 4.57248 48.9047
12241 2 67.4675 3.74464 48.4151
12242 2 66.8554 5.24968 48.2512
12243 1 18.3124 9.76922 56.1276
12244 2 18.0656 10.732 56.0178
12245 2 19.3082 9.6773 56.1189
12246 1 72.9171 9.13045 20.9071
12247 2 72.7723 8.63569 20.0502
12248 2 72.3509 8.72589 21.6253
12249 1 49.3704 29.0704 52.1242
12250 2 49.0702 29.6021 51.3323
12251 2 50.2916 28.7181 51.9593
12252 1 2.65356 27.5644 26.0566
12253 2 2.55288 28.3951 26.6042
12254 2 3.33892 27.7158 25.3443
12255 1 72.51 1.67843 29.9466
12256 2 73.4778 1.55203 29.7285
12257 2 72.0336 0.80267 29.8686
12258 1 31.8658 8.67347 88.7027
12259 2 31.3483 8.7298 87.8489
12260 2 32.6884 8.12344 88.5582
12261 1 59.8267 17.6523 32.9018
12262 2 59.3133 18.1004 33.6336
12263 2 59.835 16.6645 33.0569
12264 1 7.73826 11.9651 44.3202
12265 2 8.4587 11.3307 44.6002
12266 2 8.05278 12.9053 44.4511
12267 1 45.4163 1.9085 71.5866
12268 2 44.631 1.38219 71.2606
12269 2 45.8272 1.44307 72.3705
12270 1 31.6607 7.36925 49.2456
12271 2 30.7193 7.69854 49.1723
12272 2 31.7185 6.68381 49.9714
12273 1 51.8578 16.3377 55.995
12274 2 51.0876 16.2867 55.3592
12275 2 51.9807 17.2839 56.2944
12276 1 52.7633 17.2485 62.9399
12277 2 52.8447 16.4959 63.5933
12278 2 53.1207 16.9591 62.0519
12279 1 78.1197 29.2017 72.852
12280 2 77.3663 28.9361 73.4535
12281 2 77.9881 0.145887 72.55
12282 1 7.08259 4.35726 39.3232
12283 2 7.05275 5.3561 39.2854
12284 2 7.9636 4.06392 39.6944
12285 1 68.3448 24.8815 60.0154
12286 2 68.3169 23.998 60.4831
12287 2 68.0458 24.7667 59.068
12288 1 33.1542 23.446 34.6215
12289 2 33.3397 23.7201 33.6779
12290 2 32.2152 23.6923 34.8617
12291 1 4.08308 19.135 34.2831
12292 2 4.66611 18.4999 34.7898
12293 2 4.3019 20.0736 34.5498
12294 1 48.0009 12.1914 37.6436
12295 2 48.3056 11.3455 37.2058
12296 2 47.0436 12.0988 37.9175
12297 1 71.8859 24.51 23.139
12298 2 72.5809 24.0081 22.6242
12299 2 71.7237 24.0527 24.0134
12300 1 72.3507 14.1451 45.4976
12301 2 72.0025 14.0841 46.433
12302 2 72.8912 13.33 45.2893
12303 1 69.2201 22.7439 67.8199
12304 2 70.0136 22.1506 67.6843
12305 2 68.7857 22.9262 66.9378
12306 1 3.71591 2.66724 36.0068
12307 2 3.45852 2.09279 36.7838
12308 2 2.90797 3.14732 35.6651
12309 1 78.1379 23.9971 21.5586
12310 2 78.1313 24.2288 22.5314
12311 2 77.3275 24.3838 21.1185
12312 1 49.3249 19.3934 77.8664
12313 2 49.1892 20.0552 78.6038
12314 2 48.4379 19.1317 77.486
12315 1 40.4099 9.28955 65.3143
12316 2 40.2288 8.41061 65.7556
12317 2 40.2289 9.21379 64.3338
12318 1 4.7284 7.53948 84.7277
12319 2 5.18136 8.14088 84.0696
12320 2 4.67011 6.61551 84.3497
12321 1 36.7621 23.5708 47.8567
12322 2 36.9016 22.8931 48.5787
12323 2 37.6438 23.8118 47.4509
12324 1 76.647 28.1356 69.9272
12325 2 76.4709 27.2907 70.4323
12326 2 77.3181 27.9596 69.207
12327 1 37.9494 23.2776 66.9183
12328 2 38.4993 22.4438 66.8702
12329 2 38.4603 23.9862 67.4051
12330 1 61.6432 13.1202 84.4932
12331 2 61.782 12.4506 83.7636
12332 2 60.8512 12.8548 85.043
12333 1 79.0041 6.54097 35.7602
12334 2 79.9918 6.6671 35.8526
12335 2 78.5323 7.08461 36.4544
12336 1 59.7481 9.09639 31.7233
12337 2 59.3493 9.69791 32.4155
12338 2 59.2278 8.2433 31.6834
12339 1 51.9096 0.270229 54.0563
12340 2 52.5692 0.943788 54.3899
12341 2 50.9816 0.618351 54.1891
12342 1 74.0984 16.1353 85.7488
12343 2 74.9809 16.3899 86.1444
12344 2 73.3612 16.5369 86.2921
12345 1 38.0178 21.9162 54.5587
12346 2 39.0006 22.0467 54.4275
12347 2 37.5818 21.7554 53.6732
12348 1 3.65501 18.6042 37.7448
12349 2 3.75849 18.2781 38.6845
12350 2 4.2284 18.0554 37.1365
12351 1 24.2283 20.414 37.3536
12352 2 23.5478 19.7399 37.6408
12353 2 23.8754 20.933 36.5751
12354 1 60.8855 5.94048 20.1392
12355 2 61.299 5.25468 19.5402
12356 2 60.7398 5.54621 21.0466
12357 1 45.8618 14.9713 46.1078
12358 2 46.2315 14.8394 45.1881
12359 2 46.4571 15.5897 46.6209
12360 1 29.9046 26.2858 75.979
12361 2 28.9252 26.0933 75.9182
12362 2 30.4185 25.5322 75.569
12363 1 49.3021 21.7356 72.8356
12364 2 50.2766 21.7955 73.0519
12365 2 48.9908 22.6069 72.4562
12366 1 70.412 10.5116 67.3021
12367 2 71.1214 10.4687 68.0055
12368 2 69.7404 11.2105 67.5481
12369 1 0.855722 20.1414 26.743
12370 2 1.14878 21.0511 27.037
12371 2 0.763179 19.5467 27.5415
12372 1 25.4966 28.6386 41.3997
12373 2 25.8543 27.769 41.7399
12374 2 24.5799 28.7896 41.7695
12375 1 77.4675 26.8811 76.5404
12376 2 76.9336 26.2113 77.0565
12377 2 78.4425 26.7187 76.6923
12378 1 73.5873 5.84634 27.1699
12379 2 73.7242 5.02745 26.6125
12380 2 73.2844 6.59988 26.5864
12381 1 47.399 2.14632 82.9778
12382 2 47.7363 2.1815 82.037
12383 2 46.9662 1.26024 83.1438
12384 1 62.4909 4.25129 18.5427
12385 2 62.8367 5.16992 18.3514
12386 2 62.7335 3.64027 17.7892
12387 1 17.1852 18.3313 15.0015
12388 2 18.1347 18.0202 15.0422
12389 2 16.5905 17.6417 15.4148
12390 1 6.33206 10.5157 80.2509
12391 2 5.42928 10.4146 79.8328
12392 2 6.22754 10.7311 81.2218
12393 1 64.4326 8.55234 84.8101
12394 2 64.3305 7.5599 84.8783
12395 2 65.3563 8.77163 84.4961
12396 1 39.2067 7.37276 70.7241
12397 2 39.3227 7.9943 69.9494
12398 2 38.9992 7.90128 71.5473
12399 1 68.8371 22.3564 29.4538
12400 2 68.5805 23.2157 29.0114
12401 2 68.1223 21.6747 29.2976
12402 1 6.35232 20.0293 43.2227
12403 2 6.85627 19.3521 43.7588
12404 2 5.51574 19.6151 42.8641
12405 1 76.7758 26.9323 64.5472
12406 2 76.1689 26.8305 63.7589
12407 2 76.682 27.8541 64.9232
12408 1 10.018 10.5499 44.6519
12409 2 9.91107 9.55769 44.7165
12410 2 10.4609 10.892 45.4806
12411 1 55.6402 28.8696 37.9874
12412 2 55.1674 28.2235 38.5866
12413 2 56.2471 28.369 37.3702
12414 1 8.25484 29.1799 60.1543
12415 2 8.1363 0.0783292 60.5771
12416 2 9.21358 28.9037 60.2216
12417 1 55.0086 22.4543 39.6159
12418 2 54.8583 23.4425 39.5876
12419 2 54.2266 22.0106 40.0537
12420 1 3.90444 28.6546 13.4597
12421 2 3.41015 28.2086 14.2058
12422 2 4.31714 29.5023 13.7932
12423 1 48.7135 0.27398 46.5048
12424 2 49.5109 29.8147 46.896
12425 2 48.982 1.17433 46.1624
12426 1 30.1514 29.0117 82.687
12427 2 30.7589 29.6839 83.1103
12428 2 30.6688 28.1833 82.4724
12429 1 27.3824 1.17515 52.6446
12430 2 27.2672 0.658455 53.493
12431 2 27.7464 0.572706 51.9342
12432 1 13.3245 3.56427 43.5897
12433 2 13.142 4.29297 44.2497
12434 2 14.3121 3.43399 43.5017
12435 1 56.0449 28.0306 27.6606
12436 2 55.213 28.5764 27.5602
12437 2 56.3438 28.0512 28.6147
12438 1 54.2828 28.6299 66.6799
12439 2 53.4881 28.5943 67.2859
12440 2 55.0043 28.0394 67.0414
12441 1 58.2946 25.6627 67.9087
12442 2 58.2116 24.9343 68.5888
12443 2 58.8998 25.3627 67.1712
12444 1 22.9101 15.8723 85.4358
12445 2 23.7875 16.3517 85.4544
12446 2 22.5646 15.7728 86.3689
12447 1 24.3447 4.90916 51.1284
12448 2 24.4428 5.29029 52.0477
12449 2 25.0336 4.19821 50.987
12450 1 39.9484 8.95179 62.4274
12451 2 40.5551 9.41713 61.7829
12452 2 39.0424 9.37393 62.3964
12453 1 57.6267 5.93948 90.6744
12454 2 57.7492 6.01146 91.6643
12455 2 57.0532 6.69329 90.3539
12456 1 45.5171 11.9229 59.2553
12457 2 45.7865 11.2357 59.9299
12458 2 45.5642 12.8322 59.6687
12459 1 53.5528 2.44689 44.9115
12460 2 52.9068 2.61682 45.6557
12461 2 54.0354 3.29402 44.6892
12462 1 37.2904 16.1322 36.5211
12463 2 38.2312 15.911 36.7779
12464 2 37.2122 16.1497 35.5244
12465 1 64.0881 23.8079 24.651
12466 2 63.9887 24.7912 24.8037
12467 2 64.9264 23.6339 24.1342
12468 1 42.6783 21.4479 52.0319
12469 2 43.2924 20.6596 51.993
12470 2 42.4097 21.7072 51.1042
12471 1 27.7969 0.0976481 45.4847
12472 2 26.9588 0.587212 45.7253
12473 2 27.5926 29.1262 45.3644
12474 1 72.3669 21.3147 87.7078
12475 2 71.6009 21.9168 87.9331
12476 2 72.3404 20.5071 88.2968
12477 1 19.2897 5.73173 41.2513
12478 2 19.1066 6.33437 40.4745
12479 2 19.3768 6.27846 42.084
12480 1 70.8805 12.2218 11.8123
12481 2 71.0507 11.2384 11.7494
12482 2 70.3596 12.4176 12.6431
12483 1 35.1124 1.63393 42.0451
12484 2 36.0865 1.44785 41.9164
12485 2 34.5797 1.07781 41.4071
12486 1 17.5731 20.3041 73.3999
12487 2 17.515 19.3424 73.6678
12488 2 17.1218 20.4319 72.5167
12489 1 13.5262 2.7805 59.5847
12490 2 13.5252 2.07018 58.8809
12491 2 13.2132 2.39161 60.4512
12492 1 69.035 29.3767 77.7006
12493 2 68.8977 29.7664 78.6112
12494 2 68.1471 29.1839 77.2831
12495 1 34.19 1.34893 79.5777
12496 2 33.5149 1.89093 80.0782
12497 2 34.891 1.95469 79.2012
12498 1 17.519 15.4637 64.5902
12499 2 17.0604 14.7539 65.1249
12500 2 16.86 15.8949 63.9739
12501 1 38.0022 9.90558 56.9773
12502 2 37.0137 10.0272 57.0677
12503 2 38.2047 9.45818 56.1062
12504 1 11.9337 18.1198 59.2093
12505 2 11.2857 18.7287 59.6668
12506 2 11.8211 17.1897 59.5591
12507 1 19.7113 6.95896 90.2365
12508 2 20.61 7.10493 90.6499
12509 2 19.6264 6.00403 89.952
12510 1 48.655 13.694 58.4936
12511 2 48.728 14.689 58.5618
12512 2 48.9133 13.2802 59.3667
12513 1 16.948 18.0526 78.1746
12514 2 16.1251 17.5072 78.3337
12515 2 17.7409 17.4472 78.1056
12516 1 19.2182 27.8119 15.6561
12517 2 18.7467 27.5521 14.8134
12518 2 18.7018 27.4765 16.444
12519 1 64.0162 6.45066 42.8284
12520 2 63.0627 6.75211 42.822
12521 2 64.0656 5.49501 42.5381
12522 1 47.4109 6.38464 42.3081
12523 2 46.6354 6.57818 41.7071
12524 2 47.7435 5.45761 42.135
12525 1 19.3224 16.2047 80.6904
12526 2 19.3642 17.0956 81.1427
12527 2 19.1883 16.3356 79.7081
12528 1 26.4051 6.38198 78.3051
12529 2 25.6299 6.31997 77.6765
12530 2 27.1249 6.94023 77.8925
12531 1 47.3111 2.18546 48.4392
12532 2 47.2868 2.90836 47.7487
12533 2 46.4607 1.66062 48.4024
12534 1 50.2338 7.59527 85.3653
12535 2 49.9307 8.01575 86.2205
12536 2 50.0481 8.21668 84.6041
12537 1 30.0381 23.3669 51.55
12538 2 30.4827 24.2106 51.8509
12539 2 29.8254 23.4317 50.575
12540 1 44.538 17.3383 41.3055
12541 2 43.6572 17.6915 40.9903
12542 2 44.7298 17.6905 42.2216
12543 1 22.9605 16.3424 52.5571
12544 2 22.6994 15.5963 51.9445
12545 2 22.6686 17.2142 52.1638
12546 1 76.8597 28.15 86.6868
12547 2 77.1067 27.6767 87.5324
12548 2 77.4408 28.9559 86.574
12549 1 13.3857 16.5401 61.9187
12550 2 14.2704 16.7471 62.3364
12551 2 13.5299 16.0595 61.0536
12552 1 73.5952 26.936 73.5243
12553 2 73.8355 26.0268 73.8643
12554 2 72.609 26.9826 73.3654
12555 1 66.2605 0.598527 34.1265
12556 2 65.9837 1.19498 33.373
12557 2 65.4471 0.258389 34.5984
12558 1 43.3355 22.3255 63.6285
12559 2 42.3914 22.6532 63.5926
12560 2 43.8273 22.6361 62.8151
12561 1 79.0819 12.9521 81.3798
12562 2 79.1053 13.7981 81.9125
12563 2 79.9984 12.5532 81.3474
12564 1 11.9807 28.0055 56.198
12565 2 12.2643 28.9558 56.0695
12566 2 12.3618 27.6568 57.0542
12567 1 23.2694 2.80523 88.8421
12568 2 22.5898 2.62311 89.5527
12569 2 23.4018 3.79238 88.7526
12570 1 24.025 27.6111 51.5095
12571 2 25.0052 27.4985 51.6724
12572 2 23.8176 28.5809 51.3813
12573 1 56.786 16.0726 54.7076
12574 2 55.9884 16.42 54.2145
12575 2 56.5964 16.0715 55.6895
12576 1 18.2228 0.863922 23.8673
12577 2 17.9983 1.63529 24.4628
12578 2 18.6441 0.136383 24.4088
12579 1 1.47289 7.99268 23.2357
12580 2 1.67378 7.7527 24.1854
12581 2 0.99276 8.86944 23.2078
12582 1 35.2951 1.63222 57.3577
12583 2 34.987 2.57319 57.2175
12584 2 36.0444 1.622 58.0198
12585 1 16.5087 21.2987 64.9788
12586 2 16.1869 22.1318 64.5288
12587 2 16.0962 21.23 65.8872
12588 1 32.0476 17.9782 67.0618
12589 2 31.5725 17.1362 66.8062
12590 2 31.4636 18.7646 66.8603
12591 1 77.0518 9.28462 11.1269
12592 2 77.0206 8.3151 10.8839
12593 2 77.9194 9.67705 10.8214
12594 1 28.1577 26.8588 38.7471
12595 2 28.6633 27.2596 39.5111
12596 2 27.2476 27.2701 38.6973
12597 1 68.1968 26.0899 19.2031
12598 2 68.3637 27.0178 18.8696
12599 2 67.2449 25.8388 19.0276
12600 1 69.4768 14.6833 49.4321
12601 2 70.1478 14.418 50.1244
12602 2 69.7674 14.3422 48.5382
12603 1 27.4521 20.1587 68.8402
12604 2 27.4674 20.3451 67.8578
12605 2 27.68 19.1983 69.0007
12606 1 14.2108 7.30858 54.7011
12607 2 14.5713 6.44995 54.3367
12608 2 14.8834 7.71739 55.3179
12609 1 26.4445 8.65928 34.5656
12610 2 26.5925 7.75648 34.1618
12611 2 26.6704 9.36559 33.8947
12612 1 25.1632 3.3711 47.0343
12613 2 25.2915 2.59209 46.4205
12614 2 26.0034 3.91238 47.066
12615 1 41.4635 3.2941 42.1952
12616 2 41.4642 2.31238 42.3855
12617 2 40.9054 3.76556 42.878
12618 1 30.2666 16.7035 45.2073
12619 2 29.4624 17.0148 45.7136
12620 2 30.9757 16.4169 45.8515
12621 1 73.026 14.9373 59.5132
12622 2 73.5752 14.3941 58.8782
12623 2 72.371 15.4904 58.9983
12624 1 12.0825 27.4275 42.9422
12625 2 12.1768 27.3002 43.9295
12626 2 11.4723 26.7268 42.5725
12627 1 6.60132 10.3037 74.9755
12628 2 7.03189 10.7886 75.7367
12629 2 7.21509 9.58532 74.6481
12630 1 15.2024 23.6512 31.0669
12631 2 14.6018 23.4273 31.8345
12632 2 14.9451 24.5415 30.6912
12633 1 71.1388 17.5417 58.3765
12634 2 72.0394 17.7918 58.0208
12635 2 70.9021 18.1448 59.1382
12636 1 23.7511 19.0257 70.6636
12637 2 24.6835 18.7258 70.8655
12638 2 23.7504 20.0076 70.4743
12639 1 14.6664 26.8441 70.2781
12640 2 14.4324 26.0653 70.8601
12641 2 14.5528 27.6926 70.795
12642 1 74.6108 17.5381 40.5759
12643 2 74.3111 16.5841 40.5686
12644 2 73.8184 18.1354 40.6997
12645 1 14.3281 11.819 22.2928
12646 2 13.5578 12.401 22.0324
12647 2 14.0881 11.294 23.1094
12648 1 9.60052 26.6968 66.2067
12649 2 9.98228 27.1337 65.3922
12650 2 8.68513 26.3507 66.0013
12651 1 74.9424 2.8883 20.7406
12652 2 75.5343 3.22926 21.4709
12653 2 75.4521 2.86783 19.8805
12654 1 62.2467 4.55479 25.6031
12655 2 62.5051 3.79764 25.0031
12656 2 63.0115 5.19433 25.6809
12657 1 47.623 14.4005 68.3162
12658 2 47.1885 14.7685 69.1383
12659 2 47.6753 13.4042 68.3843
12660 1 74.3987 20.9059 72.02
12661 2 75.0202 21.0308 72.7933
12662 2 74.841 20.3388 71.3251
12663 1 54.8911 2.50423 80.7359
12664 2 55.6746 2.20936 80.1889
12665 2 54.7946 3.49747 80.6715
12666 1 29.5259 26.8072 85.593
12667 2 28.6831 27.1262 85.1595
12668 2 29.6838 25.85 85.3503
12669 1 17.3115 1.47847 62.4181
12670 2 17.6673 1.07267 63.26
12671 2 16.3369 1.27069 62.3339
12672 1 16.6705 13.8883 73.1054
12673 2 15.8284 13.6385 73.5833
12674 2 17.4372 13.3744 73.4902
12675 1 17.3605 21.4189 43.7158
12676 2 18.2521 21.3252 43.2728
12677 2 17.3412 22.2638 44.2504
12678 1 50.4019 10.283 86.6353
12679 2 51.128 10.0943 87.2965
12680 2 49.5615 10.5213 87.1221
12681 1 34.8753 5.34404 38.4887
12682 2 35.3431 6.22272 38.3937
12683 2 35.4144 4.74129 39.077
12684 1 35.5307 16.2339 76.6201
12685 2 36.0399 15.3801 76.5111
12686 2 35.896 16.9222 75.9934
12687 1 9.88982 28.6826 39.6309
12688 2 9.49119 27.9985 39.0201
12689 2 9.34654 28.7385 40.4686
12690 1 70.4447 21.1753 51.6604
12691 2 71.2139 21.0193 51.0407
12692 2 70.5744 20.639 52.4943
12693 1 73.6974 16.3586 72.5864
12694 2 74.6873 16.5006 72.5794
12695 2 73.3836 16.2457 73.5291
12696 1 48.395 17.6194 65.2202
12697 2 48.3387 18.554 64.8687
12698 2 47.8816 17.5536 66.0758
12699 1 47.0805 22.9214 42.7285
12700 2 47.7865 23.3525 43.2904
12701 2 46.2573 22.7796 43.2783
12702 1 66.6282 20.5984 22.4456
12703 2 66.9226 20.1652 23.2974
12704 2 67.3838 21.1305 22.0637
12705 1 49.0748 3.02966 62.3361
12706 2 49.6467 3.47889 63.0225
12707 2 49.4809 2.15023 62.0877
12708 1 49.6262 6.82205 38.7057
12709 2 48.9333 7.49779 38.9573
12710 2 49.6733 6.74809 37.7096
12711 1 37.9502 21.7518 87.6204
12712 2 38.721 22.2662 87.2446
12713 2 37.0959 22.1065 87.2404
12714 1 28.6089 16.8516 83.4589
12715 2 28.2993 16.2778 84.2172
12716 2 29.241 17.5459 83.8029
12717 1 38.63 15.0434 77.1963
12718 2 38.7553 15.782 76.5338
12719 2 39.4901 14.5456 77.3071
12720 1 72.964 27.4457 77.238
12721 2 73.7272 26.9874 76.7825
12722 2 73.2714 27.8121 78.1162
12723 1 24.4329 29.4463 76.4269
12724 2 24.1737 29.6764 75.4889
12725 2 25.3547 29.0587 76.4324
12726 1 73.6041 0.0641087 72.6609
12727 2 73.8866 29.4005 73.3536
12728 2 74.3485 0.201048 72.0074
12729 1 27.6511 11.0639 40.4597
12730 2 26.9017 10.9571 39.8063
12731 2 28.1819 10.2173 40.4995
12732 1 45.6525 19.9288 46.0949
12733 2 45.498 20.8486 46.4555
12734 2 44.8038 19.4027 46.1488
12735 1 14.6792 19.1145 23.9478
12736 2 15.4803 18.775 24.4407
12737 2 14.5472 18.5762 23.1154
12738 1 60.0312 11.4745 45.8505
12739 2 59.7823 12.4276 46.0226
12740 2 60.9174 11.4395 45.3885
12741 1 44.4044 28.815 57.2571
12742 2 45.0151 28.0275 57.1742
12743 2 44.3434 29.2837 56.3759
12744 1 21.0428 15.5914 43.3634
12745 2 22.014 15.3829 43.2482
12746 2 20.943 16.4945 43.7812
12747 1 16.2468 22.1232 61.9546
12748 2 15.5286 22.4965 62.5418
12749 2 16.1303 21.1333 61.8738
12750 1 67.6438 3.21892 90.5784
12751 2 67.2735 4.14766 90.5969
12752 2 68.5987 3.24664 90.2826
12753 1 29.9573 11.9814 49.1151
12754 2 30.0641 12.9745 49.0666
12755 2 30.1287 11.6731 50.0508
12756 1 12.165 5.41284 50.9689
12757 2 11.8024 4.67836 51.5425
12758 2 11.8426 5.29253 50.0299
12759 1 2.48735 24.495 63.4264
12760 2 1.77971 25.0396 63.8765
12761 2 3.2042 24.2691 64.086
12762 1 42.2955 18.6895 55.2914
12763 2 42.4279 18.5497 56.2726
12764 2 41.3176 18.7551 55.093
12765 1 18.7399 5.3252 30.6036
12766 2 19.6782 5.15031 30.3054
12767 2 18.5238 4.73937 31.3847
12768 1 55.8488 26.8472 68.1453
12769 2 55.8036 27.3801 68.9903
12770 2 56.7564 26.4366 68.0583
12771 1 61.4531 2.59345 86.7522
12772 2 61.6458 3.27397 87.4592
12773 2 60.8254 2.98209 86.0777
12774 1 32.8611 22.6787 40.3176
12775 2 32.1659 22.2729 39.7242
12776 2 33.6578 22.0758 40.3581
12777 1 7.70529 17.9137 47.763
12778 2 7.62247 18.0168 48.7542
12779 2 8.29812 17.1351 47.5572
12780 1 46.4839 8.98697 35.3215
12781 2 47.3897 9.22888 35.6694
12782 2 46.043 8.35014 35.954
12783 1 48.4103 21.0912 79.8747
12784 2 47.5216 21.5416 79.9603
12785 2 49.1354 21.7797 79.8874
12786 1 75.118 4.37261 61.7604
12787 2 75.5704 3.48216 61.711
12788 2 74.7778 4.52256 62.6887
12789 1 66.4911 20.9912 82.3304
12790 2 65.9614 20.1676 82.533
12791 2 66.8081 20.9588 81.3825
12792 1 57.2264 19.3428 68.938
12793 2 56.286 19.4494 68.6149
12794 2 57.575 18.4478 68.6596
12795 1 69.3732 4.4395 36.5071
12796 2 68.5506 4.81664 36.0817
12797 2 70.0525 4.24042 35.8007
12798 1 21.0394 28.9558 22.4262
12799 2 20.7735 28.4107 21.6311
12800 2 20.5222 28.6524 23.2264
12801 1 75.1632 17.436 80.8724
12802 2 75.5996 16.9105 81.6026
12803 2 75.5781 18.3445 80.8217
12804 1 51.656 17.1964 83.5342
12805 2 52.4875 17.4366 84.0351
12806 2 51.8283 17.262 82.5514
12807 1 36.5195 25.475 61.1405
12808 2 36.6665 25.9657 60.2818
12809 2 36.3448 26.1318 61.8741
12810 1 22.8352 11.955 49.8609
12811 2 22.5565 12.4026 49.0112
12812 2 22.829 10.9633 49.7328
12813 1 5.34294 15.8927 48.7898
12814 2 4.66474 15.6275 49.4752
12815 2 5.78041 16.7481 49.0673
12816 1 35.3394 1.82724 62.3274
12817 2 35.265 2.05516 63.2983
12818 2 34.5641 1.25551 62.0589
12819 1 1.27718 15.1117 26.2729
12820 2 0.363167 15.0353 26.6713
12821 2 1.19954 15.2692 25.2884
12822 1 56.9523 29.2814 42.091
12823 2 57.59 29.7726 41.4977
12824 2 57.3987 29.0753 42.9618
12825 1 26.9853 26.3377 58.1042
12826 2 27.505 27.092 58.5053
12827 2 27.3303 26.1468 57.1852
12828 1 65.0662 14.1259 73.3309
12829 2 65.439 14.6111 74.1219
12830 2 64.0964 13.9355 73.4833
12831 1 31.2339 5.10242 87.4825
12832 2 30.776 4.52739 88.1604
12833 2 31.9959 5.58465 87.9146
12834 1 46.7277 12.6245 85.5764
12835 2 47.7075 12.6961 85.39
12836 2 46.3885 13.5009 85.9185
12837 1 44.3697 13.1097 62.736
12838 2 43.4394 13.4508 62.6009
12839 2 44.9485 13.848 63.0823
12840 1 8.70824 25.2323 15.4025
12841 2 8.64174 26.1428 14.9944
12842 2 8.86452 25.3187 16.3864
12843 1 61.4394 22.1443 16.4762
12844 2 60.5633 22.0887 16.9552
12845 2 62.044 21.4174 16.8019
12846 1 30.877 13.9813 38.2229
12847 2 31.5542 14.6839 38.4417
12848 2 29.9677 14.3956 38.1833
12849 1 9.37339 23.8237 64.4916
12850 2 10.1993 24.3704 64.354
12851 2 9.30701 23.5564 65.453
12852 1 45.4986 24.9799 67.9181
12853 2 45.7188 25.3546 68.8187
12854 2 44.5528 24.6553 67.9143
12855 1 6.54086 27.48 40.003
12856 2 5.5554 27.5782 40.1416
12857 2 7.02861 27.8992 40.7687
12858 1 75.9275 6.72253 28.7401
12859 2 76.4979 5.91305 28.8791
12860 2 75.0112 6.43986 28.4563
12861 1 73.2485 28.2271 40.6124
12862 2 73.8873 28.0336 39.8677
12863 2 73.2956 27.4939 41.2908
12864 1 31.5105 3.58443 42.8901
12865 2 31.7235 4.48181 43.2766
12866 2 31.9136 2.87067 43.4629
12867 1 27.2949 27.4621 33.8141
12868 2 27.9933 27.3089 34.5132
12869 2 27.3944 28.3842 33.4401
12870 1 46.6481 14.6232 76.8363
12871 2 47.4929 14.8742 76.3638
12872 2 46.8707 14.1875 77.7084
12873 1 19.5056 14.0315 33.0814
12874 2 20.0594 14.3648 32.3183
12875 2 19.9857 13.2837 33.54
12876 1 23.5111 21.2858 65.6652
12877 2 24.0459 20.8972 64.9149
12878 2 23.1004 22.1484 65.37
12879 1 32.0497 27.0921 82.2067
12880 2 32.668 26.6491 82.8559
12881 2 32.1016 26.624 81.3245
12882 1 72.0394 4.05867 69.0469
12883 2 72.3495 4.97627 68.7981
12884 2 72.7482 3.39278 68.8139
12885 1 37.1792 13.7322 75.3282
12886 2 37.6419 13.8461 76.2073
12887 2 37.4884 12.8851 74.896
12888 1 29.4075 24.4286 57.666
12889 2 28.7455 24.6805 56.9601
12890 2 29.7982 23.5332 57.4523
12891 1 78.6131 0.290798 59.0901
12892 2 77.757 0.775961 58.9119
12893 2 79.3852 0.901322 58.9136
12894 1 79.5283 5.38454 40.957
12895 2 78.603 5.14643 41.2523
12896 2 0.194318 4.91551 41.537
12897 1 7.88995 23.5347 80.5422
12898 2 8.1503 24.4361 80.8881
12899 2 7.31692 23.6422 79.7297
12900 1 16.4118 21.6287 82.9876
12901 2 16.9333 22.4644 83.1601
12902 2 16.2316 21.1635 83.8543
12903 1 7.98414 29.4278 79.3053
12904 2 8.47509 0.127034 79.8249
12905 2 8.15702 28.5295 79.7093
12906 1 52.0004 20.6635 60.6668
12907 2 52.7092 20.7985 59.9745
12908 2 52.4148 20.6844 61.5766
12909 1 58.7909 23.6605 73.9494
12910 2 59.7488 23.4933 73.716
12911 2 58.2399 23.6617 73.1149
12912 1 21.1857 4.78936 30.1292
12913 2 21.456 4.39663 29.2502
12914 2 21.9749 4.8075 30.743
12915 1 16.0329 19.1697 27.1753
12916 2 16.4271 20.0803 27.2995
12917 2 16.519 18.6931 26.4428
12918 1 71.7489 7.55622 68.0568
12919 2 71.4166 7.85454 68.9515
12920 2 71.0232 7.05999 67.5802
12921 1 46.6523 7.4395 56.597
12922 2 47.2017 6.931 57.2601
12923 2 46.0096 6.81747 56.1498
12924 1 29.5438 3.60305 89.1549
12925 2 29.5625 2.63922 89.4208
12926 2 28.5965 3.89277 89.0181
12927 1 18.5278 28.5736 43.2423
12928 2 18.4682 28.9482 44.1676
12929 2 19.3698 28.8926 42.8072
12930 1 20.9339 5.96604 26.9673
12931 2 20.0898 6.46075 27.1737
12932 2 20.7103 5.08216 26.5565
12933 1 67.8702 22.1043 88.829
12934 2 68.0433 21.1548 89.0908
12935 2 68.7399 22.5652 88.6522
12936 1 21.2312 27.5933 75.031
12937 2 21.2835 28.349 74.378
12938 2 20.6159 26.889 74.677
12939 1 40.5099 18.2233 71.7824
12940 2 41.0577 18.6651 72.4929
12941 2 39.6287 17.9459 72.1652
12942 1 65.8516 26.2919 82.3483
12943 2 65.3378 25.8645 83.0922
12944 2 66.2161 27.1705 82.6568
12945 1 4.97193 13.5664 60.6333
12946 2 4.86234 14.1279 61.4535
12947 2 5.22437 14.1497 59.8613
12948 1 39.6807 2.70328 48.1122
12949 2 39.114 2.12327 48.6974
12950 2 40.515 2.95673 48.6018
12951 1 26.477 2.54079 56.915
12952 2 26.2742 3.36337 56.3838
12953 2 27.1333 1.97502 56.4159
12954 1 56.3819 24.6776 55.944
12955 2 55.3964 24.6179 56.1028
12956 2 56.8704 24.3881 56.7671
12957 1 66.865 28.7721 63.2284
12958 2 66.8138 28.1821 62.4227
12959 2 66.2951 28.3917 63.9568
12960 1 21.3056 11.5898 71.5142
12961 2 21.0239 10.8899 70.8579
12962 2 20.6321 11.6459 72.2513
12963 1 17.6638 2.88641 46.2365
12964 2 16.7643 3.32178 46.1998
12965 2 17.939 2.61157 45.3152
12966 1 75.1859 2.96141 87.3824
12967 2 74.7478 3.84512 87.5471
12968 2 74.5905 2.22795 87.7103
12969 1 72.6534 22.2181 61.9164
12970 2 73.5038 22.1693 61.3925
12971 2 71.9756 21.6056 61.5095
12972 1 9.48008 15.891 78.2156
12973 2 9.71974 16.2727 79.1083
12974 2 8.48591 15.811 78.1433
12975 1 76.7784 23.279 87.3127
12976 2 76.0974 24.0109 87.2912
12977 2 77.5723 23.5777 87.8423
12978 1 33.1954 7.88382 67.9103
12979 2 32.9874 8.70122 67.3731
12980 2 34.1394 7.93087 68.2368
12981 1 57.9018 17.5719 84.2421
12982 2 58.6268 18.2332 84.4342
12983 2 57.4871 17.2728 85.1015
12984 1 32.8516 5.05627 67.4633
12985 2 33.6835 4.60829 67.1358
12986 2 32.8058 5.98475 67.0948
12987 1 72.3475 2.67448 72.4358
12988 2 72.5291 1.95431 73.1054
12989 2 73.156 2.80816 71.8626
12990 1 1.20877 6.3252 15.9644
12991 2 1.04215 5.39728 15.6309
12992 2 0.590165 6.96125 15.5032
12993 1 48.6502 8.34385 71.6231
12994 2 49.0003 8.49534 72.5475
12995 2 48.6054 9.21633 71.1365
12996 1 75.0566 7.81328 72.5696
12997 2 74.8378 8.7375 72.2567
12998 2 75.7969 7.85509 73.2406
12999 1 35.0432 23.5842 50.4577
13000 2 34.7501 22.6581 50.2201
13001 2 35.9065 23.7892 49.9965
13002 1 23.1816 6.75787 72.8991
13003 2 23.2865 7.60501 73.42
13004 2 22.3307 6.30555 73.1662
13005 1 73.7905 8.70258 14.9128
13006 2 73.7224 9.69185 15.0421
13007 2 72.8729 8.31272 14.8351
13008 1 11.1386 0.413598 52.0829
13009 2 11.518 0.5005 51.1617
13010 2 11.8523 0.60491 52.7567
13011 1 51.3865 19.2085 46.4235
13012 2 50.6641 18.5869 46.7264
13013 2 51.2798 20.0915 46.8805
13014 1 48.9451 7.89691 65.0432
13015 2 48.6279 7.02065 64.6805
13016 2 48.5123 8.64324 64.5376
13017 1 59.1195 5.4298 69.9266
13018 2 59.8758 5.31023 70.5698
13019 2 58.7173 6.33699 70.0499
13020 1 67.543 20.0278 32.0643
13021 2 68.1421 19.5576 32.7123
13022 2 67.1675 19.3652 31.4163
13023 1 27.4988 14.5093 40.9226
13024 2 28.0164 14.8603 40.1422
13025 2 26.5231 14.6721 40.7759
13026 1 75.3372 2.19971 46.1308
13027 2 75.9072 1.39212 46.2818
13028 2 74.4161 2.02764 46.4802
13029 1 9.41454 24.3787 35.3278
13030 2 10.2918 24.5958 35.756
13031 2 8.96913 25.2241 35.0331
13032 1 20.2969 6.12616 48.5679
13033 2 20.5328 6.53035 49.4516
13034 2 21.1251 5.77757 48.129
13035 1 58.6073 22.376 90.458
13036 2 58.726 21.6662 89.7637
13037 2 58.3798 21.9506 91.334
13038 1 76.9471 5.40842 80.401
13039 2 76.5554 5.24944 81.3072
13040 2 77.5874 6.17536 80.4445
13041 1 30.1732 6.02911 40.3721
13042 2 29.9693 5.66243 41.2798
13043 2 29.4182 6.61126 40.0704
13044 1 5.82281 0.0231475 52.664
13045 2 6.11873 0.974199 52.5749
13046 2 4.82388 29.9816 52.6439
13047 1 54.0538 16.3729 71.4493
13048 2 53.5575 17.0817 70.9481
13049 2 54.3368 16.7302 72.3394
13050 1 36.8495 6.21579 78.5808
13051 2 36.8678 5.58274 77.8069
13052 2 37.7261 6.18094 79.0608
13053 1 19.6984 8.78016 25.0934
13054 2 20.1556 9.66384 25.1939
13055 2 19.0086 8.84187 24.372
13056 1 37.2907 4.42601 55.648
13057 2 36.5047 4.51495 56.2598
13058 2 37.4006 5.26928 55.1218
13059 1 45.2693 4.26024 74.8781
13060 2 45.9985 4.4169 75.5442
13061 2 45.5226 4.6732 74.0032
13062 1 21.8334 10.3755 21.2036
13063 2 20.9698 10.8711 21.2967
13064 2 22.4841 10.9336 20.6887
13065 1 33.8821 20.3746 81.4796
13066 2 33.4552 20.7434 82.3053
13067 2 34.1514 19.4249 81.6394
13068 1 9.25285 10.3583 19.9683
13069 2 8.88354 9.77892 19.2417
13070 2 10.225 10.523 19.8016
13071 1 41.4621 18.5634 48.2782
13072 2 42.2157 19.1979 48.1065
13073 2 40.8277 18.5823 47.5055
13074 1 24.616 18.0201 82.0776
13075 2 23.8784 18.4892 81.592
13076 2 24.7234 18.4205 82.9876
13077 1 24.1482 15.5941 57.7626
13078 2 24.6752 16.1584 58.3981
13079 2 24.711 14.8284 57.4513
13080 1 75.5987 25.5147 20.5447
13081 2 75.3521 24.5529 20.4251
13082 2 75.5615 25.9807 19.6608
13083 1 41.6596 9.73968 75.7301
13084 2 40.844 9.37903 76.1826
13085 2 41.9672 10.5642 76.2051
13086 1 17.5788 9.95808 90.1354
13087 2 17.5703 10.8856 89.7617
13088 2 18.4182 9.81798 90.6606
13089 1 9.04634 6.20143 51.7674
13090 2 8.97115 6.9605 52.4141
13091 2 8.19706 6.12296 51.2453
13092 1 74.6044 14.1217 89.8955
13093 2 75.0244 15.0286 89.8622
13094 2 73.7497 14.1691 90.4126
13095 1 6.98468 25.2164 65.5518
13096 2 7.58105 24.4343 65.7325
13097 2 6.03197 24.9129 65.5376
13098 1 40.7331 2.41861 45.6801
13099 2 40.4683 2.34168 46.6413
13100 2 41.3309 1.65478 45.4369
13101 1 32.8785 16.6866 39.1262
13102 2 33.181 15.8557 39.5931
13103 2 33.2885 17.4849 39.5673
13104 1 8.34165 0.161419 75.7013
13105 2 8.20304 0.944365 76.3077
13106 2 7.75913 0.257731 74.8942
13107 1 36.0785 5.25719 90.8078
13108 2 36.5473 4.84692 90.0256
13109 2 35.3795 4.62682 91.1456
13110 1 72.0236 4.14081 77.1088
13111 2 71.4343 3.40025 77.4319
13112 2 71.7107 5.00843 77.4953
13113 1 67.7467 5.93431 58.1577
13114 2 68.2711 6.71061 58.5074
13115 2 66.841 5.92578 58.5816
13116 1 43.9426 24.3671 79.1063
13117 2 43.1956 23.7844 78.7863
13118 2 43.6566 24.8516 79.9331
13119 1 3.131 18.6816 46.2958
13120 2 2.30884 18.8985 45.7695
13121 2 2.8746 18.4504 47.2343
13122 1 9.98804 2.83576 12.438
13123 2 9.01314 3.04293 12.3565
13124 2 10.364 3.30959 13.2343
13125 1 70.1625 12.6177 90.0719
13126 2 69.8338 11.7534 90.4526
13127 2 70.2239 12.5417 89.0767
13128 1 74.64 12.3912 80.7103
13129 2 73.9273 11.6914 80.758
13130 2 75.4312 12.0282 80.2181
13131 1 53.9509 3.95834 75.1067
13132 2 53.786 2.9965 75.3251
13133 2 53.513 4.53629 75.7954
13134 1 67.5291 19.7686 25.603
13135 2 66.7237 19.5594 26.1576
13136 2 68.0947 20.4428 26.0778
13137 1 66.5816 26.5888 61.4655
13138 2 67.0554 26.0253 60.7888
13139 2 65.9404 26.0212 61.9819
13140 1 2.76431 25.1797 60.6118
13141 2 2.38048 25.2909 61.5284
13142 2 3.75798 25.0872 60.6754
13143 1 57.1065 2.63225 62.1613
13144 2 56.7824 3.53038 61.8641
13145 2 57.2055 2.03379 61.3663
13146 1 14.9293 7.71428 81.2788
13147 2 15.0457 8.53783 81.834
13148 2 14.4349 7.02362 81.8066
13149 1 3.22379 1.25409 80.543
13150 2 3.48551 2.18919 80.3041
13151 2 3.98014 0.633264 80.3369
13152 1 35.7693 29.9645 53.1922
13153 2 35.0423 29.6831 52.5658
13154 2 35.5146 29.7225 54.1285
13155 1 54.1277 5.87702 39.2612
13156 2 54.6003 5.03821 38.9909
13157 2 54.4665 6.17807 40.1526
13158 1 70.3499 18.4409 36.05
13159 2 69.7676 18.6449 35.263
13160 2 70.7642 17.5383 35.933
13161 1 64.7071 6.43197 62.4125
13162 2 64.8781 6.54624 63.3911
13163 2 64.7843 7.31781 61.955
13164 1 20.6736 23.2712 83.7704
13165 2 21.4405 23.1593 84.4023
13166 2 20.1194 24.0538 84.0541
13167 1 48.3257 28.4222 85.7332
13168 2 47.4865 28.958 85.8258
13169 2 48.1392 27.4677 85.9659
13170 1 8.09616 27.2894 57.9002
13171 2 7.12957 27.1273 57.7017
13172 2 8.17722 27.969 58.6293
13173 1 3.24286 0.429535 37.457
13174 2 3.28937 29.5079 37.0717
13175 2 3.1832 0.371555 38.4536
13176 1 26.2286 21.2364 45.7283
13177 2 26.1291 20.2414 45.7402
13178 2 26.929 21.4934 45.0626
13179 1 18.0887 20.9046 35.7663
13180 2 17.9588 21.4626 36.5859
13181 2 18.6904 20.1347 35.9792
13182 1 53.4839 27.1336 85.3367
13183 2 53.3586 26.2062 84.9842
13184 2 54.3085 27.167 85.9015
13185 1 2.24906 7.47507 41.1801
13186 2 2.78262 8.28088 40.9232
13187 2 2.84482 6.8109 41.6317
13188 1 71.4078 17.8966 11.4063
13189 2 71.9614 18.142 10.6105
13190 2 71.8038 18.3078 12.2274
13191 1 12.6269 28.217 66.841
13192 2 12.2133 27.8781 65.996
13193 2 13.588 27.9427 66.8751
13194 1 58.0058 3.8491 24.2781
13195 2 57.0966 3.44445 24.3768
13196 2 58.701 3.14166 24.405
13197 1 22.3327 14.6077 39.8798
13198 2 21.8797 15.4639 39.6314
13199 2 23.3242 14.7311 39.8387
13200 1 18.5304 9.27994 37.5384
13201 2 18.6698 8.56643 38.2251
13202 2 19.3937 9.75698 37.3734
13203 1 61.002 14.8933 29.768
13204 2 61.2362 15.7994 29.4159
13205 2 60.1144 14.9331 30.2269
13206 1 75.9242 4.2115 10.8485
13207 2 76.5431 3.61947 11.3646
13208 2 75.0019 3.82539 10.8658
13209 1 60.6467 23.9302 57.8076
13210 2 59.7858 24.3915 58.0221
13211 2 60.5604 22.954 58.0064
13212 1 64.6041 12.0748 67.0036
13213 2 64.6226 12.1254 66.005
13214 2 63.749 12.468 67.3415
13215 1 59.7005 11.8265 53.6866
13216 2 60.2176 11.0555 54.0582
13217 2 59.6456 11.7425 52.6917
13218 1 5.00315 22.9132 31.8937
13219 2 5.14982 23.8946 31.7692
13220 2 4.27505 22.6047 31.2816
13221 1 21.9579 4.36176 39.8746
13222 2 21.3573 3.72955 39.3852
13223 2 21.7307 4.35107 40.8484
13224 1 16.4646 6.28738 85.4697
13225 2 15.5398 6.66236 85.5345
13226 2 16.5483 5.4995 86.0798
13227 1 61.4385 20.4089 29.5666
13228 2 61.8125 21.2429 29.9722
13229 2 62.0692 19.6493 29.7252
13230 1 35.6643 26.9862 75.1215
13231 2 36.224 27.2414 75.91
13232 2 35.1956 27.7963 74.7693
13233 1 26.4676 27.0923 54.4323
13234 2 26.5168 26.9799 53.4398
13235 2 27.0786 26.4346 54.8729
13236 1 38.9981 2.2221 37.8595
13237 2 39.0641 1.60192 38.6412
13238 2 39.6553 1.94571 37.1583
13239 1 1.07589 10.1007 79.8423
13240 2 1.11156 10.8971 80.446
13241 2 0.411565 10.2648 79.1131
13242 1 48.4875 11.0148 64.6948
13243 2 48.7517 11.2837 65.621
13244 2 49.141 10.3445 64.3431
13245 1 72.2023 24.9689 14.5939
13246 2 71.3314 24.8763 14.1111
13247 2 72.6171 25.85 14.367
13248 1 67.5975 13.1394 75.6121
13249 2 67.1337 12.2685 75.45
13250 2 67.0689 13.6823 76.2647
13251 1 68.6214 11.5414 17.4075
13252 2 68.6578 11.8866 16.4696
13253 2 68.887 10.5774 17.4184
13254 1 41.7177 13.3959 37.082
13255 2 41.9046 13.0587 36.1593
13256 2 40.813 13.8213 37.1045
13257 1 18.9354 8.02166 77.9422
13258 2 19.4739 8.8046 78.2538
13259 2 19.3261 7.66502 77.0936
13260 1 76.2869 25.4912 61.8364
13261 2 76.0321 26.4014 61.5099
13262 2 75.463 24.9878 62.0967
13263 1 72.2358 19.7478 44.0972
13264 2 71.3576 19.9383 43.6584
13265 2 72.6273 20.6003 44.4435
13266 1 14.9354 19.7649 14.7506
13267 2 15.7119 19.1387 14.6796
13268 2 14.563 19.7301 15.678
13269 1 77.1827 28.7177 24.4243
13270 2 76.2719 28.4188 24.7092
13271 2 77.8429 28.5089 25.1457
13272 1 18.5403 8.66395 21.0656
13273 2 19.3489 9.25134 21.0309
13274 2 17.8043 9.13825 21.5486
13275 1 32.5746 16.1432 42.9476
13276 2 32.3495 15.6204 43.7697
13277 2 33.1242 16.9399 43.1993
13278 1 0.976103 11.4212 66.3638
13279 2 1.74442 10.7997 66.5171
13280 2 0.152263 11.0432 66.7862
13281 1 65.8443 18.635 63.745
13282 2 66.5395 19.2778 63.4233
13283 2 65.7294 17.9041 63.0722
13284 1 10.2437 6.20468 58.4996
13285 2 10.7368 6.39327 59.3489
13286 2 10.7957 6.50209 57.7206
13287 1 68.9651 24.2599 26.3817
13288 2 68.5314 24.83 25.684
13289 2 69.7861 23.8341 26.0012
13290 1 59.1424 28.2735 62.5093
13291 2 58.7324 27.4596 62.9211
13292 2 59.9811 28.0173 62.0288
13293 1 4.40645 28.176 68.075
13294 2 3.51594 28.0921 68.5222
13295 2 5.13121 27.986 68.7373
13296 1 3.04963 23.5581 16.5456
13297 2 2.75261 22.6057 16.6139
13298 2 2.33256 24.1003 16.1075
13299 1 44.9034 3.55096 67.8862
13300 2 44.3167 2.78507 68.1492
13301 2 45.0107 3.56252 66.892
13302 1 29.1832 29.0885 87.849
13303 2 28.4395 29.3623 87.2392
13304 2 29.2809 29.764 88.5798
13305 1 26.343 21.0157 64.2931
13306 2 26.2366 21.7984 63.6799
13307 2 26.9488 21.2643 65.0489
13308 1 75.3954 6.33013 47.0917
13309 2 75.2527 5.85717 47.9611
13310 2 75.5809 5.65917 46.3738
13311 1 67.8839 24.1008 35.4233
13312 2 68.358 24.7072 36.0617
13313 2 67.4528 23.3544 35.9304
13314 1 47.7463 3.31349 90.9392
13315 2 47.2817 4.14613 90.6377
13316 2 48.4659 3.07811 90.2859
13317 1 5.30571 10.3643 12.8489
13318 2 5.09385 9.48405 13.2736
13319 2 6.29774 10.4771 12.7928
13320 1 77.3508 8.21852 68.8289
13321 2 76.7653 8.95838 69.1602
13322 2 77.928 7.89007 69.5765
13323 1 71.8792 6.40834 61.209
13324 2 72.6389 6.96846 60.8786
13325 2 71.7453 6.57147 62.1864
13326 1 25.6038 3.51803 35.7389
13327 2 25.7276 4.50074 35.6012
13328 2 26.0122 3.24973 36.6114
13329 1 32.8283 9.87535 52.3871
13330 2 33.3637 9.26551 52.9715
13331 2 33.3111 10.0176 51.523
13332 1 10.0471 3.46861 28.4598
13333 2 9.31566 4.01057 28.8737
13334 2 10.2897 3.85924 27.5718
13335 1 60.6555 14.0049 71.4305
13336 2 59.8544 13.4933 71.7411
13337 2 61.3199 14.0682 72.1752
13338 1 67.0302 2.99527 78.0884
13339 2 66.371 2.50515 77.5181
13340 2 66.8154 2.84194 79.0529
13341 1 31.129 8.78726 41.5696
13342 2 30.3218 9.0084 41.0223
13343 2 31.8046 8.32495 40.9953
13344 1 21.1161 19.1309 71.793
13345 2 22.0231 18.8633 71.4677
13346 2 20.5384 18.3188 71.8748
13347 1 11.8666 0.0142563 74.0276
13348 2 11.95 0.964795 73.7284
13349 2 11.0044 29.6339 73.693
13350 1 18.3589 15.59 58.9853
13351 2 17.7373 14.97 58.5066
13352 2 18.9151 15.0696 59.6333
13353 1 30.252 26.9563 64.817
13354 2 30.5827 26.2845 65.4799
13355 2 29.421 26.6121 64.38
13356 1 15.7342 26.1431 79.2785
13357 2 14.822 26.5212 79.1203
13358 2 15.6649 25.1565 79.4266
13359 1 47.3553 11.3183 61.2556
13360 2 47.3785 10.504 60.6755
13361 2 48.0236 11.9836 60.9229
13362 1 17.1065 26.7222 38.4562
13363 2 17.6117 27.0369 39.2598
13364 2 16.4452 27.421 38.1835
13365 1 33.6916 27.2958 59.9153
13366 2 34.1278 28.1534 60.1877
13367 2 32.7647 27.26 60.2888
13368 1 70.97 19.3714 90.5203
13369 2 71.3331 20.2321 90.8772
13370 2 71.5747 19.0268 89.8023
13371 1 0.826092 23.4982 31.7095
13372 2 1.62699 23.1873 31.1977
13373 2 0.853071 24.4939 31.7981
13374 1 16.746 25.5256 48.837
13375 2 16.6793 24.5283 48.8046
13376 2 17.6259 25.7881 49.2331
13377 1 8.11611 5.08382 29.7132
13378 2 8.01983 5.72378 28.9509
13379 2 7.45019 5.30976 30.4242
13380 1 22.6687 19.2473 74.0628
13381 2 21.959 19.3472 73.3654
13382 2 22.2791 18.813 74.875
13383 1 9.77214 18.5562 87.6623
13384 2 10.3648 18.0634 87.0252
13385 2 8.8343 18.221 87.5722
13386 1 39.7573 26.1008 79.3102
13387 2 40.3077 25.7789 80.0806
13388 2 38.7914 25.9143 79.4897
13389 1 68.4443 29.9646 37.256
13390 2 69.0208 29.548 37.9589
13391 2 68.3599 29.3391 36.4803
13392 1 43.8755 12.996 87.7366
13393 2 43.3697 12.4321 87.0838
13394 2 43.2646 13.2793 88.4759
13395 1 62.5185 19.1607 61.458
13396 2 62.715 18.4812 62.1648
13397 2 61.6093 19.5478 61.6113
13398 1 9.31818 2.98374 34.2932
13399 2 9.30593 1.98605 34.36
13400 2 9.24338 3.37996 35.2083
13401 1 22.3923 20.7196 44.9616
13402 2 22.404 21.37 45.7211
13403 2 22.2506 19.7954 45.3164
13404 1 61.768 20.5925 81.1816
13405 2 61.0649 21.107 80.6909
13406 2 61.3338 19.8964 81.7533
13407 1 68.8216 26.302 12.4178
13408 2 67.9024 26.0245 12.1385
13409 2 69.124 25.7323 13.182
13410 1 62.2686 19.2621 90.4304
13411 2 62.1022 19.0541 91.3943
13412 2 63.2059 19.0082 90.1916
13413 1 35.9555 27.1745 51.8134
13414 2 35.5573 26.3221 52.1522
13415 2 35.2544 27.8874 51.7991
13416 1 10.1702 21.9903 71.3678
13417 2 11.0419 22.365 71.0522
13418 2 9.48786 22.0767 70.6419
13419 1 8.39028 9.04968 79.4739
13420 2 7.68234 9.54426 79.9781
13421 2 9.19277 9.63618 79.3643
13422 1 67.4279 7.42208 84.6486
13423 2 68.1587 7.49754 85.3271
13424 2 67.0766 6.48588 84.6399
13425 1 53.4124 23.5518 65.7589
13426 2 52.6426 22.9256 65.8829
13427 2 53.6524 23.597 64.7891
13428 1 58.9895 29.5618 71.0747
13429 2 59.258 28.6649 71.4261
13430 2 59.2275 0.26651 71.7431
13431 1 65.6476 5.8523 20.0598
13432 2 65.9107 5.36159 19.2291
13433 2 66.4683 6.09988 20.5747
13434 1 65.8287 18.4309 48.9048
13435 2 64.8416 18.5427 48.7897
13436 2 66.3005 19.2291 48.5304
13437 1 25.2127 19.2572 54.3881
13438 2 24.6246 19.9518 53.9738
13439 2 24.8054 18.9442 55.246
13440 1 63.6328 8.71061 44.4308
13441 2 62.6727 8.44374 44.3466
13442 2 63.7226 9.41396 45.1359
13443 1 18.7771 2.3066 37.9522
13444 2 19.6981 2.07115 38.2628
13445 2 18.1563 1.54628 38.1434
13446 1 72.74 16.8016 23.8428
13447 2 72.0746 17.5426 23.7517
13448 2 72.9565 16.4349 22.938
13449 1 50.6136 11.6513 46.3045
13450 2 50.1204 10.8549 45.9547
13451 2 49.9635 12.3841 46.5056
13452 1 67.8738 19.9278 67.675
13453 2 67.2609 20.6917 67.4732
13454 2 68.5889 20.2316 68.3046
13455 1 73.4106 17.0868 90.8592
13456 2 72.6996 16.3866 90.7945
13457 2 73.2709 17.7709 90.1434
13458 1 58.4228 5.97568 85.0175
13459 2 58.8965 6.76718 84.6314
13460 2 59.0644 5.21381 85.1062
13461 1 12.6206 21.0716 66.7662
13462 2 12.8654 22.0237 66.5832
13463 2 12.0552 20.7233 66.0185
13464 1 54.2336 9.53823 46.0839
13465 2 54.6398 9.02209 46.8379
13466 2 54.353 9.03105 45.2303
13467 1 9.86496 15.2246 57.1045
13468 2 8.96329 14.8703 56.8567
13469 2 10.3858 15.4209 56.2737
13470 1 15.7431 13.563 52.8397
13471 2 16.3715 14.1426 53.3585
13472 2 15.3879 14.0739 52.0569
13473 1 71.1484 10.8794 28.0619
13474 2 71.4156 9.91865 28.1367
13475 2 71.5315 11.3926 28.8299
13476 1 57.2476 10.4478 74.1085
13477 2 57.6412 11.2576 73.6733
13478 2 57.638 10.3377 75.0226
13479 1 19.7312 6.65826 68.2318
13480 2 20.0996 6.88308 69.1338
13481 2 20.2782 5.92908 67.8206
13482 1 15.5974 14.6709 61.2685
13483 2 15.8204 13.7912 61.6884
13484 2 15.6105 15.3865 61.9668
13485 1 74.471 0.473293 19.3676
13486 2 74.842 0.687019 20.2713
13487 2 74.0829 1.30104 18.9623
13488 1 6.11847 12.773 35.7575
13489 2 6.79602 12.3931 36.3873
13490 2 5.88031 13.7009 36.0443
13491 1 1.59611 23.0442 67.616
13492 2 2.41911 22.6377 68.0128
13493 2 1.85612 23.689 66.8972
13494 1 6.45822 5.91281 19.0767
13495 2 7.11183 6.61302 18.7895
13496 2 5.70366 6.34404 19.5714
13497 1 36.2293 17.7175 70.5949
13498 2 36.847 17.5284 71.3582
13499 2 35.7118 18.5521 70.7839
13500 1 16.8005 11.3006 46.2536
13501 2 17.609 11.0719 46.7959
13502 2 16.1156 11.7312 46.8415
13503 1 29.0145 22.6136 40.4898
13504 2 28.8755 23.5455 40.8249
13505 2 29.9773 22.485 40.2521
13506 1 6.09406 19.1561 14.7612
13507 2 5.19519 19.2754 15.1829
13508 2 6.80617 19.296 15.4492
13509 1 72.883 20.0124 50.7371
13510 2 73.0566 19.1902 50.1952
13511 2 73.4111 20.7752 50.364
13512 1 66.0067 16.108 84.5085
13513 2 65.8912 16.7004 85.3058
13514 2 66.8366 15.5608 84.6174
13515 1 36.9376 18.8653 35.264
13516 2 36.6164 18.7179 36.1995
13517 2 37.065 17.9823 34.8123
13518 1 8.7411 0.931109 53.2324
13519 2 9.44636 0.546658 52.6367
13520 2 8.03283 1.36344 52.6743
13521 1 73.9847 2.83534 58.3232
13522 2 74.5519 2.01445 58.3896
13523 2 74.3687 3.45108 57.6351
13524 1 19.2891 15.8045 21.1623
13525 2 20.0174 15.5808 20.5146
13526 2 18.5332 15.1596 21.0497
13527 1 0.979072 5.08448 60.1244
13528 2 0.349785 4.32551 59.9572
13529 2 1.16009 5.56287 59.2651
13530 1 32.2715 2.87728 38.6638
13531 2 32.3832 2.43418 37.7743
13532 2 31.4976 2.46668 39.1459
13533 1 54.4666 6.24305 29.9688
13534 2 53.873 6.95565 30.3427
13535 2 53.9374 5.65557 29.3566
13536 1 75.5594 17.1432 37.5983
13537 2 74.9745 17.0164 38.3994
13538 2 75.2552 16.5364 36.864
13539 1 22.0535 28.6628 45.2098
13540 2 21.7266 27.866 44.7017
13541 2 23.0099 28.5246 45.4671
13542 1 8.91555 26.9541 37.9433
13543 2 8.75346 26.8453 36.9626
13544 2 9.4375 26.172 38.2837
13545 1 16.2648 28.307 51.5318
13546 2 15.383 27.9948 51.8853
13547 2 16.2321 28.3358 50.5328
13548 1 24.644 5.21463 29.8391
13549 2 25.5964 5.4674 30.0096
13550 2 24.2091 4.95303 30.7007
13551 1 24.749 26.3603 61.0057
13552 2 25.69 26.455 61.3307
13553 2 24.2472 25.744 61.6127
13554 1 59.7057 1.92671 32.3258
13555 2 59.4017 1.74344 33.2606
13556 2 59.4039 2.83931 32.05
13557 1 13.2216 23.6779 74.0787
13558 2 14.1049 23.4272 74.4749
13559 2 13.3599 24.0339 73.1545
13560 1 70.3816 12.9123 87.5128
13561 2 69.6498 13.5703 87.3354
13562 2 70.2742 12.1233 86.9079
13563 1 42.5006 6.27147 86.8284
13564 2 42.4605 6.09702 87.8123
13565 2 42.5715 7.25582 86.6671
13566 1 9.0703 28.8356 73.1894
13567 2 9.49481 28.7421 72.2888
13568 2 8.47363 29.6381 73.1949
13569 1 61.3935 17.2898 28.7956
13570 2 61.13 17.341 27.8324
13571 2 62.3436 17.5848 28.8974
13572 1 14.2824 1.14956 62.4408
13573 2 14.2915 0.189248 62.7196
13574 2 13.3392 1.44187 62.283
13575 1 24.7341 8.40663 68.481
13576 2 23.932 8.0182 68.9346
13577 2 24.4736 8.74772 67.5777
13578 1 78.1931 1.62961 82.1242
13579 2 77.4135 1.558 81.502
13580 2 78.9421 2.10842 81.6662
13581 1 74.8914 19.5209 27.736
13582 2 75.713 20.0852 27.8159
13583 2 74.3242 19.6407 28.5508
13584 1 3.95283 17.2421 19.3009
13585 2 4.41479 16.4129 18.9862
13586 2 3.51169 17.0644 20.1806
13587 1 62.9628 0.838872 53.5052
13588 2 62.4889 0.667026 54.3689
13589 2 63.9081 1.10675 53.6914
13590 1 61.1801 22.3427 22.7923
13591 2 60.7389 22.3849 23.6887
13592 2 60.6245 22.8369 22.1237
13593 1 27.8114 4.94723 64.4214
13594 2 27.6673 5.70296 63.7826
13595 2 26.94 4.6961 64.8427
13596 1 79.9157 26.9252 73.686
13597 2 79.0714 27.3448 73.3526
13598 2 79.7686 26.5672 74.608
13599 1 52.8388 12.2043 58.5511
13600 2 53.2563 11.3523 58.8669
13601 2 53.545 12.9055 58.4538
13602 1 70.6168 25.9875 41.5253
13603 2 70.7863 26.9563 41.7062
13604 2 70.5134 25.4997 42.3921
13605 1 9.09076 5.97104 75.8911
13606 2 10.0044 6.04854 76.2902
13607 2 8.46748 6.5958 76.3614
13608 1 71.8405 7.68601 22.8285
13609 2 70.8503 7.61224 22.9474
13610 2 72.2854 7.67567 23.724
13611 1 78.923 17.5575 77.4318
13612 2 79.1978 18.3276 76.856
13613 2 78.5992 17.8998 78.3138
13614 1 57.087 15.2616 81.0076
13615 2 57.7848 15.1316 81.712
13616 2 56.8162 14.3725 80.6386
13617 1 14.5055 15.9378 29.6239
13618 2 14.2106 16.1762 30.5492
13619 2 15.3786 15.4521 29.6671
13620 1 22.4512 0.935078 63.2733
13621 2 22.5483 1.55903 62.4979
13622 2 21.4806 0.772183 63.4506
13623 1 78.4936 11.96 24.0228
13624 2 79.3077 11.5597 23.602
13625 2 77.7647 11.2762 24.0553
13626 1 46.6599 6.43958 78.3669
13627 2 46.4295 7.34688 78.0152
13628 2 46.8575 5.82599 77.6024
13629 1 67.9789 27.6246 35.5569
13630 2 68.6211 27.0142 36.0206
13631 2 68.1315 27.5812 34.5696
13632 1 40.1962 12.1669 78.2292
13633 2 40.974 12.309 77.617
13634 2 40.0696 12.9776 78.8008
13635 1 29.201 2.52665 72.3756
13636 2 29.9831 2.3373 71.782
13637 2 29.086 1.77516 73.0253
13638 1 10.5106 10.2823 77.2585
13639 2 11.4503 10.6057 77.369
13640 2 10.3364 10.0877 76.2932
13641 1 19.4002 13.6224 70.5136
13642 2 19.4974 14.6145 70.593
13643 2 20.2349 13.1786 70.8397
13644 1 17.8026 27.897 33.7834
13645 2 18.2983 27.0906 33.4608
13646 2 17.7284 28.562 33.0403
13647 1 6.01525 15.8918 56.2515
13648 2 6.70588 16.5965 56.4138
13649 2 6.45865 14.9972 56.1955
13650 1 54.8644 8.03543 59.8002
13651 2 54.2598 7.26728 60.0109
13652 2 55.4511 7.7954 59.0269
13653 1 19.5059 27.2409 20.2247
13654 2 19.5215 28.1459 19.7996
13655 2 19.0938 27.3066 21.1335
13656 1 32.4847 12.2024 61.9942
13657 2 32.5463 11.5891 61.2069
13658 2 31.6404 12.0161 62.4966
13659 1 8.56757 14.1537 49.3092
13660 2 8.80759 14.7816 48.569
13661 2 9.4004 13.746 49.6837
13662 1 73.2681 24.7882 59.6197
13663 2 73.2749 25.649 59.1107
13664 2 74.1794 24.3774 59.5921
13665 1 15.7748 15.4721 25.6487
13666 2 14.8243 15.7026 25.8567
13667 2 16.3217 16.3087 25.6185
13668 1 43.3123 22.8553 83.0284
13669 2 42.4094 23.1451 83.3461
13670 2 43.8014 23.642 82.6517
13671 1 8.87603 11.4733 11.1708
13672 2 8.3089 12.2067 11.5456
13673 2 8.62831 11.3159 10.2148
13674 1 2.65887 7.90956 65.4544
13675 2 3.38951 8.07563 64.7922
13676 2 2.72147 8.57899 66.1946
13677 1 56.789 2.47099 51.9039
13678 2 56.4704 1.62858 52.3384
13679 2 57.6069 2.27773 51.3619
13680 1 49.3209 6.58173 62.0608
13681 2 48.7113 6.37066 62.8249
13682 2 50.2281 6.81313 62.4122
13683 1 40.1367 10.1433 52.3225
13684 2 40.838 9.46787 52.0943
13685 2 39.2382 9.79325 52.0578
13686 1 44.1353 7.83466 58.1552
13687 2 45.1085 7.70149 57.9676
13688 2 43.6454 7.97101 57.2942
13689 1 34.1868 5.94312 63.8533
13690 2 34.8434 5.5361 64.4883
13691 2 33.8585 6.81165 64.2246
13692 1 72.6257 10.9027 64.7418
13693 2 73.1218 11.1166 65.5832
13694 2 73.2772 10.7771 63.9935
13695 1 64.1007 12.2786 81.4889
13696 2 65.0362 11.9443 81.6039
13697 2 64.0226 13.1934 81.885
13698 1 48.6752 23.8553 63.1128
13699 2 49.1431 24.7305 63.2356
13700 2 48.3319 23.5341 63.9954
13701 1 23.204 13.8732 83.6007
13702 2 23.2216 14.4773 84.3974
13703 2 23.4534 14.3923 82.7832
13704 1 62.6981 0.183822 85.4631
13705 2 62.4176 0.0598713 84.5113
13706 2 62.1369 0.895327 85.886
13707 1 12.3377 4.09257 11.5956
13708 2 12.4443 4.94664 11.0865
13709 2 11.4617 3.67144 11.3605
13710 1 63.9517 28.3041 43.1515
13711 2 63.0033 28.5296 43.3741
13712 2 64.0547 27.3108 43.0994
13713 1 58.2044 23.7141 27.3081
13714 2 58.0414 24.69 27.1627
13715 2 58.5992 23.3152 26.4805
13716 1 57.6179 1.12599 81.0709
13717 2 58.0059 0.228553 81.2807
13718 2 58.0027 1.80894 81.6918
13719 1 59.2626 25.1071 90.7313
13720 2 58.9602 24.1752 90.531
13721 2 58.6379 25.526 91.3903
13722 1 55.1692 12.6665 54.596
13723 2 54.641 11.8317 54.7517
13724 2 54.7028 13.4407 55.0237
13725 1 58.5284 27.8016 77.3342
13726 2 57.5366 27.82 77.2078
13727 2 58.7863 28.4582 78.0429
13728 1 15.4091 24.5634 39.3851
13729 2 15.5835 24.5946 40.3693
13730 2 16.0051 25.218 38.9201
13731 1 19.1351 26.1197 31.6174
13732 2 19.2732 26.2403 30.6344
13733 2 18.8785 25.1714 31.8041
13734 1 20.5689 3.96226 57.4145
13735 2 19.7446 4.23559 56.9188
13736 2 21.0692 3.28149 56.8795
13737 1 65.6908 26.8542 88.8452
13738 2 66.5553 27.2504 88.5358
13739 2 65.779 25.8594 88.8949
13740 1 3.30082 29.0865 47.8133
13741 2 3.55252 29.8123 47.1731
13742 2 2.9761 29.493 48.6673
13743 1 4.31033 1.01237 14.8402
13744 2 4.29124 1.47555 13.9541
13745 2 5.24164 1.02734 15.2041
13746 1 44.1419 20.9145 85.0754
13747 2 43.6878 21.4125 84.3367
13748 2 44.0111 21.4044 85.9373
13749 1 4.21838 17.7838 12.3011
13750 2 4.74272 16.9356 12.2258
13751 2 3.33028 17.5907 12.7182
13752 1 66.6078 6.90473 25.3899
13753 2 67.2152 6.89731 26.1842
13754 2 65.6672 7.06152 25.691
13755 1 16.7335 28.3407 68.3733
13756 2 16.3967 29.2214 68.7065
13757 2 16.0169 27.6504 68.4731
13758 1 78.5613 1.06299 11.7479
13759 2 77.5613 1.06664 11.7532
13760 2 78.9006 1.46047 12.6005
13761 1 76.2607 24.79 83.0163
13762 2 77.2223 24.5832 82.8356
13763 2 75.6822 24.2295 82.4238
13764 1 17.3939 25.1372 64.5563
13765 2 17.0608 26.0217 64.2295
13766 2 16.6952 24.709 65.1295
13767 1 60.267 28.3287 31.7919
13768 2 59.2763 28.2855 31.9212
13769 2 60.6394 27.4013 31.7582
13770 1 36.3303 8.42129 64.866
13771 2 35.424 8.17756 64.5207
13772 2 36.8089 8.97481 64.1845
13773 1 13.265 23.4666 26.2572
13774 2 12.2804 23.376 26.4071
13775 2 13.5909 22.6966 25.7087
13776 1 21.2567 4.86839 74.9161
13777 2 21.4427 4.38163 75.7696
13778 2 20.8185 5.74378 75.1203
13779 1 72.17 28.5644 27.9956
13780 2 72.7973 27.7858 28.0096
13781 2 72.056 28.9172 28.9243
13782 1 14.4861 4.99076 33.6598
13783 2 14.7994 5.818 34.1262
13784 2 14.9404 4.9163 32.7721
13785 1 63.9679 18.8643 40.3745
13786 2 63.7497 18.1653 39.6934
13787 2 63.317 19.6195 40.2975
13788 1 55.6075 16.1259 85.9436
13789 2 55.1415 15.3536 86.3755
13790 2 54.9286 16.7627 85.5781
13791 1 62.7067 4.255 45.7178
13792 2 62.6099 3.30894 45.4086
13793 2 62.488 4.31133 46.692
13794 1 19.9338 20.6714 90.0398
13795 2 20.7863 20.3026 89.6691
13796 2 19.1572 20.2555 89.5666
13797 1 58.1472 6.7249 48.4688
13798 2 58.9275 7.33234 48.6176
13799 2 57.3817 7.2505 48.0978
13800 1 12.2079 28.9401 22.9465
13801 2 12.1194 28.552 22.0291
13802 2 12.911 29.6512 22.9412
13803 1 77.9773 21.6601 54.219
13804 2 78.933 21.4455 54.4204
13805 2 77.9163 22.1021 53.3241
13806 1 72.3157 15.2792 48.3009
13807 2 72.4208 14.3391 48.6254
13808 2 72.394 15.9092 49.0735
13809 1 9.01246 27.1693 87.8472
13810 2 8.64635 26.2409 87.783
13811 2 9.5142 27.2711 88.7062
13812 1 61.3875 26.2596 79.4383
13813 2 60.7939 26.2392 78.6338
13814 2 60.8301 26.1914 80.2657
13815 1 39.1126 16.0395 48.5523
13816 2 39.2625 16.7148 47.8301
13817 2 38.2191 16.1949 48.9737
13818 1 8.20134 14.9893 74.568
13819 2 9.0647 15.4423 74.7903
13820 2 7.85027 15.3473 73.7028
13821 1 4.74673 9.42943 18.0004
13822 2 3.91077 9.83047 17.6258
13823 2 4.52871 8.92342 18.8349
13824 1 2.65652 3.31948 55.7987
13825 2 2.64408 4.25728 55.4517
13826 2 1.80166 3.13163 56.2823
13827 1 17.33 5.02544 26.4303
13828 2 18.0961 4.39822 26.2902
13829 2 17.6805 5.93821 26.64
13830 1 28.4842 28.679 60.9623
13831 2 28.5384 28.5213 59.9763
13832 2 28.1606 27.8484 61.4154
13833 1 38.031 26.4379 66.1895
13834 2 38.4518 25.9542 66.957
13835 2 38.5668 26.2778 65.3605
13836 1 76.0032 19.2349 24.3738
13837 2 76.0892 18.435 24.9678
13838 2 76.9068 19.4975 24.0354
13839 1 9.30125 4.24847 53.7026
13840 2 8.92271 3.33867 53.5324
13841 2 9.45888 4.71236 52.8308
13842 1 70.2832 13.8936 68.6628
13843 2 70.4288 13.9604 67.6757
13844 2 71.1506 13.684 69.1142
13845 1 47.9875 0.0744654 50.0419
13846 2 47.2049 29.4776 50.2189
13847 2 47.7687 0.69693 49.2904
13848 1 71.5269 0.739421 13.0769
13849 2 71.329 1.71837 13.0269
13850 2 72.2486 0.511419 12.4233
13851 1 14.5408 0.985146 66.7698
13852 2 13.741 1.5724 66.8942
13853 2 15.0771 0.96936 67.6137
13854 1 77.526 1.92128 76.1467
13855 2 76.748 1.29333 76.166
13856 2 77.523 2.42941 75.2854
13857 1 68.8135 14.8 45.1869
13858 2 68.0403 15.2963 44.792
13859 2 69.2667 14.2664 44.4728
13860 1 37.2777 15.3829 41.5001
13861 2 37.5878 16.1821 42.0151
13862 2 38.0668 14.9193 41.0971
13863 1 35.3705 15.0391 58.8771
13864 2 35.2807 15.9606 59.2549
13865 2 34.5246 14.5299 59.0358
13866 1 70.8213 23.6231 53.921
13867 2 70.248 23.3925 54.7073
13868 2 71.5182 22.9166 53.7981
13869 1 45.4039 1.18519 35.5653
13870 2 44.679 0.847976 36.1659
13871 2 46.2908 1.05886 36.0098
13872 1 26.901 21.6185 42.2771
13873 2 27.8643 21.8116 42.0907
13874 2 26.4981 22.3851 42.7771
13875 1 15.8122 29.6185 22.9804
13876 2 16.5387 0.104768 23.4659
13877 2 15.8582 28.6442 23.2009
13878 1 33.2719 29.1458 39.7687
13879 2 33.4405 28.5668 40.5664
13880 2 33.9205 28.9124 39.0443
13881 1 59.293 13.5744 24.1911
13882 2 58.3966 13.4929 23.7554
13883 2 59.1739 13.7342 25.1711
13884 1 55.7401 0.774031 54.5052
13885 2 56.5007 1.42309 54.5202
13886 2 54.8745 1.2745 54.5206
13887 1 9.02906 9.39538 82.2941
13888 2 9.19983 8.48338 82.667
13889 2 9.89263 9.79891 81.9917
13890 1 2.18571 10.9183 72.3996
13891 2 1.7994 10.0594 72.736
13892 2 3.16943 10.8082 72.2575
13893 1 64.6461 14.7898 82.4204
13894 2 64.9932 15.2506 83.2372
13895 2 64.078 15.424 81.8959
13896 1 45.5211 24.9549 81.9227
13897 2 45.2666 25.8217 81.4939
13898 2 46.1489 25.1299 82.6812
13899 1 77.4751 0.0799195 14.6388
13900 2 78.2263 0.396298 15.2181
13901 2 76.6376 0.0203753 15.1821
13902 1 36.1421 29.9025 72.1529
13903 2 36.6168 0.73617 72.4352
13904 2 35.6251 29.5353 72.9261
13905 1 79.475 29.5209 17.7661
13906 2 79.9565 0.383892 17.613
13907 2 0.0923081 28.7569 17.5782
13908 1 67.0919 23.2189 47.2031
13909 2 66.9722 22.2322 47.0931
13910 2 66.5778 23.53 48.0024
13911 1 37.7749 28.469 86.4155
13912 2 37.5981 27.5828 85.9873
13913 2 36.9136 28.8608 86.7389
13914 1 1.21456 18.1438 28.5158
13915 2 1.15685 17.2005 28.8426
13916 2 2.01613 18.5871 28.917
13917 1 51.6211 20.6715 35.4702
13918 2 52.144 21.2209 36.1219
13919 2 51.597 19.7209 35.7795
13920 1 0.599098 25.1062 15.5686
13921 2 0.133949 24.4427 14.9826
13922 2 79.9581 25.4533 16.2533
13923 1 14.7219 29.8973 33.6483
13924 2 15.2963 0.617101 33.2586
13925 2 14.3781 0.191304 34.5401
13926 1 76.9679 25.6769 48.9611
13927 2 76.8779 24.8292 48.4384
13928 2 76.0708 26.1096 49.0514
13929 1 5.39142 2.29522 18.948
13930 2 4.46913 2.28209 19.3343
13931 2 5.41034 2.8986 18.1508
13932 1 63.9076 20.1564 55.1694
13933 2 63.7631 21.1354 55.3131
13934 2 63.044 19.7273 54.9045
13935 1 1.39144 0.466883 20.9287
13936 2 0.540058 0.635144 20.4319
13937 2 2.04922 1.18978 20.7172
13938 1 73.9016 21.2487 80.883
13939 2 74.3998 21.796 80.2105
13940 2 74.4692 20.4778 81.1718
13941 1 73.1646 13.1449 36.2183
13942 2 72.2184 13.4041 36.4117
13943 2 73.6983 13.964 36.0082
13944 1 73.9415 21.7097 77.1228
13945 2 73.085 21.2831 77.4134
13946 2 74.4083 22.0958 77.9184
13947 1 7.56722 21.7713 28.5384
13948 2 7.13112 20.889 28.3614
13949 2 7.51575 22.3393 27.717
13950 1 77.0349 15.3159 49.2696
13951 2 76.8745 15.5262 50.234
13952 2 77.4068 16.1224 48.81
13953 1 1.44989 19.5599 14.3567
13954 2 1.12252 20.3332 13.8136
13955 2 2.29304 19.8174 14.8287
13956 1 8.49803 23.328 84.0887
13957 2 7.64879 22.9686 83.702
13958 2 8.7882 24.1306 83.5674
13959 1 11.621 0.383315 81.8211
13960 2 10.6563 0.58889 81.9857
13961 2 11.8594 0.63199 80.8823
13962 1 12.5035 11.8479 57.7052
13963 2 11.6436 11.7987 58.2133
13964 2 13.2069 12.2661 58.28
13965 1 22.6939 9.23484 38.2985
13966 2 22.0912 9.84962 37.7897
13967 2 23.3666 8.8363 37.6751
13968 1 50.6241 26.7421 59.6763
13969 2 50.8899 27.3648 60.4123
13970 2 50.6155 27.2372 58.8075
13971 1 64.7329 12.375 64.1984
13972 2 64.7468 12.8382 63.3122
13973 2 64.5299 11.4051 64.0643
13974 1 66.0292 8.54568 39.597
13975 2 66.9905 8.51613 39.3231
13976 2 65.475 8.05977 38.9212
13977 1 39.2701 8.67834 85.1127
13978 2 38.5301 9.17746 85.5635
13979 2 39.8535 9.3224 84.6179
13980 1 33.9963 19.7897 55.3023
13981 2 33.4189 20.4565 54.8311
13982 2 34.3079 19.0987 54.6502
13983 1 39.512 24.559 46.2172
13984 2 40.2421 24.4076 45.5508
13985 2 39.5412 23.8411 46.9127
13986 1 4.25987 3.57581 53.3462
13987 2 3.93328 2.95562 54.0594
13988 2 5.13587 3.2466 52.9937
13989 1 5.92303 5.77039 10.9717
13990 2 5.77016 4.82564 10.6817
13991 2 5.59526 5.88854 11.909
13992 1 59.6082 27.6241 89.4187
13993 2 59.8053 26.7806 89.9185
13994 2 58.6451 27.635 89.1498
13995 1 47.0234 20.1064 37.4809
13996 2 46.3422 20.6316 36.9708
13997 2 46.5722 19.3563 37.9644
13998 1 19.1522 4.66101 36.6722
13999 2 18.9956 3.717 36.9626
14000 2 20.132 4.85939 36.6978
14001 1 9.67094 15.3143 64.1309
14002 2 9.83971 14.5408 64.7418
14003 2 9.04732 15.9587 64.5735
14004 1 39.2615 17.7776 86.2114
14005 2 39.5268 18.5897 85.6918
14006 2 39.7213 17.7851 87.0994
14007 1 79.0375 13.2107 58.6361
14008 2 79.3159 14.1678 58.7164
14009 2 79.2228 12.8863 57.7085
14010 1 21.6556 16.6421 59.8734
14011 2 21.3873 16.1249 60.6861
14012 2 22.5581 17.0475 60.0193
14013 1 21.2278 7.07729 80.0586
14014 2 21.8082 6.35585 80.4363
14015 2 21.7735 7.90276 79.9143
14016 1 23.3127 24.4428 77.2338
14017 2 22.3382 24.2327 77.3128
14018 2 23.5557 25.1514 77.8963
14019 1 1.06447 5.08177 81.8143
14020 2 1.11525 4.58607 80.9473
14021 2 1.889 4.9009 82.3505
14022 1 33.286 28.7583 76.3994
14023 2 33.8316 28.9088 75.575
14024 2 33.3002 27.7867 76.6357
14025 1 14.888 2.39235 15.169
14026 2 15.4601 3.20518 15.0596
14027 2 15.4243 1.66166 15.5915
14028 1 2.22493 6.90225 20.9627
14029 2 3.15943 6.86846 20.6084
14030 2 2.22509 7.33955 21.862
14031 1 2.21175 7.53755 70.9091
14032 2 1.49937 7.1071 71.4634
14033 2 1.84414 8.35908 70.4732
14034 1 63.5407 7.03156 21.4311
14035 2 64.0358 6.16279 21.4423
14036 2 62.7579 6.96111 20.8128
14037 1 63.8674 6.52945 78.9612
14038 2 62.8758 6.62168 78.8705
14039 2 64.0818 6.0653 79.8206
14040 1 65.0927 0.744309 25.8282
14041 2 64.522 1.30256 26.4304
14042 2 64.6583 0.671781 24.9304
14043 1 35.833 18.7978 57.5294
14044 2 35.0864 18.9793 56.8893
14045 2 35.5208 18.9711 58.4635
14046 1 4.72069 20.1367 48.0446
14047 2 4.02701 19.8837 47.3701
14048 2 4.56535 19.6259 48.8901
14049 1 20.1882 24.2016 36.9712
14050 2 20.7208 23.3552 36.9779
14051 2 19.3993 24.1038 37.578
14052 1 12.2976 2.6638 65.0819
14053 2 12.174 2.69417 66.0738
14054 2 11.6529 2.01008 64.6856
14055 1 42.951 4.62277 64.9121
14056 2 43.7372 4.02957 65.0853
14057 2 42.4918 4.33103 64.0731
14058 1 52.1367 3.76182 87.2975
14059 2 51.1657 3.78039 87.0591
14060 2 52.6842 3.93791 86.4794
14061 1 37.1193 22.7233 43.4106
14062 2 36.8124 21.7843 43.2552
14063 2 38.1094 22.7315 43.5503
14064 1 68.8186 8.93476 18.0822
14065 2 69.5475 8.56277 17.5074
14066 2 69.0627 8.82096 19.0452
14067 1 11.1175 12.9162 11.6757
14068 2 11.8407 12.2565 11.4716
14069 2 10.2259 12.4735 11.5801
14070 1 64.5334 26.5786 71.4784
14071 2 64.948 26.5562 70.5687
14072 2 63.6668 27.076 71.4376
14073 1 50.8054 13.5721 43.202
14074 2 51.1044 14.0704 42.3882
14075 2 49.9592 13.977 43.5486
14076 1 9.47435 7.71656 39.8768
14077 2 8.48087 7.64512 39.7881
14078 2 9.69836 8.38098 40.5898
14079 1 36.3377 5.65703 49.0979
14080 2 37.1358 6.17889 49.3991
14081 2 35.5513 6.26909 49.0146
14082 1 13.991 24.8344 44.1783
14083 2 14.7751 24.3849 44.6062
14084 2 13.8816 25.7511 44.5628
14085 1 11.0472 1.90404 24.299
14086 2 10.7387 2.80084 24.6161
14087 2 12.0404 1.83989 24.3956
14088 1 71.3388 14.2926 74.4378
14089 2 71.5524 15.1894 74.8253
14090 2 70.62 13.8578 74.9803
14091 1 41.8176 7.13116 45.6252
14092 2 41.7178 6.9961 44.6394
14093 2 42.2108 8.0339 45.7998
14094 1 76.7373 8.60784 30.4963
14095 2 76.6821 7.85789 29.8371
14096 2 77.6311 9.05045 30.4235
14097 1 27.361 25.9244 64.4353
14098 2 26.7632 26.6606 64.7524
14099 2 27.4372 25.9626 63.439
14100 1 60.5373 9.01562 66.6349
14101 2 59.909 8.23768 66.6371
14102 2 60.6446 9.3601 67.5675
14103 1 30.4354 14.0711 86.4484
14104 2 31.1242 14.6613 86.8692
14105 2 29.6865 14.6321 86.0955
14106 1 68.9523 5.35346 63.0586
14107 2 69.015 4.35556 63.0752
14108 2 69.4417 5.7313 63.8445
14109 1 64.4271 4.53767 56.8777
14110 2 63.9414 3.7301 57.2123
14111 2 64.8557 5.01138 57.6471
14112 1 30.8786 15.304 58.6586
14113 2 31.1766 15.9769 57.9815
14114 2 30.0305 14.8735 58.3498
14115 1 66.7519 21.8365 76.9801
14116 2 66.6243 21.0595 76.3636
14117 2 66.7002 21.522 77.9279
14118 1 16.1883 12.2769 10.7733
14119 2 16.674 11.9975 9.94501
14120 2 15.877 13.2221 10.6744
14121 1 69.1425 0.705116 53.75
14122 2 68.7177 29.9138 53.3101
14123 2 70.0645 0.834345 53.3849
14124 1 77.7563 28.1796 42.3232
14125 2 77.0322 27.589 42.6793
14126 2 77.7031 29.0753 42.7645
14127 1 75.6975 21.597 36.0058
14128 2 74.8031 21.2574 35.7147
14129 2 75.5752 22.3972 36.593
14130 1 52.1072 1.77511 59.5407
14131 2 51.482 1.58175 60.2969
14132 2 53.0514 1.68949 59.8586
14133 1 42.5671 6.94688 89.435
14134 2 43.0319 7.8323 89.4392
14135 2 42.5787 6.55994 90.357
14136 1 79.1187 10.4938 71.8767
14137 2 78.8247 9.59427 71.5536
14138 2 79.2831 11.0922 71.0926
14139 1 9.89425 23.1975 77.6831
14140 2 10.5356 22.7094 78.275
14141 2 9.63487 24.0619 78.1139
14142 1 2.75255 23.4453 57.3907
14143 2 2.99907 22.7553 58.0712
14144 2 3.49872 24.1048 57.2993
14145 1 63.0247 20.3157 86.8807
14146 2 63.178 19.3658 87.1532
14147 2 63.8337 20.6606 86.4047
14148 1 62.6577 7.50962 17.1584
14149 2 61.8896 8.04277 17.5132
14150 2 62.6169 7.49039 16.1595
14151 1 13.1053 21.4139 62.4014
14152 2 13.4228 22.3455 62.5788
14153 2 13.7868 20.9281 61.8541
14154 1 41.0276 22.8192 74.0903
14155 2 41.6237 22.3268 74.7246
14156 2 41.5449 23.5513 73.6471
14157 1 59.1262 18.7945 48.7576
14158 2 58.2157 19.1931 48.8677
14159 2 59.0866 18.0524 48.0884
14160 1 29.7194 27.0262 51.3841
14161 2 30.2883 26.4499 51.9708
14162 2 28.9886 27.4376 51.9288
14163 1 53.1086 1.78035 25.3211
14164 2 52.465 1.70971 24.559
14165 2 52.7299 2.3844 26.0223
14166 1 67.6947 0.405971 16.0195
14167 2 66.7217 0.526472 16.2163
14168 2 67.8414 29.5104 15.5993
14169 1 4.37824 21.7256 51.2614
14170 2 3.75937 21.1846 50.6919
14171 2 5.02303 22.2188 50.6774
14172 1 25.6741 25.8461 90.0834
14173 2 24.848 25.2905 90.1772
14174 2 25.9068 25.9367 89.1151
14175 1 53.2428 2.74563 72.4476
14176 2 52.481 3.03868 71.8698
14177 2 53.8358 3.52768 72.6393
14178 1 13.9701 4.69579 22.7306
14179 2 14.7092 4.8289 22.0703
14180 2 14.3581 4.55382 23.6412
14181 1 54.9353 3.38038 57.4099
14182 2 54.3497 2.95637 56.719
14183 2 55.1832 4.30343 57.1157
14184 1 23.6272 13.5237 88.2296
14185 2 23.0947 14.3697 88.2541
14186 2 23.0543 12.7605 88.5284
14187 1 60.3368 17.937 67.0843
14188 2 60.129 17.7929 68.0518
14189 2 59.9499 18.8098 66.7867
14190 1 51.4448 3.9122 70.5862
14191 2 51.2857 3.71477 69.6189
14192 2 50.8741 4.68379 70.8671
14193 1 18.3619 18.5732 81.7918
14194 2 17.3888 18.6894 81.5928
14195 2 18.6861 19.3483 82.3341
14196 1 51.2702 26.0283 81.7154
14197 2 51.3925 26.416 80.8018
14198 2 52.0198 25.3964 81.9123
14199 1 39.5202 27.3013 47.4976
14200 2 39.3326 26.5575 46.8561
14201 2 40.1712 27.9396 47.0867
14202 1 45.9643 23.6836 74.8254
14203 2 45.4824 23.1439 74.1351
14204 2 46.6045 23.0963 75.3205
14205 1 15.6912 8.9786 75.5214
14206 2 16.3525 8.23241 75.5982
14207 2 15.305 9.1758 76.4226
14208 1 59.823 17.9195 51.7745
14209 2 60.5766 18.2237 52.3573
14210 2 59.7965 18.4779 50.9454
14211 1 39.5244 0.699288 68.16
14212 2 39.6238 0.124845 68.9724
14213 2 38.7714 0.355542 67.5988
14214 1 52.491 6.98767 58.6135
14215 2 51.6836 7.53738 58.8277
14216 2 52.8849 7.29726 57.7481
14217 1 70.7346 5.21334 56.8875
14218 2 71.6706 5.38515 57.195
14219 2 70.7262 5.09646 55.8944
14220 1 5.65602 20.0964 58.1102
14221 2 6.13461 19.5124 58.7659
14222 2 4.78656 20.3958 58.5032
14223 1 31.5117 19.7666 43.3308
14224 2 31.7274 19.4425 44.2519
14225 2 31.6937 20.7481 43.2717
14226 1 67.5888 16.3713 47.6885
14227 2 67.4969 17.3578 47.824
14228 2 68.5516 16.1428 47.5446
14229 1 75.8099 10.1231 40.469
14230 2 75.3544 9.27039 40.2132
14231 2 75.3568 10.5159 41.2692
14232 1 2.8813 0.0830509 50.3124
14233 2 2.78095 1.06836 50.4506
14234 2 2.80315 29.6135 51.1919
14235 1 53.9345 25.0328 89.1071
14236 2 53.5285 25.9421 89.0166
14237 2 54.7891 25.099 89.6222
14238 1 59.0947 8.44705 59.753
14239 2 59.3056 8.67371 60.7039
14240 2 58.6946 7.53162 59.7094
14241 1 36.253 21.4444 35.2286
14242 2 36.9977 22.1102 35.276
14243 2 36.6229 20.5221 35.3406
14244 1 24.4589 1.2248 59.9175
14245 2 23.5819 1.4029 60.3639
14246 2 24.3006 0.955372 58.9676
14247 1 21.0767 12.3215 86.6606
14248 2 20.182 11.8753 86.637
14249 2 21.5984 11.981 87.4428
14250 1 33.362 4.57661 70.9543
14251 2 33.8158 4.55104 71.8451
14252 2 32.8662 3.72057 70.8081
14253 1 41.54 19.2471 74.2629
14254 2 40.9549 19.706 74.9315
14255 2 42.4197 19.7197 74.2097
14256 1 52.4391 26.6455 44.1879
14257 2 52.5701 25.6543 44.1725
14258 2 51.478 26.8519 44.3716
14259 1 54.8132 14.4598 59.0985
14260 2 54.4006 15.14 59.7044
14261 2 55.3593 14.9229 58.4005
14262 1 78.2813 19.42 29.8341
14263 2 78.9824 19.9373 30.3249
14264 2 77.719 18.9158 30.4895
14265 1 1.41968 27.494 78.767
14266 2 0.935715 27.1762 77.9516
14267 2 2.38037 27.6568 78.542
14268 1 25.2083 8.83559 36.8985
14269 2 25.3289 9.69538 37.3948
14270 2 25.577 8.92989 35.9738
14271 1 60.7639 20.2669 76.6168
14272 2 59.8482 19.8908 76.7581
14273 2 60.7073 21.2623 76.54
14274 1 11.6779 12.4309 19.5884
14275 2 12.0533 12.7865 20.4444
14276 2 11.1005 13.1276 19.1628
14277 1 43.3342 10.6023 61.5638
14278 2 43.683 11.5374 61.5011
14279 2 42.5431 10.5005 60.9606
14280 1 75.3451 7.54673 84.4831
14281 2 75.536 7.515 85.4642
14282 2 75.5364 6.65304 84.0773
14283 1 42.216 17.0988 60.9901
14284 2 41.7249 16.2323 61.08
14285 2 42.791 17.2411 61.7958
14286 1 76.1933 7.45735 24.3455
14287 2 75.377 7.17756 24.8508
14288 2 76.3941 8.41713 24.5416
14289 1 69.8724 10.4659 82.708
14290 2 70.7547 10.9323 82.7709
14291 2 69.5004 10.5793 81.7867
14292 1 61.4015 25.5259 28.384
14293 2 61.9937 25.8794 29.1081
14294 2 60.4642 25.8391 28.5374
14295 1 10.6994 0.406989 63.6959
14296 2 11.1724 29.5259 63.6893
14297 2 11.0523 0.980288 62.9565
14298 1 72.5819 11.9459 30.2264
14299 2 72.7528 12.8073 30.7046
14300 2 72.4428 11.2154 30.895
14301 1 12.4026 13.3214 55.3219
14302 2 13.0598 13.9919 55.6661
14303 2 12.1748 12.6742 56.0494
14304 1 78.4815 3.41594 49.8757
14305 2 77.6023 3.01418 50.1317
14306 2 79.11 3.36462 50.6518
14307 1 78.59 3.19064 35.4206
14308 2 77.7658 3.47245 34.9294
14309 2 78.8216 2.25034 35.1711
14310 1 2.96959 13.4611 43.1706
14311 2 3.57372 12.7298 43.4872
14312 2 2.67441 14.0112 43.9518
14313 1 7.64152 22.8822 41.5547
14314 2 7.9087 21.9186 41.5623
14315 2 6.66647 22.9594 41.7629
14316 1 42.6177 24.653 72.6483
14317 2 43.3711 24.955 72.0642
14318 2 41.8077 25.2088 72.4615
14319 1 45.4132 23.7625 85.6056
14320 2 45.8925 24.4062 85.009
14321 2 45.5307 24.0408 86.5589
14322 1 34.2778 29.4887 84.5163
14323 2 35.021 0.142049 84.372
14324 2 34.3192 28.7767 83.8154
14325 1 68.0949 1.38568 27.4071
14326 2 68.3967 0.866849 28.2069
14327 2 67.1149 1.5706 27.4801
14328 1 61.3984 18.6486 23.5995
14329 2 61.4024 18.1278 24.4532
14330 2 61.448 18.0186 22.8245
14331 1 25.4531 28.1991 68.1801
14332 2 26.37 27.9135 68.4588
14333 2 25.3315 28.0226 67.2034
14334 1 60.9806 27.2862 35.4078
14335 2 60.3953 26.591 34.9905
14336 2 61.8492 27.3305 34.9144
14337 1 20.1829 27.4714 35.7516
14338 2 20.8945 28.1737 35.7358
14339 2 19.3705 27.8094 35.2764
14340 1 44.1015 1.59783 88.8314
14341 2 44.9498 1.1171 89.0533
14342 2 44.149 2.53479 89.1776
14343 1 30.2341 16.564 50.9693
14344 2 30.9124 16.0465 50.4477
14345 2 30.6995 17.1468 51.6354
14346 1 78.2326 10.1368 48.1987
14347 2 78.2112 10.7502 48.9882
14348 2 79.028 9.5344 48.2661
14349 1 44.0281 17.9567 88.9739
14350 2 44.9316 17.9066 88.5482
14351 2 44.0459 17.4765 89.8509
14352 1 6.04246 17.0921 63.983
14353 2 6.92824 16.8734 64.3923
14354 2 5.49288 16.2596 63.9131
14355 1 15.5938 27.9378 49.092
14356 2 16.0666 27.0608 49.1766
14357 2 15.1904 28.0124 48.18
14358 1 26.2932 6.22059 33.0123
14359 2 26.747 6.25097 32.1217
14360 2 25.4503 5.68757 32.9388
14361 1 13.3857 14.3049 15.1511
14362 2 13.3653 15.2911 15.3153
14363 2 14.3025 14.0349 14.8568
14364 1 22.6467 24.5019 80.2848
14365 2 23.0833 23.9015 80.9548
14366 2 22.9107 25.4495 80.4643
14367 1 73.4631 26.7362 70.4275
14368 2 72.4755 26.5963 70.3551
14369 2 73.7387 26.6765 71.3869
14370 1 19.8077 21.5185 70.6974
14371 2 19.9806 20.6579 71.1764
14372 2 18.9384 21.4582 70.2068
14373 1 69.9935 10.9656 85.4284
14374 2 70.2322 10.3302 84.6941
14375 2 69.2415 11.553 85.1296
14376 1 58.0339 4.56077 36.6844
14377 2 58.7317 3.85891 36.5413
14378 2 57.2983 4.18887 37.2506
14379 1 15.2849 28.4859 31.1641
14380 2 14.8231 28.9317 31.9308
14381 2 16.0731 29.0345 30.8851
14382 1 78.4365 27.4246 20.0677
14383 2 78.2816 28.27 20.5788
14384 2 77.6643 27.2599 19.454
14385 1 12.13 14.8341 37.7105
14386 2 11.6062 14.1511 37.2013
14387 2 12.1086 14.6117 38.6853
14388 1 29.26 21.2447 58.6965
14389 2 29.9185 21.2992 57.946
14390 2 29.5963 21.7757 59.4742
14391 1 1.76801 3.39831 27.139
14392 2 1.8494 3.45808 26.1441
14393 2 2.46561 3.97389 27.5656
14394 1 47.1012 10.2795 41.5353
14395 2 46.5759 9.97438 42.3297
14396 2 46.9759 11.2638 41.4109
14397 1 53.3129 4.79173 77.9161
14398 2 53.5769 4.27866 78.7328
14399 2 53.0579 5.72321 78.1756
14400 1 30.5783 28.4768 73.795
14401 2 30.6331 27.9423 74.6384
14402 2 29.7622 29.0543 73.8187
14403 1 25.2293 11.2122 34.4608
14404 2 26.1763 11.1353 34.1488
14405 2 24.6112 11.077 33.6864
14406 1 76.8574 5.11087 71.9845
14407 2 76.1822 4.51345 71.5519
14408 2 77.4413 4.57031 72.5902
14409 1 12.0232 18.8731 41.6758
14410 2 11.7752 19.8261 41.5015
14411 2 12.9986 18.7445 41.4966
14412 1 4.5163 12.5281 52.4032
14413 2 3.81545 12.208 51.7657
14414 2 5.27375 12.9322 51.8903
14415 1 66.3151 25.4907 12.3922
14416 2 65.4112 25.8867 12.23
14417 2 66.2347 24.7291 13.0353
14418 1 26.1087 22.7143 52.4263
14419 2 27.1008 22.5962 52.3833
14420 2 25.8568 23.0973 53.315
14421 1 35.7993 3.70024 45.0028
14422 2 35.9026 4.65387 45.2855
14423 2 34.9722 3.60452 44.4489
14424 1 14.4216 1.48918 39.6129
14425 2 14.7824 0.642659 39.2215
14426 2 14.8935 1.68666 40.4722
14427 1 48.5572 21.7308 58.685
14428 2 49.1103 21.1867 58.0541
14429 2 47.7126 22.0126 58.2298
14430 1 32.7572 7.16426 33.7074
14431 2 32.479 6.31312 33.2622
14432 2 33.6776 7.41286 33.4057
14433 1 11.5783 18.2551 89.7752
14434 2 11.2093 17.4986 90.3152
14435 2 10.9832 18.4256 88.9899
14436 1 47.0297 12.7359 78.842
14437 2 47.5675 12.1996 79.4926
14438 2 46.3315 12.153 78.4263
14439 1 36.6661 4.0864 51.9041
14440 2 35.7099 3.86944 51.7075
14441 2 37.1063 4.43306 51.0759
14442 1 22.0311 15.0588 71.7627
14443 2 23.0189 15.2084 71.8053
14444 2 21.6867 15.3578 70.8728
14445 1 34.1786 24.0254 47.0118
14446 2 34.9309 23.9158 47.6615
14447 2 34.3627 24.8085 46.4177
14448 1 49.1621 17.6636 45.8943
14449 2 48.5541 17.0902 46.4435
14450 2 48.6428 18.4261 45.5084
14451 1 25.6962 1.65675 88.6887
14452 2 26.1217 1.39915 89.5562
14453 2 24.8373 2.13642 88.8682
14454 1 9.7691 9.40192 49.7316
14455 2 9.40046 8.74736 49.0716
14456 2 9.08272 9.58904 50.4344
14457 1 52.7611 13.4548 66.1896
14458 2 52.5 12.734 65.5475
14459 2 53.0809 14.2543 65.6811
14460 1 29.9639 16.5694 33.8954
14461 2 30.6877 15.9185 34.1245
14462 2 30.3348 17.498 33.9072
14463 1 32.0665 22.6364 43.0468
14464 2 32.2233 22.6998 42.0612
14465 2 31.4348 23.3577 43.3309
14466 1 20.2651 19.1146 53.3921
14467 2 19.9351 20.0577 53.4348
14468 2 20.6042 18.9215 52.4714
14469 1 65.922 8.32027 90.796
14470 2 65.8233 8.40092 91.7879
14471 2 65.2319 8.88645 90.3452
14472 1 39.4851 17.1149 57.0055
14473 2 39.648 17.8849 56.3886
14474 2 40.2993 16.5351 57.0372
14475 1 3.95461 11.5094 46.3393
14476 2 3.71189 10.6172 46.7202
14477 2 4.08688 12.1645 47.0831
14478 1 27.163 25.621 49.4122
14479 2 26.5242 24.9129 49.7129
14480 2 28.0753 25.2248 49.3087
14481 1 55.0298 2.16939 39.6192
14482 2 54.0617 2.26159 39.8524
14483 2 55.3184 2.95787 39.0761
14484 1 9.97202 4.36239 81.2625
14485 2 9.06881 4.01371 81.5127
14486 2 9.89197 5.31496 80.9689
14487 1 56.2792 17.2755 64.6784
14488 2 57.2789 17.2919 64.6932
14489 2 55.9665 16.6914 63.9294
14490 1 22.7654 4.23074 54.7762
14491 2 23.3896 4.82766 54.2721
14492 2 23.1757 3.98501 55.6544
14493 1 25.3501 15.5275 90.7083
14494 2 24.9096 16.2962 90.2446
14495 2 25.5885 15.7938 91.6422
14496 1 63.3207 14.967 88.109
14497 2 63.6022 15.8515 87.737
14498 2 63.8471 14.7706 88.9362
14499 1 38.6468 18.4568 52.4074
14500 2 38.726 18.4862 53.4038
14501 2 38.5545 19.3873 52.0528
14502 1 1.64542 28.2784 41.4643
14503 2 1.5963 27.6905 42.2717
14504 2 2.42355 28.0043 40.8992
14505 1 41.7353 27.4003 82.1345
14506 2 41.3873 27.1242 83.0304
14507 2 42.6077 27.8758 82.2478
14508 1 55.7574 28.3043 90.8831
14509 2 54.8666 28.0966 90.4791
14510 2 56.3952 27.5601 90.6846
14511 1 39.2627 8.69884 68.3723
14512 2 39.659 8.07972 67.6943
14513 2 39.9456 9.37705 68.6437
14514 1 24.7863 5.81018 53.7294
14515 2 25.5126 5.67358 54.4031
14516 2 24.6386 6.78968 53.5925
14517 1 11.2437 15.1863 59.4521
14518 2 11.2367 15.2603 58.4549
14519 2 11.735 14.3579 59.7214
14520 1 26.3873 17.9403 88.1199
14521 2 25.8048 17.5887 88.8528
14522 2 26.563 18.913 88.2714
14523 1 35.2417 26.0592 65.6901
14524 2 36.1666 26.3251 65.9618
14525 2 34.5846 26.7192 66.0543
14526 1 46.5048 22.9414 79.8248
14527 2 46.762 23.5614 79.0836
14528 2 46.2174 23.4744 80.6206
14529 1 12.512 23.1047 69.7803
14530 2 13.1868 23.3379 69.0802
14531 2 12.702 23.625 70.6129
14532 1 43.4227 22.8896 54.0818
14533 2 44.4089 22.7245 54.0939
14534 2 42.9771 22.2044 53.5056
14535 1 71.5965 21.5847 36.9761
14536 2 71.5189 21.254 36.0355
14537 2 71.0325 22.4027 37.0894
14538 1 17.067 8.69619 48.5502
14539 2 16.3747 9.26534 48.9937
14540 2 17.7953 9.27829 48.1885
14541 1 49.1201 8.26135 33.7713
14542 2 49.7949 7.68847 34.2365
14543 2 48.1998 7.93865 33.9925
14544 1 76.7172 19.87 70.1483
14545 2 77.2283 19.8304 69.2898
14546 2 76.0648 19.1128 70.1831
14547 1 29.3934 22.0203 77.9018
14548 2 29.4749 22.9505 78.2596
14549 2 29.4397 22.042 76.9031
14550 1 78.0055 11.3138 84.1568
14551 2 78.9709 11.5263 84.3084
14552 2 77.9299 10.5049 83.5737
14553 1 51.4996 27.647 70.43
14554 2 51.7477 28.5257 70.8379
14555 2 52.0272 26.917 70.8644
14556 1 71.2333 28.7694 50.5231
14557 2 71.8367 28.578 49.749
14558 2 71.7359 28.6389 51.3777
14559 1 14.0792 1.82396 51.0973
14560 2 13.5416 1.44081 50.3462
14561 2 14.058 2.82246 51.0469
14562 1 21.477 0.71932 68.8889
14563 2 22.4752 0.777076 68.9055
14564 2 21.0907 1.47059 69.424
14565 1 10.316 21.1353 88.1401
14566 2 10.9857 21.026 88.8747
14567 2 10.0433 20.2349 87.8011
14568 1 36.3556 5.6169 71.5513
14569 2 35.7461 5.0013 72.0509
14570 2 37.2768 5.55863 71.936
14571 1 31.0387 19.3725 63.9351
14572 2 30.2821 19.3809 63.2813
14573 2 30.7009 19.634 64.8392
14574 1 58.8588 20.2504 24.9333
14575 2 59.1828 21.193 25.0151
14576 2 59.2097 19.8496 24.087
14577 1 19.8792 20.9268 19.5911
14578 2 20.5566 21.6375 19.7808
14579 2 18.962 21.324 19.6211
14580 1 34.8463 11.1824 65.8695
14581 2 35.6636 10.9951 66.4144
14582 2 34.076 10.6585 66.233
14583 1 65.193 26.8298 77.8235
14584 2 65.8462 27.4179 78.3005
14585 2 65.405 25.8716 78.0158
14586 1 49.3973 24.5655 75.7874
14587 2 50.134 24.4443 76.4526
14588 2 48.5205 24.3529 76.2187
14589 1 19.0715 22.207 65.535
14590 2 19.2839 22.9493 64.8995
14591 2 18.0824 22.0618 65.5594
14592 1 12.2408 22.0757 53.9444
14593 2 11.9491 21.2519 53.4583
14594 2 11.477 22.434 54.4813
14595 1 59.6839 23.674 66.2033
14596 2 60.599 23.7892 65.8169
14597 2 59.2324 22.8969 65.7649
14598 1 10.6488 0.626449 11.2556
14599 2 10.5443 1.42149 11.8531
14600 2 11.3328 0.824665 10.5536
14601 1 17.3906 28.1202 62.9339
14602 2 18.3846 28.0106 62.934
14603 2 17.1105 28.622 63.7523
14604 1 22.1335 25.5439 40.3506
14605 2 23.1022 25.7854 40.2919
14606 2 22.0447 24.5659 40.5392
14607 1 13.5138 3.12181 35.1237
14608 2 14.2087 2.74655 35.7372
14609 2 13.8891 3.91148 34.6384
14610 1 20.5127 9.08698 88.2566
14611 2 21.0859 9.86038 88.5272
14612 2 20.6175 8.34614 88.9201
14613 1 69.6152 7.24676 86.495
14614 2 70.0253 6.34529 86.3566
14615 2 69.9388 7.63092 87.3597
14616 1 7.07318 24.75 24.172
14617 2 6.45896 24.1304 23.6833
14618 2 6.76756 25.6933 24.0422
14619 1 28.636 0.656488 56.9908
14620 2 29.486 1.09153 57.2878
14621 2 28.5032 29.8043 57.4969
14622 1 44.9546 8.45789 85.198
14623 2 44.9963 8.7462 84.2413
14624 2 44.0075 8.49663 85.5168
14625 1 6.27836 1.21238 58.4194
14626 2 6.94802 0.555732 58.0724
14627 2 5.85043 0.846854 59.246
14628 1 65.1595 14.3182 21.4857
14629 2 64.7106 13.7298 20.8132
14630 2 65.7703 13.768 22.0551
14631 1 13.8727 7.00586 25.9847
14632 2 14.4538 6.81384 26.7755
14633 2 14.3972 7.51337 25.3011
14634 1 63.7705 18.7002 29.1844
14635 2 64.1573 19.3264 29.8613
14636 2 64.3184 18.7332 28.3484
14637 1 56.6189 25.5318 38.2469
14638 2 55.8657 25.0464 38.6911
14639 2 57.0811 26.1136 38.9161
14640 1 77.5052 26.2394 88.4671
14641 2 76.559 25.9301 88.3722
14642 2 78.1251 25.5082 88.1826
14643 1 50.0269 20.6676 38.9379
14644 2 49.7264 20.2031 39.771
14645 2 50.8926 21.1369 39.1118
14646 1 14.5668 12.8699 59.0111
14647 2 14.2834 13.0516 59.9527
14648 2 15.565 12.8307 58.9652
14649 1 57.2859 21.9558 44.333
14650 2 57.5291 22.9251 44.369
14651 2 56.3653 21.8569 43.9553
14652 1 32.5953 2.62696 46.4684
14653 2 33.3781 2.18927 46.0262
14654 2 32.8977 3.0845 47.3046
14655 1 32.4075 8.23798 61.9567
14656 2 32.8801 7.94207 61.1266
14657 2 31.4642 7.90656 61.9394
14658 1 58.3971 0.105329 23.4158
14659 2 58.9589 0.808077 23.8523
14660 2 57.4924 0.480108 23.2132
14661 1 45.6383 1.51311 57.7375
14662 2 45.5254 1.80001 56.7863
14663 2 45.1449 2.14374 58.3367
14664 1 78.9704 25.4027 56.8747
14665 2 79.4815 25.7994 57.6372
14666 2 78.0221 25.7183 56.9091
14667 1 17.6747 14.1689 23.1709
14668 2 17.3416 14.4318 22.2654
14669 2 16.8971 14.0187 23.7814
14670 1 32.5076 11.2453 57.1267
14671 2 32.8352 12.1655 56.9128
14672 2 32.43 10.7145 56.2828
14673 1 38.6638 3.13412 65.2066
14674 2 37.7845 2.79239 64.8749
14675 2 39.1956 3.48804 64.4372
14676 1 30.8592 7.43154 69.3662
14677 2 30.4249 8.33034 69.4258
14678 2 31.6926 7.49974 68.8178
14679 1 29.8925 14.7014 48.2547
14680 2 30.8082 14.573 48.6356
14681 2 29.7272 15.6763 48.1055
14682 1 46.1774 7.80649 81.1175
14683 2 45.6164 8.29875 81.783
14684 2 46.6584 7.05877 81.5752
14685 1 57.5683 13.2987 30.7399
14686 2 58.249 12.6608 30.3797
14687 2 57.3533 13.0575 31.6863
14688 1 52.3986 2.94077 34.748
14689 2 52.5866 3.65598 35.4212
14690 2 52.1209 3.36088 33.8841
14691 1 17.3927 6.94475 24.1834
14692 2 16.6564 7.60533 24.3298
14693 2 17.0452 6.01932 24.3344
14694 1 40.168 0.809628 64.8193
14695 2 39.6576 0.179048 64.2346
14696 2 39.5417 1.4865 65.206
14697 1 35.6272 24.0721 83.1088
14698 2 34.8047 24.6086 83.298
14699 2 36.2538 24.1375 83.8854
14700 1 6.06341 17.4164 84.5088
14701 2 6.46446 17.6954 85.3813
14702 2 6.16491 16.4279 84.3962
14703 1 32.8326 4.06274 58.6515
14704 2 33.4708 4.22952 57.9
14705 2 32.1706 3.36497 58.3779
14706 1 6.58727 0.978831 16.3467
14707 2 7.17418 0.169325 16.3313
14708 2 7.15485 1.80143 16.381
14709 1 77.4691 6.70983 10.6535
14710 2 77.1818 5.75454 10.5837
14711 2 78.1593 6.79869 11.3716
14712 1 53.6323 3.74234 63.5931
14713 2 54.2323 4.16402 64.2729
14714 2 52.6786 3.93022 63.828
14715 1 14.7063 4.22213 30.9782
14716 2 15.3892 4.51109 30.3072
14717 2 14.8677 3.26734 31.2279
14718 1 15.6241 28.0067 20.4228
14719 2 15.3266 28.0478 21.3766
14720 2 15.6931 28.934 20.0549
14721 1 29.6209 11.0313 86.8583
14722 2 29.9182 10.0882 86.7092
14723 2 28.6436 11.0432 87.0698
14724 1 4.64312 21.9516 14.0908
14725 2 3.76157 22.3604 13.8545
14726 2 4.49741 21.1791 14.7088
14727 1 62.0563 15.9593 15.9844
14728 2 62.0434 14.9686 16.1202
14729 2 62.337 16.1635 15.0466
14730 1 77.8645 12.6318 42.4322
14731 2 78.2729 13.3996 42.9259
14732 2 77.0072 12.9256 42.0094
14733 1 77.0813 3.35959 19.2259
14734 2 77.3546 3.03859 18.3191
14735 2 77.6349 4.15282 19.4795
14736 1 19.1661 22.0081 50.4055
14737 2 19.6254 21.7702 49.5497
14738 2 18.2552 22.3692 50.2056
14739 1 38.6093 9.68369 81.7308
14740 2 37.8919 9.10704 82.1217
14741 2 38.762 10.474 82.3241
14742 1 34.5272 18.5209 40.7306
14743 2 34.6583 19.5038 40.6013
14744 2 34.8122 18.2653 41.6544
14745 1 0.19746 19.2361 33.7405
14746 2 79.2192 19.049 33.6509
14747 2 0.3314 20.1917 34.0029
14748 1 32.1024 28.0192 52.9801
14749 2 32.1774 27.0221 52.9695
14750 2 32.9375 28.4203 52.6037
14751 1 37.1336 13.9729 60.5989
14752 2 36.7723 14.3755 59.7579
14753 2 36.9846 12.9841 60.5859
14754 1 71.6074 23.6849 50.533
14755 2 72.1737 24.4641 50.2647
14756 2 72.0443 23.2006 51.291
14757 1 78.58 18.7839 36.6178
14758 2 78.7385 17.8353 36.3439
14759 2 79.3799 19.1268 37.1103
14760 1 54.1989 25.1264 46.4755
14761 2 54.7824 24.6851 47.1572
14762 2 53.919 24.4536 45.7906
14763 1 31.3166 26.3833 89.059
14764 2 32.1581 26.8835 88.8551
14765 2 31.4733 25.7684 89.8319
14766 1 32.2631 6.48719 53.2365
14767 2 33.0455 7.07628 53.4383
14768 2 32.3429 6.13497 52.304
14769 1 62.2295 19.6751 71.3874
14770 2 62.9267 20.2619 70.9757
14771 2 61.9642 20.0465 72.2772
14772 1 3.81964 2.22485 12.6481
14773 2 3.96543 1.62335 11.8626
14774 2 3.37602 3.06804 12.3444
14775 1 6.31444 18.8185 11.0435
14776 2 5.43755 18.7852 11.523
14777 2 6.17931 19.1964 10.1276
14778 1 64.9068 17.9099 90.1753
14779 2 64.7449 17.9632 89.19
14780 2 64.9927 16.9516 90.4477
14781 1 49.4508 9.76377 36.6005
14782 2 49.5059 8.76529 36.5979
14783 2 50.0273 10.1313 35.8707
14784 1 21.3264 20.5905 39.9836
14785 2 21.4237 21.4914 40.4067
14786 2 21.6694 19.8897 40.6091
14787 1 78.8708 28.3007 26.4793
14788 2 79.3374 27.559 26.9611
14789 2 79.2248 29.1799 26.7982
14790 1 75.1181 15.7514 24.6027
14791 2 74.378 16.2791 24.186
14792 2 75.517 16.2742 25.356
14793 1 42.2788 11.1238 53.8364
14794 2 42.6021 10.4684 54.5189
14795 2 41.6614 10.6635 53.1984
14796 1 78.2148 22.1902 51.4425
14797 2 77.6413 21.875 50.6864
14798 2 79.151 21.8651 51.3088
14799 1 63.0436 11.3173 61.5004
14800 2 63.4351 10.4078 61.6399
14801 2 63.7767 11.9972 61.4858
14802 1 11.6559 14.1108 90.4676
14803 2 12.6303 13.9855 90.6544
14804 2 11.3925 13.5514 89.6817
14805 1 69.4776 20.2656 58.4753
14806 2 69.7769 20.3141 59.4282
14807 2 68.6477 20.8113 58.3584
14808 1 77.5422 18.1917 21.3041
14809 2 77.2318 19.0021 21.8009
14810 2 77.7445 17.4593 21.9543
14811 1 43.06 10.9847 50.0006
14812 2 43.7209 10.3593 50.4156
14813 2 42.3962 10.4616 49.4662
14814 1 11.1546 9.54962 31.4905
14815 2 11.3283 8.98778 30.6817
14816 2 12.0107 9.69243 31.9873
14817 1 76.0866 14.2537 40.7255
14818 2 76.5726 14.4479 39.8734
14819 2 75.1113 14.437 40.6022
14820 1 9.17192 12.1584 66.2861
14821 2 9.71203 12.5497 67.0312
14822 2 8.25656 12.561 66.2909
14823 1 29.5731 19.7185 61.3853
14824 2 29.6769 20.7065 61.2707
14825 2 29.9472 19.2491 60.5855
14826 1 31.4084 23.0293 81.6318
14827 2 31.5224 24.008 81.8027
14828 2 31.8637 22.5095 82.3547
14829 1 15.4266 28.4091 60.764
14830 2 16.0123 27.6075 60.884
14831 2 15.8741 29.2111 61.1597
14832 1 12.0015 17.3657 67.3782
14833 2 11.4977 17.4737 66.5211
14834 2 11.5729 16.6495 67.9288
14835 1 1.46805 1.89574 44.6996
14836 2 2.22472 1.66811 45.3125
14837 2 0.848014 2.53262 45.1578
14838 1 10.5649 10.2503 86.1783
14839 2 10.5568 10.8828 86.9527
14840 2 10.9003 10.7244 85.3642
14841 1 0.993841 11.283 84.0337
14842 2 1.68386 10.7549 84.5286
14843 2 1.24376 11.3345 83.0668
14844 1 4.06047 24.5236 39.4732
14845 2 4.80134 24.385 38.816
14846 2 4.36711 24.2479 40.3842
14847 1 39.2751 27.8642 81.5525
14848 2 40.2562 27.6764 81.5996
14849 2 39.1098 28.8278 81.7624
14850 1 8.32714 1.34539 31.4583
14851 2 8.25397 1.91905 30.6425
14852 2 7.81433 1.76449 32.2076
14853 1 75.0154 26.0118 46.6242
14854 2 75.9374 26.051 47.0096
14855 2 74.4294 25.46 47.2176
14856 1 59.6051 3.24079 27.0038
14857 2 59.7636 2.77767 26.1318
14858 2 58.8238 2.82193 27.4665
14859 1 67.5506 13.3676 70.4121
14860 2 67.6779 13.5766 71.3817
14861 2 68.2222 13.8739 69.8711
14862 1 7.40636 0.305898 36.6803
14863 2 8.23934 0.367141 36.1304
14864 2 6.62207 0.593078 36.1304
14865 1 20.9006 11.2743 24.9787
14866 2 20.081 11.5151 24.4588
14867 2 21.6778 11.1891 24.3552
14868 1 58.4344 4.59704 32.3705
14869 2 57.6713 4.83661 31.7702
14870 2 58.5696 5.32373 33.044
14871 1 5.41861 5.36733 64.0293
14872 2 5.05146 4.48062 64.3103
14873 2 5.96581 5.75218 64.7725
14874 1 58.6917 17.6264 26.2127
14875 2 58.3897 18.5057 25.8446
14876 2 59.6868 17.5588 26.1402
14877 1 67.6839 12.2885 84.6603
14878 2 67.918 13.2606 84.6698
14879 2 66.7755 12.1604 85.0584
14880 1 71.5265 25.9753 67.5339
14881 2 71.2023 26.3508 68.4022
14882 2 71.8977 25.0591 67.6849
14883 1 5.27176 21.4055 75.565
14884 2 5.73478 21.082 76.3902
14885 2 4.29019 21.4799 75.7411
14886 1 58.4122 27.5207 55.2605
14887 2 58.1146 27.1616 56.1451
14888 2 58.8426 26.7894 54.7315
14889 1 60.6442 1.12074 59.2963
14890 2 59.8541 1.09825 58.6838
14891 2 60.412 1.63625 60.1211
14892 1 5.8045 3.79519 41.9257
14893 2 6.63854 3.38252 41.5595
14894 2 5.48247 4.50646 41.3009
14895 1 23.1649 16.7112 35.4863
14896 2 22.9811 17.2469 36.3104
14897 2 24.0177 17.0244 35.0684
14898 1 21.1126 6.2898 54.5212
14899 2 20.1837 6.08783 54.8316
14900 2 21.7099 5.51584 54.7313
14901 1 40.5697 25.4904 60.294
14902 2 41.0956 24.788 59.8144
14903 2 39.7507 25.713 59.765
14904 1 68.0367 3.31641 52.8715
14905 2 68.872 3.26547 52.3241
14906 2 67.8114 2.40705 53.2212
14907 1 25.7119 23.9536 46.763
14908 2 25.8448 23.0457 46.3653
14909 2 26.575 24.4579 46.7382
14910 1 66.6485 10.5827 76.1641
14911 2 66.7486 9.80526 75.5432
14912 2 67.3065 10.4985 76.9124
14913 1 23.4976 2.66848 85.8945
14914 2 23.6282 2.82749 86.8731
14915 2 23.3067 1.69961 85.7368
14916 1 65.8311 2.22017 29.7622
14917 2 65.1746 2.01058 29.0375
14918 2 65.4326 1.98949 30.6498
14919 1 2.95 25.2617 48.6559
14920 2 2.72579 24.3168 48.4177
14921 2 3.45382 25.6848 47.9028
14922 1 70.6872 12.8071 47.6415
14923 2 70.7064 11.9864 48.2126
14924 2 70.6195 12.5422 46.6796
14925 1 73.9434 27.0286 58.135
14926 2 74.3313 27.7795 58.6695
14927 2 73.787 27.3341 57.1957
14928 1 29.485 12.511 59.2659
14929 2 30.3545 12.028 59.1622
14930 2 29.3077 13.0576 58.4475
14931 1 56.3084 22.327 29.2841
14932 2 56.619 22.8734 28.5063
14933 2 55.3398 22.5088 29.4536
14934 1 51.8531 19.9419 64.478
14935 2 52.4648 20.3024 63.7738
14936 2 50.9445 19.7952 64.087
14937 1 74.6586 11.3613 32.6795
14938 2 73.7333 10.9945 32.7759
14939 2 74.9462 11.7718 33.5447
14940 1 31.5582 17.5676 57.2997
14941 2 30.9019 17.7894 56.5785
14942 2 31.5502 18.2899 57.9913
14943 1 13.7073 0.935832 53.9133
14944 2 13.2777 1.25326 54.7587
14945 2 14.0804 1.71833 53.4148
14946 1 46.2625 28.8137 88.6389
14947 2 46.3585 29.7009 89.0902
14948 2 46.1405 28.9512 87.656
14949 1 36.8831 26.2589 85.2175
14950 2 37.1382 25.2927 85.1806
14951 2 36.8654 26.6346 84.2909
14952 1 0.503612 27.661 24.0909
14953 2 0.909931 27.6115 25.0033
14954 2 0.461072 28.6157 23.7964
14955 1 58.0032 7.88828 52.489
14956 2 57.7314 8.72939 52.0214
14957 2 59.0006 7.81701 52.4939
14958 1 25.9523 2.90002 50.9278
14959 2 26.0426 2.39223 50.0711
14960 2 26.3568 2.37043 51.6734
14961 1 20.9492 16.5322 29.2093
14962 2 20.1296 16.5965 28.6399
14963 2 21.7508 16.7903 28.6701
14964 1 15.5771 0.305003 18.9776
14965 2 15.738 29.9618 18.0522
14966 2 15.8831 1.2551 19.0385
14967 1 40.584 14.3803 68.0731
14968 2 39.7215 14.5134 67.5849
14969 2 41.1642 15.1855 67.9502
14970 1 32.1616 3.17532 31.2673
14971 2 33.0872 3.2989 30.9096
14972 2 31.5173 3.70369 30.7144
14973 1 4.58813 16.7533 23.122
14974 2 4.33226 16.8205 24.0863
14975 2 3.76238 16.6861 22.5619
14976 1 5.65982 29.1607 63.8437
14977 2 5.35589 28.659 64.6535
14978 2 4.91232 29.2084 63.1811
14979 1 67.5005 18.8713 60.9789
14980 2 67.4105 19.4436 61.794
14981 2 68.468 18.7732 60.7457
14982 1 20.0444 20.8544 73.9097
14983 2 19.0551 20.7495 73.808
14984 2 20.33 20.4826 74.793
14985 1 21.4105 26.3889 43.7744
14986 2 22.0457 25.8077 43.2657
14987 2 20.6956 25.8225 44.1843
14988 1 11.3194 11.1337 70.0189
14989 2 10.8591 10.5799 70.7127
14990 2 11.9674 10.5638 69.5136
14991 1 4.13848 21.5766 68.0577
14992 2 4.25622 20.776 68.6453
14993 2 4.75643 22.3035 68.3572
14994 1 65.6308 22.6566 63.5619
14995 2 66.31 22.6676 64.2958
14996 2 65.3169 23.5892 63.3842
14997 1 28.62 23.8545 82.9377
14998 2 28.3206 23.6701 83.8738
14999 2 29.5308 24.2669 82.9541
15000 1 57.5154 27.1061 40.0843
15001 2 58.0572 26.7179 40.8298
15002 2 56.5786 27.2602 40.3983
15003 1 3.64213 16.3615 69.8177
15004 2 4.59216 16.2551 69.5242
15005 2 3.53063 15.9744 70.7329
15006 1 16.1594 16.1902 49.9511
15007 2 15.4585 15.5678 50.2994
15008 2 15.7206 16.9724 49.5088
15009 1 45.8399 24.5079 88.1766
15010 2 46.3952 25.2572 88.5372
15011 2 46.1989 23.6363 88.5105
15012 1 49.373 16.6862 80.1442
15013 2 48.4043 16.8977 80.0139
15014 2 49.7578 16.3443 79.2868
15015 1 26.2756 1.59581 62.7575
15016 2 26.0979 1.50627 63.7375
15017 2 25.7334 2.35048 62.3881
15018 1 27.4907 13.6681 64.6032
15019 2 27.1836 13.9263 65.5192
15020 2 27.7978 14.4835 64.1125
15021 1 72.3084 0.594931 67.0884
15022 2 72.1336 1.53967 66.8111
15023 2 71.8429 29.9716 66.4601
15024 1 1.62295 14.8621 45.3085
15025 2 0.802464 14.6377 44.7827
15026 2 1.46516 14.6599 46.275
15027 1 49.8396 25.8213 38.6378
15028 2 49.5106 26.1907 37.7687
15029 2 49.0957 25.3349 39.0961
15030 1 22.6067 1.42683 37.4103
15031 2 22.6827 2.35301 37.0409
15032 2 21.9355 1.41762 38.1515
15033 1 65.208 2.07045 83.4436
15034 2 65.5159 1.13187 83.2878
15035 2 65.8669 2.708 83.0444
15036 1 17.0229 3.38002 66.2614
15037 2 16.7854 4.10439 65.6142
15038 2 17.7217 3.71412 66.8938
15039 1 36.5754 17.1739 49.5754
15040 2 35.8987 16.4853 49.8361
15041 2 36.1075 18.0146 49.3028
15042 1 46.917 17.4178 67.6069
15043 2 46.3844 18.2607 67.6839
15044 2 46.9625 16.9696 68.4997
15045 1 29.268 7.81373 81.3912
15046 2 29.1912 8.76605 81.0959
15047 2 29.2206 7.76929 82.3891
15048 1 26.5565 10.7398 68.6913
15049 2 26.7655 10.2037 67.8734
15050 2 25.6738 10.4514 69.0623
15051 1 65.9995 10.4258 32.3829
15052 2 66.2171 9.91194 33.2127
15053 2 65.7621 9.78905 31.6492
15054 1 44.2451 26.1879 60.2403
15055 2 43.9367 25.4067 60.7831
15056 2 44.8478 25.8685 59.5091
15057 1 22.5721 9.77921 63.9265
15058 2 23.2439 9.7437 64.6664
15059 2 22.9894 9.44601 63.081
15060 1 47.1304 15.0706 70.7428
15061 2 47.5955 15.9419 70.8994
15062 2 46.3134 15.0209 71.3173
15063 1 32.1735 8.43936 83.3658
15064 2 33.1338 8.65136 83.5467
15065 2 31.7353 9.2249 82.9289
15066 1 47.4351 27.0481 62.7185
15067 2 47.74 27.981 62.9104
15068 2 48.0037 26.4006 63.2258
15069 1 41.1968 24.1119 44.0992
15070 2 40.7005 23.8121 43.2844
15071 2 42.073 24.5104 43.828
15072 1 52.696 18.5855 44.2426
15073 2 52.5763 19.3197 43.5743
15074 2 52.3154 18.8702 45.1224
15075 1 51.439 28.0802 91.0362
15076 2 51.9681 28.0633 91.8846
15077 2 52.0138 27.7703 90.2788
15078 1 21.5205 18.6419 55.7784
15079 2 21.625 17.6487 55.727
15080 2 21.1445 18.9826 54.9167
15081 1 56.4121 28.5291 30.3591
15082 2 55.9266 27.8562 30.9172
15083 2 56.1694 29.4507 30.6619
15084 1 63.9812 29.1734 88.4035
15085 2 64.3242 0.00343244 87.9637
15086 2 64.7117 28.7567 88.9445
15087 1 63.8933 24.7542 86.944
15088 2 64.632 24.2281 87.3655
15089 2 64.2225 25.1714 86.0969
15090 1 5.61339 2.95381 30.2463
15091 2 5.94988 2.9643 31.188
15092 2 6.24753 2.43668 29.6715
15093 1 77.2741 5.69836 22.7094
15094 2 77.1135 6.36998 23.4327
15095 2 76.7894 4.85133 22.9274
15096 1 54.1028 14.7744 55.8457
15097 2 54.7848 15.1939 56.4447
15098 2 53.2728 15.3321 55.8436
15099 1 16.2168 3.33223 83.2832
15100 2 16.9586 3.14516 83.9272
15101 2 15.4043 2.81441 83.551
15102 1 76.6852 9.71109 61.9528
15103 2 76.146 8.93192 61.6332
15104 2 76.0729 10.4152 62.3123
15105 1 44.9954 8.69573 78.8088
15106 2 45.3699 8.53077 79.7212
15107 2 44.0432 8.39188 78.7794
15108 1 10.6169 2.49534 15.5854
15109 2 10.7877 1.74817 14.943
15110 2 9.64448 2.51988 15.8172
15111 1 37.9282 5.56655 36.5785
15112 2 37.1889 4.89944 36.4867
15113 2 37.7354 6.17374 37.3493
15114 1 5.21304 29.4459 79.5975
15115 2 6.14656 29.4959 79.2425
15116 2 4.72106 28.7061 79.1387
15117 1 4.77174 15.4497 29.5608
15118 2 5.74395 15.5916 29.747
15119 2 4.26015 15.479 30.4196
15120 1 27.7729 24.2915 89.1479
15121 2 27.3331 23.566 88.6186
15122 2 27.1406 24.6235 89.8479
15123 1 3.97929 1.03344 26.3757
15124 2 3.22911 0.850483 27.0112
15125 2 4.30287 0.171658 25.9851
15126 1 34.5568 14.994 90.6904
15127 2 34.7817 15.7876 91.2558
15128 2 34.7609 15.1981 89.733
15129 1 43.7416 16.4284 86.3335
15130 2 43.0183 15.738 86.3245
15131 2 44.6337 15.9767 86.3235
15132 1 70.0209 13.5061 80.4262
15133 2 70.1617 13.7134 81.3943
15134 2 69.7382 12.5521 80.3274
15135 1 58.9202 23.8392 50.2869
15136 2 59.8407 24.152 50.0528
15137 2 58.6502 23.1035 49.6658
15138 1 11.7316 24.8481 63.9511
15139 2 12.6508 24.514 63.7428
15140 2 11.7728 25.8231 64.1693
15141 1 19.6312 2.64789 59.5082
15142 2 19.9591 3.16458 58.7173
15143 2 20.3774 2.53273 60.1639
15144 1 65.7388 14.8056 55.245
15145 2 65.1488 14.0979 54.8565
15146 2 65.1895 15.4291 55.8014
15147 1 6.15535 20.4547 78.3346
15148 2 5.3741 20.9304 78.7388
15149 2 5.83738 19.6316 77.864
15150 1 13.3561 1.83836 12.9396
15151 2 13.0325 2.60415 12.3838
15152 2 14.1391 2.13194 13.4879
15153 1 79.8084 2.41499 84.3806
15154 2 0.217213 2.60221 83.4874
15155 2 0.500786 2.02776 84.9894
15156 1 18.8956 7.06459 81.5603
15157 2 18.6189 6.11757 81.7234
15158 2 19.7642 7.07748 81.065
15159 1 9.9948 6.74167 79.7544
15160 2 9.45076 7.58045 79.7328
15161 2 10.6048 6.71953 78.9623
15162 1 11.7499 2.25046 90.4149
15163 2 12.1503 1.33901 90.3202
15164 2 10.8688 2.27816 89.9429
15165 1 6.42599 16.2771 69.4213
15166 2 6.94407 15.9055 70.1916
15167 2 6.78097 15.8977 68.5669
15168 1 11.7669 26.4399 27.954
15169 2 11.7072 26.304 28.9429
15170 2 10.8507 26.3961 27.5557
15171 1 72.1765 6.41454 64.2495
15172 2 72.7314 5.58589 64.3231
15173 2 71.322 6.28931 64.7536
15174 1 62.8778 17.9201 46.3499
15175 2 63.178 18.1968 47.2627
15176 2 62.2776 17.1237 46.4235
15177 1 39.1741 24.7802 55.703
15178 2 38.312 24.9048 56.1941
15179 2 39.542 23.8716 55.9007
15180 1 38.3407 23.9959 51.6411
15181 2 39.3195 24.1573 51.5145
15182 2 38.0264 23.3169 50.9776
15183 1 50.4585 18.5282 37.0217
15184 2 50.1972 19.0059 37.8605
15185 2 50.5484 17.5501 37.2094
15186 1 26.993 7.6522 45.71
15187 2 27.234 6.87085 46.2857
15188 2 27.4267 8.47805 46.0704
15189 1 13.6132 11.6737 86.9276
15190 2 12.8121 11.8378 87.5032
15191 2 13.423 10.9199 86.2986
15192 1 4.72764 16.4207 82.2011
15193 2 5.08156 16.7164 83.0884
15194 2 3.74358 16.5937 82.1603
15195 1 6.19552 25.1592 75.2184
15196 2 6.75861 24.3351 75.1567
15197 2 5.23328 24.9152 75.0978
15198 1 46.946 1.30182 89.255
15199 2 46.8207 1.89751 90.0483
15200 2 47.9228 1.15311 89.1008
15201 1 43.2548 5.92789 38.3651
15202 2 43.9595 6.4436 37.8779
15203 2 42.6251 6.56373 38.8115
15204 1 41.7776 19.5238 64.3888
15205 2 42.4008 18.8785 63.947
15206 2 42.228 20.4118 64.4817
15207 1 7.47211 11.3702 83.4073
15208 2 8.22622 10.7448 83.2069
15209 2 7.80942 12.1332 83.9588
15210 1 34.2146 7.48777 48.611
15211 2 34.1837 8.21223 47.9224
15212 2 33.3037 7.36244 49.0041
15213 1 66.6185 17.2768 23.1656
15214 2 65.9355 17.1885 23.8905
15215 2 67.3366 16.5938 23.2992
15216 1 52.5349 9.3741 87.9965
15217 2 52.6103 8.65675 88.6891
15218 2 53.4447 9.73223 87.7871
15219 1 53.9435 8.53095 43.572
15220 2 53.8416 7.68348 43.051
15221 2 53.2581 9.19299 43.269
15222 1 59.1373 23.0165 53.1931
15223 2 59.8684 22.4599 53.5877
15224 2 59.1487 23.9256 53.6095
15225 1 46.9631 27.0714 78.0405
15226 2 47.2509 26.1156 78.1013
15227 2 47.3743 27.5916 78.789
15228 1 18.361 22.472 58.8897
15229 2 17.8355 23.189 58.4317
15230 2 19.2842 22.4392 58.5068
15231 1 41.1277 6.77967 60.6742
15232 2 41.2133 6.41034 59.7488
15233 2 40.3182 7.36453 60.726
15234 1 66.9124 5.76695 90.5672
15235 2 67.8812 6.00184 90.6458
15236 2 66.3845 6.59233 90.367
15237 1 65.8677 26.8753 58.2539
15238 2 66.4415 27.6286 58.5753
15239 2 65.0355 26.8307 58.8065
15240 1 51.3487 9.75528 54.4413
15241 2 50.8908 9.32262 55.2179
15242 2 52.32 9.87108 54.6493
15243 1 43.6001 15.8703 90.7872
15244 2 43.0643 15.0296 90.8653
15245 2 44.039 16.0685 91.6636
15246 1 52.1456 7.01127 67.4126
15247 2 51.8613 7.35264 68.3085
15248 2 52.5524 7.75728 66.8854
15249 1 3.3863 10.586 22.6546
15250 2 3.74283 10.7009 21.7274
15251 2 2.39 10.671 22.6415
15252 1 64.8726 6.68426 52.7743
15253 2 64.5795 7.43169 53.3705
15254 2 64.0966 6.08094 52.5903
15255 1 61.5577 12.8774 79.2837
15256 2 60.8144 12.4754 79.8184
15257 2 61.933 13.6643 79.7736
15258 1 67.7992 3.08616 19.3839
15259 2 67.352 3.57328 18.6338
15260 2 67.3497 2.20386 19.5233
15261 1 21.5975 14.6822 36.0233
15262 2 22.2706 15.4082 35.882
15263 2 20.7168 15.0874 36.2686
15264 1 53.262 14.6078 36.9343
15265 2 53.5359 13.6616 36.7622
15266 2 53.3726 15.1442 36.0977
15267 1 26.2563 0.222199 49.6008
15268 2 27.0922 29.8161 49.9702
15269 2 25.9515 29.6945 48.8079
15270 1 41.949 23.1997 59.5355
15271 2 42.4346 23.2504 60.4082
15272 2 42.5785 23.4206 58.7905
15273 1 19.3021 24.5802 44.7631
15274 2 19.7187 24.4462 45.6622
15275 2 18.3878 24.1752 44.7556
15276 1 1.40053 26.1604 32.0525
15277 2 2.13073 26.2685 32.7271
15278 2 1.53345 26.8163 31.3095
15279 1 23.1398 13.5544 79.5251
15280 2 24.1135 13.6463 79.7337
15281 2 23.0012 12.7706 78.9197
15282 1 18.8579 16.6719 69.8553
15283 2 19.8512 16.6152 69.7538
15284 2 18.635 17.0048 70.7715
15285 1 19.186 8.18636 72.8766
15286 2 19.4053 7.91909 73.8149
15287 2 19.6265 7.55478 72.2385
15288 1 10.5928 20.5093 18.7872
15289 2 10.6388 19.9464 17.962
15290 2 11.0129 20.0176 19.5499
15291 1 69.9018 16.9437 65.8454
15292 2 68.9729 17.1254 66.1682
15293 2 70.5486 17.5118 66.3542
15294 1 19.2549 11.2508 34.8497
15295 2 18.3026 11.2613 35.1547
15296 2 19.86 11.2633 35.6457
15297 1 43.0806 3.5134 36.1344
15298 2 43.6014 2.66565 36.0343
15299 2 43.6793 4.29507 35.9597
15300 1 39.5613 24.3771 41.9456
15301 2 38.6254 24.2713 41.6095
15302 2 39.75 25.3458 42.1068
15303 1 47.1335 21.6804 76.4768
15304 2 46.4493 21.2565 77.0703
15305 2 47.5579 22.4498 76.9541
15306 1 65.5897 28.0234 75.4123
15307 2 65.3264 27.4971 76.2208
15308 2 66.1799 28.7827 75.6866
15309 1 8.36683 11.0334 32.4901
15310 2 8.95976 10.8266 33.2684
15311 2 7.52106 10.5052 32.5659
15312 1 53.7284 28.2343 75.2778
15313 2 54.3087 27.5582 75.7318
15314 2 52.7726 28.0713 75.5227
15315 1 22.7119 11.2061 32.7512
15316 2 21.8884 10.7214 33.0462
15317 2 22.7529 12.098 33.2015
15318 1 43.5922 4.91062 42.3078
15319 2 43.7477 5.0872 43.2797
15320 2 42.8608 4.23653 42.2044
15321 1 79.1861 15.1932 53.4906
15322 2 78.7578 14.2899 53.4657
15323 2 78.624 15.8137 54.0374
15324 1 68.2468 16.7709 38.2178
15325 2 68.2311 15.7852 38.0503
15326 2 68.7987 16.9624 39.0294
15327 1 40.7541 7.43397 54.1116
15328 2 40.6327 6.44148 54.0965
15329 2 41.3566 7.70753 53.3619
15330 1 28.6795 24.1491 66.171
15331 2 28.0817 24.6075 65.5134
15332 2 29.5406 24.652 66.2455
15333 1 12.0708 15.8465 11.1464
15334 2 13.0589 15.7528 11.2684
15335 2 11.7007 15.0008 10.762
15336 1 54.0313 7.97956 56.3176
15337 2 53.798 8.87979 55.95
15338 2 54.8954 8.0374 56.8176
15339 1 66.577 8.45194 34.4123
15340 2 66.733 7.64257 33.8461
15341 2 66.5619 8.18646 35.3763
15342 1 27.5827 26.6391 69.3392
15343 2 27.1932 26.8171 70.2429
15344 2 28.5786 26.5839 69.4105
15345 1 0.617237 21.8006 58.6975
15346 2 1.61385 21.7229 58.7244
15347 2 0.208261 20.9048 58.8713
15348 1 45.5618 21.6367 67.5874
15349 2 45.3071 22.3789 66.9675
15350 2 46.0496 22.0128 68.3751
15351 1 39.3265 11.5692 35.6371
15352 2 39.8355 10.7263 35.8115
15353 2 38.3629 11.43 35.8654
15354 1 43.3798 10.6461 70.5714
15355 2 43.8221 11.4064 70.0956
15356 2 42.4357 10.5581 70.2538
15357 1 74.0691 19.955 55.5178
15358 2 73.5183 19.4051 56.1457
15359 2 74.1207 19.4964 54.6307
15360 1 69.6535 26.1407 16.2375
15361 2 69.6644 25.4047 15.5606
15362 2 69.6692 25.7479 17.1571
15363 1 46.8141 24.2526 65.5966
15364 2 46.2124 24.6319 64.8937
15365 2 46.4141 24.4119 66.4992
15366 1 9.67815 4.86426 67.4796
15367 2 9.62601 3.91504 67.7899
15368 2 10.2559 5.38823 68.1055
15369 1 3.91901 19.3526 81.4209
15370 2 3.56536 18.5978 80.8684
15371 2 4.3398 20.0347 80.823
15372 1 38.8351 10.0026 90.4083
15373 2 37.8992 9.93776 90.0623
15374 2 39.4414 9.45165 89.8348
15375 1 38.218 26.8554 59.1925
15376 2 38.3801 27.8172 58.9722
15377 2 37.8656 26.3832 58.3845
15378 1 17.364 0.260397 39.0795
15379 2 17.817 29.9655 39.9208
15380 2 16.5469 29.704 38.9283
15381 1 9.19375 20.508 12.0582
15382 2 9.93014 20.9257 12.5905
15383 2 9.56057 19.7494 11.5197
15384 1 35.2444 17.4142 46.933
15385 2 35.3243 18.3091 47.3721
15386 2 36.1292 17.1515 46.5482
15387 1 33.8736 28.5809 68.1305
15388 2 34.3228 27.7826 68.5317
15389 2 33.6449 29.233 68.8532
15390 1 62.0428 10.896 82.8105
15391 2 61.8849 10.0519 82.2981
15392 2 62.9187 11.2932 82.5367
15393 1 17.9993 5.32762 47.4559
15394 2 18.7689 5.55357 48.0532
15395 2 18.0548 4.36511 47.1905
15396 1 75.5085 22.2859 24.8929
15397 2 75.2548 21.3312 24.7375
15398 2 75.065 22.6173 25.7256
15399 1 70.0852 17.6703 81.2893
15400 2 69.893 18.586 80.9364
15401 2 71.0712 17.5051 81.2679
15402 1 41.7625 14.5185 86.3312
15403 2 41.1982 14.6593 85.5178
15404 2 42.2758 13.6654 86.2373
15405 1 74.4362 18.913 60.4533
15406 2 73.7837 18.6316 61.1569
15407 2 74.4432 19.9106 60.385
15408 1 33.8626 25.9809 86.0685
15409 2 34.8155 26.274 86.1452
15410 2 33.6977 25.6199 85.1506
15411 1 23.2233 8.82448 81.9645
15412 2 23.4132 8.28175 82.7826
15413 2 22.3007 9.20555 82.024
15414 1 69.6421 13.7176 42.9308
15415 2 70.597 13.9654 42.7671
15416 2 69.294 13.1985 42.1501
15417 1 50.6338 10.0039 63.3001
15418 2 51.4493 10.4362 63.6848
15419 2 50.8892 9.14346 62.8592
15420 1 12.7511 16.8808 16.9955
15421 2 12.1392 17.6712 16.9654
15422 2 12.8206 16.5488 17.9362
15423 1 37.036 0.661858 45.0619
15424 2 36.1036 0.442575 44.7747
15425 2 37.6851 0.117266 44.5307
15426 1 12.8839 11.2237 78.1373
15427 2 12.935 10.4863 78.8107
15428 2 12.8427 12.1042 78.6097
15429 1 25.5156 20.6961 86.6394
15430 2 25.2131 20.2338 85.8058
15431 2 24.7864 21.2941 86.9721
15432 1 10.7765 13.7386 35.492
15433 2 11.265 12.9367 35.1481
15434 2 9.89495 13.8169 35.0265
15435 1 51.6741 21.8847 47.499
15436 2 50.8897 21.9986 48.1087
15437 2 51.6048 22.5342 46.7418
15438 1 0.302378 7.87155 28.1483
15439 2 79.9841 8.55064 28.8097
15440 2 79.8545 6.99572 28.328
15441 1 59.8392 4.54042 89.9202
15442 2 59.7606 3.55775 89.7523
15443 2 58.9698 4.88931 90.2701
15444 1 68.2076 8.61281 61.3024
15445 2 67.381 8.69379 60.7455
15446 2 67.9652 8.27411 62.2115
15447 1 56.0394 12.0904 61.5776
15448 2 55.8598 13.0741 61.5885
15449 2 55.7896 11.6961 62.462
15450 1 21.5727 1.44137 57.4119
15451 2 22.3153 0.877547 57.7733
15452 2 20.7562 0.877469 57.2876
15453 1 20.5036 10.2304 74.7302
15454 2 20.1401 9.30119 74.7965
15455 2 20.1312 10.7878 75.4723
15456 1 21.833 17.4191 23.2812
15457 2 22.4372 18.0109 22.7478
15458 2 21.7254 17.7952 24.2015
15459 1 15.7865 12.9048 25.0204
15460 2 14.8547 12.6379 24.7743
15461 2 15.7956 13.8652 25.2989
15462 1 41.1274 10.8993 38.3215
15463 2 41.1196 11.7501 37.7959
15464 2 40.9597 10.1273 37.7084
15465 1 28.7255 7.58444 77.1471
15466 2 29.5993 7.50704 77.6271
15467 2 28.6519 6.85346 76.4687
15468 1 47.4946 16.2942 52.1483
15469 2 47.259 17.2555 52.006
15470 2 47.4031 15.7972 51.2854
15471 1 22.352 26.9374 83.3393
15472 2 23.0744 27.1039 84.0105
15473 2 22.7127 27.0839 82.4182
15474 1 52.326 18.17 32.1721
15475 2 52.0084 19.0703 31.8744
15476 2 51.5648 17.6664 32.5807
15477 1 42.0074 14.539 33.4958
15478 2 41.1431 14.2587 33.9135
15479 2 42.5233 13.7277 33.2208
15480 1 27.9925 12.3263 45.4969
15481 2 28.1282 11.5856 46.1549
15482 2 28.814 12.8954 45.4616
15483 1 73.5926 20.1751 23.373
15484 2 72.8163 19.5796 23.5796
15485 2 74.4074 19.8357 23.843
15486 1 70.901 13.9226 54.7331
15487 2 71.0509 13.413 55.5803
15488 2 71.7469 14.3856 54.4684
15489 1 73.7231 22.2902 49.3738
15490 2 73.7285 23.2858 49.2806
15491 2 74.6459 21.9707 49.5894
15492 1 62.918 28.6652 64.7562
15493 2 62.5955 27.9116 64.1834
15494 2 63.8685 28.5004 65.0198
15495 1 15.7924 28.991 16.5451
15496 2 16.6428 29.5121 16.4728
15497 2 15.9675 28.0337 16.3148
15498 1 51.4922 20.5083 76.3481
15499 2 51.3809 21.0943 75.5455
15500 2 50.6239 20.4493 76.8407
15501 1 34.5938 12.8029 77.8977
15502 2 34.6232 12.6755 78.8891
15503 2 35.5189 12.9668 77.5551
15504 1 77.2662 28.1764 33.6887
15505 2 76.3038 28.1766 33.9601
15506 2 77.7345 28.9473 34.1204
15507 1 26.6356 2.64358 37.9895
15508 2 26.2967 1.70523 38.0579
15509 2 26.0941 3.23768 38.5844
15510 1 21.843 28.941 39.2336
15511 2 21.4536 29.8621 39.2364
15512 2 22.4694 28.8463 38.4598
15513 1 7.32632 3.00516 81.7639
15514 2 7.74024 2.10802 81.6096
15515 2 6.66326 2.94245 82.5098
15516 1 7.57367 8.97018 62.3893
15517 2 8.19995 8.61222 63.0818
15518 2 8.09672 9.43786 61.6768
15519 1 40.8718 21.2821 71.9009
15520 2 40.7437 20.3149 72.1203
15521 2 41.0162 21.7991 72.7446
15522 1 24.7154 8.00573 58.7851
15523 2 25.4465 7.32352 58.7793
15524 2 24.6696 8.45292 57.8919
15525 1 69.6468 27.9842 66.5622
15526 2 70.0503 28.4925 65.8014
15527 2 70.2635 27.2454 66.8338
15528 1 61.7641 17.2045 39.3586
15529 2 61.5331 17.4248 40.3063
15530 2 61.0998 17.6322 38.7456
15531 1 30.3934 10.4315 62.204
15532 2 31.2796 10.2006 61.8023
15533 2 29.7334 9.71071 61.9921
15534 1 30.863 2.88857 68.2285
15535 2 31.3105 3.56462 67.6431
15536 2 31.3035 2.88133 69.1262
15537 1 25.3292 23.435 50.0795
15538 2 25.5218 23.1141 51.0068
15539 2 25.3137 22.6554 49.4535
15540 1 21.4452 11.6644 62.2206
15541 2 22.0063 11.36 62.9903
15542 2 21.6882 12.6046 61.9822
15543 1 16.0185 9.24107 87.1901
15544 2 16.2766 10.147 86.8544
15545 2 15.0689 9.25957 87.5031
15546 1 72.7764 21.5371 58.8197
15547 2 73.6063 21.7442 59.3377
15548 2 73.0256 21.1976 57.9127
15549 1 70.2834 10.9182 36.4565
15550 2 70.0781 10.7524 35.492
15551 2 69.5697 10.5083 37.0245
15552 1 68.0935 14.8222 60.2354
15553 2 68.9791 14.5027 60.5723
15554 2 67.6816 15.435 60.9098
15555 1 73.4709 11.6414 44.6171
15556 2 74.3118 11.5512 45.1507
15557 2 73.6475 11.3758 43.6693
15558 1 48.4076 28.1031 72.0211
15559 2 49.1747 28.2492 72.6457
15560 2 48.4174 27.1573 71.6966
15561 1 45.9836 21.0436 33.6054
15562 2 46.708 21.7289 33.6807
15563 2 45.6972 20.9649 32.6505
15564 1 29.5429 6.86635 31.6616
15565 2 28.746 6.80269 31.0609
15566 2 29.3201 7.43758 32.4516
15567 1 64.832 19.6398 73.3891
15568 2 64.6813 18.6635 73.234
15569 2 65.5327 19.7614 74.0921
15570 1 48.8965 22.3846 86.0409
15571 2 48.7986 22.1262 87.0019
15572 2 49.8269 22.7123 85.877
15573 1 23.186 16.6304 26.886
15574 2 23.9632 17.2446 27.023
15575 2 22.4325 17.1352 26.4647
15576 1 6.80975 26.6616 17.3541
15577 2 7.37052 26.0197 17.877
15578 2 7.40009 27.3391 16.9153
15579 1 67.1318 8.4104 74.4949
15580 2 66.859 7.51471 74.8461
15581 2 67.1471 8.38598 73.4954
15582 1 57.8405 15.1326 44.4312
15583 2 58.1719 15.8996 43.8818
15584 2 56.8933 14.9295 44.1831
15585 1 5.41999 6.01491 53.0237
15586 2 5.70896 6.25515 52.097
15587 2 4.93697 5.13948 53.0058
15588 1 22.1072 9.33202 49.9741
15589 2 21.8085 8.63223 50.623
15590 2 21.7193 9.13841 49.073
15591 1 25.3665 8.7964 30.2202
15592 2 26.1302 8.15853 30.3197
15593 2 24.6967 8.62991 30.9439
15594 1 18.5633 13.5605 42.6999
15595 2 18.3285 14.3755 43.2296
15596 2 18.6744 13.8089 41.7377
15597 1 36.1896 23.2779 68.9804
15598 2 36.8244 22.925 68.2931
15599 2 35.4836 23.826 68.5319
15600 1 38.1599 16.7044 90.784
15601 2 38.4136 15.7442 90.6674
15602 2 38.9855 17.2542 90.9108
15603 1 30.4064 6.81194 57.4028
15604 2 29.9371 5.96545 57.6542
15605 2 30.2023 7.51973 58.0791
15606 1 70.0432 18.868 49.8764
15607 2 70.9353 18.4191 49.8235
15608 2 69.4748 18.4011 50.5538
15609 1 48.5562 26.8907 48.2779
15610 2 48.4495 26.4185 49.1529
15611 2 49.4369 26.6461 47.8724
15612 1 14.4057 16.7264 44.1609
15613 2 14.1569 17.2107 44.9998
15614 2 15.3809 16.5059 44.1801
15615 1 71.2194 18.2878 78.2037
15616 2 71.3445 19.2778 78.2698
15617 2 71.8144 17.8318 78.8656
15618 1 50.4512 26.7952 41.2703
15619 2 50.1913 26.8813 40.3085
15620 2 51.2088 27.4173 41.4678
15621 1 21.6286 18.0408 76.1521
15622 2 21.9575 17.4378 76.8789
15623 2 20.6713 18.2753 76.3212
15624 1 5.36522 28.9222 86.6041
15625 2 5.4658 27.9331 86.4971
15626 2 4.636 29.114 87.261
15627 1 45.3079 27.8254 67.684
15628 2 46.1326 27.6441 68.2197
15629 2 45.0218 26.9878 67.2186
15630 1 48.0084 27.7771 75.5823
15631 2 47.683 27.8283 76.5265
15632 2 47.2372 27.5903 74.9737
15633 1 14.2305 8.63757 15.3362
15634 2 14.0302 8.58569 16.3146
15635 2 14.1583 7.7256 14.9324
15636 1 46.434 9.18628 67.7691
15637 2 46.1645 8.569 68.5082
15638 2 46.2382 10.1302 68.035
15639 1 18.0314 27.1599 13.1637
15640 2 17.1231 26.7463 13.2259
15641 2 17.9496 28.0926 12.8124
15642 1 10.9871 28.4928 48.3764
15643 2 11.2036 29.382 48.7794
15644 2 10.0074 28.4446 48.1821
15645 1 22.2376 19.332 30.217
15646 2 21.8244 19.6255 31.079
15647 2 21.677 18.6127 29.8065
15648 1 51.8716 3.66414 26.795
15649 2 51.0603 4.11178 26.4188
15650 2 52.1932 4.17329 27.5933
15651 1 6.23524 15.8924 26.7205
15652 2 6.4834 15.8175 27.6863
15653 2 5.7358 16.7456 26.5699
15654 1 61.4469 6.6179 42.605
15655 2 60.7515 5.98078 42.2726
15656 2 61.2365 6.87922 43.5471
15657 1 55.9824 0.414122 89.2981
15658 2 55.1589 0.968154 89.1765
15659 2 55.8629 29.8073 90.0839
15660 1 1.20539 16.928 81.8497
15661 2 1.26037 16.6117 82.7968
15662 2 0.296055 16.7292 81.4842
15663 1 58.0022 4.99661 74.5767
15664 2 58.5708 5.75675 74.8911
15665 2 58.5561 4.16572 74.5236
15666 1 61.8394 15.3122 25.9925
15667 2 61.5651 16.2739 25.9918
15668 2 61.1484 14.7689 26.4693
15669 1 37.7451 20.8881 63.2788
15670 2 36.7624 20.9536 63.1055
15671 2 38.1257 21.806 63.3905
15672 1 22.4055 28.2938 32.8212
15673 2 22.188 28.4816 31.8634
15674 2 22.047 29.0302 33.395
15675 1 64.1403 5.00477 65.2855
15676 2 63.1887 5.1104 65.574
15677 2 64.5522 5.90711 65.1586
15678 1 72.6845 10.3353 24.8618
15679 2 72.7342 9.48892 25.392
15680 2 71.9538 10.9136 25.2246
15681 1 24.796 17.7829 39.7672
15682 2 24.2836 17.9499 38.9248
15683 2 24.7942 16.8037 39.9698
15684 1 73.7158 18.0781 57.8691
15685 2 74.0898 18.4696 58.7099
15686 2 74.4611 17.7132 57.3111
15687 1 78.343 20.1111 44.1112
15688 2 78.5843 21.0797 44.1717
15689 2 77.3853 19.9893 44.372
15690 1 72.2899 13.7079 42.2557
15691 2 72.8842 13.0194 42.6713
15692 2 72.8455 14.3608 41.7408
15693 1 10.704 17.5045 34.582
15694 2 11.4978 18.089 34.4141
15695 2 9.96051 17.7674 33.9671
15696 1 57.1448 5.06398 50.6549
15697 2 57.6237 5.77457 50.1395
15698 2 57.6672 4.21236 50.613
15699 1 11.3524 9.11967 67.4257
15700 2 11.42 8.49098 66.651
15701 2 12.27 9.34421 67.7538
15702 1 21.4669 13.295 66.615
15703 2 21.6345 13.5955 65.6761
15704 2 20.5018 13.4286 66.8405
15705 1 22.6244 18.856 42.5853
15706 2 22.3798 18.6094 43.523
15707 2 23.5213 18.4737 42.3632
15708 1 77.8721 24.9197 51.3773
15709 2 77.427 25.4359 50.6456
15710 2 77.7987 23.9408 51.1869
15711 1 67.2372 5.59015 81.3225
15712 2 66.7912 4.99275 80.656
15713 2 66.9627 5.32255 82.2461
15714 1 18.5617 11.6011 23.6756
15715 2 17.9692 10.9221 23.2421
15716 2 18.1836 12.5153 23.5295
15717 1 71.8902 27.1641 87.4203
15718 2 71.3234 27.9227 87.7415
15719 2 71.6995 26.3499 87.9686
15720 1 47.1556 15.5828 84.0735
15721 2 47.2878 16.5736 84.0452
15722 2 46.4957 15.3548 84.7894
15723 1 72.2523 8.2138 85.3319
15724 2 71.6864 8.78972 85.9219
15725 2 72.9385 7.742 85.8855
15726 1 15.2937 28.1786 46.3058
15727 2 14.7198 27.6273 45.7002
15728 2 15.5575 29.0222 45.8381
15729 1 65.0939 11.0391 85.735
15730 2 64.4601 11.4544 86.3876
15731 2 64.9372 10.0521 85.7002
15732 1 54.0532 21.0154 57.8642
15733 2 53.5864 20.216 57.486
15734 2 53.4181 21.7871 57.8982
15735 1 32.117 19.2045 45.7051
15736 2 31.9217 20.1211 46.0539
15737 2 31.5247 18.5408 46.1619
15738 1 60.2002 23.1413 36.7178
15739 2 60.159 22.4089 37.3975
15740 2 59.272 23.42 36.4715
15741 1 32.6695 22.962 79.2804
15742 2 32.1274 22.785 80.1019
15743 2 32.6356 23.9373 79.0624
15744 1 39.8289 22.3203 69.6937
15745 2 40.4165 22.1579 70.4863
15746 2 39.7604 23.3037 69.5254
15747 1 60.3335 2.31552 45.1811
15748 2 59.6528 1.63089 45.4418
15749 2 61.2012 1.86213 44.9774
15750 1 61.7684 12.8827 76.245
15751 2 62.3873 13.3233 75.5947
15752 2 62.2736 12.6381 77.0726
15753 1 32.4439 3.3423 61.179
15754 2 32.6747 3.66995 60.2628
15755 2 32.6863 2.37536 61.258
15756 1 34.3794 2.23354 68.4915
15757 2 34.0284 2.00626 69.3999
15758 2 34.2225 1.4647 67.8716
15759 1 42.9042 2.4235 55.4957
15760 2 43.8904 2.42777 55.3306
15761 2 42.6634 3.18596 56.0962
15762 1 19.862 29.9597 61.2632
15763 2 18.9104 29.8901 61.5625
15764 2 19.8896 0.220081 60.2981
15765 1 23.4089 8.59364 56.0767
15766 2 22.4879 8.98108 56.1172
15767 2 23.7165 8.56409 55.1257
15768 1 68.5944 12.5215 40.1748
15769 2 68.5782 13.5214 40.1675
15770 2 68.2253 12.1759 39.312
15771 1 44.4698 24.2444 35.294
15772 2 44.0215 24.2601 34.4003
15773 2 43.9644 23.6402 35.91
15774 1 1.06408 1.60863 13.6068
15775 2 2.03326 1.58599 13.3615
15776 2 0.894903 2.37501 14.2265
15777 1 10.8967 2.28757 21.492
15778 2 11.5436 1.82373 22.0973
15779 2 11.3929 2.91423 20.8911
15780 1 69.5495 4.20271 40.312
15781 2 70.4641 4.57534 40.4692
15782 2 69.4828 3.29618 40.7288
15783 1 12.3676 19.5641 34.9435
15784 2 13.0474 18.8316 34.9052
15785 2 12.8104 20.4154 35.2249
15786 1 10.608 25.3698 41.7168
15787 2 10.5234 25.244 40.7283
15788 2 9.72569 25.652 42.0936
15789 1 47.2537 29.3447 58.319
15790 2 47.8745 28.9596 57.6362
15791 2 46.7176 0.0803163 57.9049
15792 1 12.2362 14.15 28.7884
15793 2 13.1441 14.5089 28.5721
15794 2 11.7354 14.819 29.3377
15795 1 69.1179 25.3962 82.7701
15796 2 69.5899 26.2756 82.8327
15797 2 69.7776 24.6545 82.8911
15798 1 4.63665 7.91167 63.4598
15799 2 4.98173 7.00397 63.6985
15800 2 4.25877 7.89177 62.5341
15801 1 21.7171 16.8806 83.1467
15802 2 21.6731 17.8781 83.0921
15803 2 22.3879 16.6139 83.8387
15804 1 67.0468 10.8487 50.086
15805 2 66.5366 9.98897 50.0619
15806 2 66.4118 11.6158 49.9949
15807 1 16.2047 10.1938 26.216
15808 2 15.8072 9.69228 25.4476
15809 2 16.3629 11.1441 25.9477
15810 1 31.0877 6.82771 78.3343
15811 2 30.6118 6.09159 77.853
15812 2 31.1923 6.5827 79.2981
15813 1 12.9779 3.77818 19.7959
15814 2 13.6531 3.293 20.3515
15815 2 13.3939 4.05048 18.9282
15816 1 23.507 11.0285 53.1597
15817 2 24.1859 11.7497 53.0214
15818 2 23.9699 10.1455 53.2374
15819 1 58.2292 23.0692 31.2039
15820 2 57.5205 22.6079 30.6701
15821 2 57.9977 24.0373 31.2991
15822 1 48.8552 6.74298 90.8139
15823 2 47.8943 6.46599 90.8174
15824 2 49.1673 6.85174 89.8701
15825 1 76.0164 17.1841 26.5986
15826 2 76.9879 17.4183 26.5613
15827 2 75.5329 17.8556 27.1601
15828 1 76.3481 19.6163 81.9236
15829 2 76.9443 19.3748 81.1579
15830 2 76.4623 18.9481 82.6587
15831 1 16.2708 10.8694 78.8216
15832 2 15.5844 11.4892 79.202
15833 2 17.0215 11.4025 78.4314
15834 1 28.8835 4.08398 32.5818
15835 2 29.122 4.21825 31.62
15836 2 28.8504 4.97021 33.0439
15837 1 31.6683 0.733352 90.5239
15838 2 30.9543 1.23757 90.0382
15839 2 31.2964 29.8672 90.8578
15840 1 63.3282 11.1974 72.8625
15841 2 63.456 11.8269 73.6289
15842 2 63.9448 10.4169 72.9659
15843 1 70.1275 5.56626 83.1695
15844 2 69.9587 4.66694 82.7661
15845 2 70.2397 5.4721 84.1587
15846 1 7.67866 20.8441 86.1504
15847 2 6.77121 21.2354 85.9972
15848 2 7.58536 19.9031 86.4756
15849 1 13.8185 24.6688 11.516
15850 2 13.1853 24.1703 12.1081
15851 2 14.4757 24.0291 11.1173
15852 1 55.7872 19.9887 42.6293
15853 2 55.8215 19.1778 43.2135
15854 2 55.0779 19.8693 41.9346
15855 1 74.6446 11.5677 76.595
15856 2 74.3556 10.9272 77.3065
15857 2 74.8319 12.4599 77.0059
15858 1 78.8567 9.83557 45.2167
15859 2 79.6136 9.62144 45.8342
15860 2 78.1443 9.13987 45.309
15861 1 39.653 22.2555 38.7021
15862 2 40.5698 21.8856 38.5513
15863 2 39.5318 23.0809 38.1506
15864 1 24.101 18.3066 56.6965
15865 2 23.1872 18.626 56.4457
15866 2 24.13 17.3082 56.6485
15867 1 1.78397 12.4676 90.3481
15868 2 1.52042 13.3239 90.7922
15869 2 2.75042 12.2831 90.5268
15870 1 71.0661 29.6355 64.716
15871 2 71.7296 29.0464 64.2549
15872 2 70.4929 0.0895797 64.0339
15873 1 24.9338 4.35719 80.5443
15874 2 25.6848 3.71798 80.379
15875 2 25.304 5.27228 80.7042
15876 1 26.5519 6.95407 74.3717
15877 2 27.3426 6.52422 74.8077
15878 2 26.5249 7.9242 74.6128
15879 1 16.8062 3.00544 59.672
15880 2 16.4005 2.47081 60.4133
15881 2 17.4038 2.41829 59.126
15882 1 77.155 14.8038 88.2531
15883 2 76.5914 15.6066 88.0585
15884 2 77.5367 14.8799 89.1742
15885 1 3.09261 16.9708 25.6924
15886 2 3.59836 17.5674 26.3154
15887 2 2.60143 16.2776 26.2199
15888 1 74.6538 3.37257 68.7295
15889 2 74.7632 3.69242 69.6706
15890 2 75.4875 2.90387 68.4376
15891 1 9.55717 9.8765 64.8951
15892 2 9.52539 10.8332 65.1844
15893 2 10.2987 9.75206 64.2359
15894 1 49.2167 12.2408 40.6627
15895 2 48.2678 12.5465 40.7413
15896 2 49.8248 13.0346 40.6765
15897 1 60.1204 2.51165 66.3451
15898 2 60.5296 3.41419 66.4794
15899 2 60.5753 1.84782 66.9387
15900 1 24.4055 26.9909 56.1312
15901 2 25.1962 26.9939 55.519
15902 2 24.3918 27.8382 56.6621
15903 1 25.9975 18.216 64.302
15904 2 26.2163 17.8467 65.2052
15905 2 26.232 19.1877 64.2734
15906 1 54.423 14.2301 82.5897
15907 2 53.4485 14.2307 82.3656
15908 2 54.9388 14.6356 81.835
15909 1 22.9971 25.4296 74.7933
15910 2 22.979 25.0645 75.7241
15911 2 22.4329 26.254 74.7477
15912 1 41.0284 3.03113 58.1926
15913 2 40.3372 2.42524 57.7987
15914 2 41.1309 3.84039 57.6141
15915 1 64.5531 23.7385 69.7884
15916 2 63.5715 23.9145 69.8626
15917 2 65.0502 24.6057 69.8167
15918 1 37.3238 11.4614 77.9593
15919 2 38.2946 11.2797 78.1155
15920 2 36.938 10.7401 77.3841
15921 1 5.10541 7.86813 31.5502
15922 2 5.75605 7.12457 31.7044
15923 2 5.54539 8.74321 31.7518
15924 1 29.0694 7.65487 84.1369
15925 2 29.5986 8.14433 84.83
15926 2 28.094 7.74157 84.3394
15927 1 65.1125 20.2292 51.4656
15928 2 64.1249 20.3793 51.5106
15929 2 65.2946 19.3155 51.1024
15930 1 14.5431 13.1854 90.7363
15931 2 15.2574 13.7421 91.1606
15932 2 14.9291 12.6789 89.9653
15933 1 19.3821 17.2002 27.015
15934 2 18.5699 17.5827 26.5746
15935 2 20.2014 17.522 26.5404
15936 1 38.1265 11.0874 74.5627
15937 2 37.4359 10.6385 75.1298
15938 2 38.6172 10.3995 74.0279
15939 1 64.3736 23.9496 45.3304
15940 2 64.9338 24.7157 45.6453
15941 2 63.4131 24.1297 45.5425
15942 1 5.82312 8.84906 35.1285
15943 2 4.8505 8.7055 35.3113
15944 2 5.94855 9.09905 34.1684
15945 1 19.7111 19.6232 66.0706
15946 2 19.5688 20.6043 65.9401
15947 2 19.0033 19.2615 66.6773
15948 1 79.0687 21.2563 21.8456
15949 2 78.679 22.0546 21.3864
15950 2 79.7732 20.8485 21.2648
15951 1 72.7052 0.389496 54.5148
15952 2 72.9136 1.03842 53.7831
15953 2 71.9668 0.753304 55.0827
15954 1 75.7098 13.4452 34.4208
15955 2 75.9578 13.8142 33.5251
15956 2 75.3063 14.1697 34.9796
15957 1 59.6457 11.5328 30.4451
15958 2 59.52 10.6053 30.7973
15959 2 60.0956 12.0947 31.1392
15960 1 5.06438 8.06848 45.4064
15961 2 5.61034 8.18179 46.2365
15962 2 4.12036 7.85199 45.6553
15963 1 7.42075 22.7139 74.8178
15964 2 7.24571 23.0638 73.8975
15965 2 6.58641 22.2993 75.181
15966 1 20.992 11.1301 53.7705
15967 2 21.9799 11.1658 53.6194
15968 2 20.8052 10.7001 54.6537
15969 1 36.0723 23.8493 33.2803
15970 2 35.5295 23.4213 34.003
15971 2 36.8607 23.2716 33.0691
15972 1 44.4222 1.52539 51.2557
15973 2 43.4327 1.51421 51.3998
15974 2 44.6431 1.02131 50.4208
15975 1 2.12702 21.4971 10.6392
15976 2 1.57381 20.8549 10.1087
15977 2 2.63685 22.091 10.0169
15978 1 46.0396 15.8867 57.5198
15979 2 45.5634 15.3076 58.1815
15980 2 46.4506 16.6656 57.9936
15981 1 35.717 20.4215 43.1733
15982 2 35.3042 20.6515 42.292
15983 2 35.4512 19.4933 43.4338
15984 1 73.3349 27.7834 49.2834
15985 2 73.3699 26.7841 49.2685
15986 2 74.2234 28.1438 49.5676
15987 1 42.3671 27.0583 44.3584
15988 2 43.0626 26.342 44.3021
15989 2 41.5407 26.7587 43.8815
15990 1 34.4435 8.54857 75.321
15991 2 35.2085 8.89852 75.8616
15992 2 34.3949 7.55436 75.4168
15993 1 8.66381 0.672938 24.6023
15994 2 8.30905 0.0747252 23.8838
15995 2 9.55471 1.03351 24.3261
15996 1 79.1529 2.4175 25.8694
15997 2 79.2183 1.69852 26.5614
15998 2 0.0421117 2.86345 25.7671
15999 1 22.8285 9.88485 23.5685
16000 2 22.4064 9.88448 22.662
16001 2 23.8109 10.0487 23.4787
16002 1 78.3838 27.2902 84.5629
16003 2 78.8808 26.4468 84.767
16004 2 77.6512 27.4155 85.2319
16005 1 67.6188 22.2283 65.2236
16006 2 67.4499 21.583 64.4786
16007 2 66.9629 22.0656 65.9607
16008 1 60.0519 10.4859 68.9239
16009 2 59.5702 9.94389 69.6126
16010 2 59.642 11.3964 68.8698
16011 1 56.6871 0.567281 73.185
16012 2 57.6405 0.859049 73.2625
16013 2 56.1682 1.25536 72.6778
16014 1 22.684 12.6757 45.0508
16015 2 23.6829 12.6433 45.017
16016 2 22.307 12.0387 44.3785
16017 1 58.8006 10.6186 24.7534
16018 2 59.5785 11.2202 24.5715
16019 2 58.6473 10.5612 25.7399
16020 1 79.5294 14.8227 40.9852
16021 2 79.7266 14.6969 41.9575
16022 2 0.353185 14.6333 40.4508
16023 1 30.1157 7.75216 63.5062
16024 2 30.2117 8.21634 64.3868
16025 2 29.1831 7.40362 63.4131
16026 1 67.2982 13.7365 17.0043
16027 2 66.8902 13.4605 16.134
16028 2 67.9388 13.0322 17.3103
16029 1 56.4719 9.42028 50.8641
16030 2 56.4186 9.26025 49.8784
16031 2 56.3867 10.3996 51.0479
16032 1 74.3694 6.3593 11.8872
16033 2 74.9581 5.63966 11.5189
16034 2 73.7763 5.97523 12.5948
16035 1 45.3304 12.9371 36.1346
16036 2 45.5751 13.8475 35.8012
16037 2 45.4773 12.8934 37.1228
16038 1 30.8564 8.92237 65.8713
16039 2 30.0327 8.844 66.433
16040 2 31.5748 9.37991 66.3952
16041 1 76.8084 8.34046 74.9171
16042 2 77.3785 7.53221 74.7695
16043 2 76.4172 8.3089 75.8368
16044 1 13.2887 26.3018 77.6591
16045 2 12.7119 26.6243 76.9086
16046 2 12.7842 26.3693 78.5199
16047 1 43.6424 6.10105 48.083
16048 2 42.8727 6.62599 48.4462
16049 2 44.431 6.70442 47.9645
16050 1 25.9452 14.3427 77.1659
16051 2 25.619 13.4582 77.4993
16052 2 26.3029 14.8764 77.9322
16053 1 12.7765 19.5791 25.7066
16054 2 13.4434 19.5546 24.9618
16055 2 12.0831 18.8744 25.5564
16056 1 50.6229 15.8594 36.6741
16057 2 51.5917 15.6611 36.5257
16058 2 50.2434 15.2004 37.3234
16059 1 26.5899 9.95809 74.2732
16060 2 27.0944 9.53944 73.518
16061 2 27.2359 10.3268 74.9417
16062 1 56.1668 0.811019 35.3008
16063 2 57.1261 0.89934 35.0326
16064 2 56.0268 29.9301 35.7529
16065 1 49.7902 12.4958 77.3675
16066 2 50.4413 12.2566 78.0878
16067 2 49.5845 13.4732 77.4153
16068 1 9.27968 4.55066 47.0209
16069 2 8.28621 4.66462 47.0165
16070 2 9.52687 3.75956 46.4614
16071 1 37.5586 23.534 64.2709
16072 2 38.1512 24.3066 64.043
16073 2 37.5229 23.4229 65.264
16074 1 74.339 26.1294 36.9376
16075 2 74.7576 26.7865 37.5645
16076 2 73.8336 26.6209 36.2283
16077 1 63.9138 7.61463 87.5409
16078 2 64.095 7.00143 86.7721
16079 2 62.9284 7.7639 87.6231
16080 1 75.8042 15.5999 66.4594
16081 2 75.9504 14.6291 66.6498
16082 2 74.9493 15.8978 66.884
16083 1 53.6242 0.0778003 71.4771
16084 2 53.2324 0.791168 72.0581
16085 2 54.1648 0.500104 70.7495
16086 1 6.00664 2.99043 69.4414
16087 2 6.83164 2.42972 69.3709
16088 2 5.19977 2.39998 69.4233
16089 1 14.7056 25.4005 50.8668
16090 2 14.7964 24.491 51.2725
16091 2 15.2984 25.4682 50.0643
16092 1 78.8142 8.04716 24.6579
16093 2 79.4677 8.29828 25.3719
16094 2 78.3285 8.86458 24.3481
16095 1 48.6173 19.2445 90.5183
16096 2 48.6868 20.0284 89.9013
16097 2 48.8715 19.5253 91.4438
16098 1 3.24557 2.51029 23.9291
16099 2 3.54973 2.19113 24.8267
16100 2 3.81512 2.09788 23.2181
16101 1 73.178 4.78024 31.2919
16102 2 74.0267 4.26961 31.1543
16103 2 73.2126 5.25325 32.1723
16104 1 4.01172 19.9989 88.3313
16105 2 4.83847 19.851 88.8741
16106 2 3.21759 19.6568 88.8336
16107 1 75.4349 23.0689 29.8532
16108 2 75.4556 22.2794 29.2399
16109 2 74.6464 22.9961 30.4639
16110 1 7.15766 18.8623 28.7847
16111 2 7.97911 18.4366 29.1641
16112 2 6.53884 18.1521 28.4491
16113 1 69.5576 24.9391 32.0533
16114 2 70.3735 25.2113 31.5432
16115 2 68.805 25.5601 31.8343
16116 1 4.2272 24.3107 43.8332
16117 2 4.52671 23.8714 42.9863
16118 2 4.86717 24.088 44.5686
16119 1 20.5465 24.732 77.0021
16120 2 19.8506 24.8656 77.7077
16121 2 20.1869 24.13 76.2891
16122 1 48.4448 21.9247 45.8905
16123 2 48.9584 22.5534 45.3066
16124 2 48.2352 21.0911 45.3794
16125 1 13.7654 1.41173 24.3388
16126 2 14.6129 0.950827 24.6019
16127 2 13.8951 1.87234 23.4608
16128 1 70.8453 5.97021 74.2991
16129 2 71.8019 6.17866 74.5023
16130 2 70.2644 6.71352 74.6309
16131 1 57.5244 15.7452 78.3116
16132 2 57.3503 15.6713 79.2936
16133 2 58.5088 15.6957 78.143
16134 1 63.899 24.6442 60.2499
16135 2 63.7896 25.4415 59.6564
16136 2 64.4595 23.958 59.7863
16137 1 31.3882 27.5809 62.4256
16138 2 32.3606 27.6918 62.6312
16139 2 30.8967 27.3355 63.2612
16140 1 32.9057 7.79085 59.074
16141 2 31.9449 7.51782 59.0265
16142 2 33.4124 7.35809 58.3284
16143 1 61.8046 14.4234 55.8909
16144 2 61.1705 13.9437 56.4973
16145 2 62.4889 14.9054 56.438
16146 1 21.7581 4.34982 51.7091
16147 2 22.7384 4.21381 51.5657
16148 2 21.5302 5.31245 51.5627
16149 1 0.706233 19.3025 45.0457
16150 2 79.7743 19.3554 44.687
16151 2 1.03604 20.2233 45.2539
16152 1 63.6993 6.13135 36.2432
16153 2 64.5107 6.56239 36.638
16154 2 63.0309 6.83555 36.0039
16155 1 0.524156 7.28448 51.0814
16156 2 0.603708 6.5336 51.7371
16157 2 0.215154 6.92636 50.2004
16158 1 8.28675 3.8494 18.9141
16159 2 8.23277 3.46992 17.9905
16160 2 7.46687 4.39075 19.1005
16161 1 1.60588 21.1904 24.0126
16162 2 1.23817 20.857 24.8807
16163 2 1.7682 20.4166 23.4002
16164 1 59.2252 0.886664 54.9721
16165 2 60.0279 0.523747 55.4452
16166 2 59.3232 0.738947 53.9879
16167 1 37.8497 28.9074 79.4169
16168 2 38.1884 29.8122 79.1588
16169 2 38.5369 28.4404 79.9733
16170 1 58.4136 7.44702 80.9567
16171 2 58.7188 8.07345 81.674
16172 2 58.5738 6.50378 81.2477
16173 1 74.4763 25.3799 76.3679
16174 2 74.093 25.0149 75.5194
16175 2 75.2553 24.8198 76.6498
16176 1 14.9411 17.9551 65.0157
16177 2 14.9633 17.4397 65.8724
16178 2 15.0967 17.333 64.2484
16179 1 46.0781 10.7511 54.9986
16180 2 46.1079 11.4766 54.311
16181 2 46.5074 9.92599 54.6314
16182 1 32.5448 5.71562 44.3641
16183 2 33.3679 5.48444 43.8454
16184 2 32.383 6.70102 44.3108
16185 1 42.2244 3.86245 85.7001
16186 2 42.6051 4.59745 86.2612
16187 2 41.453 4.21363 85.1694
16188 1 11.5393 11.4869 63.1077
16189 2 11.4162 10.5847 62.6944
16190 2 12.3789 11.493 63.6508
16191 1 64.1689 12.3247 11.5975
16192 2 64.5827 11.9755 10.7567
16193 2 63.9009 11.5577 12.1805
16194 1 67.389 21.4064 17.26
16195 2 67.9964 20.928 17.8942
16196 2 67.9036 22.1133 16.7748
16197 1 15.1209 10.1088 38.3472
16198 2 14.6325 9.69603 37.5784
16199 2 14.462 10.4203 39.032
16200 1 71.0672 20.0129 56.3618
16201 2 71.2677 19.0515 56.1737
16202 2 70.8479 20.1243 57.331
16203 1 16.4699 2.37175 73.0963
16204 2 17.1129 3.01779 72.685
16205 2 16.8593 1.45109 73.0694
16206 1 12.6861 16.2074 70.017
16207 2 11.7664 16.0579 69.654
16208 2 13.2305 15.377 69.898
16209 1 8.42464 22.7016 53.5394
16210 2 7.95823 23.5523 53.2971
16211 2 9.26151 22.9124 54.0446
16212 1 52.8426 4.4195 41.8966
16213 2 53.5921 4.55299 42.545
16214 2 52.8715 3.48514 41.5415
16215 1 51.7577 5.06412 80.5889
16216 2 50.772 5.15123 80.7331
16217 2 51.9616 4.15795 80.2184
16218 1 30.9965 6.07079 37.4721
16219 2 30.3319 5.35971 37.7017
16220 2 31.2713 6.55152 38.3048
16221 1 60.2662 29.6861 64.4889
16222 2 61.152 29.2902 64.7312
16223 2 59.7896 29.075 63.8569
16224 1 49.0526 7.30498 79.7966
16225 2 48.3319 7.0415 79.1555
16226 2 49.2241 6.55277 80.4328
16227 1 64.6323 25.2846 62.8614
16228 2 64.3048 24.9539 61.9763
16229 2 63.9314 25.8605 63.2822
16230 1 29.635 4.6168 51.3765
16231 2 30.5469 4.84737 51.0371
16232 2 29.7118 4.20185 52.2831
16233 1 28.3867 8.20967 53.3975
16234 2 28.265 7.74168 52.5222
16235 2 29.1233 7.76964 53.9111
16236 1 13.8247 5.27855 77.7316
16237 2 12.8847 5.61885 77.7057
16238 2 13.8377 4.36621 78.1408
16239 1 54.0114 21.6938 69.7139
16240 2 54.3546 22.6146 69.5285
16241 2 54.3582 21.0629 69.0199
16242 1 23.0057 23.315 85.3385
16243 2 23.3586 24.2274 85.5459
16244 2 23.3026 22.674 86.0462
16245 1 8.68687 14.4475 45.1691
16246 2 8.32786 15.0851 44.4875
16247 2 8.74576 14.9059 46.0559
16248 1 54.9458 21.1719 66.4241
16249 2 54.8487 20.4318 67.0895
16250 2 54.4412 21.9745 66.7423
16251 1 2.86817 17.8669 77.6219
16252 2 3.7943 17.6521 77.932
16253 2 2.9151 18.4415 76.8048
16254 1 43.5568 18.141 45.9433
16255 2 43.8374 18.4238 45.0261
16256 2 42.6656 17.6898 45.8948
16257 1 7.44511 15.391 16.2028
16258 2 8.1422 14.8924 15.6876
16259 2 7.10681 14.8165 16.9481
16260 1 35.4582 24.5193 76.2933
16261 2 35.4103 25.3957 75.8141
16262 2 35.2114 23.7818 75.6647
16263 1 18.6134 1.59327 70.0428
16264 2 18.5334 2.58991 70.0254
16265 2 17.7013 1.18646 70.0934
16266 1 41.0379 20.7935 82.6201
16267 2 41.6599 21.5759 82.6502
16268 2 41.5067 20.0105 82.2113
16269 1 73.8487 4.73133 89.7168
16270 2 74.3712 4.51777 90.5422
16271 2 73.0336 4.15314 89.6793
16272 1 76.7493 4.68468 45.4902
16273 2 76.3069 3.79038 45.4231
16274 2 77.7419 4.56902 45.4547
16275 1 50.0433 24.0352 82.7558
16276 2 50.4727 24.9371 82.8038
16277 2 50.2572 23.5196 83.5854
16278 1 23.8033 3.11269 57.1388
16279 2 24.6961 2.67069 57.0522
16280 2 23.0943 2.41482 57.2407
16281 1 14.1594 10.0861 28.0158
16282 2 13.6971 9.2 27.981
16283 2 14.5648 10.2858 27.1238
16284 1 78.977 1.53341 20.2344
16285 2 78.6824 0.863532 20.916
16286 2 78.1792 2.02178 19.8806
16287 1 44.0158 13.3154 44.0056
16288 2 44.2687 12.3868 43.7343
16289 2 44.3092 13.9604 43.3
16290 1 20.5754 2.88234 65.6711
16291 2 21.0625 3.53438 66.2521
16292 2 20.3531 2.06442 66.2017
16293 1 77.3726 21.3319 18.6399
16294 2 76.9039 21.1365 17.7785
16295 2 76.7554 21.8288 19.25
16296 1 0.383054 0.955846 68.8161
16297 2 0.00383353 0.874874 67.8944
16298 2 1.15836 1.5873 68.8033
16299 1 11.6041 27.6017 82.3049
16300 2 11.8365 27.0826 81.4824
16301 2 11.9466 28.537 82.2168
16302 1 19.8989 23.3155 23.0973
16303 2 20.4368 22.6522 23.6176
16304 2 19.9366 24.2053 23.552
16305 1 23.8822 8.24337 84.5483
16306 2 24.8537 8.00616 84.5444
16307 2 23.3775 7.57244 85.0915
16308 1 54.2355 10.9084 75.7257
16309 2 53.2771 11.1702 75.6119
16310 2 54.3074 10.2068 76.4346
16311 1 55.7955 5.68278 87.2549
16312 2 55.7396 4.68903 87.3514
16313 2 55.7002 6.11087 88.1536
16314 1 22.2434 18.846 51.6554
16315 2 22.324 18.9415 50.6633
16316 2 22.9245 19.4258 52.1026
16317 1 75.2246 27.5922 82.0607
16318 2 74.8354 28.3486 82.5865
16319 2 75.3658 26.806 82.6624
16320 1 69.4133 20.9217 48.3688
16321 2 69.8325 20.2154 48.9392
16322 2 68.4979 20.6279 48.0934
16323 1 35.0131 0.318166 65.9547
16324 2 34.4959 29.5892 66.4031
16325 2 35.9324 29.9897 65.7377
16326 1 26.5014 21.9132 57.0466
16327 2 27.1254 21.8528 56.2676
16328 2 26.6435 21.128 57.6493
16329 1 58.9331 24.0409 40.0726
16330 2 59.0157 24.8294 40.6822
16331 2 58.6324 24.3478 39.1696
16332 1 49.248 19.7661 41.4746
16333 2 49.77 18.9906 41.8299
16334 2 48.7529 20.2059 42.2239
16335 1 13.2642 27.1146 58.407
16336 2 14.1179 27.2171 57.8965
16337 2 13.419 26.5267 59.2009
16338 1 79.5859 13.1677 32.7306
16339 2 79.3457 14.1209 32.9144
16340 2 0.297436 13.1326 32.0288
16341 1 67.0924 13.3331 65.8568
16342 2 66.2109 13.2209 65.3982
16343 2 67.1365 12.7233 66.6481
16344 1 62.7515 11.7281 45.4063
16345 2 62.5336 12.1812 46.2707
16346 2 63.6073 12.0967 45.0432
16347 1 6.2485 11.74 57.7636
16348 2 6.84037 12.3242 57.2083
16349 2 5.3314 11.7201 57.3655
16350 1 72.0755 27.0071 25.1243
16351 2 72.6286 27.8088 24.8979
16352 2 71.8874 26.486 24.2918
16353 1 70.5367 21.4034 31.5009
16354 2 70.1127 22.0751 30.8934
16355 2 71.0378 21.878 32.2246
16356 1 66.3695 24.7667 33.05
16357 2 65.8623 23.9699 33.3786
16358 2 67.2189 24.8585 33.5696
16359 1 13.768 10.6698 54.2492
16360 2 13.1912 10.4533 53.4615
16361 2 14.1522 9.82557 54.6231
16362 1 40.4598 13.7418 73.9661
16363 2 39.5223 14.046 74.1355
16364 2 41.0901 14.5027 74.1201
16365 1 7.03525 6.08412 81.6402
16366 2 7.40329 5.52924 82.3863
16367 2 6.8049 5.49284 80.8673
16368 1 62.1782 27.8503 71.4354
16369 2 61.2979 27.5013 71.114
16370 2 62.0359 28.7057 71.9334
16371 1 6.6573 10.0108 39.4642
16372 2 6.94127 9.06634 39.6296
16373 2 7.37323 10.49 38.9565
16374 1 63.3774 23.1029 49.0755
16375 2 64.2584 23.5578 48.9452
16376 2 62.6545 23.7904 49.145
16377 1 33.9272 12.7518 80.475
16378 2 33.2531 13.0944 81.1293
16379 2 34.2882 11.8762 80.7959
16380 1 3.70058 12.1668 11.6274
16381 2 3.52783 11.9069 10.6773
16382 2 4.23446 11.4507 12.077
16383 1 59.1442 11.8636 80.6408
16384 2 59.6456 12.4249 81.2992
16385 2 58.2932 12.3246 80.3895
16386 1 15.9071 10.7824 73.404
16387 2 16.7771 10.9702 72.948
16388 2 15.961 9.90191 73.875
16389 1 0.918404 26.0124 21.8518
16390 2 0.56184 26.3216 22.7334
16391 2 1.91145 25.9106 21.9111
16392 1 64.3102 5.83593 70.6416
16393 2 65.2901 5.63755 70.6188
16394 2 63.9989 6.08388 69.7242
16395 1 43.7764 9.76027 38.9736
16396 2 43.0127 9.48841 39.5591
16397 2 44.099 8.96721 38.4568
16398 1 13.6321 6.95834 20.5586
16399 2 14.5113 6.49516 20.4469
16400 2 13.1223 6.53029 21.3049
16401 1 79.1372 29.7514 85.7217
16402 2 79.8951 0.403333 85.6965
16403 2 79.4869 28.8423 85.9477
16404 1 67.4933 2.91336 56.829
16405 2 67.4139 2.48489 57.7291
16406 2 67.3177 3.89447 56.9103
16407 1 14.054 6.2022 83.2267
16408 2 13.4355 5.41833 83.2816
16409 2 14.8793 6.01345 83.7588
16410 1 74.961 2.18128 28.6359
16411 2 75.6036 2.89947 28.9029
16412 2 74.5558 2.40886 27.7504
16413 1 7.67824 26.4274 80.9341
16414 2 7.35253 26.2907 81.8696
16415 2 7.04604 25.9909 80.2939
16416 1 10.8973 17.6622 39.3151
16417 2 10.835 18.3575 38.5991
16418 2 10.9105 18.1066 40.2109
16419 1 68.5437 25.5585 80.1768
16420 2 68.9552 25.5587 81.0883
16421 2 68.6661 24.6596 79.7561
16422 1 63.4827 13.3431 30.4631
16423 2 62.5349 13.6555 30.5271
16424 2 63.9848 13.6328 31.2779
16425 1 43.6356 2.23937 74.413
16426 2 44.2182 3.04646 74.5085
16427 2 44.0855 1.4518 74.8342
16428 1 63.2136 7.11073 68.216
16429 2 62.9181 6.40079 67.5767
16430 2 62.5 7.26131 68.9001
16431 1 59.4811 27.6936 84.1659
16432 2 60.2071 27.4804 84.8197
16433 2 59.4867 27.0173 83.4293
16434 1 41.0041 24.6629 81.0725
16435 2 40.4473 24.0895 81.6735
16436 2 41.3033 25.4763 81.5712
16437 1 6.02805 28.0287 20.4477
16438 2 6.50882 27.1655 20.6018
16439 2 5.17584 27.8523 19.9552
16440 1 11.5447 6.51369 26.9334
16441 2 12.4207 6.78209 26.5326
16442 2 11.1714 5.73561 26.4281
16443 1 72.0635 0.0873507 24.334
16444 2 73.0521 0.118408 24.1867
16445 2 71.6032 29.8937 23.4676
16446 1 78.1235 27.3916 67.8468
16447 2 77.5137 27.3846 67.0543
16448 2 79.0565 27.5917 67.5476
16449 1 6.43123 13.0066 65.5274
16450 2 7.10467 13.4555 64.9401
16451 2 5.51303 13.1686 65.166
16452 1 35.2728 14.5207 82.1323
16453 2 34.8748 15.4068 81.8947
16454 2 34.9224 13.8204 81.5104
16455 1 40.8329 28.8657 36.1353
16456 2 41.7768 29.1057 36.3621
16457 2 40.6469 27.9287 36.4314
16458 1 19.6017 0.0628296 66.7898
16459 2 20.0226 0.523082 67.5715
16460 2 19.9193 29.1154 66.7502
16461 1 9.57941 9.88265 60.5625
16462 2 10.0715 10.7059 60.2796
16463 2 10.12 9.38868 61.2435
16464 1 68.4021 27.1393 88.3445
16465 2 68.3221 26.9445 87.3669
16466 2 68.9681 27.9529 88.477
16467 1 9.25416 7.66461 21.2894
16468 2 9.90629 6.93288 21.0911
16469 2 8.83299 7.97562 20.4374
16470 1 2.66111 2.93669 30.0199
16471 2 3.52929 3.08114 29.5451
16472 2 2.83416 2.51591 30.9104
16473 1 51.3992 7.81188 69.722
16474 2 50.9054 7.20742 70.3471
16475 2 52.2551 8.10478 70.1481
16476 1 37.162 27.9121 70.7055
16477 2 37.0678 28.7711 71.2087
16478 2 36.3545 27.7709 70.1329
16479 1 55.921 12.664 88.4131
16480 2 55.2865 13.1963 87.8527
16481 2 56.2146 11.8537 87.9059
16482 1 77.9432 25.642 13.5241
16483 2 77.2147 25.443 14.1796
16484 2 78.4629 24.8077 13.3399
16485 1 27.45 13.6473 48.4913
16486 2 26.9868 14.093 47.7252
16487 2 28.3836 13.9977 48.5658
16488 1 18.6077 7.53654 27.3096
16489 2 17.9728 8.12119 27.8146
16490 2 18.9294 8.01939 26.4951
16491 1 57.1893 28.4812 65.1346
16492 2 57.8011 27.7937 64.7434
16493 2 56.2423 28.1713 65.0504
16494 1 64.3914 27.7082 46.7003
16495 2 64.4827 27.9996 47.6525
16496 2 64.7002 26.7613 46.6105
16497 1 2.71789 4.45771 62.9138
16498 2 3.47953 3.95065 63.3173
16499 2 2.08238 3.8173 62.4825
16500 1 63.8183 18.933 25.1634
16501 2 63.0213 18.4492 25.525
16502 2 64.5153 19.0067 25.8767
16503 1 52.0307 15.3392 87.8431
16504 2 53.0059 15.1182 87.8564
16505 2 51.4997 14.5167 88.0467
16506 1 8.29614 29.6748 86.7034
16507 2 8.72072 28.9175 87.1997
16508 2 7.30508 29.5435 86.6794
16509 1 33.9821 8.52453 72.4246
16510 2 33.2607 8.07626 71.8967
16511 2 33.7856 8.43455 73.4009
16512 1 19.8565 27.4544 63.9391
16513 2 20.4373 26.725 63.5778
16514 2 19.9236 27.4707 64.9367
16515 1 71.1927 26.2016 47.8525
16516 2 70.5293 26.5356 48.5221
16517 2 71.9553 25.7638 48.3287
16518 1 9.43936 8.61837 28.0431
16519 2 10.4181 8.41322 28.04
16520 2 9.10665 8.67011 27.1015
16521 1 2.25973 16.886 15.2983
16522 2 2.92847 16.9779 16.0361
16523 2 2.11246 17.7772 14.8691
16524 1 32.359 18.2835 73.0203
16525 2 32.0609 18.7932 72.2133
16526 2 32.3769 17.3062 72.8094
16527 1 68.088 14.7955 90.8461
16528 2 68.6714 14.0883 90.4468
16529 2 68.5973 15.2889 91.5512
16530 1 0.0365297 20.8668 55.7465
16531 2 0.380056 19.9572 55.9803
16532 2 79.9436 21.4122 56.5795
16533 1 13.763 29.5602 36.403
16534 2 12.813 29.5657 36.7152
16535 2 14.3503 29.2018 37.1287
16536 1 34.5318 4.98417 33.5374
16537 2 34.2304 4.03072 33.5274
16538 2 35.3952 5.06601 33.0395
16539 1 20.4254 21.39 43.063
16540 2 20.9568 21.9893 42.4644
16541 2 21.0314 20.9737 43.7409
16542 1 41.5123 14.3065 47.2158
16543 2 40.7188 13.9903 47.7358
16544 2 41.2263 15.0119 46.5673
16545 1 72.1241 24.7555 38.2747
16546 2 72.6651 25.2255 37.5773
16547 2 72.6537 24.692 39.1206
16548 1 73.9994 26.1332 42.0842
16549 2 74.9645 25.8884 42.1775
16550 2 73.4308 25.3636 42.3746
16551 1 63.3197 7.03364 74.4926
16552 2 64.1997 6.75231 74.8755
16553 2 62.5786 6.62462 75.0249
16554 1 19.7731 20.6713 56.5368
16555 2 20.541 20.2797 56.0299
16556 2 20.0806 21.4833 57.0328
16557 1 15.643 1.63991 36.3419
16558 2 15.9034 1.96647 37.2505
16559 2 15.072 0.823871 36.432
16560 1 79.3683 4.00232 31.6519
16561 2 0.186119 4.49214 31.954
16562 2 78.5961 4.2502 32.237
16563 1 42.69 23.1275 76.7623
16564 2 42.331 24.0461 76.5969
16565 2 42.2155 22.7197 77.5424
16566 1 26.6346 29.6528 86.4926
16567 2 25.8334 29.1629 86.1492
16568 2 26.3389 0.397289 87.0911
16569 1 55.318 5.05534 32.5544
16570 2 55.1662 5.37827 31.6203
16571 2 55.6771 5.80403 33.1117
16572 1 25.7183 28.0246 38.9022
16573 2 25.5175 28.2211 39.8619
16574 2 25.5404 28.8397 38.3508
16575 1 72.1931 12.5072 83.3146
16576 2 72.7401 11.7824 83.7336
16577 2 72.7395 13.3422 83.2505
16578 1 3.16335 9.31621 35.5393
16579 2 2.94303 10.2663 35.7601
16580 2 3.04362 9.16565 34.558
16581 1 51.8782 0.859686 77.4569
16582 2 51.7264 1.1688 78.3957
16583 2 51.782 29.8653 77.4137
16584 1 29.2752 4.30233 45.4019
16585 2 29.3257 4.68455 44.4793
16586 2 28.4043 4.55837 45.8215
16587 1 28.7965 13.1718 79.0842
16588 2 29.0687 12.2415 79.33
16589 2 27.8018 13.255 79.1447
16590 1 5.33727 28.4175 72.682
16591 2 4.42356 28.2928 73.0688
16592 2 5.67513 29.33 72.9125
16593 1 70.2561 16.4198 47.0299
16594 2 71.047 15.99 47.4654
16595 2 69.8201 15.7662 46.4113
16596 1 74.6022 1.43862 39.9393
16597 2 74.0454 1.9375 40.6035
16598 2 74.1869 0.54698 39.7591
16599 1 67.7029 26.7675 31.2852
16600 2 66.8013 26.3901 31.4968
16601 2 67.602 27.7051 30.9525
16602 1 71.2427 9.67179 71.7819
16603 2 70.8546 10.5735 71.9726
16604 2 70.5379 9.08225 71.3874
16605 1 71.3859 12.5788 57.3207
16606 2 71.2695 12.6903 58.3076
16607 2 72.302 12.2256 57.1309
16608 1 51.3617 28.6345 83.4213
16609 2 51.5333 28.41 82.4621
16610 2 51.6258 27.8608 83.9972
16611 1 20.069 24.757 81.3813
16612 2 20.9484 24.7711 80.9055
16613 2 20.0249 23.9547 81.9767
16614 1 62.7142 14.6818 39.6878
16615 2 62.274 15.5319 39.9769
16616 2 62.4588 14.479 38.7425
16617 1 49.5489 29.3285 66.964
16618 2 49.8675 29.9898 66.2849
16619 2 50.2762 28.669 67.1539
16620 1 47.0014 5.96181 47.117
16621 2 46.4233 6.73478 46.8555
16622 2 47.9626 6.20648 46.9899
16623 1 36.0654 23.4372 39.5751
16624 2 35.5722 22.8008 40.1682
16625 2 36.4789 24.1584 40.1308
16626 1 57.6386 19.7645 31.9619
16627 2 56.7423 19.3285 32.0429
16628 2 57.5733 20.5484 31.3445
16629 1 20.1275 0.692762 32.8399
16630 2 20.0927 1.67715 32.6674
16631 2 19.2551 0.277978 32.5816
16632 1 44.8781 18.0788 72.9851
16633 2 45.4188 18.8838 73.2294
16634 2 44.9496 17.3961 73.7123
16635 1 27.3894 12.9948 37.2885
16636 2 27.7116 13.6508 37.971
16637 2 26.8792 12.2645 37.7428
16638 1 2.97121 19.0681 72.2525
16639 2 2.19594 18.699 71.7399
16640 2 2.85459 18.8658 73.2248
16641 1 30.5158 13.6808 45.6041
16642 2 30.2439 14.0273 46.5019
16643 2 31.5028 13.7927 45.4886
16644 1 48.6975 25.6847 67.3305
16645 2 48.0177 26.1613 67.8879
16646 2 48.2438 25.2442 66.5558
16647 1 5.19803 0.518676 40.8064
16648 2 4.30149 0.538391 40.3639
16649 2 5.12471 0.906079 41.7254
16650 1 5.18994 10.9033 29.9349
16651 2 5.23879 10.8284 30.9309
16652 2 5.19919 11.8681 29.6723
16653 1 24.7215 14.5238 50.3429
16654 2 23.7571 14.3798 50.121
16655 2 25.2079 14.8374 49.5274
16656 1 30.8815 27.0005 59.994
16657 2 30.1554 27.4835 59.5047
16658 2 30.885 27.2863 60.9522
16659 1 68.9512 1.31978 34.642
16660 2 69.273 2.22426 34.362
16661 2 68.1041 1.10249 34.157
16662 1 60.7415 15.6164 89.0126
16663 2 61.4906 15.0124 88.7407
16664 2 60.9663 16.5587 88.7644
16665 1 14.1135 14.4518 20.6035
16666 2 13.7691 14.2674 21.524
16667 2 15.1127 14.4881 20.6225
16668 1 32.6023 8.35161 44
16669 2 32.0614 8.72171 43.2447
16670 2 33.5421 8.68671 43.9324
16671 1 4.13719 6.56163 72.5038
16672 2 3.50235 6.69491 71.7427
16673 2 4.19732 7.40413 73.0391
16674 1 64.5142 0.183134 22.9867
16675 2 64.4839 0.2812 21.992
16676 2 64.5583 29.2129 23.2248
16677 1 19.1116 0.1008 29.6767
16678 2 18.5927 29.9849 30.5236
16679 2 18.8016 0.927037 29.2063
16680 1 2.93465 9.09416 32.9402
16681 2 2.28411 9.37097 32.233
16682 2 3.73016 8.66547 32.5119
16683 1 68.6632 3.48568 70.9697
16684 2 67.973 4.19643 71.1056
16685 2 68.3612 2.86111 70.2495
16686 1 31.6395 16.9206 80.9231
16687 2 31.3818 15.9801 80.7018
16688 2 32.5364 16.9252 81.3653
16689 1 10.8672 29.1083 18.1866
16690 2 11.3923 29.9397 18.0052
16691 2 11.2053 28.6762 19.0226
16692 1 60.5203 11.8343 48.7628
16693 2 60.6716 11.5103 47.8289
16694 2 61.3502 12.2789 49.0999
16695 1 23.411 29.891 80.5029
16696 2 22.4601 0.187081 80.5933
16697 2 23.4814 28.9207 80.734
16698 1 66.1661 29.0976 45.1485
16699 2 66.3181 0.0619521 45.3651
16700 2 65.3179 28.789 45.5789
16701 1 27.7444 19.6227 51.2009
16702 2 28.6225 19.6925 51.6742
16703 2 27.0464 19.2983 51.8394
16704 1 31.9564 19.212 59.7601
16705 2 32.2834 18.6537 60.5225
16706 2 32.6472 19.8969 59.5281
16707 1 39.4532 21.4919 44.7701
16708 2 40.2646 21.5202 45.354
16709 2 38.6403 21.3528 45.3357
16710 1 51.4054 28.2993 62.0101
16711 2 52.1658 28.3051 62.6596
16712 2 51.1378 29.24 61.8017
16713 1 51.0262 18.3039 67.8319
16714 2 50.3253 17.6129 68.0087
16715 2 51.6179 17.9955 67.087
16716 1 32.9757 0.0360995 70.3172
16717 2 33.4059 29.3758 70.9328
16718 2 32.349 0.616961 70.8366
16719 1 30.8634 25.3321 46.1183
16720 2 30.29 25.1827 45.3128
16721 2 31.8169 25.1354 45.8899
16722 1 15.0064 21.5942 55.2107
16723 2 14.6623 21.0477 54.4472
16724 2 15.7494 22.1823 54.8915
16725 1 17.3743 4.92596 87.8027
16726 2 18.2934 4.54183 87.8899
16727 2 16.7563 4.45828 88.4347
16728 1 40.9532 6.86955 42.9331
16729 2 40.4012 6.04096 43.0265
16730 2 40.3512 7.66027 42.8216
16731 1 75.1188 7.75398 39.6581
16732 2 75.6306 7.79304 38.7999
16733 2 74.8209 6.81429 39.8261
16734 1 67.2299 5.68383 35.1818
16735 2 66.8009 6.23605 35.8967
16736 2 66.6738 4.87063 35.0101
16737 1 4.5826 28.9323 75.7632
16738 2 3.98948 28.3862 75.1716
16739 2 4.55821 28.5628 76.6921
16740 1 65.2906 18.0547 33.3509
16741 2 65.0228 18.9965 33.1475
16742 2 65.6464 18.0034 34.284
16743 1 76.9605 18.2741 11.9376
16744 2 76.6346 18.8666 12.6743
16745 2 77.4349 18.8256 11.2515
16746 1 70.8682 29.3537 85.586
16747 2 71.5882 0.0417154 85.4947
16748 2 70.6451 29.2311 86.5531
16749 1 73.3552 3.20107 10.9543
16750 2 72.409 3.27281 11.2698
16751 2 73.6881 2.27074 11.1079
16752 1 49.3539 21.2206 63.498
16753 2 49.487 22.1919 63.3009
16754 2 48.693 20.8371 62.8529
16755 1 46.5394 17.1869 90.5234
16756 2 47.0397 18.029 90.3219
16757 2 47.1861 16.4305 90.6222
16758 1 10.5994 13.5494 87.0202
16759 2 11.3886 14.025 86.6317
16760 2 10.9022 12.9541 87.7645
16761 1 74.2791 18.4038 68.4636
16762 2 74.1289 17.6729 67.7978
16763 2 74.7342 18.03 69.2718
16764 1 65.2834 21.2844 85.1843
16765 2 66.1202 21.6524 85.5897
16766 2 65.1772 21.6422 84.2566
16767 1 54.6725 15.2212 74.6333
16768 2 55.5576 14.7921 74.8135
16769 2 54.807 16.0424 74.0788
16770 1 13.3324 20.4289 69.836
16771 2 13.0291 21.3637 69.6507
16772 2 13.5767 20.3431 70.8019
16773 1 14.0757 12.8527 17.884
16774 2 14.0831 12.9852 18.8752
16775 2 13.1304 12.8087 17.5607
16776 1 13.9665 24.3311 57.5384
16777 2 14.8798 24.7302 57.6191
16778 2 13.4514 24.8174 56.8326
16779 1 47.6766 4.00502 71.3001
16780 2 47.0207 4.53929 71.8332
16781 2 47.2867 3.10738 71.0947
16782 1 67.7337 10.4333 12.5954
16783 2 68.3495 10.8371 13.272
16784 2 68.2698 10.0543 11.841
16785 1 40.8923 28.2567 78.4025
16786 2 41.8755 28.2159 78.5802
16787 2 40.437 27.5005 78.8723
16788 1 71.0848 25.3913 73.5351
16789 2 70.3331 24.7456 73.4009
16790 2 71.9501 24.8917 73.5758
16791 1 16.7402 17.5389 21.1754
16792 2 15.8327 17.9567 21.1321
16793 2 16.6477 16.5439 21.2125
16794 1 10.9604 21.3588 50.1882
16795 2 10.0057 21.1179 50.014
16796 2 11.3064 21.917 49.4341
16797 1 6.91826 28.6022 50.4391
16798 2 6.21662 29.004 51.0275
16799 2 7.63992 28.2038 51.0053
16800 1 2.31103 29.2361 83.9974
16801 2 2.32362 0.0747978 84.5418
16802 2 3.24299 29.0072 83.7162
16803 1 46.2843 18.0234 87.2138
16804 2 46.4334 17.1038 86.8504
16805 2 47.052 18.6112 86.9586
16806 1 15.3024 6.60791 28.2587
16807 2 15.5505 5.67354 28.5144
16808 2 15.9736 7.24608 28.6358
16809 1 26.7503 11.664 62.6102
16810 2 27.2939 12.4354 62.2793
16811 2 26.0847 11.9892 63.2819
16812 1 18.1244 4.43453 81.5516
16813 2 18.6116 3.66878 81.1319
16814 2 17.3195 4.09201 82.0362
16815 1 41.5761 19.8425 79.3477
16816 2 40.5769 19.8011 79.3438
16817 2 41.9214 19.4758 80.2115
16818 1 10.4633 12.2469 74.197
16819 2 9.98273 12.6159 74.9926
16820 2 10.6611 11.2782 74.3469
16821 1 66.9092 5.96607 45.6107
16822 2 67.564 5.21165 45.6572
16823 2 66.4854 6.09533 46.5072
16824 1 0.490848 2.97445 52.4697
16825 2 0.67137 3.89072 52.8272
16826 2 1.25312 2.68677 51.8899
16827 1 77.4367 16.0119 22.7319
16828 2 77.2333 16.0346 23.7107
16829 2 77.5228 15.062 22.4313
16830 1 40.1717 11.9996 71.5387
16831 2 39.6354 12.4545 72.2496
16832 2 40.8181 12.6508 71.1409
16833 1 26.3448 5.09931 26.2758
16834 2 25.3964 5.26528 26.5459
16835 2 26.3626 4.53164 25.4527
16836 1 56.5996 28.1529 47.2713
16837 2 56.7716 28.9705 47.8208
16838 2 55.6197 28.0749 47.0876
16839 1 18.3028 27.3732 53.4172
16840 2 17.7195 27.596 52.6361
16841 2 18.9935 28.0872 53.5318
16842 1 45.1796 18.2395 35.4331
16843 2 44.6661 17.4508 35.0952
16844 2 44.5605 19.0164 35.5472
16845 1 73.2437 10.2591 35.0936
16846 2 73.3879 11.2156 35.3472
16847 2 72.7122 10.215 34.2477
16848 1 30.4505 12.2887 36.0185
16849 2 31.1442 12.1012 35.3231
16850 2 30.8481 12.8522 36.7426
16851 1 65.6785 27.6077 23.7198
16852 2 66.4577 27.0849 24.0658
16853 2 64.8822 27.4438 24.3021
16854 1 37.7806 18.5679 77.64
16855 2 36.9008 18.7044 77.1846
16856 2 38.1895 17.7113 77.3252
16857 1 69.7494 14.2189 65.8492
16858 2 69.872 15.2109 65.8798
16859 2 68.8132 14.0073 65.5683
16860 1 32.3689 26.3096 70.1616
16861 2 32.5303 27.1572 70.6671
16862 2 33.2456 25.8954 69.9169
16863 1 61.5124 10.535 42.2231
16864 2 60.6446 10.9818 42.4406
16865 2 61.3346 9.68671 41.7242
16866 1 25.2458 4.63727 60.4595
16867 2 25.6711 5.17977 59.7351
16868 2 24.8589 5.24835 61.1501
16869 1 4.5784 17.0125 87.5814
16870 2 5.57487 17.0837 87.5369
16871 2 4.20372 17.8377 88.0039
16872 1 64.4971 14.4367 44.3899
16873 2 65.3012 13.9638 44.0297
16874 2 63.7154 14.2705 43.7887
16875 1 39.6905 11.7801 63.2143
16876 2 39.429 12.6573 63.617
16877 2 38.8727 11.2232 63.0687
16878 1 62.3573 25.5932 56.7719
16879 2 62.8321 26.0458 57.5267
16880 2 61.6235 25.0197 57.1359
16881 1 75.4707 13.308 14.3993
16882 2 76.345 12.8229 14.4153
16883 2 75.5296 14.0804 13.7669
16884 1 23.5769 2.1112 33.7777
16885 2 24.3628 2.41126 34.3185
16886 2 23.2313 2.87865 33.2377
16887 1 63.8524 4.43261 32.8086
16888 2 64.1294 3.54242 32.4468
16889 2 63.861 4.40352 33.8081
16890 1 4.92476 26.3899 51.82
16891 2 4.22663 26.4048 51.1042
16892 2 4.91389 25.5008 52.2777
16893 1 31.1444 14.931 67.6088
16894 2 30.7649 14.8431 68.5298
16895 2 30.4282 15.2351 66.9808
16896 1 65.0363 0.875179 16.2434
16897 2 64.4603 0.349382 16.8693
16898 2 64.7741 1.83952 16.2797
16899 1 29.4384 16.6325 60.5521
16900 2 29.2578 16.1344 61.4001
16901 2 30.1052 16.1272 60.0043
16902 1 0.830063 14.8803 19.8585
16903 2 1.31806 15.6178 20.3255
16904 2 0.551616 14.1899 20.5262
16905 1 40.729 18.8309 67.0074
16906 2 41.2493 19.4079 66.3778
16907 2 41.3341 18.1407 67.4042
16908 1 0.696573 18.9532 58.5173
16909 2 79.737 18.6823 58.5935
16910 2 0.978793 18.9142 57.5587
16911 1 21.7644 27.2629 88.7798
16912 2 21.7478 26.6917 87.9592
16913 2 22.017 28.1977 88.5302
16914 1 53.3305 7.25428 89.4481
16915 2 52.8835 6.82696 90.234
16916 2 54.3031 7.37841 89.6447
16917 1 35.1082 21.569 73.1305
16918 2 34.4775 21.8419 73.8569
16919 2 36.0031 21.3625 73.5262
16920 1 36.5263 11.4415 36.6271
16921 2 36.9713 10.6793 37.0971
16922 2 35.534 11.3527 36.7135
16923 1 22.1065 26.4273 62.9629
16924 2 22.3905 25.502 62.7116
16925 2 22.9109 27.0183 63.0224
16926 1 21.5263 24.3643 59.3957
16927 2 21.1911 23.9236 58.5631
16928 2 20.7778 24.447 60.0537
16929 1 78.8217 0.913694 78.9355
16930 2 79.4108 1.26393 79.6638
16931 2 78.1398 0.295668 79.3267
16932 1 0.603304 14.5848 16.9707
16933 2 0.860486 14.8463 17.901
16934 2 1.42868 14.4312 16.4274
16935 1 26.3545 12.0857 50.5397
16936 2 26.8036 12.6576 49.8533
16937 2 25.3837 12.321 50.5862
16938 1 46.3715 24.9377 58.9727
16939 2 47.0798 24.7953 59.6641
16940 2 46.438 24.2239 58.2755
16941 1 65.4036 2.12977 89.802
16942 2 66.2704 2.44182 90.1909
16943 2 65.5719 1.69862 88.9156
16944 1 69.7044 4.42417 21.6785
16945 2 69.0089 5.12723 21.8269
16946 2 69.6897 4.13768 20.7206
16947 1 33.3926 4.54264 48.636
16948 2 32.7821 4.87576 49.3546
16949 2 34.2588 5.0405 48.6773
16950 1 61.5093 26.641 67.8232
16951 2 61.0193 26.5529 66.9559
16952 2 62.4945 26.6175 67.6533
16953 1 50.5329 12.987 31.0795
16954 2 50.4765 12.023 31.3396
16955 2 50.1445 13.5519 31.8076
16956 1 3.095 8.57028 58.7165
16957 2 3.05147 7.69286 58.2388
16958 2 3.2108 8.41064 59.6969
16959 1 47.7171 2.25345 66.1726
16960 2 48.43 2.95154 66.1059
16961 2 46.8968 2.56798 65.6949
16962 1 0.566639 22.7129 75.9838
16963 2 1.20071 22.7029 76.757
16964 2 0.97349 22.223 75.2128
16965 1 54.0783 27.8763 54.2089
16966 2 54.1537 28.6105 53.5342
16967 2 53.6299 27.0855 53.7923
16968 1 65.1964 15.199 90.6389
16969 2 66.1344 14.9765 90.3732
16970 2 65.1337 15.2419 91.636
16971 1 52.8588 0.692448 51.2243
16972 2 53.7422 0.228192 51.2886
16973 2 52.2916 0.439564 52.008
16974 1 67.2629 14.5345 81.0282
16975 2 67.8283 13.7278 81.1999
16976 2 66.3479 14.3863 81.4034
16977 1 8.45697 11.5241 55.18
16978 2 7.68127 11.2516 54.6107
16979 2 8.32194 12.4616 55.5008
16980 1 29.7433 8.50983 33.7186
16981 2 30.5111 8.61892 33.0873
16982 2 29.2078 9.35405 33.7411
16983 1 69.1544 18.6707 16.442
16984 2 70.1202 18.9258 16.3958
16985 2 68.8841 18.2324 15.5848
16986 1 4.32874 27.6214 44.631
16987 2 4.96745 28.2422 44.1763
16988 2 3.67087 27.2725 43.9635
16989 1 29.785 5.07212 66.2742
16990 2 30.3602 5.64536 65.6907
16991 2 29.0683 4.64697 65.7214
16992 1 31.568 6.28885 80.9839
16993 2 30.9161 6.95227 81.3512
16994 2 31.3298 5.37315 81.3075
16995 1 15.1529 3.70095 53.8462
16996 2 15.1211 4.35115 53.0871
16997 2 16.1003 3.58115 54.143
16998 1 19.8192 27.9089 80.2829
16999 2 20.3718 27.2877 80.8386
17000 2 20.0167 28.854 80.5434
17001 1 15.9034 8.4158 62.3628
17002 2 15.0781 8.25758 62.905
17003 2 16.6889 8.00219 62.823
17004 1 35.4159 14.6964 39.5752
17005 2 34.5526 14.2357 39.7814
17006 2 35.9857 14.7197 40.3966
17007 1 69.3013 4.94539 46.2064
17008 2 69.9216 4.16115 46.1921
17009 2 69.7204 5.71075 45.7179
17010 1 56.5418 18.9978 38.6273
17011 2 56.7503 19.8182 39.1598
17012 2 55.7831 18.5066 39.0553
17013 1 53.3609 14.4366 45.7382
17014 2 53.9713 14.4993 46.5278
17015 2 53.8032 14.8483 44.9414
17016 1 78.327 1.23104 52.3838
17017 2 77.6616 1.74812 51.8453
17018 2 79.2269 1.65942 52.3022
17019 1 34.3993 12.2644 74.5101
17020 2 34.3642 12.2099 73.5122
17021 2 35.3117 12.5574 74.796
17022 1 71.5259 0.337957 90.0825
17023 2 70.9432 29.7818 89.4898
17024 2 71.8455 29.7835 90.8509
17025 1 58.9818 4.60196 81.1545
17026 2 58.5595 3.97237 81.8066
17027 2 58.427 4.64297 80.3235
17028 1 36.2385 4.50542 59.0472
17029 2 36.7984 3.7165 59.3004
17030 2 35.9465 4.41515 58.095
17031 1 67.3111 6.61116 43.0626
17032 2 66.9054 5.84664 42.5617
17033 2 67.0608 6.5469 44.0287
17034 1 1.91472 22.6452 48.2877
17035 2 0.931347 22.7576 48.4303
17036 2 2.08099 22.3124 47.3594
17037 1 70.832 26.766 57.1438
17038 2 71.6105 26.7131 56.5185
17039 2 69.9816 26.7723 56.6176
17040 1 69.2826 25.5282 76.7562
17041 2 69.0478 25.8399 75.8355
17042 2 70.1448 25.0225 76.7271
17043 1 14.4618 18.7804 40.6422
17044 2 14.5644 19.5839 40.0558
17045 2 15.3301 18.5885 41.0996
17046 1 4.63111 18.146 66.133
17047 2 5.28482 17.8505 65.4363
17048 2 3.89585 18.6676 65.7002
17049 1 64.4221 27.2562 39.2591
17050 2 63.6135 27.1986 39.8446
17051 2 64.9993 28.0148 39.5615
17052 1 33.542 11.4082 89.2081
17053 2 33.1226 10.5066 89.3142
17054 2 33.4972 11.6858 88.2484
17055 1 74.1816 24.5303 62.8982
17056 2 73.6324 24.9262 63.6342
17057 2 73.6185 23.8993 62.3646
17058 1 22.5195 8.38241 26.2772
17059 2 21.8809 7.6134 26.3042
17060 2 22.3278 8.94688 25.4743
17061 1 15.1905 0.694814 44.9043
17062 2 14.8742 0.870154 43.972
17063 2 14.4745 0.952398 45.5532
17064 1 12.9311 23.4672 14.1959
17065 2 12.4345 22.6837 13.8226
17066 2 12.4579 23.8049 15.0096
17067 1 6.41251 13.6803 38.7708
17068 2 6.96394 14.495 38.5914
17069 2 6.0837 13.7016 39.7149
17070 1 26.6098 26.6711 84.7467
17071 2 26.3906 26.4704 85.7015
17072 2 25.9397 27.3161 84.3794
17073 1 10.7493 18.0221 14.2905
17074 2 10.6143 17.0315 14.2682
17075 2 10.7996 18.3303 15.2405
17076 1 57.5631 14.168 74.7937
17077 2 57.8734 13.5556 74.0667
17078 2 57.6259 15.1157 74.4806
17079 1 67.1288 19.1056 35.2421
17080 2 67.682 18.6291 34.5589
17081 2 67.4159 20.062 35.2954
17082 1 64.5358 20.178 79.6018
17083 2 63.9955 20.782 80.1878
17084 2 65.44 20.5786 79.4538
17085 1 75.5014 5.79768 66.0341
17086 2 74.7541 5.36507 65.5298
17087 2 76.3718 5.5786 65.5933
17088 1 2.12044 14.7414 58.4131
17089 2 2.30479 13.8631 58.8541
17090 2 1.20428 15.0544 58.6635
17091 1 21.3236 28.6721 30.2737
17092 2 21.1096 27.6962 30.2292
17093 2 20.4888 29.2032 30.1288
17094 1 21.9585 1.13532 20.1978
17095 2 21.5531 0.287501 19.856
17096 2 22.8599 1.26406 19.7844
17097 1 78.3041 5.16476 54.9317
17098 2 77.8722 5.08207 55.8298
17099 2 77.7145 4.7497 54.2389
17100 1 63.1818 15.7228 23.0659
17101 2 63.1661 15.7734 24.0645
17102 2 63.943 15.144 22.7734
17103 1 49.922 16.669 32.7918
17104 2 49.5143 15.8192 32.4577
17105 2 49.4393 16.9695 33.6143
17106 1 52.5372 14.6601 29.9083
17107 2 52.3763 15.0009 28.9821
17108 2 51.8744 13.9416 30.1189
17109 1 72.0562 23.6056 68.6143
17110 2 72.7972 23.0804 68.1959
17111 2 71.5613 23.0261 69.2618
17112 1 0.852503 9.17732 47.3658
17113 2 1.52677 8.55773 46.964
17114 2 1.15115 9.44646 48.2814
17115 1 68.2874 20.4916 11.2831
17116 2 67.3068 20.5051 11.0877
17117 2 68.6398 19.5644 11.1562
17118 1 20.9978 25.5689 86.5881
17119 2 20.3868 25.4973 85.7997
17120 2 20.7473 24.8794 87.2677
17121 1 51.4262 1.18446 28.4775
17122 2 51.2295 2.01905 27.9629
17123 2 51.759 1.42558 29.3891
17124 1 60.9931 10.8335 39.3419
17125 2 60.9468 11.4835 38.5833
17126 2 61.0835 11.3328 40.2036
17127 1 56.7472 25.1819 75.136
17128 2 57.7388 25.1041 75.0325
17129 2 56.5347 25.9453 75.7459
17130 1 73.8858 4.69041 81.4951
17131 2 74.6817 5.06318 81.9722
17132 2 73.8231 3.70763 81.669
17133 1 3.23241 21.1335 40.8583
17134 2 3.31121 20.2755 41.3659
17135 2 3.96829 21.7522 41.1333
17136 1 11.7002 7.11565 85.4994
17137 2 12.018 7.86174 84.9143
17138 2 10.8488 6.74246 85.1308
17139 1 48.6777 13.7641 46.3993
17140 2 48.2969 14.4049 47.0659
17141 2 48.8386 14.2394 45.5343
17142 1 59.3795 15.5205 58.4023
17143 2 58.3807 15.4905 58.3641
17144 2 59.7518 14.6531 58.0723
17145 1 63.166 12.8974 53.9758
17146 2 62.7198 13.586 54.5474
17147 2 62.7696 11.9991 54.1655
17148 1 53.9211 25.9719 36.7492
17149 2 53.1605 26.4785 37.155
17150 2 54.7406 26.0961 37.3088
17151 1 72.1329 26.1302 31.0782
17152 2 72.7098 26.5142 30.3573
17153 2 71.5753 26.856 31.481
17154 1 59.2296 27.8349 43.7608
17155 2 58.9168 27.056 43.2172
17156 2 59.9999 28.2753 43.2996
17157 1 64.8877 3.07076 60.1125
17158 2 65.0448 4.04464 59.9486
17159 2 65.671 2.54605 59.7792
17160 1 18.4099 27.0349 22.6985
17161 2 17.4308 27.1659 22.8548
17162 2 18.9232 27.4011 23.4747
17163 1 60.2563 15.1401 68.4177
17164 2 60.5783 15.6446 69.2189
17165 2 61.0292 14.6799 67.9808
17166 1 42.9821 27.0406 69.8767
17167 2 42.7943 27.4704 70.76
17168 2 43.621 26.282 70.0043
17169 1 40.1919 2.70591 79.6488
17170 2 39.7452 3.58658 79.8065
17171 2 41.0686 2.85409 79.1912
17172 1 46.4172 17.9034 39.1726
17173 2 47.0855 17.2296 38.8572
17174 2 45.8587 17.5038 39.8995
17175 1 34.3373 9.16111 85.231
17176 2 34.9262 9.41642 84.4642
17177 2 34.7859 8.45086 85.7736
17178 1 44.2693 14.5274 40.3079
17179 2 44.3509 15.2962 40.9421
17180 2 45.128 14.0151 40.2929
17181 1 52.323 8.44896 35.1085
17182 2 51.9726 9.38532 35.0876
17183 2 51.5827 7.82132 35.3493
17184 1 2.67259 11.3344 17.3587
17185 2 2.65865 12.22 16.8943
17186 2 2.70962 11.4773 18.3478
17187 1 14.9882 15.8975 41.0655
17188 2 15.298 15.897 42.0163
17189 2 14.7207 16.8245 40.8026
17190 1 78.5985 10.4406 67.5127
17191 2 78.6062 11.0763 68.2846
17192 2 78.1501 9.58968 67.7862
17193 1 68.064 10.8154 27.9648
17194 2 67.4304 11.5546 27.7366
17195 2 68.9781 11.1933 28.1119
17196 1 73.7548 10.9249 49.7275
17197 2 73.3172 11.5074 50.4124
17198 2 74.2275 10.1711 50.1839
17199 1 37.6525 20.4674 39.4104
17200 2 38.2225 21.1781 38.9982
17201 2 37.0276 20.883 40.0714
17202 1 44.8809 15.2906 52.7329
17203 2 44.3341 15.7535 52.0352
17204 2 45.8477 15.5064 52.5962
17205 1 24.2796 15.4413 81.5061
17206 2 24.976 14.8828 81.0554
17207 2 24.6991 16.2794 81.8549
17208 1 13.9548 6.60108 13.5543
17209 2 14.2087 7.15294 12.7599
17210 2 13.3198 5.88221 13.2715
17211 1 3.51446 9.67769 89.3714
17212 2 4.16471 9.13191 88.843
17213 2 3.93915 10.5459 89.6281
17214 1 45.2593 18.6737 82.1274
17215 2 45.8485 19.4814 82.1043
17216 2 44.3025 18.9603 82.1764
17217 1 9.97329 1.87479 67.3261
17218 2 9.56915 1.80793 68.2384
17219 2 10.9512 2.06714 67.4081
17220 1 40.2882 22.8082 63.6449
17221 2 40.0427 23.6964 63.2566
17222 2 39.6753 22.5961 64.406
17223 1 75.8845 20.5923 85.5108
17224 2 76.0376 19.6608 85.1809
17225 2 76.7038 21.1422 85.3485
17226 1 31.6189 18.4021 52.8529
17227 2 31.3651 19.3474 52.6479
17228 2 31.0774 18.0718 53.626
17229 1 30.9718 9.26295 74.2404
17230 2 30.6439 8.87658 73.3783
17231 2 30.2089 9.68987 74.7259
17232 1 18.4747 19.5146 23.4795
17233 2 17.8741 18.9149 24.0083
17234 2 17.9578 19.9261 22.7289
17235 1 34.7446 11.1035 71.5307
17236 2 34.0679 11.5568 70.9505
17237 2 34.5109 10.1354 71.6214
17238 1 17.3772 7.16771 16.4207
17239 2 17.7409 6.54926 15.7241
17240 2 17.3484 8.09893 16.0573
17241 1 45.1542 6.01925 44.2991
17242 2 45.37 6.86852 44.7809
17243 2 45.5964 6.02339 43.4021
17244 1 76.3864 14.7939 32.0823
17245 2 77.2171 15.083 32.5581
17246 2 76.4329 15.0817 31.1257
17247 1 2.1344 29.6659 27.7763
17248 2 2.34706 29.2884 28.6775
17249 2 1.17082 29.9315 27.745
17250 1 2.16675 20.7421 61.1435
17251 2 1.46395 21.4481 61.2309
17252 2 2.68896 20.8937 60.3043
17253 1 29.5571 16.0935 65.5849
17254 2 29.0773 16.8809 65.9719
17255 2 29.3306 16.0091 64.6145
17256 1 3.76958 6.61734 16.5382
17257 2 2.81529 6.89173 16.4198
17258 2 3.9293 6.37062 17.4941
17259 1 35.729 23.7785 71.5077
17260 2 35.6149 23.0376 72.1695
17261 2 35.6366 23.4147 70.5808
17262 1 2.09158 15.8733 61.9689
17263 2 2.92271 15.4357 62.3121
17264 2 1.32002 15.2443 62.0644
17265 1 41.1547 24.8907 66.2468
17266 2 40.4599 25.1582 65.5792
17267 2 40.7691 24.9417 67.168
17268 1 14.8229 22.685 17.5528
17269 2 14.9784 23.6729 17.5513
17270 2 15.6878 22.2112 17.3872
17271 1 70.7336 5.74481 11.594
17272 2 71.6481 5.9113 11.2254
17273 2 70.7617 4.96044 12.2136
17274 1 35.8113 22.8764 56.8633
17275 2 36.4925 22.1495 56.7759
17276 2 36.261 23.766 56.7837
17277 1 57.6835 16.7918 73.8813
17278 2 56.7299 17.0921 73.8624
17279 2 58.2729 17.5675 74.1068
17280 1 19.8594 25.5293 24.9206
17281 2 18.8943 25.3829 25.1381
17282 2 20.0186 26.5015 24.7487
17283 1 38.4333 21.9721 80.5482
17284 2 38.6513 21.009 80.3903
17285 2 38.2978 22.1272 81.5267
17286 1 48.7285 21.5263 66.2955
17287 2 47.834 21.5763 66.7399
17288 2 48.6244 21.1385 65.3797
17289 1 72.4285 19.5451 64.4917
17290 2 72.4973 19.0442 63.629
17291 2 73.3422 19.6696 64.8786
17292 1 23.0787 20.4966 26.1343
17293 2 22.6958 21.1765 25.5089
17294 2 22.6236 19.6179 25.9905
17295 1 67.5926 27.7606 15.325
17296 2 68.3862 27.2194 15.6031
17297 2 67.3893 27.5836 14.362
17298 1 38.698 20.6658 67.0237
17299 2 37.9268 20.1893 66.6017
17300 2 39.4745 20.0404 67.1005
17301 1 66.9287 24.6425 16.329
17302 2 66.4365 24.4965 15.4708
17303 2 67.6523 23.9582 16.4187
17304 1 10.8631 4.08853 55.8838
17305 2 11.2422 5.00327 56.0236
17306 2 10.4141 4.04663 54.9912
17307 1 21.7697 27.6817 49.3634
17308 2 22.6649 27.7818 49.7977
17309 2 21.4221 26.7581 49.5254
17310 1 59.1135 27.1777 29.1851
17311 2 59.4889 28.1007 29.1004
17312 2 58.7044 26.9031 28.3149
17313 1 12.4316 25.4135 55.2142
17314 2 12.2107 26.3508 55.4839
17315 2 11.6102 24.8466 55.2756
17316 1 17.8596 4.96362 69.4691
17317 2 18.5192 5.66335 69.1947
17318 2 18.0242 4.70534 70.421
17319 1 76.4204 3.67733 53.3681
17320 2 76.4066 3.27883 52.4511
17321 2 75.4848 3.87868 53.6582
17322 1 40.7803 14.1073 80.1473
17323 2 40.4892 14.9841 80.5301
17324 2 40.9311 13.4535 80.8888
17325 1 59.2125 20.56 55.0726
17326 2 58.8645 19.7194 55.4878
17327 2 60.1375 20.4028 54.7267
17328 1 10.8234 17.5147 48.7086
17329 2 10.0729 17.1429 48.1622
17330 2 11.5296 16.8161 48.8239
17331 1 57.8781 0.346744 27.766
17332 2 58.8532 0.141219 27.6826
17333 2 57.3483 29.5092 27.6325
17334 1 41.5733 17.9687 84.2382
17335 2 41.6909 18.3156 83.3077
17336 2 40.7464 17.4081 84.2828
17337 1 47.8496 8.72311 87.4755
17338 2 47.2912 8.28889 88.1823
17339 2 48.1183 9.63759 87.778
17340 1 65.0293 5.57186 38.9504
17341 2 65.6048 6.00238 38.2551
17342 2 65.6057 5.21193 39.684
17343 1 22.3315 20.6125 77.1791
17344 2 22.332 19.686 76.8028
17345 2 21.6013 20.6965 77.8572
17346 1 52.5771 14.9041 68.3181
17347 2 51.7041 15.3907 68.2838
17348 2 52.6224 14.2472 67.5656
17349 1 76.539 21.0786 90.3678
17350 2 76.0754 20.2547 90.0419
17351 2 75.8624 21.7225 90.7253
17352 1 78.6187 1.16619 41.1106
17353 2 78.5474 1.69445 41.9566
17354 2 79.3346 1.55772 40.5325
17355 1 63.6237 4.183 53.246
17356 2 63.654 3.97605 52.2681
17357 2 62.698 4.4647 53.4985
17358 1 17.2742 8.96216 68.9517
17359 2 16.6344 8.91006 68.185
17360 2 18.1348 8.52042 68.6983
17361 1 8.84526 5.4959 65.0701
17362 2 8.09346 6.15288 65.1265
17363 2 9.24708 5.37038 65.9771
17364 1 70.5137 12.3272 72.482
17365 2 70.819 12.2647 73.4322
17366 2 69.7488 12.9683 72.4192
17367 1 72.8725 8.56264 75.9776
17368 2 73.265 8.73125 76.8818
17369 2 73.2206 7.6963 75.6194
17370 1 56.3253 0.785533 78.9213
17371 2 55.6579 0.0650818 79.1098
17372 2 56.9256 0.899157 79.713
17373 1 64.9243 3.79692 35.354
17374 2 65.4282 3.21879 35.9957
17375 2 64.277 4.36877 35.8579
17376 1 10.6943 4.04548 60.9842
17377 2 11.1864 3.23783 61.3091
17378 2 10.895 4.82117 61.5825
17379 1 20.843 9.84979 82.9169
17380 2 20.8835 10.7123 82.4124
17381 2 20.4518 10.0116 83.8228
17382 1 16.8257 12.1635 28.7736
17383 2 15.9576 12.5504 28.4627
17384 2 16.6869 11.6898 29.6433
17385 1 7.6345 2.02306 28.7866
17386 2 8.49559 2.52728 28.7211
17387 2 7.66853 1.22566 28.1841
17388 1 6.64517 24.8837 54.3731
17389 2 5.67245 24.8416 54.6012
17390 2 7.1855 24.8756 55.2145
17391 1 28.6939 19.3733 35.9056
17392 2 29.0542 18.4969 36.2251
17393 2 29.3824 19.8319 35.3438
17394 1 67.5175 16.4698 88.7269
17395 2 68.337 16.4868 88.1541
17396 2 67.6232 15.7762 89.4394
17397 1 14.9485 4.41925 46.228
17398 2 14.0272 4.77435 46.0696
17399 2 15.5915 4.87402 45.6117
17400 1 44.3104 2.89839 46.0625
17401 2 43.8681 2.02723 45.8492
17402 2 45.1521 2.98426 45.5294
17403 1 76.0925 7.64041 58.9319
17404 2 75.2353 7.75743 59.4334
17405 2 75.9344 7.80568 57.9585
17406 1 50.6441 28.489 57.7264
17407 2 49.7893 28.3938 57.2162
17408 2 51.0866 29.3506 57.4776
17409 1 57.2997 2.95474 71.1811
17410 2 57.9599 2.41129 71.6995
17411 2 56.8235 3.57971 71.7998
17412 1 1.68217 15.2673 79.6294
17413 2 2.54323 14.7661 79.5432
17414 2 1.71482 15.8485 80.4425
17415 1 69.8457 0.288948 32.3022
17416 2 69.8911 29.9012 33.2229
17417 2 70.423 29.7532 31.686
17418 1 68.4866 17.1391 31.3926
17419 2 68.1356 17.8345 30.7655
17420 2 68.8827 17.5841 32.1958
17421 1 28.0596 29.2849 71.5821
17422 2 27.5764 28.415 71.6817
17423 2 28.485 29.5315 72.4529
17424 1 34.9484 25.956 80.8663
17425 2 34.8792 25.3163 81.6319
17426 2 34.0311 26.1981 80.5503
17427 1 21.0039 9.42496 47.1265
17428 2 20.2704 10.0683 47.3457
17429 2 20.6743 8.48897 47.2501
17430 1 48.0066 16.1162 62.8961
17431 2 48.1364 16.5197 63.8018
17432 2 48.8829 15.7779 62.5531
17433 1 33.3306 1.02559 49.7106
17434 2 33.6991 0.292837 50.2827
17435 2 34.0565 1.38996 49.1272
17436 1 59.822 28.851 40.4527
17437 2 60.714 28.6929 40.8761
17438 2 59.4489 27.9822 40.127
17439 1 77.4347 10.9544 21.3399
17440 2 77.3965 10.4658 22.2115
17441 2 78.3161 10.7826 20.8998
17442 1 8.0691 9.33641 23.1091
17443 2 8.70527 8.69861 22.6749
17444 2 7.87308 9.02953 24.0404
17445 1 26.6795 29.957 90.6627
17446 2 26.6837 29.9047 91.6614
17447 2 27.5416 0.352619 90.3461
17448 1 16.5673 9.00122 28.885
17449 2 16.7184 9.57156 29.6923
17450 2 15.9443 9.46918 28.2581
17451 1 28.7302 22.1989 44.38
17452 2 29.324 21.4037 44.2573
17453 2 29.284 23.0315 44.3806
17454 1 77.9745 2.04281 16.9498
17455 2 78.9716 2.11816 16.936
17456 2 77.5887 2.58902 16.2063
17457 1 20.0382 18.6114 36.8113
17458 2 20.9192 18.6698 37.2808
17459 2 19.7791 17.6511 36.707
17460 1 5.47359 7.55132 42.0979
17461 2 6.24592 7.68416 41.4767
17462 2 5.70292 6.84612 42.7688
17463 1 65.0649 21.3109 58.93
17464 2 65.9957 21.2227 58.5753
17465 2 64.415 21.2858 58.1704
17466 1 12.9773 3.77296 27.1973
17467 2 13.0095 4.25214 28.0744
17468 2 12.2531 4.16477 26.6298
17469 1 76.6502 28.5304 30.2892
17470 2 76.9235 27.5894 30.0893
17471 2 75.6869 28.5478 30.5574
17472 1 76.1904 25.5874 39.5711
17473 2 75.9976 26.4566 39.1157
17474 2 75.3987 25.3147 40.1177
17475 1 2.45356 4.46807 11.729
17476 2 1.70152 4.07517 11.1998
17477 2 2.58533 5.4229 11.4627
17478 1 56.5831 24.3681 84.7673
17479 2 57.3473 24.3118 85.4099
17480 2 56.0702 23.5098 84.7834
17481 1 46.6511 22.2252 89.4937
17482 2 47.3964 21.7549 89.0212
17483 2 46.3764 21.6936 90.2949
17484 1 69.6069 3.89606 33.6832
17485 2 69.5455 3.87206 32.6854
17486 2 68.8354 4.41432 34.0522
17487 1 76.0407 13.0872 67.3548
17488 2 75.2693 12.46 67.2473
17489 2 76.3944 13.0237 68.288
17490 1 48.8747 0.599837 75.2498
17491 2 49.8533 0.79348 75.1805
17492 2 48.7419 29.6917 75.6468
17493 1 38.776 13.4719 47.7728
17494 2 38.1659 13.4983 46.9809
17495 2 38.7199 14.3401 48.2658
17496 1 79.1044 6.02009 49.3005
17497 2 78.5559 6.56252 48.6642
17498 2 78.7285 5.09537 49.3601
17499 1 1.33473 29.6823 60.8658
17500 2 1.00946 0.581706 60.5737
17501 2 2.07221 29.7947 61.5317
17502 1 67.4045 8.98785 68.2953
17503 2 67.5701 8.16103 67.7577
17504 2 67.871 8.9115 69.1764
17505 1 78.936 16.9108 55.8993
17506 2 79.7262 17.5055 55.7514
17507 2 78.1022 17.4626 55.9173
17508 1 75.4834 13.3552 86.1219
17509 2 75.4837 14.2114 86.6386
17510 2 74.8296 12.7189 86.5315
17511 1 56.8897 10.1643 78.8171
17512 2 56.5205 11.0724 79.015
17513 2 57.4073 10.194 77.962
17514 1 79.3194 26.7816 48.9318
17515 2 78.5694 26.1736 48.6714
17516 2 78.9458 27.6257 49.3166
17517 1 10.4926 25.6215 49.6921
17518 2 10.1467 25.1664 50.5126
17519 2 10.4496 24.9903 48.9177
17520 1 51.1455 7.0516 75.773
17521 2 50.6101 6.20873 75.7188
17522 2 52.1202 6.82849 75.7637
17523 1 50.6012 28.6486 34.0249
17524 2 50.6286 29.4963 33.4952
17525 2 49.9744 28.7578 34.7964
17526 1 32.146 2.41254 81.4257
17527 2 32.7185 2.76232 82.1672
17528 2 31.42 3.0707 81.2263
17529 1 11.5066 11.3466 38.1817
17530 2 12.2131 11.142 38.8591
17531 2 10.9662 12.1296 38.4898
17532 1 74.3361 29.5726 84.1996
17533 2 75.2017 0.0302513 83.9962
17534 2 73.6687 0.247073 84.5153
17535 1 70.1027 10.109 33.8692
17536 2 71.0146 10.0569 33.4621
17537 2 69.5606 9.3221 33.5745
17538 1 67.4386 15.1968 41.0628
17539 2 68.1153 15.9031 40.8548
17540 2 67.6496 14.7836 41.9486
17541 1 51.4696 8.34939 40.9886
17542 2 51.3362 8.99936 41.7367
17543 2 52.3374 7.86893 41.1152
17544 1 65.1048 10.5297 69.5775
17545 2 65.8502 9.88848 69.7597
17546 2 65.3978 11.1951 68.891
17547 1 65.24 18.0601 13.3123
17548 2 64.4598 17.4593 13.4867
17549 2 65.7692 17.7042 12.5421
17550 1 14.9569 21.0772 38.8467
17551 2 14.3626 21.2739 38.0669
17552 2 15.7442 21.6935 38.8296
17553 1 27.2532 24.2494 38.8674
17554 2 27.7839 23.707 39.5186
17555 2 27.5187 25.2108 38.9399
17556 1 26.606 16.6096 48.5149
17557 2 26.014 16.098 47.8922
17558 2 27.3323 17.0565 47.9926
17559 1 72.4005 10.2038 80.2415
17560 2 73.0768 9.71336 79.6918
17561 2 71.8975 9.55268 80.8099
17562 1 61.5133 27.4479 61.1473
17563 2 61.9057 27.1382 62.0133
17564 2 62.1505 27.2492 60.4026
17565 1 39.4061 3.38 75.2681
17566 2 40.1022 2.77239 75.6505
17567 2 38.6671 3.49929 75.9311
17568 1 38.3945 15.8631 62.1445
17569 2 37.8133 15.1393 61.7727
17570 2 39.3347 15.7297 61.8312
17571 1 51.4405 7.41082 82.2447
17572 2 50.845 8.19646 82.0768
17573 2 51.7862 7.06242 81.3734
17574 1 1.23496 9.68573 49.8103
17575 2 1.62749 10.3703 50.4245
17576 2 0.983392 8.87241 50.3349
17577 1 1.8199 13.4981 76.6144
17578 2 1.02458 12.9824 76.933
17579 2 1.8292 13.5124 75.6146
17580 1 70.5294 25.4549 89.0756
17581 2 69.6463 25.9097 89.1914
17582 2 70.3941 24.5755 88.6192
17583 1 60.0938 15.7426 86.2367
17584 2 59.9184 16.2 87.1085
17585 2 59.5393 14.9126 86.1783
17586 1 45.9949 24.639 38.7908
17587 2 46.51 23.9525 38.2776
17588 2 46.5043 24.8918 39.6134
17589 1 15.65 5.45241 17.8313
17590 2 15.5502 5.55936 18.8205
17591 2 16.1003 6.26089 17.4523
17592 1 65.5157 28.869 27.946
17593 2 65.9503 28.1444 27.4113
17594 2 65.5891 29.7363 27.4536
17595 1 65.1593 6.87466 28.1455
17596 2 65.2521 7.27985 29.0551
17597 2 64.4512 7.36177 27.6343
17598 1 58.7551 23.4684 62.7557
17599 2 58.3776 22.712 63.2899
17600 2 58.4598 24.3371 63.1534
17601 1 49.7734 6.68061 88.1525
17602 2 49.1025 7.34467 87.8225
17603 2 49.9105 5.97284 87.4595
17604 1 20.0278 24.4282 63.9617
17605 2 19.1863 24.7854 64.3671
17606 2 20.0042 24.5638 62.9712
17607 1 3.29698 14.9302 12.4825
17608 2 3.25902 14.0787 11.9595
17609 2 4.24879 15.2229 12.5742
17610 1 44.1498 19.2777 43.4349
17611 2 44.6023 19.5969 42.6021
17612 2 43.445 19.9342 43.7038
17613 1 10.8891 17.9957 85.2998
17614 2 10.872 18.9636 85.0491
17615 2 11.5094 17.5041 84.6886
17616 1 55.9802 27.3655 56.9423
17617 2 56.7341 27.2937 57.5954
17618 2 56.1652 26.7787 56.1539
17619 1 63.0335 7.88697 14.306
17620 2 63.2597 7.37377 13.478
17621 2 63.0799 8.8672 14.1136
17622 1 61.2585 12.1505 32.9208
17623 2 61.0042 13.115 32.9929
17624 2 60.68 11.6069 33.529
17625 1 6.58494 10.8168 16.5425
17626 2 6.0526 11.3498 15.8848
17627 2 5.97372 10.4393 17.2381
17628 1 34.7192 1.2583 37.7371
17629 2 33.9247 1.03876 37.1709
17630 2 34.4485 1.8957 38.4585
17631 1 8.23591 24.2921 56.5633
17632 2 8.42611 25.1233 57.0857
17633 2 9.07218 23.9855 56.1087
17634 1 70.3605 0.284849 58.3047
17635 2 70.5121 1.27265 58.2692
17636 2 70.9502 29.8821 59.0048
17637 1 6.87146 18.2353 50.3488
17638 2 7.21848 19.1731 50.3347
17639 2 6.26872 18.1148 51.1376
17640 1 65.1531 13.9168 40.6987
17641 2 64.4321 14.1953 40.0642
17642 2 65.923 14.5511 40.6276
17643 1 27.046 21.4316 88.5223
17644 2 26.5916 21.2331 87.6539
17645 2 26.3719 21.7604 89.1837
17646 1 59.8807 7.48016 73.2894
17647 2 60.3973 6.89889 72.6607
17648 2 58.9044 7.40595 73.086
17649 1 76.0736 17.2795 46.2779
17650 2 75.3397 17.76 46.758
17651 2 76.9524 17.6971 46.5088
17652 1 33.6422 14.8468 68.7063
17653 2 32.7313 14.7148 68.3153
17654 2 34.3168 14.8985 67.9699
17655 1 35.1158 6.54674 86.2144
17656 2 36.1131 6.49202 86.1655
17657 2 34.8289 6.55264 87.1724
17658 1 17.765 12.8017 64.3277
17659 2 17.1938 12.7809 63.5071
17660 2 18.2426 13.6788 64.3791
17661 1 13.3186 18.4372 76.2317
17662 2 13.4089 17.7323 75.5282
17663 2 12.9327 18.033 77.061
17664 1 26.9845 6.7983 68.3116
17665 2 26.8876 6.12524 69.0448
17666 2 26.1515 7.34825 68.2517
17667 1 52.3015 19.3063 73.4648
17668 2 52.0834 20.2742 73.5895
17669 2 51.5254 18.749 73.7599
17670 1 6.68936 27.6547 26.6973
17671 2 6.15298 27.1279 27.3567
17672 2 6.07257 28.1604 26.0941
17673 1 35.1155 5.73027 83.6004
17674 2 34.9649 5.99221 84.5537
17675 2 34.7415 4.81633 83.4428
17676 1 38.981 12.4864 43.723
17677 2 39.3054 11.6188 44.0997
17678 2 38.4184 12.9557 44.4036
17679 1 26.0232 11.1521 31.2885
17680 2 26.079 10.2196 30.9316
17681 2 26.8452 11.3551 31.8205
17682 1 33.2207 17.0398 36.493
17683 2 33.049 16.7817 37.4437
17684 2 33.9353 17.7387 36.4612
17685 1 10.7661 28.9443 70.9458
17686 2 11.1665 28.0324 71.0355
17687 2 11.4935 29.6147 70.7991
17688 1 37.7292 25.7954 72.8213
17689 2 38.6292 26.0868 72.4971
17690 2 37.8166 24.9293 73.3136
17691 1 73.911 16.122 29.181
17692 2 74.4701 16.7675 29.7013
17693 2 73.5074 15.4525 29.8046
17694 1 49.1285 5.13758 81.3947
17695 2 48.6867 4.31176 81.0442
17696 2 48.527 5.58088 82.0593
17697 1 4.72566 1.20257 67.9918
17698 2 4.36786 0.285482 67.816
17699 2 5.46339 1.40187 67.3468
17700 1 42.9762 15.4838 65.3247
17701 2 43.0496 16.1647 64.5961
17702 2 42.634 15.9211 66.1563
17703 1 71.7959 28.7444 75.1591
17704 2 70.8723 28.372 75.2496
17705 2 72.3511 28.4515 75.9375
17706 1 9.9302 19.4103 61.1804
17707 2 10.1616 18.5239 61.5814
17708 2 9.05938 19.3389 60.694
17709 1 23.3062 14.0387 60.9784
17710 2 24.2096 14.3957 61.2158
17711 2 22.6184 14.4456 61.5796
17712 1 73.565 2.66349 23.6058
17713 2 74.4999 2.86073 23.3108
17714 2 73.5199 2.68154 24.6046
17715 1 55.5239 6.60853 67.0759
17716 2 56.083 7.38536 67.3656
17717 2 54.5759 6.75679 67.3574
17718 1 37.1654 16.4653 45.0689
17719 2 37.5883 16.7075 44.1957
17720 2 37.0695 15.4717 45.1286
17721 1 65.4949 3.14299 80.4219
17722 2 66.2091 2.7899 81.0262
17723 2 65.0283 2.37936 79.9756
17724 1 55.2039 11.5171 33.6067
17725 2 55.4365 10.6235 33.2229
17726 2 55.97 12.1461 33.475
17727 1 74.1019 8.82323 30.0451
17728 2 73.6638 9.10245 30.8996
17729 2 75.0911 8.76724 30.1805
17730 1 75.0683 28.1426 62.1951
17731 2 74.2321 28.0874 62.7407
17732 2 75.5034 29.031 62.3409
17733 1 6.6631 2.55188 45.2569
17734 2 6.63196 3.42101 45.7505
17735 2 7.60549 2.35627 44.9855
17736 1 32.2488 22.6087 71.2007
17737 2 31.6421 21.8251 71.0668
17738 2 33.0381 22.3295 71.7477
17739 1 77.3813 1.39649 32.7507
17740 2 78.2105 1.15912 33.2569
17741 2 76.5906 1.3381 33.3601
17742 1 73.7088 22.88 22.3115
17743 2 74.4586 22.9103 21.6505
17744 2 73.9916 22.3521 23.1123
17745 1 65.6513 19.1858 17.7099
17746 2 64.8517 19.7513 17.9119
17747 2 66.4283 19.7747 17.4875
17748 1 6.65171 6.67405 69.3973
17749 2 6.02599 7.44378 69.2708
17750 2 7.12496 6.76965 70.2731
17751 1 39.6487 0.576203 86.809
17752 2 39.2595 1.42248 86.4453
17753 2 38.9113 29.937 87.0275
17754 1 25.9423 5.45489 84.1861
17755 2 26.1531 6.1895 84.831
17756 2 26.5099 5.55578 83.369
17757 1 73.5337 20.5202 32.2854
17758 2 72.9344 21.1234 32.8117
17759 2 73.5519 19.615 32.7101
17760 1 30.7699 21.2087 85.7559
17761 2 30.4128 20.3623 85.3606
17762 2 30.2581 21.4308 86.5858
17763 1 36.0579 18.6781 81.1563
17764 2 35.3129 18.027 81.3015
17765 2 36.8165 18.4587 81.7698
17766 1 63.3738 16.9682 70.4144
17767 2 63.839 17.1744 71.2753
17768 2 62.5835 17.5719 70.3097
17769 1 66.4482 16.6056 75.4561
17770 2 67.3088 16.4338 74.9767
17771 2 66.3596 15.9677 76.221
17772 1 66.9568 8.02674 71.6847
17773 2 67.6958 8.61678 71.3597
17774 2 66.9632 7.16986 71.1693
17775 1 47.6027 11.5879 32.9001
17776 2 48.0617 12.474 32.9643
17777 2 48.0786 11.0135 32.234
17778 1 74.0526 8.47749 66.4588
17779 2 73.9625 9.41214 66.8028
17780 2 73.4209 7.87876 66.9512
17781 1 26.9679 4.18584 88.209
17782 2 26.1837 4.78119 88.3843
17783 2 26.6701 3.23124 88.2177
17784 1 21.8877 10.2205 67.331
17785 2 21.6286 11.1739 67.1767
17786 2 22.7312 10.0194 66.833
17787 1 64.7506 21.0674 70.3158
17788 2 64.5908 22.0361 70.5054
17789 2 65.1548 20.968 69.4065
17790 1 69.4719 21.153 26.7065
17791 2 69.6223 21.7209 25.8973
17792 2 69.5193 21.7226 27.527
17793 1 62.0771 3.59653 78.5776
17794 2 62.2388 2.8563 79.2302
17795 2 61.4637 3.27632 77.8556
17796 1 10.6143 19.3276 37.2657
17797 2 11.1728 19.3893 36.4385
17798 2 9.74827 19.8057 37.1196
17799 1 12.3115 15.3669 86.1555
17800 2 13.0877 15.9705 86.3375
17801 2 11.6048 15.8726 85.6607
17802 1 30.8605 19.4166 74.9183
17803 2 31.3275 19.2079 74.059
17804 2 30.2468 20.1947 74.7837
17805 1 4.67236 5.93269 38.2235
17806 2 3.8289 6.05875 38.7457
17807 2 5.32791 6.64581 38.472
17808 1 36.3995 25.3083 54.1621
17809 2 36.4001 25.2342 55.1593
17810 2 35.5005 25.617 53.8514
17811 1 9.55694 7.48645 55.7317
17812 2 9.38722 8.01385 54.8992
17813 2 8.81762 6.82634 55.8646
17814 1 15.7014 5.24615 90.8128
17815 2 15.7232 6.1794 90.4543
17816 2 16.6079 4.99928 91.1552
17817 1 36.963 25.9746 45.4532
17818 2 37.6797 25.2882 45.5766
17819 2 36.796 26.442 46.3213
17820 1 59.9985 8.93962 46.9736
17821 2 60.1001 9.88824 46.674
17822 2 60.3918 8.32901 46.2863
17823 1 19.6019 9.82404 85.6445
17824 2 19.0438 9.12965 85.1903
17825 2 20.0377 9.42576 86.4516
17826 1 5.4555 28.0017 31.6942
17827 2 5.42283 27.0074 31.5934
17828 2 4.54154 28.345 31.9106
17829 1 40.3738 9.07006 58.1808
17830 2 39.555 9.43338 57.7364
17831 2 40.5561 9.58682 59.0173
17832 1 43.6477 1.45337 64.7368
17833 2 44.3616 2.10993 64.9802
17834 2 43.8751 0.557146 65.1176
17835 1 62.9365 11.6076 28.2697
17836 2 62.5446 12.075 29.0622
17837 2 62.621 10.6588 28.2527
17838 1 56.6423 0.418034 48.9224
17839 2 56.1369 29.8725 49.591
17840 2 57.3913 0.896581 49.3805
17841 1 66.3202 25.5565 46.0664
17842 2 66.62 24.6576 46.3857
17843 2 67.0002 25.9301 45.4354
17844 1 55.1376 9.82254 87.7926
17845 2 55.3958 9.15738 88.4932
17846 2 55.7055 9.68875 86.9805
17847 1 18.7623 13.6828 37.9363
17848 2 18.9628 14.3991 37.2679
17849 2 18.6626 14.0918 38.8434
17850 1 49.0927 21.9496 48.5226
17851 2 48.9338 21.0977 49.0216
17852 2 48.6177 21.9144 47.6433
17853 1 23.0014 7.4174 70.2517
17854 2 22.7353 6.55057 69.83
17855 2 23.0774 7.29709 71.2415
17856 1 17.2558 15.3107 18.0206
17857 2 18.1854 15.1167 17.7075
17858 2 17.2053 15.1872 19.0117
17859 1 24.8875 25.0179 40.0178
17860 2 25.7425 24.8548 39.5254
17861 2 25.0916 25.3399 40.9423
17862 1 54.7178 1.99365 86.078
17863 2 55.6052 1.80882 85.6556
17864 2 54.3464 2.8474 85.7132
17865 1 54.4515 18.7731 34.5236
17866 2 54.9536 18.9846 33.685
17867 2 54.2441 17.7952 34.5502
17868 1 78.7285 7.30948 70.9424
17869 2 78.107 6.52918 71.012
17870 2 79.502 7.17582 71.562
17871 1 0.922796 17.5742 70.8487
17872 2 1.64004 17.3599 70.1856
17873 2 0.389301 16.7504 71.0405
17874 1 71.7811 2.66521 36.9674
17875 2 72.3989 1.94993 37.2939
17876 2 72.2122 3.15871 36.212
17877 1 3.09738 17.2948 90.5472
17878 2 2.63538 18.1366 90.2682
17879 2 2.4227 16.5648 90.6563
17880 1 37.5761 11.3834 59.2856
17881 2 37.9207 10.8682 58.5008
17882 2 36.8593 10.856 59.7417
17883 1 50.0032 28.6343 79.5083
17884 2 49.0251 28.4782 79.646
17885 2 50.483 27.7569 79.501
17886 1 64.2048 5.42488 81.3639
17887 2 64.4348 4.50695 81.0406
17888 2 64.7077 5.61725 82.2065
17889 1 69.2755 28.2367 25.2713
17890 2 70.046 27.9366 24.7088
17891 2 68.5404 27.5609 25.2175
17892 1 72.4217 22.5983 27.1165
17893 2 71.7953 22.5999 26.337
17894 2 73.1272 23.2935 26.9787
17895 1 53.0649 7.6615 84.5359
17896 2 52.3348 7.62389 83.8536
17897 2 53.546 8.53503 84.4615
17898 1 38.4315 14.6536 71.8258
17899 2 38.2056 15.5862 72.1072
17900 2 37.6729 14.2717 71.2978
17901 1 26.2092 23.4003 30.6103
17902 2 25.8307 22.5882 31.0543
17903 2 25.5191 23.8039 30.0095
17904 1 19.307 29.6558 71.9653
17905 2 20.144 0.0378911 72.3571
17906 2 18.9383 0.288969 71.2847
17907 1 1.49955 18.2421 42.4617
17908 2 2.41752 18.6085 42.6137
17909 2 1.02086 18.1687 43.3366
17910 1 58.1665 1.7902 58.2506
17911 2 57.2198 1.79364 58.5725
17912 2 58.4407 2.72171 58.0116
17913 1 38.6173 5.28546 63.2644
17914 2 37.9708 5.85563 62.7575
17915 2 38.9092 4.52099 62.6896
17916 1 25.4154 18.7623 43.1215
17917 2 25.1654 17.9675 43.6745
17918 2 26.3532 19.0355 43.3354
17919 1 59.845 28.114 59.1711
17920 2 60.3399 27.5511 59.8332
17921 2 60.1656 29.0592 59.2316
17922 1 27.0341 25.717 78.9538
17923 2 27.4816 26.6068 79.0432
17924 2 26.327 25.6276 79.6553
17925 1 72.6476 5.30138 51.5551
17926 2 71.6928 5.51426 51.7629
17927 2 73.0446 4.77943 52.31
17928 1 18.8656 7.38055 84.547
17929 2 17.9808 6.97564 84.7773
17930 2 19.0554 7.23646 83.5758
17931 1 20.4937 15.221 90.1286
17932 2 21.2316 15.1614 89.4562
17933 2 20.4614 14.3768 90.6637
17934 1 1.84878 22.3839 81.4217
17935 2 1.69485 21.9269 82.2977
17936 2 2.56218 21.9005 80.9144
17937 1 54.1562 27.8928 34.4783
17938 2 54.3304 27.2703 35.2413
17939 2 54.839 27.743 33.7633
17940 1 43.3285 13.9018 83.0007
17941 2 44.0655 13.4437 83.4976
17942 2 42.6668 13.2219 82.6847
17943 1 74.8718 25.2118 51.5051
17944 2 74.9588 26.205 51.5824
17945 2 74.4984 24.9788 50.6071
17946 1 57.8791 22.2307 76.4431
17947 2 58.397 22.6674 75.7074
17948 2 58.0891 22.6807 77.3111
17949 1 77.9686 5.03089 76.652
17950 2 77.0299 5.33265 76.8184
17951 2 78.5731 5.42498 77.3444
17952 1 27.8848 2.45523 34.368
17953 2 28.229 3.13038 33.7155
17954 2 27.1116 2.84167 34.8708
17955 1 45.2382 8.16821 45.9217
17956 2 44.2981 8.50898 45.9284
17957 2 45.8729 8.94087 45.9339
17958 1 34.3159 7.21231 81.1379
17959 2 34.7059 6.91577 82.0097
17960 2 33.5144 6.65386 80.9242
17961 1 12.532 17.6241 80.8263
17962 2 13.1888 16.9846 80.4269
17963 2 12.8407 18.5618 80.667
17964 1 50.3935 1.15833 64.9363
17965 2 50.4113 1.10724 63.9378
17966 2 50.2166 2.10116 65.2188
17967 1 15.7784 13.5677 88.1167
17968 2 15.0853 13.0485 87.6168
17969 2 16.5762 12.9874 88.28
17970 1 15.2873 17.1165 72.9608
17971 2 14.7015 16.5389 73.5293
17972 2 15.9261 17.619 73.5434
17973 1 77.118 23.7689 32.7861
17974 2 76.6181 22.9035 32.7512
17975 2 76.4692 24.5296 32.7667
17976 1 24.876 22.8352 89.9361
17977 2 24.3356 22.4958 89.1662
17978 2 24.4186 23.6269 90.341
17979 1 0.870448 12.1548 62.4122
17980 2 0.380481 13.0123 62.5695
17981 2 0.32971 11.392 62.7668
17982 1 79.8038 11.6331 76.9276
17983 2 79.4336 10.9946 77.6023
17984 2 79.2187 12.4426 76.8785
17985 1 13.2531 27.9404 15.9409
17986 2 14.057 28.491 16.1658
17987 2 12.5585 28.5221 15.5176
17988 1 23.4465 4.66207 83.9812
17989 2 23.1984 3.95542 84.6438
17990 2 24.2711 5.13514 84.2914
17991 1 15.3996 25.7695 75.7054
17992 2 15.7385 24.8466 75.5226
17993 2 14.9148 25.7795 76.58
17994 1 63.8705 20.7251 37.9608
17995 2 63.4502 20.9407 38.8422
17996 2 64.0076 21.5688 37.4417
17997 1 60.5577 18.3781 59.3827
17998 2 61.3297 18.4227 60.0168
17999 2 59.8409 17.7985 59.7704
18000 1 44.2136 15.7066 34.712
18001 2 44.9928 15.0834 34.6452
18002 2 43.4801 15.3886 34.1113
18003 1 8.5619 22.4947 33.4179
18004 2 9.04248 23.0651 34.084
18005 2 8.18881 23.0725 32.6919
18006 1 23.7503 8.89617 46.9292
18007 2 22.8454 9.29626 46.7842
18008 2 24.4194 9.36857 46.3555
18009 1 63.1007 22.3587 26.7428
18010 2 63.9084 22.1777 27.3039
18011 2 63.3873 22.656 25.8321
18012 1 16.2575 9.9064 19.1096
18013 2 16.4913 10.7889 19.5176
18014 2 17.0825 9.4836 18.7345
18015 1 65.4877 29.9664 37.4841
18016 2 65.1187 29.7671 36.5763
18017 2 66.483 0.0462762 37.4291
18018 1 23.9382 17.7075 60.7408
18019 2 24.2898 18.4041 61.3662
18020 2 24.7014 17.2731 60.2626
18021 1 3.41429 3.09147 48.0718
18022 2 3.42108 2.13953 47.7656
18023 2 2.80153 3.62482 47.4887
18024 1 34.244 24.8712 67.9086
18025 2 34.3316 25.047 66.9281
18026 2 34.7244 25.5843 68.4192
18027 1 46.4076 12.1084 90.14
18028 2 47.0625 11.9295 89.4058
18029 2 46.1786 11.2499 90.5989
18030 1 41.9626 26.7705 64.0417
18031 2 42.6667 26.1599 63.6792
18032 2 41.076 26.3085 64.0171
18033 1 6.53529 5.78682 22.6837
18034 2 7.27488 5.92423 23.3426
18035 2 5.93674 6.5879 22.6826
18036 1 59.0498 21.6847 46.4066
18037 2 58.4976 21.8365 47.2263
18038 2 58.4584 21.6916 45.6002
18039 1 20.3135 26.2673 29.1695
18040 2 19.7515 25.4925 28.8803
18041 2 21.2788 26.0531 29.0201
18042 1 7.50105 25.2071 51.2982
18043 2 6.676 25.706 51.5634
18044 2 8.21073 25.3453 51.989
18045 1 29.0814 29.3936 48.3261
18046 2 28.6534 29.5396 49.218
18047 2 29.3791 28.4419 48.251
18048 1 18.2207 3.71236 76.8845
18049 2 18.5352 2.80232 77.1546
18050 2 17.4121 3.62647 76.3024
18051 1 18.2137 3.68018 90.7267
18052 2 18.8604 4.06766 90.0697
18053 2 17.7733 2.87645 90.3266
18054 1 20.6706 29.7883 16.4427
18055 2 21.6114 29.8567 16.1106
18056 2 20.3025 28.8862 16.2175
18057 1 5.50617 0.764304 34.8741
18058 2 4.86386 1.44434 35.2277
18059 2 5.04403 29.8815 34.7897
18060 1 41.6017 5.81144 79.8807
18061 2 41.8478 6.54556 79.2478
18062 2 40.6063 5.76173 79.9626
18063 1 12.1539 23.0343 58.804
18064 2 12.9351 23.4302 58.3212
18065 2 11.8738 22.1894 58.3484
18066 1 68.2634 2.36228 24.5419
18067 2 67.8276 3.2592 24.617
18068 2 68.0217 1.80658 25.3373
18069 1 36.5712 2.6327 36.1362
18070 2 35.8649 2.19937 36.696
18071 2 37.4645 2.24959 36.3712
18072 1 4.89727 16.8418 72.686
18073 2 5.7418 16.3807 72.4137
18074 2 4.11458 16.2571 72.4728
18075 1 58.889 12.9118 50.493
18076 2 59.4052 12.5781 49.7042
18077 2 58.0905 12.3281 50.6399
18078 1 5.76588 20.7636 17.6044
18079 2 6.0773 19.8491 17.8624
18080 2 4.94818 20.6886 17.0336
18081 1 32.7407 21.0097 77.4417
18082 2 32.729 21.7801 78.0791
18083 2 33.469 20.3749 77.6994
18084 1 56.2541 17.9962 76.9957
18085 2 56.6119 17.0626 77.0139
18086 2 56.1999 18.3507 77.9292
18087 1 77.9291 17.941 15.4997
18088 2 77.5971 18.7005 14.9404
18089 2 78.8975 18.0786 15.7077
18090 1 69.2491 16.9893 86.844
18091 2 69.178 16.2643 86.159
18092 2 69.8666 17.7023 86.5119
18093 1 14.8669 17.832 70.267
18094 2 14.0758 17.334 69.9118
18095 2 15.039 17.5539 71.212
18096 1 25.1298 17.236 85.6571
18097 2 24.8856 18.1365 85.2971
18098 2 25.7088 17.3458 86.465
18099 1 47.2928 25.8313 71.0175
18100 2 46.3481 25.5092 70.9564
18101 2 47.5188 26.3585 70.1983
18102 1 0.256612 25.8321 82.41
18103 2 79.7311 25.3686 83.1234
18104 2 1.05378 26.2765 82.8188
18105 1 12.4013 12.8175 60.7741
18106 2 12.1867 12.5793 61.7213
18107 2 11.8709 12.2372 60.1561
18108 1 43.7036 20.4202 35.3311
18109 2 43.2022 21.2684 35.502
18110 2 44.3684 20.5678 34.5989
18111 1 77.9471 4.68305 68.9165
18112 2 78.6053 5.2003 68.3695
18113 2 78.372 4.41119 69.78
18114 1 62.5419 13.2354 15.9235
18115 2 63.0421 12.7032 16.6067
18116 2 61.9591 12.6252 15.387
18117 1 79.4117 4.54811 13.5896
18118 2 0.262485 4.28503 14.0445
18119 2 78.6327 4.24445 14.1382
18120 1 22.4162 19.6486 88.9263
18121 2 21.8133 18.9965 88.4667
18122 2 22.6591 20.3824 88.2918
18123 1 63.3434 22.7818 56.0107
18124 2 64.2239 23.1501 56.3092
18125 2 62.6071 23.3787 56.3294
18126 1 54.8411 14.153 52.2109
18127 2 55.0131 13.8077 53.1336
18128 2 54.7604 15.1494 52.2376
18129 1 60.1614 12.2443 90.7752
18130 2 60.7316 12.3371 91.5915
18131 2 60.6195 11.6496 90.1146
18132 1 2.10105 4.92613 89.451
18133 2 3.03727 4.63909 89.6538
18134 2 1.91976 5.80613 89.89
18135 1 23.8826 29.9835 73.8576
18136 2 24.1018 29.5982 72.9612
18137 2 22.8915 0.0855447 73.9432
18138 1 49.1584 18.0576 55.2978
18139 2 50.1328 18.2822 55.284
18140 2 48.9642 17.3733 54.595
18141 1 0.075769 8.87062 54.3653
18142 2 0.595227 9.45726 54.9866
18143 2 0.668728 8.56745 53.6193
18144 1 57.8536 9.85009 56.5447
18145 2 57.5104 8.93887 56.7725
18146 2 58.7867 9.95083 56.89
18147 1 9.73762 13.2023 38.8001
18148 2 9.24756 13.8684 39.3624
18149 2 9.08483 12.5581 38.4016
18150 1 34.0108 17.5928 53.8998
18151 2 34.0311 17.0549 54.7426
18152 2 33.0622 17.7957 53.6567
18153 1 24.3301 17.0919 31.5938
18154 2 24.2455 16.1741 31.2058
18155 2 23.548 17.6469 31.3106
18156 1 62.3677 12.5228 69.7508
18157 2 61.85 13.1098 70.3732
18158 2 62.263 12.8561 68.8138
18159 1 29.1806 20.6796 47.8592
18160 2 29.0562 19.9192 47.2218
18161 2 29.4141 20.3217 48.7634
18162 1 77.4533 13.2166 53.7143
18163 2 77.0266 12.7797 54.5061
18164 2 76.7438 13.5199 53.0783
18165 1 67.2409 0.256211 75.506
18166 2 67.8391 0.564525 74.7663
18167 2 66.5467 0.953229 75.6858
18168 1 62.6196 0.176971 29.3732
18169 2 61.7559 29.9005 28.9519
18170 2 63.0896 0.825931 28.7748
18171 1 56.029 8.52295 83.3648
18172 2 56.8566 8.92066 83.761
18173 2 55.2245 8.91042 83.815
18174 1 18.823 7.09755 59.8339
18175 2 19.1986 7.86184 60.3581
18176 2 19.0383 6.23788 60.2972
18177 1 40.0973 27.2068 42.8438
18178 2 39.3158 27.7065 43.2175
18179 2 40.321 27.5669 41.9382
18180 1 31.3167 23.4861 74.6173
18181 2 31.0811 24.0695 73.84
18182 2 30.582 22.8259 74.7733
18183 1 0.547698 19.5665 80.814
18184 2 0.574613 18.8017 81.4577
18185 2 79.6714 19.566 80.3322
18186 1 53.9012 3.36159 52.9683
18187 2 53.8035 2.77867 53.7749
18188 2 53.241 4.11112 53.0167
18189 1 54.9593 9.8029 69.1707
18190 2 54.3848 9.20856 69.7335
18191 2 55.1616 10.6437 69.6729
18192 1 39.2259 8.20576 79.5865
18193 2 38.8198 8.80843 80.2734
18194 2 39.23 7.26598 79.9282
18195 1 30.5051 2.08894 49.7204
18196 2 31.5042 2.04808 49.7265
18197 2 30.1873 2.5957 50.5218
18198 1 31.5994 29.5222 80.224
18199 2 32.169 0.339336 80.3125
18200 2 31.429 29.1349 81.1301
18201 1 26.0373 19.9053 61.1691
18202 2 26.0748 19.9982 60.1742
18203 2 26.3133 20.7669 61.595
18204 1 1.94792 20.9988 77.9876
18205 2 2.70373 21.3321 78.5512
18206 2 1.40815 20.3389 78.5103
18207 1 74.8276 13.5588 18.0794
18208 2 75.0103 12.6595 17.682
18209 2 75.6709 13.9283 18.4698
18210 1 31.7254 0.526806 84.1315
18211 2 32.7064 0.334804 84.1604
18212 2 31.5588 1.45976 84.4506
18213 1 16.8701 20.2796 58.6202
18214 2 17.495 21.0593 58.6609
18215 2 17.2129 19.6119 57.9594
18216 1 46.5109 16.8917 60.7756
18217 2 47.1007 16.5748 61.5184
18218 2 46.0924 17.7632 61.031
18219 1 37.6814 11.3724 53.8209
18220 2 38.233 10.5635 53.6174
18221 2 36.7424 11.0934 54.0224
18222 1 37.6278 12.013 86.2385
18223 2 38.4539 11.8105 86.7644
18224 2 37.059 12.6593 86.747
18225 1 19.5585 9.40022 44.4805
18226 2 20.2809 9.96879 44.0871
18227 2 19.5862 8.49111 44.0648
18228 1 46.441 4.27113 84.2672
18229 2 46.7989 5.11047 83.8581
18230 2 47.0521 3.50906 84.0531
18231 1 2.26178 23.6786 84.5327
18232 2 2.0469 22.7116 84.6695
18233 2 1.8649 24.2167 85.2763
18234 1 71.0732 18.9472 86.1382
18235 2 71.7114 19.1185 86.8888
18236 2 71.4581 19.3017 85.286
18237 1 78.7117 16.9183 68.1545
18238 2 79.6895 16.7303 68.0622
18239 2 78.5817 17.8538 68.4831
18240 1 61.86 5.68479 76.4401
18241 2 62.0858 4.86946 75.907
18242 2 61.0269 5.51804 76.9674
18243 1 51.1739 24.9061 78.0417
18244 2 51.6512 25.6287 78.5417
18245 2 50.6181 24.3714 78.6783
18246 1 14.8074 16.2029 84.1204
18247 2 13.8789 16.4727 83.8655
18248 2 15.06 16.6484 84.9794
18249 1 30.6919 3.15802 55.5822
18250 2 30.7689 2.84417 56.5286
18251 2 31.372 3.87089 55.4111
18252 1 36.1742 26.9258 48.1308
18253 2 35.2638 27.0998 48.5061
18254 2 36.7799 26.6068 48.8598
18255 1 14.2359 10.798 64.4048
18256 2 14.7413 11.1722 63.6272
18257 2 14.053 11.5264 65.0651
18258 1 18.6644 16.1335 51.4684
18259 2 17.8709 16.2677 50.8748
18260 2 19.5012 16.188 50.9236
18261 1 32.3438 17.2354 77.7632
18262 2 31.5717 16.6026 77.7045
18263 2 32.3269 17.7006 78.6482
18264 1 27.2539 9.68537 78.3997
18265 2 27.5023 8.9534 77.7653
18266 2 28.0568 9.95058 78.9335
18267 1 70.0276 20.4702 42.6057
18268 2 69.0825 20.6058 42.9032
18269 2 70.1099 20.7087 41.6381
18270 1 41.1674 26.4625 56.759
18271 2 40.8215 25.5308 56.6481
18272 2 40.4346 27.1152 56.5664
18273 1 44.8979 1.75848 38.4256
18274 2 45.1478 1.27206 39.2628
18275 2 44.4603 1.12337 37.7892
18276 1 40.9216 24.0877 83.7084
18277 2 40.7496 25.0566 83.8866
18278 2 40.4892 23.5358 84.4214
18279 1 42.4553 14.3815 59.0917
18280 2 41.8068 14.8082 59.7221
18281 2 42.0773 14.3937 58.1659
18282 1 17.5792 14.2219 83.7467
18283 2 17.0791 13.9839 84.5793
18284 2 18.5451 14.3596 83.9659
18285 1 12.1612 7.39936 60.0731
18286 2 12.3342 8.21695 59.524
18287 2 12.0799 7.65583 61.0363
18288 1 37.3959 0.651006 41.41
18289 2 37.862 0.500896 40.5381
18290 2 37.8141 0.0777568 42.1146
18291 1 18.427 2.11154 50.7985
18292 2 18.1854 3.08171 50.7784
18293 2 17.7316 1.60535 51.3086
18294 1 37.003 22.7833 60.6388
18295 2 36.8322 23.7657 60.7144
18296 2 37.9811 22.6245 60.5044
18297 1 76.9291 23.4232 47.8551
18298 2 77.7839 22.9332 47.6843
18299 2 76.3787 22.9129 48.516
18300 1 71.1734 22.3205 90.7221
18301 2 70.7423 22.8049 91.4834
18302 2 70.7987 22.6567 89.8581
18303 1 8.21217 1.60755 70.0063
18304 2 8.99692 2.16248 70.2824
18305 2 8.1981 0.76159 70.5394
18306 1 11.4476 28.3325 12.636
18307 2 11.1105 28.9621 11.936
18308 2 11.9765 27.6034 12.2017
18309 1 66.5951 25.5886 37.9475
18310 2 66.7972 26.2825 38.6387
18311 2 66.7845 24.6807 38.3214
18312 1 31.6446 17.1308 69.8296
18313 2 31.5201 18.0813 70.1142
18314 2 31.8986 17.1028 68.8628
18315 1 49.5347 12.1293 90.6975
18316 2 49.989 11.5317 91.3582
18317 2 49.044 11.5727 90.0271
18318 1 14.2193 16.9255 32.1206
18319 2 14.8119 17.5685 31.6355
18320 2 13.9877 17.2985 33.0191
18321 1 15.7386 21.762 34.9022
18322 2 16.696 21.7724 35.1908
18323 2 15.4315 22.6984 34.7324
18324 1 39.7475 28.5294 70.1989
18325 2 38.7919 28.2813 70.3581
18326 2 40.3369 27.987 70.7976
18327 1 30.191 0.292709 44.251
18328 2 29.3551 0.0746663 44.7548
18329 2 30.8051 29.5036 44.2667
18330 1 55.4954 24.2952 77.8581
18331 2 56.2481 23.8287 78.3227
18332 2 55.7602 25.2387 77.6589
18333 1 23.4381 25.0117 68.9422
18334 2 23.1079 25.845 69.3855
18335 2 22.7419 24.2974 69.0143
18336 1 16.7502 4.52258 29.1229
18337 2 17.5108 4.77898 29.7193
18338 2 17.0881 4.38661 28.1916
18339 1 77.8831 15.0389 38.85
18340 2 78.416 15.1985 39.6809
18341 2 78.3593 14.3776 38.2704
18342 1 16.825 8.25162 71.6289
18343 2 16.831 9.04755 71.0235
18344 2 17.6885 8.20848 72.1313
18345 1 10.7292 28.6542 60.7307
18346 2 11.4369 29.2364 61.131
18347 2 11.1156 27.7559 60.5214
18348 1 49.9978 0.820254 81.041
18349 2 49.4719 1.55867 80.6189
18350 2 50.0574 0.0489977 80.4073
18351 1 9.30923 16.9696 17.7781
18352 2 8.70907 16.4418 17.1771
18353 2 9.83645 17.6218 17.2334
18354 1 0.913908 27.4986 87.8279
18355 2 1.22178 26.7473 87.2442
18356 2 0.034545 27.2613 88.2406
18357 1 5.76532 27.0395 23.4537
18358 2 5.46102 27.6507 24.1843
18359 2 4.96866 26.6473 22.9938
18360 1 65.9979 23.1854 55.7222
18361 2 66.3756 23.1489 54.797
18362 2 66.4694 22.5202 56.3012
18363 1 18.6812 21.6024 87.1435
18364 2 18.7324 20.7368 87.6418
18365 2 18.2155 21.4574 86.2705
18366 1 49.6243 7.31233 50.6536
18367 2 49.1226 8.0281 50.1679
18368 2 49.0301 6.8978 51.3428
18369 1 15.9477 25.3293 84.6765
18370 2 15.5842 26.25 84.5346
18371 2 16.4325 25.0319 83.854
18372 1 56.2516 17.1876 36.0663
18373 2 55.6357 16.6175 35.5226
18374 2 56.9378 17.6015 35.4681
18375 1 62.5975 10.1341 23.3176
18376 2 62.5538 9.21995 22.9145
18377 2 62.6547 10.8171 22.5895
18378 1 54.7249 9.10906 77.4775
18379 2 55.5057 9.52603 77.9428
18380 2 54.0051 8.91404 78.1438
18381 1 0.224401 2.98979 56.9545
18382 2 79.4844 3.65484 56.8543
18383 2 0.351433 2.77592 57.9231
18384 1 70.2898 12.2968 76.8257
18385 2 69.3532 12.3207 76.4761
18386 2 70.3861 12.9615 77.5665
18387 1 8.22263 15.5683 82.7255
18388 2 7.65637 15.3847 81.922
18389 2 7.70136 15.3646 83.5542
18390 1 71.9941 23.3624 16.782
18391 2 72.882 23.206 17.2145
18392 2 72.1192 23.9026 15.9498
18393 1 28.1713 8.6468 66.829
18394 2 27.625 8.98477 66.0627
18395 2 27.6381 7.98033 67.3501
18396 1 0.339962 18.2674 16.9549
18397 2 0.985594 17.6977 17.4634
18398 2 0.828376 18.768 16.2402
18399 1 67.9302 22.2772 60.9942
18400 2 68.6726 21.7072 60.642
18401 2 67.5734 21.8758 61.8378
18402 1 59.9224 19.586 84.1671
18403 2 60.3289 20.4829 84.341
18404 2 60.558 19.0302 83.6312
18405 1 2.63293 2.27714 71.2589
18406 2 2.28882 2.38207 70.3258
18407 2 1.91045 2.51236 71.909
18408 1 0.723929 15.8342 23.4744
18409 2 1.36905 16.4013 22.9623
18410 2 0.492251 15.0239 22.9362
18411 1 9.88123 14.3175 18.3532
18412 2 10.1062 14.8507 17.5377
18413 2 8.92992 14.0137 18.3009
18414 1 32.1946 16.1651 87.3706
18415 2 33.1414 16.1788 87.6921
18416 2 31.7423 17.0186 87.6293
18417 1 60.5346 24.5987 88.2934
18418 2 59.8465 24.5868 87.5678
18419 2 60.0851 24.7297 89.177
18420 1 69.8466 23.3868 38.7149
18421 2 70.7091 23.8927 38.7032
18422 2 69.9633 22.5409 39.2353
18423 1 8.40308 8.60648 86.0961
18424 2 9.17868 9.23229 86.0136
18425 2 8.52747 7.83713 85.4694
18426 1 62.1055 29.1247 77.7804
18427 2 61.4467 29.1392 78.5326
18428 2 61.6877 29.5229 76.9638
18429 1 2.26335 28.9793 32.7232
18430 2 1.90966 28.9034 31.7909
18431 2 1.62245 28.549 33.3589
18432 1 34.2785 7.23551 56.4761
18433 2 34.1602 6.24763 56.5764
18434 2 34.1654 7.48884 55.5153
18435 1 20.0734 0.138607 64.1778
18436 2 19.8974 0.443481 65.1138
18437 2 19.9334 29.1503 64.1173
18438 1 75.3137 7.21623 62.276
18439 2 74.7996 7.42467 61.444
18440 2 75.1893 6.2525 62.5121
18441 1 62.3133 26.992 23.266
18442 2 62.8535 26.7835 24.0812
18443 2 61.3543 27.1109 23.523
18444 1 20.0668 0.807724 86.2926
18445 2 19.9574 1.78713 86.4623
18446 2 21.0385 0.593124 86.1933
18447 1 32.6533 5.40977 90.4308
18448 2 31.9977 6.06809 90.8006
18449 2 33.0979 5.79928 89.6242
18450 1 51.0345 13.5243 79.7212
18451 2 50.8342 13.7216 80.6809
18452 2 50.829 14.3299 79.1654
18453 1 68.748 19.4347 89.0855
18454 2 69.5923 19.4381 89.6212
18455 2 68.1634 18.6825 89.3895
18456 1 53.8505 25.1741 55.5568
18457 2 53.2404 24.5991 56.1019
18458 2 53.471 25.2858 54.6384
18459 1 13.4975 1.61174 83.1814
18460 2 13.9306 1.26485 84.0133
18461 2 12.8396 0.939044 82.8427
18462 1 48.9531 3.80972 33.0801
18463 2 48.4295 2.96107 33.1551
18464 2 49.0105 4.24642 33.9779
18465 1 1.49303 16.5002 74.1488
18466 2 1.79026 17.4211 74.401
18467 2 2.00641 16.1919 73.348
18468 1 7.66329 3.5636 58.8085
18469 2 7.21305 2.67162 58.7676
18470 2 7.07557 4.25333 58.3856
18471 1 38.1828 5.58242 68.7083
18472 2 38.8474 6.24889 69.0462
18473 2 38.5468 4.65873 68.8279
18474 1 38.3096 8.50105 54.6967
18475 2 37.6129 7.84439 54.4079
18476 2 39.2013 8.21798 54.3436
18477 1 11.1386 4.00181 78.8162
18478 2 10.9222 4.78627 78.235
18479 2 10.6787 4.10355 79.6983
18480 1 62.3302 9.10509 77.5314
18481 2 61.8749 8.36623 78.0281
18482 2 61.7958 9.33963 76.7194
18483 1 69.6695 10.1483 59.2666
18484 2 70.202 9.88757 58.4613
18485 2 69.2233 9.33857 59.6476
18486 1 41.0557 26.5541 38.1839
18487 2 40.6572 26.8945 39.0356
18488 2 42.005 26.8605 38.1143
18489 1 63.9856 5.52437 85.5948
18490 2 64.8384 5.19827 85.1869
18491 2 63.3394 5.76348 84.8701
18492 1 79.0995 28.7815 38.3069
18493 2 79.2817 27.9183 37.8362
18494 2 79.5455 29.5297 37.8155
18495 1 31.3909 25.7847 40.2853
18496 2 31.5526 26.306 41.1232
18497 2 30.4621 25.4142 40.2972
18498 1 43.1322 7.4415 65.9119
18499 2 42.2045 7.39313 66.2821
18500 2 43.4466 6.5212 65.679
18501 1 76.0104 24.0874 59.5755
18502 2 76.28 24.6945 60.323
18503 2 75.86 23.1655 59.9326
18504 1 71.1946 8.39944 16.759
18505 2 72.0109 8.1538 17.2818
18506 2 71.1679 7.86696 15.913
18507 1 70.1856 2.77621 50.9562
18508 2 69.934 2.14928 50.2188
18509 2 70.8421 3.448 50.6131
18510 1 70.2224 18.5455 60.9218
18511 2 70.3363 19.5328 61.0328
18512 2 70.9919 18.071 61.3493
18513 1 13.6226 28.8702 63.4907
18514 2 12.8815 28.2923 63.8324
18515 2 14.4978 28.525 63.8296
18516 1 11.8504 6.85396 56.2898
18517 2 10.9892 7.32179 56.0912
18518 2 12.5229 7.08028 55.585
18519 1 18.2127 26.4334 59.3939
18520 2 18.2915 26.0192 58.4872
18521 2 18.5067 25.7758 60.0875
18522 1 60.047 11.5727 86.2815
18523 2 59.421 12.349 86.3558
18524 2 60.351 11.3011 87.1947
18525 1 52.0677 16.6139 80.8148
18526 2 51.1336 16.5513 80.4634
18527 2 52.2862 15.7853 81.3302
18528 1 30.5291 8.77752 46.2344
18529 2 31.0573 9.35925 45.6158
18530 2 29.616 9.16583 46.3588
18531 1 66.6907 4.38837 41.1276
18532 2 67.6309 4.66954 40.9352
18533 2 66.6722 3.83461 41.96
18534 1 64.6067 29.2332 72.821
18535 2 64.3484 28.5613 72.1269
18536 2 65.0742 28.7711 73.5746
18537 1 32.9519 13.7776 55.7629
18538 2 32.0889 14.1893 55.4701
18539 2 33.3874 13.3267 54.9838
18540 1 16.256 24.7569 21.8485
18541 2 16.0006 25.5088 22.4563
18542 2 16.6299 24.0034 22.3892
18543 1 54.9669 4.67342 48.262
18544 2 54.0892 5.12647 48.1059
18545 2 55.4831 4.6429 47.406
18546 1 34.1436 25.1275 52.5656
18547 2 34.3865 24.4624 51.8594
18548 2 33.1725 25.3541 52.4901
18549 1 1.64766 4.33033 19.3353
18550 2 2.15588 3.49708 19.5531
18551 2 2.11319 5.11915 19.7366
18552 1 64.1987 3.04142 20.316
18553 2 63.963 2.07099 20.264
18554 2 63.6064 3.56171 19.7008
18555 1 77.088 25.5822 71.1893
18556 2 77.9193 25.0265 71.194
18557 2 76.3135 25.0211 70.8972
18558 1 1.98802 14.2393 35.8797
18559 2 2.24511 13.2862 36.0399
18560 2 2.62555 14.8417 36.36
18561 1 2.90173 1.55368 32.4762
18562 2 2.82805 0.577154 32.6786
18563 2 2.97568 2.06669 33.3314
18564 1 71.8203 17.6536 54.9525
18565 2 72.5546 16.9767 55.0036
18566 2 70.94 17.2021 55.0984
18567 1 4.27021 7.77774 76.8367
18568 2 3.29787 7.87672 77.0482
18569 2 4.46519 6.82519 76.603
18570 1 73.2481 21.2991 29.3292
18571 2 72.8085 21.6655 28.5092
18572 2 73.0634 21.9029 30.1046
18573 1 5.92464 3.98723 61.4189
18574 2 5.64235 3.03091 61.343
18575 2 5.47609 4.40546 62.2088
18576 1 8.79294 3.62171 43.6806
18577 2 8.81287 3.4087 42.7038
18578 2 8.08966 4.31031 43.8574
18579 1 11.2118 5.16114 23.1498
18580 2 11.059 4.81308 24.0747
18581 2 12.1587 4.98611 22.88
18582 1 28.5739 9.15703 72.1184
18583 2 29.0549 9.38636 71.2722
18584 2 28.0889 8.2903 72.0017
18585 1 12.1923 5.22989 63.8
18586 2 12.1812 4.42959 64.3994
18587 2 13.0165 5.21086 63.2339
18588 1 8.0991 8.34133 73.9203
18589 2 9.04421 8.30156 74.2447
18590 2 7.93676 7.59551 73.2743
18591 1 56.4284 4.44738 45.972
18592 2 56.0207 4.64423 45.0804
18593 2 56.5038 3.45757 46.0928
18594 1 3.33811 11.6418 20.119
18595 2 4.29974 11.9105 20.0633
18596 2 2.8231 12.3459 20.6078
18597 1 53.0723 9.25534 61.6076
18598 2 53.7893 9.02256 60.9505
18599 2 53.3905 9.99559 62.1998
18600 1 48.8618 4.49079 36.1311
18601 2 49.2694 5.38779 36.3021
18602 2 49.0745 3.87747 36.8917
18603 1 70.0039 26.0478 36.5411
18604 2 70.7785 26.3781 36.0018
18605 2 70.2657 25.9985 37.505
18606 1 17.1682 12.8138 32.5061
18607 2 17.2219 11.9516 32.0024
18608 2 18.0864 13.0939 32.7862
18609 1 76.5396 29.2814 36.6049
18610 2 77.51 29.079 36.7368
18611 2 76.0197 28.9489 37.3918
18612 1 17.0094 19.9594 49.3685
18613 2 17.9181 19.6776 49.6768
18614 2 16.9219 20.952 49.4524
18615 1 22.4469 6.47968 57.3734
18616 2 23.124 7.20828 57.2702
18617 2 22.4906 5.86952 56.5823
18618 1 3.15651 19.7909 29.5924
18619 2 3.69737 19.3048 30.2787
18620 2 3.21527 20.7754 29.7578
18621 1 32.8006 9.18775 78.7085
18622 2 32.1329 9.9321 78.6981
18623 2 32.3215 8.31061 78.7409
18624 1 17.7568 11.4631 82.2942
18625 2 17.0529 10.8233 82.6027
18626 2 17.4304 12.4008 82.4138
18627 1 78.822 16.306 45.288
18628 2 79.3407 15.6814 44.7043
18629 2 77.8431 16.1548 45.1511
18630 1 44.9585 0.436756 67.346
18631 2 44.7096 29.4797 67.4948
18632 2 44.2536 1.02903 67.7364
18633 1 26.1019 15.6331 37.6981
18634 2 27.0649 15.5925 37.9647
18635 2 25.527 15.4674 38.4993
18636 1 41.2362 14.3729 56.5654
18637 2 41.541 14.2943 55.6163
18638 2 40.2452 14.2463 56.6088
18639 1 45.5604 2.67916 62.0717
18640 2 45.3835 1.75311 61.7383
18641 2 45.5829 2.67488 63.0715
18642 1 65.4056 16.7352 35.9443
18643 2 64.6071 16.5049 35.3881
18644 2 66.1584 16.1167 35.7189
18645 1 36.9564 10.8101 46.4474
18646 2 37.0595 11.8021 46.3746
18647 2 36.7697 10.4272 45.5426
18648 1 19.2819 21.6576 53.132
18649 2 18.5111 22.2789 53.2725
18650 2 19.4816 21.5899 52.1545
18651 1 52.324 9.65207 49.0447
18652 2 52.1892 8.78805 48.5596
18653 2 52.8076 10.2955 48.4513
18654 1 1.77498 19.415 89.7499
18655 2 1.41497 20.3442 89.8332
18656 2 1.01594 18.7644 89.7254
18657 1 18.8037 27.2838 40.7892
18658 2 19.4022 26.5587 41.13
18659 2 18.3855 27.7614 41.5619
18660 1 79.3262 24.1129 88.1157
18661 2 79.9746 24.6958 87.626
18662 2 79.7889 23.2791 88.4165
18663 1 42.5324 10.9955 90.2216
18664 2 43.1126 10.3065 89.7872
18665 2 42.8823 11.9079 90.0092
18666 1 35.1075 20.9736 62.5172
18667 2 35.0588 20.6276 61.5802
18668 2 34.254 20.7645 62.9945
18669 1 51.4253 1.3458 74.6152
18670 2 52.1031 0.631166 74.7879
18671 2 51.7738 1.97489 73.9204
18672 1 38.795 19.5549 79.8716
18673 2 38.738 18.9345 80.6538
18674 2 38.4785 19.0835 79.0484
18675 1 21.4551 23.1465 88.4557
18676 2 22.251 22.6824 88.0669
18677 2 20.6263 22.8303 87.994
18678 1 4.94056 23.5854 22.4619
18679 2 4.45304 22.7422 22.6882
18680 2 4.29024 24.3435 22.4129
18681 1 67.7414 20.1234 13.9399
18682 2 67.9621 20.4159 13.0095
18683 2 68.5222 20.3006 14.539
18684 1 10.496 7.4226 17.788
18685 2 9.54516 7.68435 17.9536
18686 2 11.0903 8.21255 17.939
18687 1 43.596 0.123109 70.8049
18688 2 42.9523 29.415 71.0952
18689 2 43.1819 0.672818 70.0794
18690 1 30.5165 24.5103 62.5501
18691 2 30.738 24.3335 63.5091
18692 2 30.2375 23.6569 62.1097
18693 1 16.0854 29.2038 77.9959
18694 2 15.4707 29.7292 78.5842
18695 2 15.5707 28.8324 77.2232
18696 1 63.3261 12.6845 58.2369
18697 2 63.9419 11.9301 58.0097
18698 2 62.8151 12.9549 57.4209
18699 1 43.2035 11.1634 81.0313
18700 2 43.8428 10.6557 81.6088
18701 2 42.4721 11.5432 81.5976
18702 1 15.5761 28.4692 65.3898
18703 2 14.9964 29.1926 65.765
18704 2 16.2393 28.1816 66.0807
18705 1 16.5432 0.883739 52.1754
18706 2 16.4873 29.9123 51.9448
18707 2 15.6577 1.31741 52.0086
18708 1 72.2357 16.7418 17.5317
18709 2 71.8354 17.5787 17.1583
18710 2 71.6464 16.385 18.2566
18711 1 16.6282 12.0898 20.5281
18712 2 15.8104 11.931 21.0813
18713 2 16.9014 13.0487 20.6047
18714 1 78.9007 25.2092 24.0731
18715 2 78.9843 24.5954 24.8582
18716 2 79.4184 26.0466 24.2481
18717 1 10.6969 3.51626 69.9453
18718 2 10.8901 4.4925 70.0433
18719 2 11.4405 3.07842 69.44
18720 1 50.5949 17.9723 75.0712
18721 2 50.5953 18.4306 75.96
18722 2 49.6519 17.8184 74.776
18723 1 41.6592 0.110698 56.6471
18724 2 40.7789 0.492803 56.9284
18725 2 42.2161 0.828745 56.2297
18726 1 17.1184 27.2821 82.9104
18727 2 16.617 27.8453 83.5672
18728 2 16.7171 27.3932 82.0012
18729 1 6.92951 22.8135 50.192
18730 2 7.49517 21.9903 50.2407
18731 2 7.36536 23.5486 50.7113
18732 1 53.0741 18.1101 36.9462
18733 2 52.0789 18.0334 36.8847
18734 2 53.489 17.7367 36.1165
18735 1 36.2179 12.4323 68.1857
18736 2 36.2656 13.103 67.4455
18737 2 36.6263 11.5714 67.8823
18738 1 55.8861 14.1452 66.7814
18739 2 55.6547 13.2379 66.4303
18740 2 56.8298 14.367 66.5359
18741 1 45.4731 8.46393 74.9412
18742 2 46.2263 8.75877 75.5293
18743 2 45.1647 9.2343 74.3832
18744 1 8.23096 28.7109 30.4476
18745 2 8.2813 29.708 30.5043
18746 2 7.2817 28.418 30.5622
18747 1 61.0351 14.7317 33.2464
18748 2 61.8024 15.0788 33.7856
18749 2 60.1765 14.9457 33.7123
18750 1 77.5461 25.0216 66.3357
18751 2 76.9168 25.0192 67.1128
18752 2 77.1692 25.5885 65.6032
18753 1 22.5 5.10214 81.4866
18754 2 23.3745 4.77574 81.1279
18755 2 22.5161 5.06848 82.4859
18756 1 37.0395 25.7702 40.6352
18757 2 37.0128 26.2666 41.5029
18758 2 37.372 26.3777 39.9137
18759 1 22.6999 11.2776 77.9635
18760 2 22.5477 11.5177 77.0048
18761 2 23.6825 11.2355 78.1446
18762 1 13.1489 8.65661 83.7467
18763 2 13.3082 7.73162 83.4016
18764 2 13.9393 9.23174 83.5356
18765 1 72.5972 26.3778 80.904
18766 2 73.5226 26.7143 81.078
18767 2 71.9407 27.1183 81.048
18768 1 43.4129 13.7969 79.1728
18769 2 43.2588 13.1834 78.3982
18770 2 42.5624 13.9032 79.688
18771 1 45.6268 12.082 38.6358
18772 2 46.1277 12.2958 39.4745
18773 2 44.9822 11.3383 38.813
18774 1 68.5289 12.5152 56.7888
18775 2 69.4132 12.616 57.2448
18776 2 68.5928 11.8007 56.0921
18777 1 74.2874 15.4277 16.3748
18778 2 73.63 15.9618 16.9064
18779 2 74.4678 14.5616 16.8411
18780 1 36.1999 27.9168 82.7907
18781 2 35.9664 27.3313 82.0144
18782 2 36.8864 28.5868 82.5082
18783 1 56.0164 14.4049 90.6531
18784 2 55.3159 14.8333 91.2238
18785 2 55.5907 13.7227 90.0586
18786 1 56.3707 9.61453 44.2466
18787 2 55.6754 9.01377 43.852
18788 2 55.9303 10.4243 44.6345
18789 1 58.1267 2.25875 89.4265
18790 2 57.8598 2.82196 88.6444
18791 2 57.3901 1.61784 89.6425
18792 1 17.933 13.6937 78.7571
18793 2 17.2063 13.854 79.425
18794 2 18.3156 14.5699 78.464
18795 1 78.979 10.2705 63.4141
18796 2 78.2295 9.9982 62.8107
18797 2 79.2482 9.4933 63.9829
18798 1 1.41713 8.99805 74.2493
18799 2 1.43321 8.69854 75.2032
18800 2 1.05604 8.26314 73.6752
18801 1 10.5724 15.3314 15.6181
18802 2 10.3048 15.4357 14.6602
18803 2 11.5656 15.4165 15.6979
18804 1 42.9009 25.7401 41.0089
18805 2 43.1881 26.6549 40.7248
18806 2 43.275 25.5395 41.9144
18807 1 68.3244 6.67889 30.5225
18808 2 68.8235 5.81529 30.5936
18809 2 67.6512 6.73651 31.2598
18810 1 67.4118 3.74032 10.5456
18811 2 66.4502 3.73901 10.8201
18812 2 67.4887 3.4262 9.59937
18813 1 65.5347 29.664 13.5348
18814 2 65.0943 0.356428 12.9633
18815 2 65.5628 29.9825 14.4823
18816 1 59.6905 6.40839 39.3038
18817 2 60.6545 6.66391 39.3764
18818 2 59.4199 5.89374 40.1174
18819 1 12.8248 21.6542 36.686
18820 2 11.9652 21.4621 37.1595
18821 2 13.0649 22.6172 36.8088
18822 1 77.3893 25.1434 27.6487
18823 2 78.1747 24.5413 27.5048
18824 2 77.4648 25.5813 28.5445
18825 1 13.8316 12.7632 75.8558
18826 2 14.4334 13.4383 76.2825
18827 2 13.4445 12.169 76.5609
18828 1 71.0732 29.5674 39.4829
18829 2 71.7799 29.1609 40.0619
18830 2 70.7354 0.40676 39.9087
18831 1 35.9434 2.84187 64.8103
18832 2 35.5711 2.02107 65.2434
18833 2 35.6803 3.64746 65.3411
18834 1 8.25031 20.9927 65.0561
18835 2 9.19938 20.6927 64.9598
18836 2 8.22753 21.9787 65.2215
18837 1 7.64491 6.13525 36.982
18838 2 8.34504 5.43307 37.1115
18839 2 7.34469 6.47493 37.8733
18840 1 25.4596 23.9036 43.1787
18841 2 24.6879 23.9795 43.8101
18842 2 25.6841 24.8082 42.8164
18843 1 32.9732 21.0523 66.1078
18844 2 31.9821 20.9189 66.0985
18845 2 33.3986 20.3501 66.6787
18846 1 46.9704 14.9627 34.8333
18847 2 47.4417 14.8002 33.9665
18848 2 47.3758 15.7547 35.2898
18849 1 40.5119 25.8221 86.9742
18850 2 40.4199 24.8263 86.9693
18851 2 40.2557 26.1849 86.0783
18852 1 45.635 7.30979 88.2577
18853 2 44.9812 7.98134 88.6065
18854 2 45.8935 6.68331 88.993
18855 1 67.0788 27.8169 79.6221
18856 2 67.6319 28.5545 80.0094
18857 2 67.5871 26.9572 79.6727
18858 1 18.988 23.4165 67.9452
18859 2 18.6554 22.6569 68.5041
18860 2 19.1087 23.1082 67.0016
18861 1 74.3436 12.7462 54.1875
18862 2 74.3364 12.4783 55.151
18863 2 73.9074 13.6405 54.087
18864 1 72.6071 25.1433 19.2323
18865 2 73.0705 24.3087 18.9345
18866 2 72.7321 25.8577 18.5438
18867 1 54.219 28.3588 46.0348
18868 2 54.4295 28.9386 45.2476
18869 2 53.7893 27.5125 45.72
18870 1 28.8987 10.6979 90.5942
18871 2 28.0333 11.0752 90.924
18872 2 28.7147 9.95067 89.9556
18873 1 24.8151 2.43879 75.4229
18874 2 25.7939 2.24682 75.3522
18875 2 24.296 1.62603 75.1583
18876 1 56.9344 11.3936 82.5102
18877 2 56.8149 11.941 81.6818
18878 2 56.8141 10.4255 82.2902
18879 1 7.12238 20.8243 90.2558
18880 2 7.26557 19.8699 90.5178
18881 2 7.86646 21.1209 89.6571
18882 1 4.52668 13.8785 76.8309
18883 2 4.58547 14.6796 76.2352
18884 2 3.60884 13.486 76.772
18885 1 69.8299 17.5784 43.3225
18886 2 69.8645 18.5743 43.2391
18887 2 68.8913 17.2925 43.516
18888 1 76.2202 8.19075 77.6309
18889 2 75.3617 8.69605 77.7183
18890 2 76.0257 7.21218 77.5636
18891 1 66.9796 18.0202 81.2051
18892 2 67.2967 17.6988 80.3128
18893 2 66.0206 18.2957 81.1386
18894 1 12.0888 3.87853 32.213
18895 2 12.4174 4.03752 33.144
18896 2 12.8509 3.9639 31.5713
18897 1 43.9677 27.3303 88.4199
18898 2 44.8043 27.7618 88.7575
18899 2 43.4123 28.0098 87.9404
18900 1 71.1439 13.7873 17.2161
18901 2 71.1396 12.8241 16.9473
18902 2 71.4495 13.8672 18.1649
18903 1 6.63169 13.2541 50.9198
18904 2 6.99713 12.361 51.1821
18905 2 7.1645 13.6215 50.1574
18906 1 67.3311 17.7741 66.0684
18907 2 67.3974 18.4622 66.7909
18908 2 67.0279 18.2092 65.2205
18909 1 24.7724 28.7097 84.5623
18910 2 24.8689 29.2295 83.7135
18911 2 24.168 29.2026 85.1882
18912 1 76.0418 1.50266 12.9753
18913 2 76.5472 0.711358 13.3193
18914 2 75.2919 1.19116 12.3916
18915 1 48.1734 13.6151 55.1121
18916 2 48.4581 14.5088 54.7653
18917 2 47.3954 13.283 54.5789
18918 1 5.94286 17.8973 90.3722
18919 2 5.01304 17.5328 90.4231
18920 2 6.54044 17.226 89.9337
18921 1 73.4263 21.3469 67.6718
18922 2 73.7077 20.5716 68.2372
18923 2 74.1634 21.5824 67.0384
18924 1 9.57038 6.64392 48.7968
18925 2 9.31233 6.41616 49.7357
18926 2 9.74388 5.80232 48.2853
18927 1 79.2293 26.841 80.3149
18928 2 79.8591 26.9724 79.5493
18929 2 79.748 26.6034 81.1362
18930 1 35.1719 14.4703 46.9719
18931 2 35.2624 15.4498 47.1518
18932 2 35.9858 14.143 46.4919
18933 1 24.0871 28.6416 63.4875
18934 2 23.6077 29.4305 63.872
18935 2 24.5102 28.1163 64.2258
18936 1 75.7566 1.1982 25.4986
18937 2 75.2393 2.04321 25.6343
18938 2 75.1589 0.412374 25.6576
18939 1 74.57 14.1524 77.6764
18940 2 74.9236 15.0514 77.9347
18941 2 73.7332 13.9631 78.1901
18942 1 68.662 15.9184 28.3528
18943 2 69.0913 16.8216 28.3512
18944 2 68.135 15.8013 29.1946
18945 1 57.4523 7.35769 32.1675
18946 2 57.2123 6.94181 33.0447
18947 2 57.1878 8.32206 32.1724
18948 1 5.5748 20.7439 54.9654
18949 2 6.27911 20.0489 55.1097
18950 2 4.70375 20.4169 55.3319
18951 1 69.0927 22.8622 79.3156
18952 2 68.2382 22.3462 79.3759
18953 2 69.5315 22.6786 78.4359
18954 1 21.9901 11.3532 40.1471
18955 2 21.0318 11.1671 40.3642
18956 2 22.272 10.7881 39.3718
18957 1 26.2065 2.69824 85.0152
18958 2 26.2918 3.64893 84.7171
18959 2 25.276 2.53374 85.3424
18960 1 69.96 9.64097 74.9651
18961 2 70.7337 9.52735 74.3417
18962 2 69.165 9.15555 74.6015
18963 1 8.43579 18.5668 77.3226
18964 2 8.90174 17.7109 77.5469
18965 2 7.50509 18.369 77.015
18966 1 47.7703 19.6544 44.5047
18967 2 47.7022 18.8803 43.8753
18968 2 46.8999 19.7729 44.9826
18969 1 75.4325 9.68055 54.0612
18970 2 75.7243 9.26759 54.924
18971 2 75.0497 10.5872 54.2383
18972 1 79.0551 5.14032 19.296
18973 2 78.7854 5.76719 18.565
18974 2 79.9753 4.79323 19.1149
18975 1 56.8112 28.569 74.9419
18976 2 56.1226 28.105 75.4993
18977 2 56.392 29.3469 74.4737
18978 1 14.2851 21.9219 41.5742
18979 2 13.3971 21.6964 41.1736
18980 2 14.9537 22.0636 40.8442
18981 1 59.8605 2.85881 74.9267
18982 2 60.8001 3.14939 75.1076
18983 2 59.7712 2.5991 73.9651
18984 1 76.3896 3.20387 39.2754
18985 2 75.8305 2.44034 39.5985
18986 2 76.8706 3.61569 40.0493
18987 1 68.4003 27.5956 45.8713
18988 2 67.7138 28.0673 45.3179
18989 2 68.0707 27.5127 46.8118
18990 1 72.5031 13.6462 79.3658
18991 2 71.5923 13.5713 79.7718
18992 2 73.1741 13.2183 79.9713
18993 1 30.1018 13.5201 52.4482
18994 2 30.6926 13.398 51.6506
18995 2 30.3962 14.3267 52.9607
18996 1 42.0661 0.222515 52.5944
18997 2 41.5394 29.8044 51.8543
18998 2 42.1499 29.5743 53.3513
18999 1 70.0883 24.1229 19.7008
19000 2 69.3852 24.7779 19.4242
19001 2 70.9121 24.6162 19.9801
19002 1 73.3291 20.5102 47.1672
19003 2 73.3234 21.2204 46.4632
19004 2 73.2616 20.9351 48.0699
19005 1 51.3471 23.5871 45.523
19006 2 51.9895 23.6058 44.7568
19007 2 50.4185 23.7361 45.183
19008 1 5.10495 17.2095 52.0448
19009 2 5.03159 17.4471 53.0134
19010 2 4.31801 16.6534 51.7775
19011 1 14.6413 22.6246 47.5573
19012 2 15.1044 22.8212 48.4215
19013 2 13.6524 22.7029 47.6838
19014 1 46.2818 26.7029 56.7474
19015 2 46.628 25.9707 57.3339
19016 2 47.0357 27.0881 56.2151
19017 1 78.8983 7.28696 13.3232
19018 2 79.0185 6.29514 13.3663
19019 2 79.2524 7.70238 14.161
19020 1 16.4913 26.4708 16.4368
19021 2 16.8845 25.735 15.8854
19022 2 15.7369 26.1098 16.9851
19023 1 13.9085 0.61792 29.5773
19024 2 14.4517 29.7903 29.7189
19025 2 14.1494 1.02831 28.6978
19026 1 6.63902 18.6862 32.5942
19027 2 5.8488 18.9011 32.0203
19028 2 6.65932 19.3056 33.379
19029 1 0.801786 2.04749 17.2667
19030 2 0.903982 2.60111 18.0931
19031 2 1.03391 2.59885 16.4653
19032 1 5.21586 21.4716 38.9665
19033 2 4.50852 20.9715 39.4661
19034 2 5.49768 22.2704 39.498
19035 1 61.1569 29.6501 25.9994
19036 2 60.8627 0.345066 25.3434
19037 2 60.8304 29.8942 26.9126
19038 1 9.70254 26.8315 55.5705
19039 2 10.4418 27.5003 55.6491
19040 2 9.06113 26.9531 56.328
19041 1 78.5188 20.2765 88.7405
19042 2 77.8088 20.8573 89.1387
19043 2 79.3768 20.7875 88.688
19044 1 73.1012 5.75593 71.8844
19045 2 73.6411 4.91433 71.8698
19046 2 73.6515 6.49842 72.2663
19047 1 73.1377 7.72304 46.403
19048 2 74.0135 7.25963 46.5381
19049 2 73.1379 8.1839 45.5155
19050 1 78.4447 15.0271 90.6202
19051 2 77.8924 15.8 90.9326
19052 2 79.4146 15.2605 90.6906
19053 1 14.6452 18.6487 48.9938
19054 2 14.3694 18.7331 48.0363
19055 2 15.5911 18.9567 49.0966
19056 1 62.8012 2.45276 57.7361
19057 2 62.2625 2.26517 58.5575
19058 2 63.3806 1.66419 57.5302
19059 1 4.73898 7.91708 22.547
19060 2 3.99995 8.50835 22.8699
19061 2 4.68263 7.82578 21.5528
19062 1 57.6708 15.1602 26.7133
19063 2 57.8703 16.0953 26.4205
19064 2 58.5265 14.6861 26.9206
19065 1 26.5629 29.9154 55.1589
19066 2 27.163 0.128805 55.9298
19067 2 26.6221 28.9391 54.9508
19068 1 66.8387 29.3113 30.4853
19069 2 66.5236 29.1787 29.5456
19070 2 66.0757 29.1688 31.1159
19071 1 54.9851 0.300306 44.4029
19072 2 54.4494 1.13569 44.5258
19073 2 55.7502 0.482821 43.7854
19074 1 67.6308 7.54155 63.6892
19075 2 66.8496 7.45643 64.3077
19076 2 67.9936 6.63269 63.4835
19077 1 76.7763 15.1378 29.4357
19078 2 76.1447 15.7619 28.9758
19079 2 77.5305 14.9124 28.8189
19080 1 45.3485 28.9544 64.3137
19081 2 45.3069 29.3072 63.3789
19082 2 44.6538 28.2452 64.4335
19083 1 77.8189 8.36879 83.6487
19084 2 78.1423 7.83254 82.869
19085 2 76.8203 8.3321 83.6873
19086 1 28.8081 16.6467 88.579
19087 2 27.9533 17.144 88.4312
19088 2 29.5751 17.1965 88.2482
19089 1 16.1695 19.9067 71.1763
19090 2 16.4512 20.6033 70.5164
19091 2 15.7678 19.1304 70.6906
19092 1 71.4373 7.66509 31.5509
19093 2 71.809 8.51801 31.9174
19094 2 70.4446 7.65521 31.6713
19095 1 17.1523 7.35447 55.2209
19096 2 17.6298 6.4865 55.3574
19097 2 17.7957 8.11093 55.3388
19098 1 54.432 27.6392 40.0434
19099 2 54.5161 26.6465 39.9569
19100 2 53.651 27.8577 40.6284
19101 1 13.3056 28.0145 84.8253
19102 2 14.2007 28.2245 84.432
19103 2 12.6781 27.7381 84.0973
19104 1 48.3803 29.4835 62.8247
19105 2 49.3104 29.8328 62.711
19106 2 47.8214 29.7634 62.0442
19107 1 52.9151 10.059 30.3928
19108 2 52.3077 10.2667 29.626
19109 2 52.6884 9.1582 30.7631
19110 1 8.45911 8.94934 15.4629
19111 2 8.89859 9.63578 16.0423
19112 2 9.00909 8.11417 15.46
19113 1 7.06551 12.112 61.7454
19114 2 6.42999 12.7232 61.2737
19115 2 7.90593 12.6083 61.9629
19116 1 5.03514 11.776 43.893
19117 2 4.6303 11.7857 44.8073
19118 2 6.03194 11.7987 43.9695
19119 1 17.7664 17.4393 30.1413
19120 2 17.7555 17.7709 29.1979
19121 2 17.5904 16.455 30.1507
19122 1 33.915 27.6434 41.7765
19123 2 33.3878 27.9826 42.5555
19124 2 34.7426 27.1892 42.1064
19125 1 19.9184 29.5897 53.0875
19126 2 20.0021 29.1922 52.1737
19127 2 20.6849 29.2872 53.6541
19128 1 10.1656 28.1609 51.2819
19129 2 10.2847 28.1344 50.2894
19130 2 10.3742 29.0792 51.6183
19131 1 27.469 3.60016 79.1401
19132 2 27.5685 4.52349 79.5109
19133 2 28.2812 3.36637 78.6055
19134 1 25.8262 18.5174 27.1976
19135 2 26.3365 18.7776 26.3779
19136 2 26.4668 18.2729 27.9255
19137 1 63.2387 15.9351 65.7514
19138 2 63.4265 16.6953 66.3733
19139 2 62.8291 15.1796 66.2626
19140 1 74.0575 11.3215 15.814
19141 2 73.0604 11.3314 15.8902
19142 2 74.3616 12.1323 15.3139
19143 1 72.2466 2.90427 20.677
19144 2 71.8256 3.12534 19.7973
19145 2 73.242 2.9106 20.5812
19146 1 2.25855 22.5962 13.0627
19147 2 1.33479 22.9753 13.1169
19148 2 2.33367 22.016 12.2517
19149 1 70.1673 21.514 22.8977
19150 2 70.5864 20.6654 23.2207
19151 2 70.2343 22.2115 23.6112
19152 1 73.1111 25.0184 89.8163
19153 2 73.6504 25.0628 88.9754
19154 2 72.2366 25.4828 89.6764
19155 1 45.497 17.7705 55.7722
19156 2 45.7808 17.1245 56.4807
19157 2 45.6299 18.7055 56.1011
19158 1 33.7748 27.4004 49.4625
19159 2 34.0142 28.1627 50.0637
19160 2 33.0829 27.699 48.805
19161 1 46.9927 3.5624 45.8972
19162 2 47.9147 3.17675 45.9316
19163 2 47.0096 4.49845 46.2487
19164 1 2.19329 6.29448 29.5054
19165 2 2.6607 5.62359 28.9297
19166 2 1.38793 6.64219 29.0254
19167 1 61.2219 3.70248 39.0028
19168 2 62.2092 3.578 38.9041
19169 2 60.9023 3.20577 39.8097
19170 1 25.8364 22.7364 62.3238
19171 2 26.5768 23.3025 61.9613
19172 2 25.0121 23.2927 62.4283
19173 1 40.9359 10.705 84.1193
19174 2 41.4998 11.047 84.8711
19175 2 41.027 11.3133 83.3309
19176 1 12.2083 22.4742 22.376
19177 2 11.4159 21.9007 22.5841
19178 2 11.9502 23.4377 22.4469
19179 1 44.6617 25.7024 54.2587
19180 2 44.1276 24.8643 54.3701
19181 2 45.0188 25.9906 55.1472
19182 1 8.11325 16.1807 60.3825
19183 2 7.96394 17.1504 60.1894
19184 2 8.72165 16.0876 61.1707
19185 1 50.1077 13.5501 38.0744
19186 2 49.3294 12.978 38.3334
19187 2 50.6127 13.8172 38.8952
19188 1 33.2194 14.3501 44.8913
19189 2 33.6585 14.0717 45.7456
19190 2 33.9201 14.5607 44.2096
19191 1 15.4983 8.09735 90.3893
19192 2 14.6601 8.08877 89.844
19193 2 15.9299 8.997 90.3231
19194 1 14.5786 4.55922 62.516
19195 2 15.0519 4.86924 63.3405
19196 2 14.9993 4.97993 61.7122
19197 1 43.7898 24.0002 57.5884
19198 2 44.3488 24.8228 57.4848
19199 2 44.3023 23.2057 57.2627
19200 1 23.7233 25.9865 85.8552
19201 2 22.8098 26.3165 86.0929
19202 2 24.4092 26.5133 86.3572
19203 1 8.30607 26.2711 42.5841
19204 2 8.19686 27.2297 42.3214
19205 2 8.16497 26.1774 43.5697
19206 1 73.212 6.1512 57.6145
19207 2 73.8995 5.58966 57.1541
19208 2 73.641 6.65602 58.3635
19209 1 22.8525 19.2292 48.9418
19210 2 22.6004 18.6864 48.1407
19211 2 22.9595 20.187 48.6752
19212 1 45.9697 23.1957 55.1185
19213 2 46.2054 22.9071 56.0465
19214 2 46.7357 23.7018 54.7221
19215 1 22.7981 1.49511 53.3072
19216 2 22.6297 2.29921 53.8773
19217 2 23.4147 0.870209 53.786
19218 1 45.098 16.7729 75.4548
19219 2 45.9025 16.1918 75.577
19220 2 45.0254 17.4079 76.2239
19221 1 4.08285 5.13177 45.9604
19222 2 3.54838 5.87275 46.367
19223 2 5.00974 5.14469 46.3356
19224 1 17.8093 6.80059 63.8654
19225 2 17.2156 6.0106 64.0184
19226 2 18.1679 7.12273 64.7416
19227 1 36.3592 12.4943 63.6462
19228 2 35.7203 11.9728 64.2117
19229 2 36.8521 11.8712 63.039
19230 1 58.2366 16.1789 71.1965
19231 2 58.5613 15.2461 71.3528
19232 2 57.8525 16.5446 72.0443
19233 1 19.963 29.2479 50.4003
19234 2 20.6996 28.9168 49.8105
19235 2 19.2211 29.6097 49.8357
19236 1 36.8357 16.186 85.847
19237 2 37.6147 16.7635 86.0915
19238 2 36.2068 16.1288 86.6224
19239 1 14.0625 20.2029 73.6376
19240 2 14.6072 20.5208 72.8615
19241 2 13.4488 19.4727 73.3372
19242 1 59.2975 28.908 81.631
19243 2 59.345 29.2696 82.5621
19244 2 59.5422 27.9384 81.6371
19245 1 7.68714 7.90673 65.7512
19246 2 8.29067 8.58285 65.3286
19247 2 6.87744 8.36536 66.1173
19248 1 3.37898 13.0399 79.9159
19249 2 3.21277 12.4294 79.1415
19250 2 2.6169 12.976 80.5603
19251 1 18.1536 27.3754 85.9528
19252 2 17.3156 27.7369 85.544
19253 2 18.4151 26.5309 85.4854
19254 1 17.6792 15.1397 34.9316
19255 2 18.3127 15.458 35.6369
19256 2 18.1903 14.6698 34.212
19257 1 35.0757 4.397 41.7886
19258 2 34.7832 3.44434 41.7057
19259 2 36.0697 4.45006 41.6927
19260 1 3.3732 24.0773 74.0244
19261 2 3.96737 23.93 73.2337
19262 2 3.02735 23.1973 74.35
19263 1 64.2365 0.869595 78.7276
19264 2 63.3902 0.34706 78.6245
19265 2 64.6716 0.979144 77.8339
19266 1 4.71806 0.716504 43.6379
19267 2 4.37989 0.92928 44.5546
19268 2 5.68347 0.460985 43.6898
19269 1 43.6664 21.1473 74.611
19270 2 44.3657 20.9638 73.9201
19271 2 44.0196 21.805 75.2763
19272 1 42.0293 13.2464 70.1867
19273 2 42.9728 12.9268 70.2741
19274 2 41.8267 13.428 69.2244
19275 1 34.0746 17.7234 65.2919
19276 2 33.246 17.9042 65.8218
19277 2 33.9653 18.0887 64.3674
19278 1 68.2379 8.96132 37.5281
19279 2 67.6 8.36316 37.043
19280 2 67.7781 9.81734 37.7643
19281 1 55.5891 17.8117 47.0588
19282 2 55.9487 18.5249 47.6604
19283 2 55.6213 18.128 46.1106
19284 1 61.5837 0.204581 72.7183
19285 2 61.2261 1.12713 72.5734
19286 2 61.1684 29.8111 73.5384
19287 1 10.7944 7.25441 14.0936
19288 2 11.519 7.87252 13.7888
19289 2 11.1968 6.49735 14.6084
19290 1 20.4506 12.0075 90.6487
19291 2 21.2237 11.9097 90.0221
19292 2 19.5958 11.9785 90.1306
19293 1 16.1345 18.9534 36.8543
19294 2 16.0648 19.0575 35.8622
19295 2 15.991 19.8403 37.2934
19296 1 73.9746 1.93667 81.8443
19297 2 73.4313 1.38172 81.2143
19298 2 74.9334 1.92066 81.5606
19299 1 23.4514 26.4677 37.868
19300 2 24.2879 26.6831 38.3718
19301 2 23.3842 25.4781 37.7409
19302 1 74.8011 24.1433 70.929
19303 2 74.0981 23.5723 71.3529
19304 2 74.378 24.9658 70.5488
19305 1 11.1901 21.3614 41.1468
19306 2 10.2236 21.3262 41.4012
19307 2 11.3113 21.9981 40.3853
19308 1 8.87567 11.2185 88.5126
19309 2 9.82469 11.449 88.7276
19310 2 8.50835 10.6203 89.2248
19311 1 42.9562 4.65318 76.4787
19312 2 42.4314 4.01405 77.041
19313 2 43.7977 4.21082 76.1685
19314 1 18.1099 19.467 32.9682
19315 2 17.6421 18.8042 33.5529
19316 2 18.9397 19.0536 32.5935
19317 1 12.1861 1.18411 42.4865
19318 2 11.2147 1.00169 42.6386
19319 2 12.4966 1.88929 43.1239
19320 1 41.1601 14.898 41.467
19321 2 40.422 14.4693 40.946
19322 2 41.0064 15.885 41.5125
19323 1 49.0105 13.0368 51.1911
19324 2 48.2467 13.5648 50.8199
19325 2 49.6177 13.644 51.7036
19326 1 48.2841 20.0221 74.6921
19327 2 48.7548 20.6462 74.0685
19328 2 47.7711 20.5507 75.3684
19329 1 50.9122 4.8977 44.4786
19330 2 50.3182 4.14371 44.7591
19331 2 51.8663 4.65186 44.6499
19332 1 13.8789 4.85592 71.4468
19333 2 14.5226 5.07765 72.1792
19334 2 13.3285 5.66254 71.2312
19335 1 64.2026 25.952 31.9694
19336 2 63.6179 25.171 32.1888
19337 2 65.1236 25.7887 32.3231
19338 1 40.0647 18.4917 61.0055
19339 2 39.4152 17.8583 60.5849
19340 2 40.973 18.0737 61.0247
19341 1 16.5715 9.7325 22.5227
19342 2 15.7839 10.2558 22.1975
19343 2 16.3228 9.23919 23.3562
19344 1 24.647 6.80978 62.702
19345 2 25.6132 6.6464 62.5027
19346 2 24.5091 6.82658 63.6923
19347 1 61.3771 7.80331 70.1016
19348 2 61.5601 7.13323 70.821
19349 2 60.3894 7.92355 70.0016
19350 1 45.023 22.7345 44.38
19351 2 44.3611 23.4642 44.2083
19352 2 44.9413 22.4266 45.3279
19353 1 19.6792 29.7561 19.1197
19354 2 19.8684 29.8352 18.1409
19355 2 19.4287 0.652849 19.4844
19356 1 8.56198 20.0605 15.6547
19357 2 8.65013 20.5691 14.7982
19358 2 9.47099 19.8809 16.0308
19359 1 26.1245 13.7606 86.4293
19360 2 25.144 13.6748 86.606
19361 2 26.6067 12.9887 86.8437
19362 1 7.79362 5.04966 78.5247
19363 2 7.24851 5.60122 77.8933
19364 2 8.53485 5.60668 78.8993
19365 1 47.4423 29.1979 44.3389
19366 2 47.9867 28.3773 44.1647
19367 2 47.8407 29.7062 45.1024
19368 1 19.1558 11.237 66.0795
19369 2 18.3025 11.1501 66.5936
19370 2 18.998 11.7925 65.263
19371 1 14.214 0.997765 21.5157
19372 2 14.8482 0.40512 22.0123
19373 2 14.6638 1.35621 20.6977
19374 1 51.2514 20.6933 32.4869
19375 2 51.6218 20.9204 33.3876
19376 2 50.3331 20.3114 32.5908
19377 1 67.9193 27.7671 48.5769
19378 2 68.3425 28.5108 49.0944
19379 2 66.9839 28.0218 48.3316
19380 1 79.9135 12.1225 55.7099
19381 2 0.48733 11.3116 55.825
19382 2 79.8646 12.3612 54.7401
19383 1 75.4033 22.6246 52.2589
19384 2 75.1569 23.5741 52.0646
19385 2 75.8498 22.2255 51.4581
19386 1 51.1632 0.174174 39.1897
19387 2 51.6246 0.947414 39.6247
19388 2 50.1774 0.245863 39.3417
19389 1 27.9664 4.98149 28.5557
19390 2 27.4485 5.13337 27.7138
19391 2 27.7179 5.67698 29.2299
19392 1 60.6587 2.99348 62.4572
19393 2 61.3496 3.28108 61.794
19394 2 60.4435 3.75667 63.0665
19395 1 49.5418 3.70516 58.2998
19396 2 49.9895 3.79491 57.4102
19397 2 49.2064 2.76969 58.4113
19398 1 48.1411 18.5951 57.7549
19399 2 47.3575 19.2155 57.7214
19400 2 48.4455 18.3921 56.8243
19401 1 76.6571 28.867 53.0423
19402 2 77.0528 29.752 52.7972
19403 2 76.0881 28.5363 52.2894
19404 1 46.0575 15.1822 81.6733
19405 2 46.242 16.0464 81.2054
19406 2 46.3661 15.2446 82.6225
19407 1 38.1803 23.2788 35.7997
19408 2 39.0324 23.783 35.9399
19409 2 37.4032 23.8938 35.9338
19410 1 48.365 18.2129 83.7118
19411 2 48.1818 18.4265 84.6714
19412 2 49.072 18.8279 83.3625
19413 1 74.63 10.8148 83.9327
19414 2 74.888 10.3886 84.7998
19415 2 74.4247 10.104 83.26
19416 1 46.5619 14.7966 42.792
19417 2 47.36 14.7987 43.3946
19418 2 46.673 14.0891 42.0942
19419 1 74.9618 6.48335 17.2002
19420 2 74.9509 5.66754 16.6219
19421 2 74.0269 6.71192 17.4717
19422 1 79.3528 24.5952 35.1522
19423 2 79.1111 25.3179 35.7998
19424 2 0.156843 24.1035 35.4865
19425 1 61.2384 6.4455 47.7498
19426 2 61.5784 6.98107 48.5228
19427 2 61.0754 7.05098 46.9708
19428 1 25.8149 23.8597 86.7031
19429 2 25.0833 23.2895 87.0767
19430 2 25.5467 24.8217 86.754
19431 1 23.5658 20.8531 52.6546
19432 2 22.7819 21.4604 52.7837
19433 2 24.3781 21.3973 52.4449
19434 1 4.49403 24.1617 35.7992
19435 2 4.57378 23.1962 35.5512
19436 2 5.12589 24.3671 36.5465
19437 1 72.8583 13.045 68.8156
19438 2 73.2499 12.3734 68.1866
19439 2 73.1983 13.9565 68.5841
19440 1 51.8144 17.906 78.0489
19441 2 52.1126 17.7958 78.997
19442 2 50.8633 18.2145 78.0324
19443 1 17.8313 22.6761 47.0784
19444 2 17.4719 23.2731 46.3611
19445 2 17.2465 22.7375 47.8872
19446 1 33.4201 23.6416 87.2528
19447 2 32.6457 23.375 87.8267
19448 2 33.3351 24.6069 87.0058
19449 1 7.10785 7.56377 77.4457
19450 2 6.16512 7.89687 77.4631
19451 2 7.66822 8.11693 78.0622
19452 1 70.4296 10.2278 62.8179
19453 2 69.7269 10.0071 62.1415
19454 2 71.3334 10.1515 62.3966
19455 1 77.119 3.29676 14.6403
19456 2 76.3359 3.83457 14.9526
19457 2 76.8019 2.56688 14.0348
19458 1 66.6614 13.3623 43.1592
19459 2 67.2144 12.6326 43.5613
19460 2 66.3656 13.0902 42.2435
19461 1 79.9322 26.3949 39.6081
19462 2 0.415513 27.1272 40.0879
19463 2 79.861 26.6229 38.6371
19464 1 24.7184 5.77443 88.6953
19465 2 23.7557 5.93601 88.4781
19466 2 25.2282 6.63018 88.607
19467 1 2.05121 27.3466 15.0842
19468 2 1.38484 26.6809 15.42
19469 2 2.78647 27.4492 15.7542
19470 1 1.28063 7.73447 76.5675
19471 2 0.6813 7.39822 77.294
19472 2 1.71936 6.95981 76.1121
19473 1 68.1004 0.369962 66.7511
19474 2 68.6464 29.5328 66.7815
19475 2 68.3444 0.955343 67.5243
19476 1 9.7628 8.48776 90.2366
19477 2 10.336 9.27082 90.4778
19478 2 8.79926 8.73973 90.3266
19479 1 6.86374 20.3959 71.7477
19480 2 7.09678 21.2776 72.1579
19481 2 7.60885 19.7477 71.905
19482 1 54.8952 22.909 34.8017
19483 2 54.5975 23.6135 34.1575
19484 2 54.0973 22.4169 35.1498
19485 1 59.3232 4.88708 41.8987
19486 2 59.4251 4.00741 42.3633
19487 2 59.0639 5.58726 42.564
