LAMMPS (22 Jul 2025 - Update 5)
  using 1 OpenMP thread(s) per MPI task
Reading data file ...
  orthogonal box = (0 0 0) to (80 30 116.47666)
  4 by 1 by 1 MPI processor grid
  reading atoms ...
  19487 atoms
  scanning bonds ...
  2 = max bonds/atom
  scanning angles ...
  1 = max angles/atom
  orthogonal box = (0 0 0) to (80 30 116.47666)
  4 by 1 by 1 MPI processor grid
  reading bonds ...
  9176 bonds
  reading angles ...
  4588 angles
Finding 1-2 1-3 1-4 neighbors ...
  special bond factors lj:    0        0        0       
  special bond factors coul:  0        0        0       
     2 = max # of 1-2 neighbors
     1 = max # of 1-3 neighbors
     1 = max # of 1-4 neighbors
     2 = max # of special neighbors
  special bonds CPU = 0.003 seconds
  read_data CPU = 0.154 seconds
Setting atom values ...
  776 settings made for charge
Setting atom values ...
  776 settings made for charge
Setting atom values ...
  1920 settings made for charge
Setting atom values ...
  1920 settings made for charge
Setting atom values ...
  331 settings made for charge
13764 atoms in group watr
15316 atoms in group liq
331 atoms in group gas
15647 atoms in group mobile
1920 atoms in group bot
1920 atoms in group top
3840 atoms in group elec
Finding SHAKE clusters ...
       0 = # of size 2 clusters
       0 = # of size 3 clusters
       0 = # of size 4 clusters
    4588 = # of frozen angles
  find clusters CPU = 0.004 seconds

CITE-CITE-CITE-CITE-CITE-CITE-CITE-CITE-CITE-CITE-CITE-CITE-CITE

Your simulation uses code contributions which should be cited:
- kspace_style pppm/electrode command:
The log file lists these citations in BibTeX format.

CITE-CITE-CITE-CITE-CITE-CITE-CITE-CITE-CITE-CITE-CITE-CITE-CITE

PPPM/electrode initialization ...
  using 12-bit tables for long-range coulomb
  G vector (1/distance) = 0.25781961
  grid = 36 18 120
  stencil order = 5
  estimated absolute RMS force accuracy = 0.031008078
  estimated relative force accuracy = 9.3379907e-05
  using double precision FFTW3
  3d grid and FFT values/proc = 42700 19440
Generated 21 of 21 mixed pair_coeff terms from geometric mixing rule
Neighbor list info ...
  update: every = 1 steps, delay = 0 steps, check = yes
  max neighbors/atom: 2000, page size: 100000
  master list distance cutoff = 12
  ghost atom cutoff = 12
  binsize = 6, bins = 14 5 20
  1 neighbor lists, perpetual/occasional/extra = 1 0 0
  (1) pair lj/cut/coul/long, perpetual
      attributes: half, newton on
      pair build: half/bin/newton
      stencil: half/bin/3d
      bin: standard
Setting up Verlet run ...
  Unit style    : real
  Current step  : 0
  Time step     : 0.1
Per MPI rank memory allocation (min/avg/max) = 23.84 | 24.43 | 24.9 Mbytes
   Step         c_tmob         PotEng         Press     
         0   333            24480.748      24919.223    
      1000   407.70867     -125770.04      6927.3012    
      2000   349.1794      -134602.44      7748.8806    
Loop time of 133.597 on 4 procs for 2000 steps with 19487 atoms

Performance: 0.129 ns/day, 185.551 hours/ns, 14.970 timesteps/s, 291.728 katom-step/s
95.6% CPU use with 4 MPI tasks x 1 OpenMP threads

MPI task timing breakdown:
Section |  min time  |  avg time  |  max time  |%varavg| %total
---------------------------------------------------------------
Pair    | 64.312     | 70.129     | 76.261     |  63.8 | 52.49
Bond    | 0.010856   | 0.011366   | 0.012219   |   0.5 |  0.01
Kspace  | 48.301     | 54.471     | 60.342     |  73.0 | 40.77
Neigh   | 0.94767    | 0.94991    | 0.95133    |   0.2 |  0.71
Comm    | 2.78       | 2.8384     | 2.8836     |   2.5 |  2.12
Output  | 0.0010344  | 0.0016141  | 0.0019693  |   1.0 |  0.00
Modify  | 3.3919     | 3.6058     | 3.7296     |   6.7 |  2.70
Other   |            | 1.59       |            |       |  1.19

Nlocal:        4871.75 ave        5190 max        4530 min
Histogram: 1 1 0 0 0 0 0 0 0 2
Nghost:        14197.8 ave       14619 max       13844 min
Histogram: 2 0 0 0 0 0 0 1 0 1
Neighs:    1.36852e+06 ave 1.48372e+06 max 1.23908e+06 min
Histogram: 1 1 0 0 0 0 0 0 0 2

Total # of neighbors = 5474079
Ave neighs/atom = 280.90927
Ave special neighs/atom = 1.4126341
Neighbor list builds = 18
Dangerous builds = 0
PPPM/electrode initialization ...
  using 12-bit tables for long-range coulomb
  G vector (1/distance) = 0.25781961
  grid = 36 18 120
  stencil order = 5
  estimated absolute RMS force accuracy = 0.031008078
  estimated relative force accuracy = 9.3379907e-05
  using double precision FFTW3
  3d grid and FFT values/proc = 42700 19440
Generated 21 of 21 mixed pair_coeff terms from geometric mixing rule
Setting up Verlet run ...
  Unit style    : real
  Current step  : 2000
  Time step     : 2
Per MPI rank memory allocation (min/avg/max) = 23.84 | 24.52 | 25.03 Mbytes
   Step         c_tmob         PotEng         Press     
      2000   349.1794      -134602.44      8510.739     
      3000   337.70957     -146368.8       10170.343    
      3500   333.14742     -146693.31      10384.543    
Loop time of 121.579 on 4 procs for 1500 steps with 19487 atoms

Performance: 2.132 ns/day, 11.257 hours/ns, 12.338 timesteps/s, 240.425 katom-step/s
95.9% CPU use with 4 MPI tasks x 1 OpenMP threads

MPI task timing breakdown:
Section |  min time  |  avg time  |  max time  |%varavg| %total
---------------------------------------------------------------
Pair    | 54.544     | 60.445     | 66.506     |  67.6 | 49.72
Bond    | 0.0079202  | 0.0082954  | 0.0086372  |   0.4 |  0.01
Kspace  | 38.291     | 44.378     | 50.313     |  79.4 | 36.50
Neigh   | 10.077     | 10.092     | 10.11      |   0.4 |  8.30
Comm    | 2.3979     | 2.4503     | 2.4978     |   2.6 |  2.02
Output  | 0.00059848 | 0.00073652 | 0.0011105  |   0.0 |  0.00
Modify  | 3.5459     | 3.5497     | 3.5537     |   0.2 |  2.92
Other   |            | 0.6542     |            |       |  0.54

Nlocal:        4871.75 ave        5226 max        4491 min
Histogram: 2 0 0 0 0 0 0 0 0 2
Nghost:        14290.8 ave       14745 max       13913 min
Histogram: 2 0 0 0 0 0 0 1 0 1
Neighs:    1.39761e+06 ave 1.54494e+06 max 1.25408e+06 min
Histogram: 2 0 0 0 0 0 0 0 0 2

Total # of neighbors = 5590423
Ave neighs/atom = 286.87961
Ave special neighs/atom = 1.4126341
Neighbor list builds = 165
Dangerous builds = 0
3840 atoms in group conp_group

CITE-CITE-CITE-CITE-CITE-CITE-CITE-CITE-CITE-CITE-CITE-CITE-CITE

Your simulation uses code contributions which should be cited:
- fix electrode command:
The log file lists these citations in BibTeX format.

CITE-CITE-CITE-CITE-CITE-CITE-CITE-CITE-CITE-CITE-CITE-CITE-CITE

PPPM/electrode initialization ...
  using 12-bit tables for long-range coulomb
  G vector (1/distance) = 0.25781961
  grid = 36 18 120
  stencil order = 5
  estimated absolute RMS force accuracy = 0.031008078
  estimated relative force accuracy = 9.3379907e-05
  using double precision FFTW3
  3d grid and FFT values/proc = 42700 19440
Generated 21 of 21 mixed pair_coeff terms from geometric mixing rule
Neighbor list info ...
  update: every = 1 steps, delay = 0 steps, check = yes
  max neighbors/atom: 2000, page size: 100000
  master list distance cutoff = 12
  ghost atom cutoff = 12
  binsize = 6, bins = 14 5 20
  2 neighbor lists, perpetual/occasional/extra = 2 0 0
  (1) pair lj/cut/coul/long, perpetual
      attributes: half, newton on
      pair build: half/bin/newton
      stencil: half/bin/3d
      bin: standard
  (2) fix electrode/conp, perpetual, copy from (1)
      attributes: half, newton on
      pair build: copy
      stencil: none
      bin: none
Setting up Verlet run ...
  Unit style    : real
  Current step  : 3500
  Time step     : 2
Per MPI rank memory allocation (min/avg/max) = 142 | 143.2 | 144.4 Mbytes
   Step         c_tmob         c_sqb          c_sqt          PotEng         Press     
      3500   333.14742     -0.39531736     0.39531736    -146712.85      10400.401    
      4000   331.27592     -2.156429       2.156429      -146783.6       10285.364    
      5000   334.43725     -3.3857701      3.3857701     -147005.7       10225.867    
Loop time of 206.671 on 4 procs for 1500 steps with 19487 atoms

Performance: 1.254 ns/day, 19.136 hours/ns, 7.258 timesteps/s, 141.435 katom-step/s
96.4% CPU use with 4 MPI tasks x 1 OpenMP threads

MPI task timing breakdown:
Section |  min time  |  avg time  |  max time  |%varavg| %total
---------------------------------------------------------------
Pair    | 54.256     | 60.544     | 66.634     |  76.8 | 29.30
Bond    | 0.0079392  | 0.0084826  | 0.0089103  |   0.4 |  0.00
Kspace  | 37.922     | 44.019     | 50.318     |  90.2 | 21.30
Neigh   | 10.043     | 10.068     | 10.09      |   0.6 |  4.87
Comm    | 2.6216     | 2.6841     | 2.7403     |   3.2 |  1.30
Output  | 0.00050837 | 0.00059503 | 0.00078669 |   0.0 |  0.00
Modify  | 88.661     | 88.689     | 88.724     |   0.3 | 42.91
Other   |            | 0.6565     |            |       |  0.32

Nlocal:        4871.75 ave        5290 max        4463 min
Histogram: 2 0 0 0 0 0 0 0 0 2
Nghost:          14309 ave       14803 max       13800 min
Histogram: 2 0 0 0 0 0 0 0 0 2
Neighs:     1.4174e+06 ave 1.56881e+06 max 1.25857e+06 min
Histogram: 2 0 0 0 0 0 0 0 0 2

Total # of neighbors = 5669594
Ave neighs/atom = 290.94237
Ave special neighs/atom = 1.4126341
Neighbor list builds = 163
Dangerous builds = 0
ERROR: Inconsistent fix ave/chunk nevery/nrepeat/nfreq values (src/lammps/src/fix_ave_chunk.cpp:246)
Last input line: fix dmap liq ave/chunk 20 100 1500 cchunk density/mass file dens2d_${tag}.dat
--------------------------------------------------------------------------
Primary job  terminated normally, but 1 process returned
a non-zero exit code. Per user-direction, the job has been aborted.
--------------------------------------------------------------------------
--------------------------------------------------------------------------
mpirun detected that one or more processes exited with non-zero status, thus causing
the job to be terminated. The first process to do so was:

  Process name: [[27203,1],1]
  Exit code:    1
--------------------------------------------------------------------------
