LAMMPS (22 Jul 2025 - Update 5)
  using 1 OpenMP thread(s) per MPI task
Reading data file ...
  orthogonal box = (0 0 0) to (80 30 116.47666)
  4 by 1 by 1 MPI processor grid
  reading atoms ...
  19487 atoms
  scanning bonds ...
  2 = max bonds/atom
  scanning angles ...
  1 = max angles/atom
  orthogonal box = (0 0 0) to (80 30 116.47666)
  4 by 1 by 1 MPI processor grid
  reading bonds ...
  9176 bonds
  reading angles ...
  4588 angles
Finding 1-2 1-3 1-4 neighbors ...
  special bond factors lj:    0        0        0       
  special bond factors coul:  0        0        0       
     2 = max # of 1-2 neighbors
     1 = max # of 1-3 neighbors
     1 = max # of 1-4 neighbors
     2 = max # of special neighbors
  special bonds CPU = 0.003 seconds
  read_data CPU = 0.144 seconds
Setting atom values ...
  776 settings made for charge
Setting atom values ...
  776 settings made for charge
Setting atom values ...
  1920 settings made for charge
Setting atom values ...
  1920 settings made for charge
Setting atom values ...
  331 settings made for charge
13764 atoms in group watr
15316 atoms in group liq
331 atoms in group gas
15647 atoms in group mobile
1920 atoms in group bot
1920 atoms in group top
3840 atoms in group elec
Finding SHAKE clusters ...
       0 = # of size 2 clusters
       0 = # of size 3 clusters
       0 = # of size 4 clusters
    4588 = # of frozen angles
  find clusters CPU = 0.003 seconds

CITE-CITE-CITE-CITE-CITE-CITE-CITE-CITE-CITE-CITE-CITE-CITE-CITE

Your simulation uses code contributions which should be cited:
- kspace_style pppm/electrode command:
The log file lists these citations in BibTeX format.

CITE-CITE-CITE-CITE-CITE-CITE-CITE-CITE-CITE-CITE-CITE-CITE-CITE

PPPM/electrode initialization ...
  using 12-bit tables for long-range coulomb
  G vector (1/distance) = 0.25781961
  grid = 36 18 120
  stencil order = 5
  estimated absolute RMS force accuracy = 0.031008078
  estimated relative force accuracy = 9.3379907e-05
  using double precision FFTW3
  3d grid and FFT values/proc = 42700 19440
Generated 21 of 21 mixed pair_coeff terms from geometric mixing rule
Neighbor list info ...
  update: every = 1 steps, delay = 0 steps, check = yes
  max neighbors/atom: 2000, page size: 100000
  master list distance cutoff = 12
  ghost atom cutoff = 12
  binsize = 6, bins = 14 5 20
  1 neighbor lists, perpetual/occasional/extra = 1 0 0
  (1) pair lj/cut/coul/long, perpetual
      attributes: half, newton on
      pair build: half/bin/newton
      stencil: half/bin/3d
      bin: standard
Setting up Verlet run ...
  Unit style    : real
  Current step  : 0
  Time step     : 0.1
Per MPI rank memory allocation (min/avg/max) = 23.84 | 24.43 | 24.9 Mbytes
   Step         c_tmob         PotEng         Press     
         0   333            24480.748      24919.223    
      1000   407.70867     -125770.04      6927.3012    
      2000   349.1794      -134602.44      7748.8806    
Loop time of 135.063 on 4 procs for 2000 steps with 19487 atoms

Performance: 0.128 ns/day, 187.587 hours/ns, 14.808 timesteps/s, 288.562 katom-step/s
95.2% CPU use with 4 MPI tasks x 1 OpenMP threads

MPI task timing breakdown:
Section |  min time  |  avg time  |  max time  |%varavg| %total
---------------------------------------------------------------
Pair    | 64.862     | 70.727     | 76.269     |  63.0 | 52.37
Bond    | 0.0095247  | 0.010396   | 0.011413   |   0.7 |  0.01
Kspace  | 49.589     | 55.169     | 61.07      |  71.9 | 40.85
Neigh   | 0.93058    | 0.93338    | 0.93518    |   0.2 |  0.69
Comm    | 2.9154     | 2.9663     | 3.018      |   2.8 |  2.20
Output  | 0.0009973  | 0.0021993  | 0.0031413  |   1.9 |  0.00
Modify  | 3.5088     | 3.6586     | 3.7852     |   6.3 |  2.71
Other   |            | 1.596      |            |       |  1.18

Nlocal:        4871.75 ave        5190 max        4530 min
Histogram: 1 1 0 0 0 0 0 0 0 2
Nghost:        14197.8 ave       14619 max       13844 min
Histogram: 2 0 0 0 0 0 0 1 0 1
Neighs:    1.36852e+06 ave 1.48372e+06 max 1.23908e+06 min
Histogram: 1 1 0 0 0 0 0 0 0 2

Total # of neighbors = 5474079
Ave neighs/atom = 280.90927
Ave special neighs/atom = 1.4126341
Neighbor list builds = 18
Dangerous builds = 0
PPPM/electrode initialization ...
  using 12-bit tables for long-range coulomb
  G vector (1/distance) = 0.25781961
  grid = 36 18 120
  stencil order = 5
  estimated absolute RMS force accuracy = 0.031008078
  estimated relative force accuracy = 9.3379907e-05
  using double precision FFTW3
  3d grid and FFT values/proc = 42700 19440
Generated 21 of 21 mixed pair_coeff terms from geometric mixing rule
Setting up Verlet run ...
  Unit style    : real
  Current step  : 2000
  Time step     : 2
Per MPI rank memory allocation (min/avg/max) = 23.84 | 24.52 | 25.03 Mbytes
   Step         c_tmob         PotEng         Press     
      2000   349.1794      -134602.44      8510.739     
      3000   337.70957     -146368.8       10170.343    
      3500   333.14742     -146693.31      10384.543    
Loop time of 121.897 on 4 procs for 1500 steps with 19487 atoms

Performance: 2.126 ns/day, 11.287 hours/ns, 12.305 timesteps/s, 239.796 katom-step/s
96.0% CPU use with 4 MPI tasks x 1 OpenMP threads

MPI task timing breakdown:
Section |  min time  |  avg time  |  max time  |%varavg| %total
---------------------------------------------------------------
Pair    | 55.458     | 60.965     | 66.845     |  67.3 | 50.01
Bond    | 0.00704    | 0.007838   | 0.0089725  |   0.8 |  0.01
Kspace  | 38.187     | 44.096     | 49.636     |  79.6 | 36.17
Neigh   | 9.9134     | 9.9212     | 9.936      |   0.3 |  8.14
Comm    | 2.5291     | 2.5719     | 2.6107     |   2.2 |  2.11
Output  | 0.0006085  | 0.00073711 | 0.0010138  |   0.0 |  0.00
Modify  | 3.6451     | 3.6482     | 3.6504     |   0.1 |  2.99
Other   |            | 0.6864     |            |       |  0.56

Nlocal:        4871.75 ave        5226 max        4491 min
Histogram: 2 0 0 0 0 0 0 0 0 2
Nghost:        14290.8 ave       14745 max       13913 min
Histogram: 2 0 0 0 0 0 0 1 0 1
Neighs:    1.39761e+06 ave 1.54494e+06 max 1.25408e+06 min
Histogram: 2 0 0 0 0 0 0 0 0 2

Total # of neighbors = 5590423
Ave neighs/atom = 286.87961
Ave special neighs/atom = 1.4126341
Neighbor list builds = 165
Dangerous builds = 0
3840 atoms in group conp_group

CITE-CITE-CITE-CITE-CITE-CITE-CITE-CITE-CITE-CITE-CITE-CITE-CITE

Your simulation uses code contributions which should be cited:
- fix electrode command:
The log file lists these citations in BibTeX format.

CITE-CITE-CITE-CITE-CITE-CITE-CITE-CITE-CITE-CITE-CITE-CITE-CITE

PPPM/electrode initialization ...
  using 12-bit tables for long-range coulomb
  G vector (1/distance) = 0.25781961
  grid = 36 18 120
  stencil order = 5
  estimated absolute RMS force accuracy = 0.031008078
  estimated relative force accuracy = 9.3379907e-05
  using double precision FFTW3
  3d grid and FFT values/proc = 42700 19440
Generated 21 of 21 mixed pair_coeff terms from geometric mixing rule
Neighbor list info ...
  update: every = 1 steps, delay = 0 steps, check = yes
  max neighbors/atom: 2000, page size: 100000
  master list distance cutoff = 12
  ghost atom cutoff = 12
  binsize = 6, bins = 14 5 20
  2 neighbor lists, perpetual/occasional/extra = 2 0 0
  (1) pair lj/cut/coul/long, perpetual
      attributes: half, newton on
      pair build: half/bin/newton
      stencil: half/bin/3d
      bin: standard
  (2) fix electrode/conp, perpetual, copy from (1)
      attributes: half, newton on
      pair build: copy
      stencil: none
      bin: none
Setting up Verlet run ...
  Unit style    : real
  Current step  : 3500
  Time step     : 2
Per MPI rank memory allocation (min/avg/max) = 142 | 143.2 | 144.4 Mbytes
   Step         c_tmob         c_sqb          c_sqt          PotEng         Press     
      3500   333.14742     -0.39531736     0.39531736    -146712.85      10400.401    
      4000   331.27592     -2.156429       2.156429      -146783.6       10285.364    
      5000   334.43725     -3.3857701      3.3857701     -147005.7       10225.867    
Loop time of 208.576 on 4 procs for 1500 steps with 19487 atoms

Performance: 1.243 ns/day, 19.313 hours/ns, 7.192 timesteps/s, 140.143 katom-step/s
96.3% CPU use with 4 MPI tasks x 1 OpenMP threads

MPI task timing breakdown:
Section |  min time  |  avg time  |  max time  |%varavg| %total
---------------------------------------------------------------
Pair    | 55.098     | 61.36      | 67.534     |  75.1 | 29.42
Bond    | 0.0074698  | 0.0077907  | 0.0081818  |   0.3 |  0.00
Kspace  | 37.89      | 44.08      | 50.358     |  89.0 | 21.13
Neigh   | 9.9921     | 10.015     | 10.038     |   0.6 |  4.80
Comm    | 2.7869     | 2.8514     | 2.92       |   3.5 |  1.37
Output  | 0.00055311 | 0.00064943 | 0.000824   |   0.0 |  0.00
Modify  | 89.543     | 89.569     | 89.601     |   0.3 | 42.94
Other   |            | 0.691      |            |       |  0.33

Nlocal:        4871.75 ave        5290 max        4463 min
Histogram: 2 0 0 0 0 0 0 0 0 2
Nghost:          14309 ave       14803 max       13800 min
Histogram: 2 0 0 0 0 0 0 0 0 2
Neighs:     1.4174e+06 ave 1.56881e+06 max 1.25857e+06 min
Histogram: 2 0 0 0 0 0 0 0 0 2

Total # of neighbors = 5669594
Ave neighs/atom = 290.94237
Ave special neighs/atom = 1.4126341
Neighbor list builds = 163
Dangerous builds = 0
PPPM/electrode initialization ...
  using 12-bit tables for long-range coulomb
  G vector (1/distance) = 0.25781961
  grid = 36 18 120
  stencil order = 5
  estimated absolute RMS force accuracy = 0.031009161
  estimated relative force accuracy = 9.3383167e-05
  using double precision FFTW3
  3d grid and FFT values/proc = 42700 19440
Generated 21 of 21 mixed pair_coeff terms from geometric mixing rule
Setting up Verlet run ...
  Unit style    : real
  Current step  : 0
  Time step     : 2
Per MPI rank memory allocation (min/avg/max) = 145.4 | 146.4 | 147.8 Mbytes
   Step         c_tmob         c_sqb          c_sqt          PotEng         Press     
         0   334.43725     -3.3857701      3.3857701     -147005.7       10225.972    
      3000   333.4127      -3.8647498      3.8647498     -147791.41      10719.385    
Loop time of 434.968 on 4 procs for 3000 steps with 19487 atoms

Performance: 1.192 ns/day, 20.137 hours/ns, 6.897 timesteps/s, 134.403 katom-step/s
96.6% CPU use with 4 MPI tasks x 1 OpenMP threads

MPI task timing breakdown:
Section |  min time  |  avg time  |  max time  |%varavg| %total
---------------------------------------------------------------
Pair    | 118.37     | 132.65     | 147.87     | 121.4 | 30.50
Bond    | 0.015461   | 0.016375   | 0.017503   |   0.6 |  0.00
Kspace  | 75.801     | 91.054     | 105.37     | 146.9 | 20.93
Neigh   | 20.507     | 20.526     | 20.564     |   0.5 |  4.72
Comm    | 5.4385     | 5.5641     | 5.6798     |   4.3 |  1.28
Output  | 0.00051147 | 0.00053295 | 0.00055588 |   0.0 |  0.00
Modify  | 183.7      | 183.78     | 183.85     |   0.5 | 42.25
Other   |            | 1.384      |            |       |  0.32

Nlocal:        4871.75 ave        5385 max        4400 min
Histogram: 2 0 0 0 0 0 0 0 1 1
Nghost:        14329.2 ave       14945 max       13639 min
Histogram: 1 1 0 0 0 0 0 0 0 2
Neighs:     1.4459e+06 ave 1.63048e+06 max 1.27752e+06 min
Histogram: 2 0 0 0 0 0 0 0 0 2

Total # of neighbors = 5783595
Ave neighs/atom = 296.79248
Ave special neighs/atom = 1.4126341
Neighbor list builds = 324
Dangerous builds = 0
DONE v3
Total wall time: 0:18:18
