LAMMPS (22 Jul 2025 - Update 5)
  using 1 OpenMP thread(s) per MPI task
Reading data file ...
  orthogonal box = (0 0 0) to (37.095719 37.095719 37.095719)
  1 by 1 by 1 MPI processor grid
  reading atoms ...
  4912 atoms
  scanning bonds ...
  2 = max bonds/atom
  scanning angles ...
  1 = max angles/atom
  orthogonal box = (0 0 0) to (37.095719 37.095719 37.095719)
  1 by 1 by 1 MPI processor grid
  reading bonds ...
  3000 bonds
  reading angles ...
  1500 angles
Finding 1-2 1-3 1-4 neighbors ...
  special bond factors lj:    0        0        0       
  special bond factors coul:  0        0        0       
     2 = max # of 1-2 neighbors
     1 = max # of 1-3 neighbors
     1 = max # of 1-4 neighbors
     2 = max # of special neighbors
  special bonds CPU = 0.001 seconds
  read_data CPU = 0.028 seconds
Setting atom values ...
  206 settings made for charge
Setting atom values ...
  206 settings made for charge
4500 atoms in group watr
206 atoms in group kion
206 atoms in group ohion
412 atoms in group ions
Finding SHAKE clusters ...
       0 = # of size 2 clusters
       0 = # of size 3 clusters
       0 = # of size 4 clusters
    1500 = # of frozen angles
  find clusters CPU = 0.001 seconds
PPPM initialization ...
  using 12-bit tables for long-range coulomb
  G vector (1/distance) = 0.30441929
  grid = 32 32 32
  stencil order = 5
  estimated absolute RMS force accuracy = 0.0035943975
  estimated relative force accuracy = 1.0824421e-05
  using double precision FFTW3
  3d grid and FFT values/proc = 59319 32768
Generated 6 of 6 mixed pair_coeff terms from geometric mixing rule
WARNING: Should not use fix nve/limit with fix shake or fix rattle (src/lammps/src/fix_nve_limit.cpp:76)
Neighbor list info ...
  update: every = 1 steps, delay = 0 steps, check = yes
  max neighbors/atom: 2000, page size: 100000
  master list distance cutoff = 12
  ghost atom cutoff = 12
  binsize = 6, bins = 7 7 7
  1 neighbor lists, perpetual/occasional/extra = 1 0 0
  (1) pair lj/cut/coul/long, perpetual
      attributes: half, newton on
      pair build: half/bin/newton
      stencil: half/bin/3d
      bin: standard
Setting up Verlet run ...
  Unit style    : real
  Current step  : 0
  Time step     : 0.2
Per MPI rank memory allocation (min/avg/max) = 27.67 | 27.67 | 27.67 Mbytes
   Step          Temp          Press         Density         PotEng         Volume    
         0   298            47862.757      1.2550109     -5155.2509      51047.136    
       500   726.90924      5737.5107      1.2550109     -50660.01       51047.136    
      1000   389.67789     -803.081        1.2550109     -55778.267      51047.136    
      1500   331.59918     -1900.1439      1.2550109     -57310.325      51047.136    
      2000   316.10426     -2639.3401      1.2550109     -57930.681      51047.136    
      2500   307.11549     -3207.8837      1.2550109     -58135.169      51047.136    
      3000   299.85083     -4251.2431      1.2550109     -58408.945      51047.136    
      3500   293.62989     -4039.2442      1.2550109     -58550.033      51047.136    
      4000   301.93984     -4974.4499      1.2550109     -58610.12       51047.136    
      4500   299.87101     -2918.7347      1.2550109     -58723.443      51047.136    
      5000   296.43207     -2543.4953      1.2550109     -58846.173      51047.136    
      5500   307.32436     -3387.7355      1.2550109     -58976.347      51047.136    
      6000   308.21474     -1393.8611      1.2550109     -59089.538      51047.136    
      6500   302.42036     -2534.5788      1.2550109     -58999.095      51047.136    
      7000   299.68075     -3438.5902      1.2550109     -59187.932      51047.136    
      7500   298.9506      -2785.9584      1.2550109     -59177.293      51047.136    
      8000   300.65258     -4620.4242      1.2550109     -59230.588      51047.136    
      8500   293.44895     -2540.1988      1.2550109     -59257.199      51047.136    
      9000   296.12342     -3667.1717      1.2550109     -59315.94       51047.136    
      9500   297.21842     -2823.1447      1.2550109     -59299.509      51047.136    
     10000   300.61417     -4579.2838      1.2550109     -59344.801      51047.136    
     10500   297.65972     -2958.9031      1.2550109     -59384.285      51047.136    
     11000   305.29533     -2187.9148      1.2550109     -59409.742      51047.136    
     11500   296.17687     -4356.5005      1.2550109     -59420.045      51047.136    
     12000   293.51952     -2166.2154      1.2550109     -59473.531      51047.136    
     12500   300.22202     -3483.2396      1.2550109     -59477.173      51047.136    
     13000   302.64334     -3599.8736      1.2550109     -59447.042      51047.136    
     13500   297.52324     -3755.9692      1.2550109     -59497.032      51047.136    
     14000   300.41822     -1914.3241      1.2550109     -59533.823      51047.136    
     14500   305.14623     -2211.4452      1.2550109     -59497.334      51047.136    
     15000   300.42638     -4231.6314      1.2550109     -59503.063      51047.136    
     15500   304.40506     -2455.8317      1.2550109     -59573.858      51047.136    
     16000   299.39363     -1969.4174      1.2550109     -59573.209      51047.136    
     16500   295.36528     -3334.4527      1.2550109     -59546.363      51047.136    
     17000   304.84216     -3802.9877      1.2550109     -59583.505      51047.136    
     17500   300.93504     -3323.5286      1.2550109     -59654.667      51047.136    
     18000   294.51327     -4683.6098      1.2550109     -59577.14       51047.136    
     18500   296.40538     -3068.8293      1.2550109     -59586.01       51047.136    
     19000   304.36717     -3092.3509      1.2550109     -59665.803      51047.136    
     19500   300.05166     -3624.2643      1.2550109     -59681.027      51047.136    
     20000   300.25393     -2580.5639      1.2550109     -59692.183      51047.136    
Loop time of 607.845 on 1 procs for 20000 steps with 4912 atoms

Performance: 0.569 ns/day, 42.211 hours/ns, 32.903 timesteps/s, 161.620 katom-step/s
100.0% CPU use with 1 MPI tasks x 1 OpenMP threads

MPI task timing breakdown:
Section |  min time  |  avg time  |  max time  |%varavg| %total
---------------------------------------------------------------
Pair    | 472.22     | 472.22     | 472.22     |   0.0 | 77.69
Bond    | 0.045107   | 0.045107   | 0.045107   |   0.0 |  0.01
Kspace  | 110.05     | 110.05     | 110.05     |   0.0 | 18.11
Neigh   | 6.4333     | 6.4333     | 6.4333     |   0.0 |  1.06
Comm    | 4.1378     | 4.1378     | 4.1378     |   0.0 |  0.68
Output  | 0.0030656  | 0.0030656  | 0.0030656  |   0.0 |  0.00
Modify  | 13.719     | 13.719     | 13.719     |   0.0 |  2.26
Other   |            | 1.23       |            |       |  0.20

Nlocal:           4912 ave        4912 max        4912 min
Histogram: 1 0 0 0 0 0 0 0 0 0
Nghost:          17216 ave       17216 max       17216 min
Histogram: 1 0 0 0 0 0 0 0 0 0
Neighs:    1.70799e+06 ave 1.70799e+06 max 1.70799e+06 min
Histogram: 1 0 0 0 0 0 0 0 0 0

Total # of neighbors = 1707988
Ave neighs/atom = 347.71743
Ave special neighs/atom = 1.8322476
Neighbor list builds = 185
Dangerous builds = 0
PPPM initialization ...
  using 12-bit tables for long-range coulomb
  G vector (1/distance) = 0.30441929
  grid = 32 32 32
  stencil order = 5
  estimated absolute RMS force accuracy = 0.0035943975
  estimated relative force accuracy = 1.0824421e-05
  using double precision FFTW3
  3d grid and FFT values/proc = 59319 32768
Generated 6 of 6 mixed pair_coeff terms from geometric mixing rule
Setting up Verlet run ...
  Unit style    : real
  Current step  : 20000
  Time step     : 0.5
Per MPI rank memory allocation (min/avg/max) = 27.67 | 27.67 | 27.67 Mbytes
   Step          Temp          Press         Density         PotEng         Volume    
     20000   300.25393     -2960.1133      1.2550109     -59692.183      51047.136    
     20500   300.92283     -2492.4956      1.2550109     -59696.365      51047.136    
     21000   300.33748     -2857.3132      1.2550109     -59714.934      51047.136    
     21500   303.03073     -3202.1298      1.2550109     -59757.468      51047.136    
     22000   294.02475     -4155.0336      1.2550109     -59745.074      51047.136    
     22500   301.34582     -3035.8191      1.2550109     -59887.022      51047.136    
     23000   294.93233     -2633.7902      1.2550109     -59799.272      51047.136    
     23500   298.93146     -2893.0619      1.2550109     -59881.976      51047.136    
     24000   294.33594     -3372.6199      1.2550109     -59836.502      51047.136    
     24500   294.81612     -4016.3663      1.2550109     -59800.17       51047.136    
     25000   291.66519     -3090.2126      1.2550109     -59885.015      51047.136    
     25500   300.54512     -2105.7516      1.2550109     -59977.366      51047.136    
     26000   292.79871     -3123.6952      1.2550109     -59962.553      51047.136    
     26500   299.32463     -2993.9351      1.2550109     -59926.349      51047.136    
     27000   301.34799     -2968.4359      1.2550109     -59871.377      51047.136    
     27500   304.97346     -2939.1765      1.2550109     -59942.65       51047.136    
     28000   305.65299     -2319.7723      1.2550109     -59931.32       51047.136    
     28500   306.83335     -3070.0915      1.2550109     -59976.229      51047.136    
     29000   309.93436     -3022.8962      1.2550109     -60001.161      51047.136    
     29500   303.94363     -2898.5157      1.2550109     -59940.679      51047.136    
     30000   300.69371     -3199.5935      1.2550109     -60002.101      51047.136    
     30500   302.36051     -2946.0489      1.2550109     -59994.611      51047.136    
     31000   301.42467     -3678.6097      1.2550109     -59938.908      51047.136    
     31500   297.61069     -3859.2025      1.2550109     -60002.785      51047.136    
     32000   298.49853     -2517.6046      1.2550109     -60031.32       51047.136    
     32500   303.46857     -2623.5177      1.2550109     -59983.258      51047.136    
     33000   294.60672     -2997.0209      1.2550109     -59900.191      51047.136    
     33500   297.61348     -3415.7778      1.2550109     -59893.062      51047.136    
     34000   299.34071     -2595.5454      1.2550109     -59923.896      51047.136    
     34500   294.75534     -2730.9728      1.2550109     -59899.446      51047.136    
     35000   305.54618     -2842.96        1.2550109     -60023.795      51047.136    
     35500   295.76924     -3376.1613      1.2550109     -60023.437      51047.136    
     36000   297.24571     -2468.5604      1.2550109     -60078.732      51047.136    
     36500   302.63256     -2508.9103      1.2550109     -60102.972      51047.136    
     37000   296.47393     -2195.5121      1.2550109     -59997.647      51047.136    
     37500   301.31704     -2701.9024      1.2550109     -60095.259      51047.136    
     38000   305.27439     -2860.6719      1.2550109     -60035.566      51047.136    
     38500   298.9647      -2437.7571      1.2550109     -60004.121      51047.136    
     39000   297.56797     -1909.572       1.2550109     -59950.863      51047.136    
     39500   294.85403     -3102.5938      1.2550109     -60193.565      51047.136    
     40000   303.33774     -1877.4637      1.2550109     -60046.174      51047.136    
Loop time of 839.561 on 1 procs for 20000 steps with 4912 atoms

Performance: 1.029 ns/day, 23.321 hours/ns, 23.822 timesteps/s, 117.013 katom-step/s
100.0% CPU use with 1 MPI tasks x 1 OpenMP threads

MPI task timing breakdown:
Section |  min time  |  avg time  |  max time  |%varavg| %total
---------------------------------------------------------------
Pair    | 625.44     | 625.44     | 625.44     |   0.0 | 74.50
Bond    | 0.074874   | 0.074874   | 0.074874   |   0.0 |  0.01
Kspace  | 162.7      | 162.7      | 162.7      |   0.0 | 19.38
Neigh   | 19.522     | 19.522     | 19.522     |   0.0 |  2.33
Comm    | 8.3783     | 8.3783     | 8.3783     |   0.0 |  1.00
Output  | 0.0043117  | 0.0043117  | 0.0043117  |   0.0 |  0.00
Modify  | 20.821     | 20.821     | 20.821     |   0.0 |  2.48
Other   |            | 2.622      |            |       |  0.31

Nlocal:           4912 ave        4912 max        4912 min
Histogram: 1 0 0 0 0 0 0 0 0 0
Nghost:          16870 ave       16870 max       16870 min
Histogram: 1 0 0 0 0 0 0 0 0 0
Neighs:    1.70879e+06 ave 1.70879e+06 max 1.70879e+06 min
Histogram: 1 0 0 0 0 0 0 0 0 0

Total # of neighbors = 1708789
Ave neighs/atom = 347.8805
Ave special neighs/atom = 1.8322476
Neighbor list builds = 442
Dangerous builds = 0
PPPM initialization ...
  using 12-bit tables for long-range coulomb
  G vector (1/distance) = 0.30441929
  grid = 32 32 32
  stencil order = 5
  estimated absolute RMS force accuracy = 0.0035943975
  estimated relative force accuracy = 1.0824421e-05
  using double precision FFTW3
  3d grid and FFT values/proc = 59319 32768
Generated 6 of 6 mixed pair_coeff terms from geometric mixing rule
Setting up Verlet run ...
  Unit style    : real
  Current step  : 40000
  Time step     : 1
Per MPI rank memory allocation (min/avg/max) = 27.67 | 27.67 | 27.67 Mbytes
   Step          Temp          Press         Density         PotEng         Volume    
     40000   303.33774     -2543.3439      1.2550109     -60046.174      51047.136    
     40500   299.78208     -387.96933      1.3213246     -60409.284      48485.217    
     41000   299.86288      57.947237      1.3282213     -60455.556      48233.46     
     41500   301.67293      408.44782      1.3379263     -60452.215      47883.587    
     42000   298.51778      176.69776      1.3449342     -60452.773      47634.084    
     42500   300.52313      388.42213      1.3521262     -60411.964      47380.719    
     43000   292.0027      -289.32131      1.345795      -60489.449      47603.616    
     43500   300.57194      469.59937      1.3549568     -60617.865      47281.737    
     44000   303.13478     -19.593667      1.3487217     -60529.239      47500.32     
     44500   296.94741      347.72819      1.3537712     -60563.619      47323.144    
     45000   299.99226     -19.7004        1.3527377     -60626.41       47359.301    
     45500   295.23061     -44.364725      1.3536431     -60594.655      47327.623    
     46000   294.16669      606.2973       1.3558648     -60550.697      47250.073    
     46500   298.85896      285.15988      1.3658612     -60724.444      46904.26     
     47000   299.70523      333.12967      1.3672223     -60768.232      46857.567    
     47500   297.70696     -272.31295      1.3609825     -60648.442      47072.399    
     48000   294.24045     -53.43858       1.3675136     -60751.489      46847.584    
     48500   294.14627      23.794986      1.365623      -60650.154      46912.443    
     49000   293.49701     -587.57044      1.3645484     -60683.778      46949.386    
     49500   302.88981      499.23964      1.3727842     -60743.657      46667.721    
     50000   303.27098      221.16602      1.3636374     -60642.955      46980.751    
     50500   291.9025      -86.219268      1.3781684     -60637.795      46485.401    
     51000   300.14543     -63.743509      1.3774455     -60758.154      46509.798    
     51500   293.64299     -211.29792      1.3753986     -60725.671      46579.015    
     52000   292.03622     -203.89254      1.3755535     -60747.025      46573.767    
     52500   299.37694      0.1625082      1.3786706     -60773.244      46468.467    
     53000   296.22699      98.398827      1.3737766     -60711.889      46634.01     
     53500   298.28056     -331.4617       1.3740052     -60852.853      46626.248    
     54000   290.79613      185.67609      1.3743745     -60736.73       46613.721    
     54500   295.85621      43.555385      1.3792635     -60791.046      46448.492    
     55000   302.07699      121.695        1.3873111     -60819.859      46179.052    
     55500   299.37176     -186.91593      1.3827319     -60785.986      46331.981    
     56000   296.83332      90.380742      1.3865472     -60836.881      46204.491    
     56500   298.58875      551.62122      1.3857735     -60698.316      46230.289    
     57000   301.45286      857.24456      1.3821297     -60804.505      46352.168    
     57500   291.22839      518.57789      1.3820671     -60737.7        46354.27     
     58000   300.01948     -442.71283      1.3783419     -60797.721      46479.548    
     58500   293.16329      114.42786      1.3730603     -60755.751      46658.339    
     59000   295.71622     -15.149073      1.3824016     -60860.774      46343.051    
     59500   296.33839      896.1238       1.3857507     -60805.027      46231.051    
     60000   297.51542      339.5184       1.3859617     -60799.961      46224.011    
     60500   307.39587     -347.95833      1.3850786     -60869.616      46253.482    
     61000   298.55428      34.102749      1.3848858     -60808.704      46259.922    
     61500   303.81854     -33.31136       1.3863809     -60714.824      46210.037    
     62000   306.46946      483.16489      1.3868338     -60801.563      46194.945    
     62500   304.04213      536.06788      1.3904131     -60862.44       46076.027    
     63000   294.67596     -990.41937      1.3814436     -60736.615      46375.19     
     63500   305.80853      596.03241      1.3916981     -60781.929      46033.482    
     64000   293.75497      215.86407      1.3847879     -60801.643      46263.193    
     64500   299.10845     -802.35575      1.3791574     -60734.187      46452.067    
     65000   298.40858      680.54289      1.3865197     -60799.458      46205.409    
     65500   287.16895     -247.29033      1.3779382     -60743.697      46493.165    
     66000   290.67116      62.688387      1.3807075     -60773.797      46399.915    
     66500   296.47354     -29.573788      1.3780106     -60816.974      46490.723    
     67000   306.80985     -269.06062      1.3778588     -60795.115      46495.846    
     67500   301.28616      105.20997      1.3838198     -60816.426      46295.557    
     68000   297.17413     -51.472911      1.3781378     -60811.351      46486.433    
     68500   297.46936      883.2207       1.3852612     -60855.417      46247.386    
     69000   297.77094     -175.79093      1.381665      -60810.618      46367.759    
     69500   300.87219     -243.99701      1.3769723     -60761.164      46525.781    
     70000   298.44268      130.63234      1.3828469     -60831.65       46328.13     
Loop time of 1912.26 on 1 procs for 30000 steps with 4912 atoms

Performance: 1.355 ns/day, 17.706 hours/ns, 15.688 timesteps/s, 77.061 katom-step/s
100.0% CPU use with 1 MPI tasks x 1 OpenMP threads

MPI task timing breakdown:
Section |  min time  |  avg time  |  max time  |%varavg| %total
---------------------------------------------------------------
Pair    | 1223.8     | 1223.8     | 1223.8     |   0.0 | 64.00
Bond    | 0.23489    | 0.23489    | 0.23489    |   0.0 |  0.01
Kspace  | 325.22     | 325.22     | 325.22     |   0.0 | 17.01
Neigh   | 85.412     | 85.412     | 85.412     |   0.0 |  4.47
Comm    | 19.894     | 19.894     | 19.894     |   0.0 |  1.04
Output  | 0.0062117  | 0.0062117  | 0.0062117  |   0.0 |  0.00
Modify  | 246.39     | 246.39     | 246.39     |   0.0 | 12.88
Other   |            | 11.29      |            |       |  0.59

Nlocal:           4912 ave        4912 max        4912 min
Histogram: 1 0 0 0 0 0 0 0 0 0
Nghost:          17842 ave       17842 max       17842 min
Histogram: 1 0 0 0 0 0 0 0 0 0
Neighs:    1.88207e+06 ave 1.88207e+06 max 1.88207e+06 min
Histogram: 1 0 0 0 0 0 0 0 0 0

Total # of neighbors = 1882070
Ave neighs/atom = 383.15757
Ave special neighs/atom = 1.8322476
Neighbor list builds = 1382
Dangerous builds = 0
PPPM initialization ...
  using 12-bit tables for long-range coulomb
  G vector (1/distance) = 0.30678871
  grid = 32 32 32
  stencil order = 5
  estimated absolute RMS force accuracy = 0.0032634753
  estimated relative force accuracy = 9.8278589e-06
  using double precision FFTW3
  3d grid and FFT values/proc = 59319 32768
Generated 6 of 6 mixed pair_coeff terms from geometric mixing rule
Setting up Verlet run ...
  Unit style    : real
  Current step  : 0
  Time step     : 1
Per MPI rank memory allocation (min/avg/max) = 28.43 | 28.43 | 28.43 Mbytes
   Step          Temp          Press         Density         PotEng         Volume    
         0   298.44268      225.62848      1.3828469     -60831.664      46328.13     
       500   305.25251      760.68204      1.3830456     -60760.56       46321.474    
      1000   302.98779      427.08245      1.3838428     -60826.539      46294.789    
      1500   300.78205      698.63612      1.3859334     -60916.053      46224.956    
      2000   293.5888      -1110.4337      1.381529      -60946.961      46372.323    
      2500   298.08426     -549.28051      1.38301       -60898.212      46322.665    
      3000   296.74964     -63.695461      1.3860924     -60985.701      46219.654    
      3500   292.78254     -461.10276      1.3770449     -60842.652      46523.326    
      4000   295.30027      340.59803      1.3786372     -60935.529      46469.592    
      4500   302.12883      800.30834      1.3836823     -60898.51       46300.159    
      5000   295.5253      -174.83039      1.3840967     -60996.62       46286.298    
      5500   299.60171     -138.56783      1.381954      -60985.167      46358.062    
      6000   292.42086      497.6301       1.3843158     -60869.841      46278.971    
      6500   291.88871      270.78906      1.3818499     -60958.692      46361.555    
      7000   305.65254     -312.50295      1.3733348     -60845.27       46649.01     
      7500   306.81088      416.88822      1.3800611     -60935.46       46421.646    
      8000   297.70065     -74.096494      1.3685959     -61044.299      46810.539    
      8500   300.00062     -609.99305      1.3681552     -61014.596      46825.617    
      9000   302.15905      773.84788      1.383839      -61024.373      46294.917    
      9500   301.34314     -694.06738      1.3785536     -60998.462      46472.41     
     10000   299.91266     -513.02327      1.3765751     -60893.289      46539.205    
     10500   292.62566     -967.26738      1.3719102     -60900.975      46697.453    
     11000   293.96045     -48.086777      1.3742551     -60921.007      46617.771    
     11500   297.65132      203.67901      1.3833174     -61026.797      46312.372    
     12000   297.96284     -50.700673      1.3775928     -60926.239      46504.824    
     12500   296.33256     -362.53849      1.3778839     -60953.338      46494.999    
     13000   301.05442     -254.28196      1.3807613     -61012.055      46398.106    
     13500   296.04723      179.49136      1.384988      -60949.453      46256.508    
     14000   300.6634       81.623006      1.3847048     -61066.79       46265.969    
     14500   298.77894      326.00861      1.37851       -60994.219      46473.881    
     15000   298.46487      587.28769      1.3828844     -60987.062      46326.874    
     15500   298.7893       841.83772      1.3883678     -61011.429      46143.903    
     16000   300.36547      677.16928      1.3943195     -61030.329      45946.936    
     16500   305.31247      265.30535      1.387226      -60978.64       46181.882    
     17000   301.6654      -312.65564      1.3864551     -61013.824      46207.562    
     17500   292.63394     -126.47854      1.388155      -60983.852      46150.977    
     18000   299.03142     -420.83975      1.3800146     -61107.226      46423.21     
     18500   288.61119     -326.33939      1.3870655     -61022.007      46187.229    
     19000   303.24129     -286.2535       1.3835737     -60962.848      46303.793    
     19500   298.26302      384.42943      1.388259      -60991.361      46147.52     
     20000   293.45759     -15.310475      1.381122      -60811.89       46385.988    
     20500   289.26562     -339.56216      1.3895833     -61068.701      46103.539    
     21000   301.26982     -468.96006      1.3748732     -60942.416      46596.815    
     21500   295.42874     -649.02118      1.3754631     -60927.845      46576.829    
     22000   298.60708     -282.40524      1.3821554     -61009.368      46351.308    
     22500   291.37967     -574.62445      1.3798456     -61102.212      46428.896    
     23000   300.99907      424.11736      1.38277       -60907.095      46330.707    
     23500   298.48807     -115.06672      1.3817882     -60851.666      46363.626    
     24000   301.16326     -913.07763      1.3780535     -60929.771      46489.276    
     24500   289.62355      325.43851      1.3846466     -60998.178      46267.914    
     25000   299.98531      757.52591      1.3911278     -60884.644      46052.353    
     25500   302.05562      868.24516      1.3897368     -60960.891      46098.45     
     26000   294.34595      279.24639      1.3800394     -60946.661      46422.376    
     26500   297.1706       92.189391      1.3876995     -60858.713      46166.125    
     27000   293.93936      424.57964      1.3900439     -60956.583      46088.265    
     27500   295.17862      514.07356      1.390014      -61043.285      46089.255    
     28000   300.33273     -118.89209      1.3805077     -60932.366      46406.632    
     28500   302.68082     -54.342237      1.3853182     -60980.916      46245.485    
     29000   297.09912      415.10868      1.3902345     -61070.078      46081.945    
     29500   296.90978      21.569175      1.3859476     -61055.734      46224.481    
     30000   294.9889      -401.64352      1.3882633     -61110.89       46147.377    
     30500   301.64539     -695.15338      1.3880907     -61111.886      46153.116    
     31000   295.83889      323.00653      1.3936049     -61063.607      45970.496    
     31500   303.00675      36.958162      1.3873791     -60997.791      46176.786    
     32000   299.46969      3.4899195      1.3890074     -61007.881      46122.656    
     32500   299.64676      768.24578      1.3901369     -60971.942      46085.181    
     33000   297.0061       247.92205      1.3856006     -60939.247      46236.059    
     33500   300.65393      504.15008      1.3927594     -61077.837      45998.404    
     34000   293.74013      509.35396      1.3855105     -61029.169      46239.064    
     34500   301.7958      -140.19059      1.380098      -60902.665      46420.408    
     35000   294.96829     -52.43347       1.385557      -61049.741      46237.512    
     35500   291.76926     -385.96675      1.3846278     -61043.19       46268.544    
     36000   292.17627     -1309.5228      1.3794423     -60956.274      46442.47     
     36500   295.93544      115.57633      1.388223      -61032.25       46148.717    
     37000   289.26819     -41.615457      1.3931115     -60912.595      45986.779    
     37500   299.151       -294.22432      1.3900904     -60968.75       46086.723    
     38000   295.75485      704.27684      1.3918488     -61039.623      46028.499    
     38500   288.69401      111.49072      1.3891037     -60964.905      46119.459    
     39000   297.33684      57.169309      1.3949311     -60996.625      45926.792    
     39500   299.47109     -571.71123      1.3869473     -60970.309      46191.164    
     40000   304.32586     -155.17859      1.3963155     -60986.893      45881.258    
     40500   303.07894     -233.65717      1.3939745     -60977.597      45958.307    
     41000   297.13344     -794.12892      1.3960491     -61106.599      45890.012    
     41500   294.46921      301.03899      1.397106      -60993.313      45855.297    
     42000   302.13355     -370.86152      1.397916      -60973.013      45828.726    
     42500   298.07012     -265.76756      1.3955996     -61017.347      45904.794    
     43000   298.32518      116.01302      1.3897187     -60908.337      46099.05     
     43500   296.44949      974.09546      1.4040473     -61094.791      45628.597    
     44000   300.66873      1013.5168      1.3984773     -60979.549      45810.332    
     44500   299.35209     -281.24962      1.386788      -60988.732      46196.47     
     45000   294.23253      891.33702      1.3974854     -61068.605      45842.848    
     45500   296.70982     -3.9131433      1.3899682     -61058.356      46090.773    
     46000   295.88385      296.62546      1.3909668     -60944.978      46057.684    
     46500   302.17487      340.17561      1.3893208     -60977.379      46112.252    
     47000   296.9666       830.58778      1.4026748     -61065.95       45673.245    
     47500   300.85982     -139.1954       1.389906      -61002.862      46092.836    
     48000   300.52239      5.3677425      1.3887245     -60992.517      46132.053    
     48500   300.53877     -219.80673      1.3907278     -61106.916      46065.599    
     49000   295.24301     -59.142933      1.3874458     -61076.173      46174.569    
     49500   304.32884      269.06108      1.3910147     -60996.449      46056.099    
     50000   291.59651     -194.45851      1.3884868     -61094.241      46139.948    
Loop time of 3732.26 on 1 procs for 50000 steps with 4912 atoms

Performance: 1.157 ns/day, 20.735 hours/ns, 13.397 timesteps/s, 65.805 katom-step/s
99.9% CPU use with 1 MPI tasks x 1 OpenMP threads

MPI task timing breakdown:
Section |  min time  |  avg time  |  max time  |%varavg| %total
---------------------------------------------------------------
Pair    | 2450.2     | 2450.2     | 2450.2     |   0.0 | 65.65
Bond    | 0.46093    | 0.46093    | 0.46093    |   0.0 |  0.01
Kspace  | 629.48     | 629.48     | 629.48     |   0.0 | 16.87
Neigh   | 174.99     | 174.99     | 174.99     |   0.0 |  4.69
Comm    | 41.542     | 41.542     | 41.542     |   0.0 |  1.11
Output  | 0.010538   | 0.010538   | 0.010538   |   0.0 |  0.00
Modify  | 411.32     | 411.32     | 411.32     |   0.0 | 11.02
Other   |            | 24.23      |            |       |  0.65

Nlocal:           4912 ave        4912 max        4912 min
Histogram: 1 0 0 0 0 0 0 0 0 0
Nghost:          17878 ave       17878 max       17878 min
Histogram: 1 0 0 0 0 0 0 0 0 0
Neighs:    1.89066e+06 ave 1.89066e+06 max 1.89066e+06 min
Histogram: 1 0 0 0 0 0 0 0 0 0

Total # of neighbors = 1890661
Ave neighs/atom = 384.90656
Ave special neighs/atom = 1.8322476
Neighbor list builds = 2277
Dangerous builds = 0
RESULT density_g_cm3 1.39272240493197
DONE pub_w30_q1.0
Total wall time: 1:58:12
