LAMMPS (22 Jul 2025 - Update 5)
  using 1 OpenMP thread(s) per MPI task
Reading data file ...
  orthogonal box = (0 0 0) to (36.329424 36.329424 36.329424)
  1 by 1 by 1 MPI processor grid
  reading atoms ...
  4740 atoms
  scanning bonds ...
  2 = max bonds/atom
  scanning angles ...
  1 = max angles/atom
  orthogonal box = (0 0 0) to (36.329424 36.329424 36.329424)
  1 by 1 by 1 MPI processor grid
  reading bonds ...
  3000 bonds
  reading angles ...
  1500 angles
Finding 1-2 1-3 1-4 neighbors ...
  special bond factors lj:    0        0        0       
  special bond factors coul:  0        0        0       
     2 = max # of 1-2 neighbors
     1 = max # of 1-3 neighbors
     1 = max # of 1-4 neighbors
     2 = max # of special neighbors
  special bonds CPU = 0.001 seconds
  read_data CPU = 0.027 seconds
Setting atom values ...
  120 settings made for charge
Setting atom values ...
  120 settings made for charge
4500 atoms in group watr
120 atoms in group kion
120 atoms in group ohion
240 atoms in group ions
Finding SHAKE clusters ...
       0 = # of size 2 clusters
       0 = # of size 3 clusters
       0 = # of size 4 clusters
    1500 = # of frozen angles
  find clusters CPU = 0.001 seconds
PPPM initialization ...
  using 12-bit tables for long-range coulomb
  G vector (1/distance) = 0.30594483
  grid = 32 32 32
  stencil order = 5
  estimated absolute RMS force accuracy = 0.003146693
  estimated relative force accuracy = 9.4761726e-06
  using double precision FFTW3
  3d grid and FFT values/proc = 59319 32768
Generated 6 of 6 mixed pair_coeff terms from geometric mixing rule
WARNING: Should not use fix nve/limit with fix shake or fix rattle (src/lammps/src/fix_nve_limit.cpp:76)
Neighbor list info ...
  update: every = 1 steps, delay = 0 steps, check = yes
  max neighbors/atom: 2000, page size: 100000
  master list distance cutoff = 12
  ghost atom cutoff = 12
  binsize = 6, bins = 7 7 7
  1 neighbor lists, perpetual/occasional/extra = 1 0 0
  (1) pair lj/cut/coul/long, perpetual
      attributes: half, newton on
      pair build: half/bin/newton
      stencil: half/bin/3d
      bin: standard
Setting up Verlet run ...
  Unit style    : real
  Current step  : 0
  Time step     : 0.2
Per MPI rank memory allocation (min/avg/max) = 27.64 | 27.64 | 27.64 Mbytes
   Step          Temp          Press         Density         PotEng         Volume    
         0   298            44251.946      1.1690128      1143.3839      47948.556    
       500   649.84707      6769.0549      1.1690128     -34370.242      47948.556    
      1000   373.25359     -317.88828      1.1690128     -38362.855      47948.556    
      1500   315.17884     -2055.0689      1.1690128     -39645.44       47948.556    
      2000   309.03598     -3276.7522      1.1690128     -40241.194      47948.556    
      2500   305.94566     -3718.7407      1.1690128     -40491.283      47948.556    
      3000   304.31667     -1997.7997      1.1690128     -40715.383      47948.556    
      3500   302.50458     -1793.8277      1.1690128     -40908.55       47948.556    
      4000   301.84107     -298.69696      1.1690128     -40975.708      47948.556    
      4500   296.81746     -3545.5453      1.1690128     -41041.003      47948.556    
      5000   301.17932     -1691.5855      1.1690128     -41100.211      47948.556    
      5500   302.61464     -2927.6956      1.1690128     -41230.556      47948.556    
      6000   295.88281     -2744.2756      1.1690128     -41246.269      47948.556    
      6500   296.98109     -4124.1745      1.1690128     -41390.25       47948.556    
      7000   305.08367     -1914.7143      1.1690128     -41424.846      47948.556    
      7500   301.94067     -2175.5353      1.1690128     -41432.046      47948.556    
      8000   297.60563     -3291.8734      1.1690128     -41424.976      47948.556    
      8500   296.04388      132.25525      1.1690128     -41465.572      47948.556    
      9000   295.07732     -2242.6071      1.1690128     -41531.049      47948.556    
      9500   298.72176     -1874.3707      1.1690128     -41537.158      47948.556    
     10000   302.54868     -4880.5358      1.1690128     -41517.772      47948.556    
     10500   304.50826     -2319.2995      1.1690128     -41621.234      47948.556    
     11000   305.18804     -3795.2518      1.1690128     -41662.189      47948.556    
     11500   298.91349     -1813.7937      1.1690128     -41652.206      47948.556    
     12000   297.00688     -2616.2234      1.1690128     -41683.865      47948.556    
     12500   296.73556     -749.64626      1.1690128     -41493.438      47948.556    
     13000   297.38877     -3555.1264      1.1690128     -41671.341      47948.556    
     13500   295.06495      906.27526      1.1690128     -41692.759      47948.556    
     14000   294.71951     -1494.8891      1.1690128     -41700.798      47948.556    
     14500   304.26795     -2271.0253      1.1690128     -41724.569      47948.556    
     15000   302.1366      -144.04778      1.1690128     -41815.506      47948.556    
     15500   295.16626     -2345.2053      1.1690128     -41789.281      47948.556    
     16000   303.70086     -1021.2322      1.1690128     -41773.157      47948.556    
     16500   303.62871     -2667.7372      1.1690128     -41812.396      47948.556    
     17000   298.03725     -3606.2424      1.1690128     -41801.411      47948.556    
     17500   298.12037     -1484.0365      1.1690128     -41734.918      47948.556    
     18000   298.61586     -2929.4007      1.1690128     -41782.097      47948.556    
     18500   300.41599     -2694.4096      1.1690128     -41815.623      47948.556    
     19000   296.73059     -3416.0688      1.1690128     -41791.064      47948.556    
     19500   298.73232     -2245.5009      1.1690128     -41688.073      47948.556    
     20000   303.93089     -1914.1184      1.1690128     -41799.278      47948.556    
Loop time of 597.93 on 1 procs for 20000 steps with 4740 atoms

Performance: 0.578 ns/day, 41.523 hours/ns, 33.449 timesteps/s, 158.547 katom-step/s
100.0% CPU use with 1 MPI tasks x 1 OpenMP threads

MPI task timing breakdown:
Section |  min time  |  avg time  |  max time  |%varavg| %total
---------------------------------------------------------------
Pair    | 460.77     | 460.77     | 460.77     |   0.0 | 77.06
Bond    | 0.046542   | 0.046542   | 0.046542   |   0.0 |  0.01
Kspace  | 112.42     | 112.42     | 112.42     |   0.0 | 18.80
Neigh   | 6.0995     | 6.0995     | 6.0995     |   0.0 |  1.02
Comm    | 4.1321     | 4.1321     | 4.1321     |   0.0 |  0.69
Output  | 0.002995   | 0.002995   | 0.002995   |   0.0 |  0.00
Modify  | 13.27      | 13.27      | 13.27      |   0.0 |  2.22
Other   |            | 1.193      |            |       |  0.20

Nlocal:           4740 ave        4740 max        4740 min
Histogram: 1 0 0 0 0 0 0 0 0 0
Nghost:          17113 ave       17113 max       17113 min
Histogram: 1 0 0 0 0 0 0 0 0 0
Neighs:    1.69419e+06 ave 1.69419e+06 max 1.69419e+06 min
Histogram: 1 0 0 0 0 0 0 0 0 0

Total # of neighbors = 1694190
Ave neighs/atom = 357.42405
Ave special neighs/atom = 1.8987342
Neighbor list builds = 187
Dangerous builds = 0
PPPM initialization ...
  using 12-bit tables for long-range coulomb
  G vector (1/distance) = 0.30594483
  grid = 32 32 32
  stencil order = 5
  estimated absolute RMS force accuracy = 0.003146693
  estimated relative force accuracy = 9.4761726e-06
  using double precision FFTW3
  3d grid and FFT values/proc = 59319 32768
Generated 6 of 6 mixed pair_coeff terms from geometric mixing rule
Setting up Verlet run ...
  Unit style    : real
  Current step  : 20000
  Time step     : 0.5
Per MPI rank memory allocation (min/avg/max) = 27.64 | 27.64 | 27.64 Mbytes
   Step          Temp          Press         Density         PotEng         Volume    
     20000   303.93089     -2171.1485      1.1690128     -41799.278      47948.556    
     20500   300.9175      -1957.1655      1.1690128     -41769.851      47948.556    
     21000   307.02894     -2007.6929      1.1690128     -41772.224      47948.556    
     21500   304.09446     -2513.9376      1.1690128     -41821.394      47948.556    
     22000   293.01224     -2596.0134      1.1690128     -41853.44       47948.556    
     22500   301.51317     -2541.4503      1.1690128     -41920.618      47948.556    
     23000   303.09197     -1642.8663      1.1690128     -41854.19       47948.556    
     23500   297.85505     -1975.0041      1.1690128     -41850.715      47948.556    
     24000   293.3743      -2223.6981      1.1690128     -41882.428      47948.556    
     24500   296.06884     -1169.88        1.1690128     -42004.793      47948.556    
     25000   297.40136     -2259.2065      1.1690128     -41951.98       47948.556    
     25500   296.59576     -1109.6911      1.1690128     -41973.39       47948.556    
     26000   300.63234     -1866.7151      1.1690128     -41936.539      47948.556    
     26500   306.95195     -1735.8209      1.1690128     -42037.995      47948.556    
     27000   301.05324     -1392.4129      1.1690128     -42027.845      47948.556    
     27500   294.64005     -2600.0199      1.1690128     -42029.56       47948.556    
     28000   295.09731     -1424.2357      1.1690128     -42083.226      47948.556    
     28500   295.5299      -1700.8522      1.1690128     -42000.808      47948.556    
     29000   307.03041     -1197.264       1.1690128     -42040.024      47948.556    
     29500   304.33162     -2004.45        1.1690128     -42071.757      47948.556    
     30000   308.34388     -1712.2225      1.1690128     -42072.279      47948.556    
     30500   298.06245     -2047.0431      1.1690128     -42101.089      47948.556    
     31000   295.95972     -2410.0914      1.1690128     -42111.069      47948.556    
     31500   301.26321     -2663.9409      1.1690128     -42166.428      47948.556    
     32000   290.41657     -1811.4781      1.1690128     -42177.241      47948.556    
     32500   300.23298     -1591.4283      1.1690128     -42192.435      47948.556    
     33000   291.10755     -1784.8167      1.1690128     -42148.872      47948.556    
     33500   295.11233     -2380.7572      1.1690128     -42262.52       47948.556    
     34000   294.45857     -2037.4507      1.1690128     -42148.721      47948.556    
     34500   295.00659     -1817.6351      1.1690128     -42150.563      47948.556    
     35000   300.25885     -1170.6273      1.1690128     -42155.883      47948.556    
     35500   301.88211     -2202.8279      1.1690128     -42121.386      47948.556    
     36000   293.66676     -2252.3224      1.1690128     -42201.951      47948.556    
     36500   295.79395     -2247.8358      1.1690128     -42125.602      47948.556    
     37000   301.31834     -1621.0393      1.1690128     -42211.379      47948.556    
     37500   301.82605     -2300.4775      1.1690128     -42191.71       47948.556    
     38000   306.94896     -2481.462       1.1690128     -42109.86       47948.556    
     38500   298.17192     -1527.7114      1.1690128     -42123.1        47948.556    
     39000   300.16601     -2276.08        1.1690128     -42152.698      47948.556    
     39500   297.27158     -2082.8811      1.1690128     -42092.46       47948.556    
     40000   301.80752     -1386.3698      1.1690128     -42064.855      47948.556    
Loop time of 814.765 on 1 procs for 20000 steps with 4740 atoms

Performance: 1.060 ns/day, 22.632 hours/ns, 24.547 timesteps/s, 116.353 katom-step/s
100.0% CPU use with 1 MPI tasks x 1 OpenMP threads

MPI task timing breakdown:
Section |  min time  |  avg time  |  max time  |%varavg| %total
---------------------------------------------------------------
Pair    | 610.48     | 610.48     | 610.48     |   0.0 | 74.93
Bond    | 0.072576   | 0.072576   | 0.072576   |   0.0 |  0.01
Kspace  | 154.71     | 154.71     | 154.71     |   0.0 | 18.99
Neigh   | 18.82      | 18.82      | 18.82      |   0.0 |  2.31
Comm    | 8.1226     | 8.1226     | 8.1226     |   0.0 |  1.00
Output  | 0.0042134  | 0.0042134  | 0.0042134  |   0.0 |  0.00
Modify  | 20.116     | 20.116     | 20.116     |   0.0 |  2.47
Other   |            | 2.436      |            |       |  0.30

Nlocal:           4740 ave        4740 max        4740 min
Histogram: 1 0 0 0 0 0 0 0 0 0
Nghost:          17049 ave       17049 max       17049 min
Histogram: 1 0 0 0 0 0 0 0 0 0
Neighs:    1.69428e+06 ave 1.69428e+06 max 1.69428e+06 min
Histogram: 1 0 0 0 0 0 0 0 0 0

Total # of neighbors = 1694275
Ave neighs/atom = 357.44198
Ave special neighs/atom = 1.8987342
Neighbor list builds = 450
Dangerous builds = 0
PPPM initialization ...
  using 12-bit tables for long-range coulomb
  G vector (1/distance) = 0.30594483
  grid = 32 32 32
  stencil order = 5
  estimated absolute RMS force accuracy = 0.003146693
  estimated relative force accuracy = 9.4761726e-06
  using double precision FFTW3
  3d grid and FFT values/proc = 59319 32768
Generated 6 of 6 mixed pair_coeff terms from geometric mixing rule
Setting up Verlet run ...
  Unit style    : real
  Current step  : 40000
  Time step     : 1
Per MPI rank memory allocation (min/avg/max) = 27.64 | 27.64 | 27.64 Mbytes
   Step          Temp          Press         Density         PotEng         Volume    
     40000   301.80752     -2115.3849      1.1690128     -42064.855      47948.556    
     40500   303.10988     -420.54696      1.210448      -42395.233      46307.213    
     41000   300.2875      -583.57915      1.2208364     -42264.027      45913.174    
     41500   296.95859     -171.53243      1.234552      -42319.346      45403.09     
     42000   298.1978       236.72585      1.2305995     -42275.091      45548.918    
     42500   304.03297      410.44105      1.2408166     -42275.868      45173.858    
     43000   297.53531      56.409829      1.247902      -42461.015      44917.368    
     43500   289.32846     -54.899624      1.2480383     -42477.523      44912.463    
     44000   301.58714      358.74322      1.2421576     -42427.206      45125.092    
     44500   303.72489      350.8038       1.2512532     -42562.522      44797.067    
     45000   299.23335      79.181672      1.2489964     -42457.717      44878.01     
     45500   304.43405     -209.06193      1.2511085     -42540.974      44802.25     
     46000   300.88039      538.77464      1.2533754     -42510.769      44721.216    
     46500   300.14425     -38.435227      1.2501634     -42528.436      44836.118    
     47000   291.1329      -505.29148      1.2471194     -42529.224      44945.554    
     47500   294.95656      71.087387      1.2471789     -42571.728      44943.412    
     48000   300.56288      14.363002      1.2451407     -42523.714      45016.98     
     48500   295.14618     -410.47106      1.2475354     -42470.225      44930.567    
     49000   297.37461     -132.24501      1.2514413     -42622.665      44790.334    
     49500   308.19104     -491.68712      1.2472399     -42436.88       44941.214    
     50000   299.98324      531.86983      1.2513339     -42432.587      44794.177    
     50500   293.68189      86.243407      1.2569551     -42547.307      44593.854    
     51000   290.79605     -116.63724      1.2561518     -42517.789      44622.374    
     51500   292.06634     -189.97833      1.2485427     -42560.476      44894.319    
     52000   299.03678     -919.63454      1.2411351     -42409.328      45162.265    
     52500   293.62697      289.6013       1.2455436     -42513.357      45002.419    
     53000   299.70173     -101.78232      1.2477569     -42529.219      44922.593    
     53500   300.48515     -700.63829      1.248031      -42642.18       44912.725    
     54000   296.80888     -481.14891      1.2406161     -42458.49       45181.161    
     54500   300.08234      317.91374      1.2580743     -42576.139      44554.186    
     55000   296.12471     -79.370585      1.2436529     -42405.611      45070.837    
     55500   300.68761      376.68557      1.2484025     -42540.08       44899.36     
     56000   298.68677     -143.56965      1.2520347     -42584.544      44769.105    
     56500   297.82434      90.218115      1.253089      -42526.134      44731.44     
     57000   305.25888     -870.92237      1.2538574     -42558.941      44704.027    
     57500   302.77047      640.54059      1.2543166     -42539.113      44687.661    
     58000   295.79853     -25.308565      1.2552957     -42479.108      44652.806    
     58500   301.99982     -608.26995      1.2536409     -42594.219      44711.747    
     59000   296.13539     -196.85687      1.2591195     -42555.432      44517.198    
     59500   302.19516     -329.66604      1.2562965     -42556.926      44617.235    
     60000   304.073        20.598032      1.2584555     -42528.075      44540.689    
     60500   292.9089       714.39333      1.2586491     -42406.49       44533.837    
     61000   301.06706      383.63123      1.2487389     -42455.293      44887.266    
     61500   304.25685     -108.50242      1.2506698     -42484.123      44817.963    
     62000   303.30576     -347.53421      1.2520216     -42547.902      44769.574    
     62500   294.36136      252.88366      1.2567788     -42578.483      44600.113    
     63000   292.76567     -519.13533      1.2474397     -42458.447      44934.014    
     63500   297.14355     -396.82476      1.2522683     -42577.083      44760.753    
     64000   303.79074     -994.79652      1.2385762     -42494.671      45255.573    
     64500   303.88096      455.6804       1.2490253     -42594.229      44876.972    
     65000   298.88247     -441.47356      1.2485916     -42601.929      44892.562    
     65500   297.86447     -307.33807      1.2529949     -42650.863      44734.799    
     66000   292.97315     -302.77063      1.2564719     -42584.564      44611.006    
     66500   298.76943      152.95052      1.2469876     -42491.223      44950.308    
     67000   300.57862      171.72648      1.2461649     -42618.396      44979.982    
     67500   299.15266      48.812295      1.2492301     -42431.997      44869.615    
     68000   296.26893      18.684281      1.260914      -42662.525      44453.845    
     68500   295.82236     -409.56747      1.2547972     -42532.059      44670.545    
     69000   308.8175      -803.66754      1.2537288     -42674.934      44708.613    
     69500   299.02319      249.64387      1.2552605     -42549.203      44654.059    
     70000   296.36768     -217.77003      1.24792       -42566.998      44916.721    
Loop time of 1832.83 on 1 procs for 30000 steps with 4740 atoms

Performance: 1.414 ns/day, 16.971 hours/ns, 16.368 timesteps/s, 77.585 katom-step/s
99.9% CPU use with 1 MPI tasks x 1 OpenMP threads

MPI task timing breakdown:
Section |  min time  |  avg time  |  max time  |%varavg| %total
---------------------------------------------------------------
Pair    | 1168.6     | 1168.6     | 1168.6     |   0.0 | 63.76
Bond    | 0.23298    | 0.23298    | 0.23298    |   0.0 |  0.01
Kspace  | 298.56     | 298.56     | 298.56     |   0.0 | 16.29
Neigh   | 88.472     | 88.472     | 88.472     |   0.0 |  4.83
Comm    | 19.061     | 19.061     | 19.061     |   0.0 |  1.04
Output  | 0.0058359  | 0.0058359  | 0.0058359  |   0.0 |  0.00
Modify  | 247.15     | 247.15     | 247.15     |   0.0 | 13.48
Other   |            | 10.77      |            |       |  0.59

Nlocal:           4740 ave        4740 max        4740 min
Histogram: 1 0 0 0 0 0 0 0 0 0
Nghost:          17559 ave       17559 max       17559 min
Histogram: 1 0 0 0 0 0 0 0 0 0
Neighs:    1.80808e+06 ave 1.80808e+06 max 1.80808e+06 min
Histogram: 1 0 0 0 0 0 0 0 0 0

Total # of neighbors = 1808085
Ave neighs/atom = 381.45253
Ave special neighs/atom = 1.8987342
Neighbor list builds = 1402
Dangerous builds = 0
PPPM initialization ...
  using 12-bit tables for long-range coulomb
  G vector (1/distance) = 0.30280075
  grid = 30 30 30
  stencil order = 5
  estimated absolute RMS force accuracy = 0.0039389993
  estimated relative force accuracy = 1.1862179e-05
  using double precision FFTW3
  3d grid and FFT values/proc = 50653 27000
Generated 6 of 6 mixed pair_coeff terms from geometric mixing rule
Setting up Verlet run ...
  Unit style    : real
  Current step  : 0
  Time step     : 1
Per MPI rank memory allocation (min/avg/max) = 27.2 | 27.2 | 27.2 Mbytes
   Step          Temp          Press         Density         PotEng         Volume    
         0   296.36768     -229.32005      1.24792       -42567          44916.721    
       500   298.39459     -1101.4602      1.2421881     -42507.031      45123.981    
      1000   299.54587     -203.79833      1.2462058     -42679.995      44978.505    
      1500   298.88254      99.831988      1.2539146     -42609.267      44701.986    
      2000   299.0212      -156.01611      1.2518612     -42632.29       44775.31     
      2500   300.07875      367.45967      1.2582218     -42695.026      44548.962    
      3000   302.30829     -516.26665      1.25126       -42638.501      44796.822    
      3500   304.98805      277.94618      1.253963      -42645.73       44700.263    
      4000   300.97644     -266.77045      1.2554575     -42709.537      44647.051    
      4500   293.87857     -58.394198      1.2578976     -42595.881      44560.442    
      5000   302.59657     -196.23772      1.2499863     -42691.248      44842.47     
      5500   307.36292      502.09981      1.260565      -42583.272      44466.152    
      6000   299.96654     -180.46925      1.2510075     -42554.757      44805.864    
      6500   303.32426      262.95404      1.2563089     -42687.454      44616.792    
      7000   301.07912     -442.5877       1.2477012     -42571.764      44924.599    
      7500   301.32808      447.73848      1.2523196     -42624.365      44758.922    
      8000   289.05252      564.53356      1.2583386     -42599.745      44544.826    
      8500   294.71434     -492.66358      1.2430686     -42573.77       45092.022    
      9000   300.82516      402.94476      1.254028      -42631.858      44697.944    
      9500   300.25283      174.1477       1.2447215     -42533.823      45032.142    
     10000   300.91688      704.3435       1.2524118     -42622.91       44755.628    
     10500   301.12799      334.83082      1.2450668     -42551.843      45019.654    
     11000   309.65627      349.15692      1.2513222     -42574.653      44794.599    
     11500   305.15765      648.2661       1.2585685     -42606.369      44536.689    
     12000   297.81662      436.79296      1.2583117     -42687.687      44545.777    
     12500   295.50397      152.12079      1.2483304     -42602.712      44901.955    
     13000   295.43796      981.78826      1.2607619     -42563.364      44459.209    
     13500   299.69757      432.97624      1.2555387     -42582.919      44644.164    
     14000   295.1778       366.25333      1.2625173     -42618.436      44397.391    
     14500   301.29142      527.0504       1.264101      -42696.016      44341.767    
     15000   301.91309     -8.5028093      1.2637197     -42703.157      44355.147    
     15500   300.26955     -199.26965      1.2544342     -42557.757      44683.472    
     16000   299.81734     -33.467918      1.2589699     -42601.068      44522.489    
     16500   299.53271      131.78885      1.2584504     -42693.658      44540.869    
     17000   301.27607     -108.00733      1.2586228     -42610.021      44534.767    
     17500   302.54625      139.24197      1.2525617     -42658.07       44750.269    
     18000   296.37193     -528.33691      1.2417011     -42669.421      45141.68     
     18500   295.60844      214.52304      1.252375      -42576.107      44756.942    
     19000   305.64216     -203.21083      1.2492366     -42648.945      44869.382    
     19500   304.98179      360.69544      1.2540802     -42588.271      44696.085    
     20000   296.91603      35.691048      1.2478015     -42545.497      44920.987    
     20500   297.12403     -529.76365      1.2421618     -42730.096      45124.936    
     21000   293.52159      116.64071      1.2529811     -42635.573      44735.292    
     21500   293.00442     -9.6476439      1.2539958     -42590.879      44699.092    
     22000   298.49172     -4.957923       1.2522798     -42575.26       44760.345    
     22500   297.03481     -219.53297      1.2499072     -42498.001      44845.31     
     23000   296.37693      636.39271      1.2558872     -42586.255      44631.774    
     23500   303.54611     -339.02359      1.2499329     -42569.08       44844.386    
     24000   302.85344      138.53901      1.2550771     -42676.602      44660.583    
     24500   291.21643     -23.259196      1.255417      -42539.306      44648.489    
     25000   296.15546     -319.15482      1.2500225     -42654.762      44841.173    
     25500   304.48135      22.606702      1.2478292     -42583.611      44919.99     
     26000   299.4656       397.44102      1.2468278     -42496.377      44956.068    
     26500   286.4972       90.859145      1.2469391     -42670.943      44952.056    
     27000   299.31204     -190.45515      1.2584832     -42590.77       44539.709    
     27500   297.56172     -819.95214      1.2585518     -42586.143      44537.28     
     28000   294.21039     -70.94618       1.2550293     -42602.614      44662.283    
     28500   288.75665     -389.84841      1.2604483     -42604.425      44470.268    
     29000   301.10861      590.54368      1.2671968     -42525.747      44233.442    
     29500   297.77873      51.202286      1.2611939     -42523.415      44443.977    
     30000   294.56694      107.82594      1.2640176     -42559.182      44344.696    
     30500   299.365        158.36646      1.2629135     -42653.09       44383.464    
     31000   301.33925      375.29651      1.2504045     -42423.014      44827.472    
     31500   286.75139      262.21317      1.2531436     -42523.192      44729.491    
     32000   291.58052     -347.47319      1.2548212     -42582.725      44669.691    
     32500   299.39114      29.787412      1.259585      -42544.421      44500.747    
     33000   308.77809      119.19617      1.2539851     -42599.969      44699.475    
     33500   304.22117     -195.95291      1.2640882     -42577.066      44342.218    
     34000   295.16434     -293.97836      1.2603299     -42578.109      44474.445    
     34500   297.58492     -173.12402      1.2532082     -42519.194      44727.183    
     35000   295.41775      14.222027      1.2665495     -42611.653      44256.047    
     35500   298.20764      17.050708      1.2584675     -42556.609      44540.264    
     36000   296.33364      559.89664      1.2689069     -42597.671      44173.829    
     36500   295.39887     -261.14222      1.2544543     -42549.859      44682.755    
     37000   301.77093     -151.82115      1.2553751     -42645.504      44649.982    
     37500   286.27139     -36.072544      1.2559292     -42574.631      44630.281    
     38000   296.84308      212.06635      1.2585196     -42587.834      44538.419    
     38500   300.78385     -452.89096      1.256702      -42702.464      44602.838    
     39000   298.69732      275.32023      1.2624905     -42673.973      44398.333    
     39500   303.92958     -255.12715      1.2592215     -42582.065      44513.593    
     40000   304.37039     -20.577377      1.2613437     -42748.482      44438.699    
     40500   298.83693     -74.919035      1.2630738     -42688.06       44377.829    
     41000   296.421        52.404938      1.2675729     -42651.914      44220.317    
     41500   292.28409     -123.81059      1.2694823     -42579.122      44153.806    
     42000   292.27147     -567.24092      1.2719256     -42708.748      44068.989    
     42500   294.54256     -32.982007      1.2702737     -42700.804      44126.296    
     43000   296.91833     -209.92179      1.2589536     -42582.728      44523.066    
     43500   297.15242     -869.62139      1.261856      -42586.02       44420.657    
     44000   292.23213      97.956573      1.2602542     -42572.399      44477.119    
     44500   291.37819      170.30228      1.2686368     -42650.897      44183.231    
     45000   300.50011      214.31813      1.2620125     -42571.693      44415.151    
     45500   298.11155      469.00549      1.2741128     -42658.106      43993.338    
     46000   304.68367     -38.383139      1.2699912     -42641.13       44136.112    
     46500   296.35481      95.736339      1.2642062     -42594.795      44338.079    
     47000   293.33861     -512.225        1.2481493     -42562.658      44908.468    
     47500   293.94939      114.4841       1.2577617     -42622.943      44565.258    
     48000   298.7643      -51.630281      1.2524182     -42616.759      44755.397    
     48500   305.25659      212.06139      1.2525187     -42647.919      44751.805    
     49000   301.85385      134.59388      1.2481928     -42584.414      44906.905    
     49500   295.98137      495.20525      1.2539387     -42634.669      44701.129    
     50000   298.24985      124.64033      1.249473      -42596.276      44860.895    
Loop time of 3476.19 on 1 procs for 50000 steps with 4740 atoms

Performance: 1.243 ns/day, 19.312 hours/ns, 14.384 timesteps/s, 68.178 katom-step/s
99.8% CPU use with 1 MPI tasks x 1 OpenMP threads

MPI task timing breakdown:
Section |  min time  |  avg time  |  max time  |%varavg| %total
---------------------------------------------------------------
Pair    | 2415       | 2415       | 2415       |   0.0 | 69.47
Bond    | 0.46702    | 0.46702    | 0.46702    |   0.0 |  0.01
Kspace  | 475.45     | 475.45     | 475.45     |   0.0 | 13.68
Neigh   | 172.93     | 172.93     | 172.93     |   0.0 |  4.97
Comm    | 41.172     | 41.172     | 41.172     |   0.0 |  1.18
Output  | 0.010729   | 0.010729   | 0.010729   |   0.0 |  0.00
Modify  | 347.38     | 347.38     | 347.38     |   0.0 |  9.99
Other   |            | 23.79      |            |       |  0.68

Nlocal:           4740 ave        4740 max        4740 min
Histogram: 1 0 0 0 0 0 0 0 0 0
Nghost:          17584 ave       17584 max       17584 min
Histogram: 1 0 0 0 0 0 0 0 0 0
Neighs:    1.81037e+06 ave 1.81037e+06 max 1.81037e+06 min
Histogram: 1 0 0 0 0 0 0 0 0 0

Total # of neighbors = 1810370
Ave neighs/atom = 381.9346
Ave special neighs/atom = 1.8987342
Neighbor list builds = 2338
Dangerous builds = 0
RESULT density_g_cm3 1.26181147117085
DONE pub_w20_q1.0
Total wall time: 1:52:02
