LAMMPS (22 Jul 2025 - Update 5)
OMP_NUM_THREADS environment is not set. Defaulting to 1 thread.
  using 1 OpenMP thread(s) per MPI task
Reading data file ...
  orthogonal box = (0.285001 -0.368323 -1.043333) to (25.325067 24.671743 43.303354)
  1 by 1 by 1 MPI processor grid
  reading atoms ...
  288 atoms
  reading velocities ...
  288 velocities
Finding 1-2 1-3 1-4 neighbors ...
  special bond factors lj:    0        0        0       
  special bond factors coul:  0        0        0       
     0 = max # of 1-2 neighbors
     0 = max # of 1-3 neighbors
     0 = max # of 1-4 neighbors
     1 = max # of special neighbors
  special bonds CPU = 0.000 seconds
  read_data CPU = 0.012 seconds
144 atoms in group bot
144 atoms in group top
288 atoms in group conp_group

CITE-CITE-CITE-CITE-CITE-CITE-CITE-CITE-CITE-CITE-CITE-CITE-CITE

Your simulation uses code contributions which should be cited:
- kspace_style pppm/electrode command:
- fix electrode command:
The log file lists these citations in BibTeX format.

CITE-CITE-CITE-CITE-CITE-CITE-CITE-CITE-CITE-CITE-CITE-CITE-CITE

WARNING: No fixes with time integration, atoms won't move
For more information see https://docs.lammps.org/err0028 (src/lammps/src/verlet.cpp:60)
PPPM/electrode initialization ...
WARNING: System is not charge neutral, net charge = 0.000219
For more information see https://docs.lammps.org/err0029 (src/lammps/src/kspace.cpp:330)
  using 12-bit tables for long-range coulomb
  G vector (1/distance) = 0.16696028
  grid = 8 8 25
  stencil order = 5
  estimated absolute RMS force accuracy = 2.7967012e-05
  estimated relative force accuracy = 8.4221827e-08
  using double precision FFTW3
  3d grid and FFT values/proc = 4563 1600
Generated 1 of 1 mixed pair_coeff terms from geometric mixing rule
Neighbor list info ...
  update: every = 1 steps, delay = 0 steps, check = yes
  max neighbors/atom: 2000, page size: 100000
  master list distance cutoff = 16
  ghost atom cutoff = 16
  binsize = 8, bins = 4 4 6
  2 neighbor lists, perpetual/occasional/extra = 2 0 0
  (1) pair lj/cut/coul/long, perpetual
      attributes: half, newton on
      pair build: half/bin/newton
      stencil: half/bin/3d
      bin: standard
  (2) fix electrode/conp, perpetual, copy from (1)
      attributes: half, newton on
      pair build: copy
      stencil: none
      bin: none
Setting up Verlet run ...
  Unit style    : real
  Current step  : 0
  Time step     : 1
WARNING: Using kspace solver on system with no charge (src/lammps/src/kspace.cpp:317)
Per MPI rank memory allocation (min/avg/max) = 7.942 | 7.942 | 7.942 Mbytes
   Step          v_v           c_qbot         c_qtop       v_qtheory      v_percdev   
         0   0              0              0              0              0            
         1   0.2           -0.030912769    0.030912769    0.031376826   -1.4789807    
         2   0.4           -0.061825538    0.061825538    0.062753652   -1.4789807    
         3   0.6           -0.092738307    0.092738307    0.094130479   -1.4789807    
         4   0.8           -0.12365108     0.12365108     0.1255073     -1.4789807    
         5   1             -0.15456384     0.15456384     0.15688413    -1.4789807    
         6   1.2           -0.18547661     0.18547661     0.18826096    -1.4789807    
         7   1.4           -0.21638938     0.21638938     0.21963778    -1.4789807    
         8   1.6           -0.24730215     0.24730215     0.25101461    -1.4789807    
         9   1.8           -0.27821492     0.27821492     0.28239144    -1.4789807    
        10   2             -0.30912769     0.30912769     0.31376826    -1.4789807    
Loop time of 0.0188163 on 1 procs for 10 steps with 288 atoms

Performance: 45.918 ns/day, 0.523 hours/ns, 531.455 timesteps/s, 153.059 katom-step/s
682.9% CPU use with 1 MPI tasks x 1 OpenMP threads

MPI task timing breakdown:
Section |  min time  |  avg time  |  max time  |%varavg| %total
---------------------------------------------------------------
Pair    | 0.0062086  | 0.0062086  | 0.0062086  |   0.0 | 33.00
Bond    | 1.082e-06  | 1.082e-06  | 1.082e-06  |   0.0 |  0.01
Kspace  | 0.001907   | 0.001907   | 0.001907   |   0.0 | 10.13
Neigh   | 0          | 0          | 0          |   0.0 |  0.00
Comm    | 4.8792e-05 | 4.8792e-05 | 4.8792e-05 |   0.0 |  0.26
Output  | 0.00057449 | 0.00057449 | 0.00057449 |   0.0 |  3.05
Modify  | 0.010044   | 0.010044   | 0.010044   |   0.0 | 53.38
Other   |            | 3.237e-05  |            |       |  0.17

Nlocal:            288 ave         288 max         288 min
Histogram: 1 0 0 0 0 0 0 0 0 0
Nghost:           1170 ave        1170 max        1170 min
Histogram: 1 0 0 0 0 0 0 0 0 0
Neighs:          26496 ave       26496 max       26496 min
Histogram: 1 0 0 0 0 0 0 0 0 0

Total # of neighbors = 26496
Ave neighs/atom = 92
Ave special neighs/atom = 0
Neighbor list builds = 0
Dangerous builds = 0
Total wall time: 0:00:06
