LAMMPS (22 Jul 2025 - Update 5)
OMP_NUM_THREADS environment is not set. Defaulting to 1 thread.
  using 1 OpenMP thread(s) per MPI task
# SPC/E water box benchmark - representative of T12 MD campaign cost
units real
atom_style full
boundary p p p
region box block 0 100 0 100 0 100
create_box 2 box bond/types 1 angle/types 1 extra/bond/per/atom 2 extra/angle/per/atom 1 extra/special/per/atom 2
Created orthogonal box = (0 0 0) to (100 100 100)
  2 by 2 by 4 MPI processor grid
mass 1 15.9994
mass 2 1.008
pair_style lj/cut/coul/long 10.0
pair_coeff 1 1 0.15535 3.166
pair_coeff 1 2 0.0 0.0
pair_coeff 2 2 0.0 0.0
bond_style harmonic
bond_coeff 1 1000 1.0
angle_style harmonic
angle_coeff 1 100 109.47
molecule water spce.mol
ERROR: Invalid format in Bonds section of molecule file:  (src/lammps/src/molecule.cpp:2769)
Last input line: molecule water spce.mol 
                                ^^^^^^^^
