LAMMPS (22 Jul 2025 - Update 5)
  using 1 OpenMP thread(s) per MPI task
Reading data file ...
  orthogonal box = (0 0 0) to (36.329424 36.329424 36.329424)
  1 by 1 by 1 MPI processor grid
  reading atoms ...
  4740 atoms
  scanning bonds ...
  2 = max bonds/atom
  scanning angles ...
  1 = max angles/atom
  orthogonal box = (0 0 0) to (36.329424 36.329424 36.329424)
  1 by 1 by 1 MPI processor grid
  reading bonds ...
  3000 bonds
  reading angles ...
  1500 angles
Finding 1-2 1-3 1-4 neighbors ...
  special bond factors lj:    0        0        0       
  special bond factors coul:  0        0        0       
     2 = max # of 1-2 neighbors
     1 = max # of 1-3 neighbors
     1 = max # of 1-4 neighbors
     2 = max # of special neighbors
  special bonds CPU = 0.002 seconds
  read_data CPU = 0.044 seconds
Setting atom values ...
  120 settings made for charge
Setting atom values ...
  120 settings made for charge
4500 atoms in group watr
120 atoms in group kion
120 atoms in group ohion
240 atoms in group ions
Finding SHAKE clusters ...
       0 = # of size 2 clusters
       0 = # of size 3 clusters
       0 = # of size 4 clusters
    1500 = # of frozen angles
  find clusters CPU = 0.004 seconds
PPPM initialization ...
  using 12-bit tables for long-range coulomb
  G vector (1/distance) = 0.30117939
  grid = 30 30 30
  stencil order = 5
  estimated absolute RMS force accuracy = 0.0040089904
  estimated relative force accuracy = 1.2072955e-05
  using double precision FFTW3
  3d grid and FFT values/proc = 50653 27000
Generated 6 of 6 mixed pair_coeff terms from geometric mixing rule
WARNING: Should not use fix nve/limit with fix shake or fix rattle (src/lammps/src/fix_nve_limit.cpp:76)
Neighbor list info ...
  update: every = 1 steps, delay = 0 steps, check = yes
  max neighbors/atom: 2000, page size: 100000
  master list distance cutoff = 12
  ghost atom cutoff = 12
  binsize = 6, bins = 7 7 7
  1 neighbor lists, perpetual/occasional/extra = 1 0 0
  (1) pair lj/cut/coul/long, perpetual
      attributes: half, newton on
      pair build: half/bin/newton
      stencil: half/bin/3d
      bin: standard
Setting up Verlet run ...
  Unit style    : real
  Current step  : 0
  Time step     : 0.2
Per MPI rank memory allocation (min/avg/max) = 26.79 | 26.79 | 26.79 Mbytes
   Step          Temp          Press         Density         PotEng         Volume    
         0   333            40250.84       1.1690128      3564.2144      47948.556    
       500   610.7857       9423.0551      1.1690128     -25914.222      47948.556    
      1000   386.22985     -1114.2219      1.1690128     -29079.148      47948.556    
      1500   356.98835      2238.853       1.1690128     -30087.94       47948.556    
      2000   337.13332     -63.926375      1.1690128     -30466.465      47948.556    
      2500   344.84219      2126.0815      1.1690128     -30667.535      47948.556    
      3000   341.93057      623.48621      1.1690128     -30851.167      47948.556    
      3500   328.07866      197.65964      1.1690128     -31040.954      47948.556    
      4000   337.05971     -657.5148       1.1690128     -31146.956      47948.556    
      4500   328.63556      1300.8486      1.1690128     -31190.729      47948.556    
      5000   333.06257      2375.1713      1.1690128     -31216.501      47948.556    
      5500   338.07173      83.302846      1.1690128     -31413.655      47948.556    
      6000   331.18485     -1134.3612      1.1690128     -31353.14       47948.556    
      6500   338.50275      2298.3752      1.1690128     -31360.669      47948.556    
      7000   337.23233     -353.91084      1.1690128     -31398.723      47948.556    
      7500   333.76059      1020.9296      1.1690128     -31450.537      47948.556    
      8000   333.19168      2177.3944      1.1690128     -31450.199      47948.556    
      8500   326.82397      685.32755      1.1690128     -31539.386      47948.556    
      9000   331.87128     -47.238085      1.1690128     -31621.703      47948.556    
      9500   337.36536      2575.7746      1.1690128     -31595.269      47948.556    
     10000   337.98293      457.39866      1.1690128     -31616.628      47948.556    
     10500   328.93088      740.92935      1.1690128     -31543.58       47948.556    
     11000   332.30635     -1698.1156      1.1690128     -31635.495      47948.556    
     11500   326.50137      756.60058      1.1690128     -31686.966      47948.556    
     12000   336.71931      665.26251      1.1690128     -31660.2        47948.556    
     12500   332.1121      -155.59604      1.1690128     -31757.243      47948.556    
     13000   337.92544      582.87957      1.1690128     -31784.277      47948.556    
     13500   334.66747      1044.5379      1.1690128     -31646.251      47948.556    
     14000   332.46345      1179.1764      1.1690128     -31727.175      47948.556    
     14500   330.31752      1910.2589      1.1690128     -31624.647      47948.556    
     15000   338.77877      476.34647      1.1690128     -31737.25       47948.556    
     15500   335.91077      1060.867       1.1690128     -31760.331      47948.556    
     16000   333.73045      600.14691      1.1690128     -31724.425      47948.556    
     16500   337.71988      59.785763      1.1690128     -31862.41       47948.556    
     17000   334.5713       179.89696      1.1690128     -31883.67       47948.556    
     17500   331.13992     -734.52158      1.1690128     -31809.958      47948.556    
     18000   334.91053      1438.0264      1.1690128     -31809.07       47948.556    
     18500   336.72901      46.624176      1.1690128     -31711.888      47948.556    
     19000   342.84587      463.40582      1.1690128     -31672.261      47948.556    
     19500   334.02041      640.47368      1.1690128     -31737.718      47948.556    
     20000   333.96107      48.467123      1.1690128     -31727.911      47948.556    
Loop time of 1681.08 on 1 procs for 20000 steps with 4740 atoms

Performance: 0.206 ns/day, 116.742 hours/ns, 11.897 timesteps/s, 56.392 katom-step/s
63.4% CPU use with 1 MPI tasks x 1 OpenMP threads

MPI task timing breakdown:
Section |  min time  |  avg time  |  max time  |%varavg| %total
---------------------------------------------------------------
Pair    | 1303.4     | 1303.4     | 1303.4     |   0.0 | 77.53
Bond    | 0.12218    | 0.12218    | 0.12218    |   0.0 |  0.01
Kspace  | 285.73     | 285.73     | 285.73     |   0.0 | 17.00
Neigh   | 17.35      | 17.35      | 17.35      |   0.0 |  1.03
Comm    | 20.562     | 20.562     | 20.562     |   0.0 |  1.22
Output  | 0.014449   | 0.014449   | 0.014449   |   0.0 |  0.00
Modify  | 47.081     | 47.081     | 47.081     |   0.0 |  2.80
Other   |            | 6.85       |            |       |  0.41

Nlocal:           4740 ave        4740 max        4740 min
Histogram: 1 0 0 0 0 0 0 0 0 0
Nghost:          17025 ave       17025 max       17025 min
Histogram: 1 0 0 0 0 0 0 0 0 0
Neighs:    1.69384e+06 ave 1.69384e+06 max 1.69384e+06 min
Histogram: 1 0 0 0 0 0 0 0 0 0

Total # of neighbors = 1693845
Ave neighs/atom = 357.35127
Ave special neighs/atom = 1.8987342
Neighbor list builds = 202
Dangerous builds = 0
PPPM initialization ...
  using 12-bit tables for long-range coulomb
  G vector (1/distance) = 0.30117939
  grid = 30 30 30
  stencil order = 5
  estimated absolute RMS force accuracy = 0.0040089904
  estimated relative force accuracy = 1.2072955e-05
  using double precision FFTW3
  3d grid and FFT values/proc = 50653 27000
Generated 6 of 6 mixed pair_coeff terms from geometric mixing rule
Setting up Verlet run ...
  Unit style    : real
  Current step  : 20000
  Time step     : 0.5
Per MPI rank memory allocation (min/avg/max) = 26.79 | 26.79 | 26.79 Mbytes
   Step          Temp          Press         Density         PotEng         Volume    
     20000   333.96107     -39.679828      1.1690128     -31727.911      47948.556    
     20500   329.22742      349.16269      1.1690128     -31719.38       47948.556    
     21000   332.62519      1407.2092      1.1690128     -31715.006      47948.556    
     21500   338.26789      816.73217      1.1690128     -31784.381      47948.556    
     22000   332.19904      578.94909      1.1690128     -31763.441      47948.556    
     22500   332.58363      422.61533      1.1690128     -31759.734      47948.556    
     23000   332.81551     -138.06637      1.1690128     -31830.342      47948.556    
     23500   329.57799      840.39148      1.1690128     -31722.473      47948.556    
     24000   340.67435     -2.5952816      1.1690128     -31708.911      47948.556    
     24500   330.12936      426.50387      1.1690128     -31802.973      47948.556    
     25000   332.82635      691.46493      1.1690128     -31877.958      47948.556    
     25500   336.69505      342.08502      1.1690128     -31846.814      47948.556    
     26000   338.02133      214.39606      1.1690128     -31810.695      47948.556    
     26500   334.45094     -427.33328      1.1690128     -31769.602      47948.556    
     27000   336.58691      1034.1219      1.1690128     -31808.195      47948.556    
     27500   340.16547      637.90651      1.1690128     -31668.621      47948.556    
     28000   328.93937      240.52172      1.1690128     -31752.558      47948.556    
     28500   337.93469      306.72234      1.1690128     -31845.412      47948.556    
     29000   336.95302     -487.52124      1.1690128     -31857.672      47948.556    
     29500   338.20415     -75.575915      1.1690128     -31890.048      47948.556    
     30000   336.90027      1300.0224      1.1690128     -31733.208      47948.556    
     30500   325.38196      75.361334      1.1690128     -31748.876      47948.556    
     31000   329.52755      351.41041      1.1690128     -31799.532      47948.556    
     31500   338.75339     -50.564765      1.1690128     -31789.658      47948.556    
     32000   326.66768      32.542636      1.1690128     -31767.316      47948.556    
     32500   330.08518      40.402535      1.1690128     -31843.659      47948.556    
     33000   334.83049      749.62149      1.1690128     -31692.938      47948.556    
     33500   329.62547      78.42456       1.1690128     -31741.325      47948.556    
     34000   340.87811      490.7481       1.1690128     -31715.315      47948.556    
     34500   341.22532     -389.75179      1.1690128     -31774.974      47948.556    
     35000   334.75984     -114.98116      1.1690128     -31856.397      47948.556    
     35500   327.40712      69.735344      1.1690128     -31823.857      47948.556    
     36000   331.50593      545.34458      1.1690128     -31836.922      47948.556    
     36500   337.96054     -309.51468      1.1690128     -31870.192      47948.556    
     37000   333.77063      404.08264      1.1690128     -31873.26       47948.556    
     37500   340.91788      47.360606      1.1690128     -31828.914      47948.556    
     38000   332.5002       1662.3214      1.1690128     -31871.942      47948.556    
     38500   324.89786      644.25058      1.1690128     -31856.715      47948.556    
     39000   332.54683      457.88643      1.1690128     -31886.3        47948.556    
     39500   325.44867      636.26887      1.1690128     -31905.723      47948.556    
     40000   343.49197      541.57252      1.1690128     -31882.304      47948.556    
Loop time of 1718.15 on 1 procs for 20000 steps with 4740 atoms

Performance: 0.503 ns/day, 47.726 hours/ns, 11.640 timesteps/s, 55.176 katom-step/s
63.7% CPU use with 1 MPI tasks x 1 OpenMP threads

MPI task timing breakdown:
Section |  min time  |  avg time  |  max time  |%varavg| %total
---------------------------------------------------------------
Pair    | 1318.8     | 1318.8     | 1318.8     |   0.0 | 76.76
Bond    | 0.11107    | 0.11107    | 0.11107    |   0.0 |  0.01
Kspace  | 279.72     | 279.72     | 279.72     |   0.0 | 16.28
Neigh   | 44.638     | 44.638     | 44.638     |   0.0 |  2.60
Comm    | 20.989     | 20.989     | 20.989     |   0.0 |  1.22
Output  | 0.0095248  | 0.0095248  | 0.0095248  |   0.0 |  0.00
Modify  | 46.946     | 46.946     | 46.946     |   0.0 |  2.73
Other   |            | 6.945      |            |       |  0.40

Nlocal:           4740 ave        4740 max        4740 min
Histogram: 1 0 0 0 0 0 0 0 0 0
Nghost:          16960 ave       16960 max       16960 min
Histogram: 1 0 0 0 0 0 0 0 0 0
Neighs:    1.69302e+06 ave 1.69302e+06 max 1.69302e+06 min
Histogram: 1 0 0 0 0 0 0 0 0 0

Total # of neighbors = 1693016
Ave neighs/atom = 357.17637
Ave special neighs/atom = 1.8987342
Neighbor list builds = 494
Dangerous builds = 0
PPPM initialization ...
  using 12-bit tables for long-range coulomb
  G vector (1/distance) = 0.30117939
  grid = 30 30 30
  stencil order = 5
  estimated absolute RMS force accuracy = 0.0040089904
  estimated relative force accuracy = 1.2072955e-05
  using double precision FFTW3
  3d grid and FFT values/proc = 50653 27000
Generated 6 of 6 mixed pair_coeff terms from geometric mixing rule
Setting up Verlet run ...
  Unit style    : real
  Current step  : 40000
  Time step     : 1
Per MPI rank memory allocation (min/avg/max) = 26.79 | 26.79 | 26.79 Mbytes
   Step          Temp          Press         Density         PotEng         Volume    
     40000   343.49197      1122.4574      1.1690128     -31882.304      47948.556    
     40500   330.68968      913.01658      1.162416      -31777.069      48220.667    
     41000   325.33998      39.964797      1.1571857     -31732.708      48438.616    
     41500   331.91204     -624.09567      1.1448941     -31810.172      48958.653    
     42000   324.07476     -469.75937      1.1457193     -31750.941      48923.393    
     42500   321.17559      335.03229      1.1503739     -31743.505      48725.44     
     43000   333.55353      346.53991      1.159923      -31727.422      48324.308    
     43500   330.91132     -126.47797      1.1489531     -31748.432      48785.695    
     44000   329.08785      76.210213      1.1520083     -31689.313      48656.31     
     44500   329.82884     -318.95653      1.156967      -31808.134      48447.775    
     45000   333.59917      147.9791       1.1497918     -31653.135      48750.107    
     45500   336.92276     -66.138244      1.1512986     -31710.958      48686.305    
     46000   341.9487       373.29415      1.1472897     -31691.777      48856.425    
     46500   323.92556      108.27376      1.1529949     -31799.056      48614.678    
     47000   337.86315      561.78136      1.1603175     -31806.043      48307.878    
     47500   335.02639      400.23613      1.1569837     -31863.295      48447.075    
     48000   329.24048     -648.57888      1.1510383     -31805.372      48697.314    
     48500   326.60587     -162.68516      1.1475695     -31768.553      48844.513    
     49000   329.34582      13.43365       1.144014      -31666.954      48996.318    
     49500   332.82672      145.06703      1.1470173     -31718.816      48868.03     
     50000   334.20248      35.776734      1.1459053     -31749.371      48915.449    
     50500   331.66584      129.74732      1.1425762     -31664.081      49057.977    
     51000   333.75195      508.9202       1.1549512     -31775.301      48532.33     
     51500   340.74519      116.59957      1.1499029     -31768.201      48745.396    
     52000   331.06353      365.56932      1.1528138     -31838.699      48622.313    
     52500   335.08252      625.36306      1.1481717     -31598.579      48818.897    
     53000   336.93153      92.378108      1.1465649     -31653.459      48887.311    
     53500   335.60084     -72.776133      1.1447252     -31741.68       48965.876    
     54000   327.91913     -551.8648       1.1429926     -31676.892      49040.101    
     54500   328.01132      646.04447      1.1612487     -31777.241      48269.139    
     55000   335.38733     -156.03652      1.1460351     -31798.809      48909.909    
     55500   337.14276      84.122695      1.1571426     -31832.224      48440.42     
     56000   323.36469     -354.35715      1.155609      -31878.886      48504.706    
     56500   328.04296      104.28681      1.159968      -31842.814      48322.433    
     57000   325.93074      20.417448      1.1507166     -31749.544      48710.929    
     57500   325.17302      87.34446       1.1466184     -31619.638      48885.028    
     58000   334.58168     -443.59636      1.1428819     -31778.765      49044.854    
     58500   339.0968       34.769892      1.1494106     -31903.908      48766.274    
     59000   333.93091     -592.26756      1.1398185     -31657.499      49176.668    
     59500   324.29215      491.30671      1.1573066     -31857.274      48433.558    
     60000   331.95996     -640.72673      1.1438207     -31699.123      49004.599    
     60500   340.16503     -227.79741      1.1459777     -31765.392      48912.359    
     61000   333.58424     -145.94009      1.1434117     -31889.292      49022.129    
     61500   335.36977      38.264303      1.1506299     -31686.393      48714.601    
     62000   331.64082     -89.694439      1.1530386     -31824.174      48612.832    
     62500   333.06281     -161.77188      1.147492      -31824.713      48847.813    
     63000   335.68971     -116.86503      1.1361491     -31841.022      49335.491    
     63500   338.81888      505.93098      1.1589559     -31800.619      48364.632    
     64000   330.19172     -35.626572      1.1441764     -31747.924      48989.364    
     64500   338.92052      213.15269      1.142894      -31651.658      49044.333    
     65000   330.282       -44.320962      1.148107      -31677.653      48821.645    
     65500   333.6949      -339.99314      1.1396244     -31744.602      49185.041    
     66000   337.92667     -238.10237      1.1472188     -31751.449      48859.445    
     66500   331.48604      104.71554      1.1490296     -31758.355      48782.446    
     67000   338.17257     -76.858998      1.143207      -31806.897      49030.907    
     67500   337.03814      46.346563      1.1359438     -31803.641      49344.409    
     68000   336.87985      636.64001      1.148006      -31895.345      48825.942    
     68500   333.92315      371.87219      1.1461103     -31759.076      48906.702    
     69000   333.31193      857.64229      1.1552548     -31801.055      48519.576    
     69500   339.94704     -421.11768      1.1448622     -31703.529      48960.02     
     70000   336.71674      7.6764363      1.155057      -31819.394      48527.886    
Loop time of 3078.95 on 1 procs for 30000 steps with 4740 atoms

Performance: 0.842 ns/day, 28.509 hours/ns, 9.744 timesteps/s, 46.185 katom-step/s
63.4% CPU use with 1 MPI tasks x 1 OpenMP threads

MPI task timing breakdown:
Section |  min time  |  avg time  |  max time  |%varavg| %total
---------------------------------------------------------------
Pair    | 2099.7     | 2099.7     | 2099.7     |   0.0 | 68.19
Bond    | 0.42403    | 0.42403    | 0.42403    |   0.0 |  0.01
Kspace  | 459.35     | 459.35     | 459.35     |   0.0 | 14.92
Neigh   | 142.14     | 142.14     | 142.14     |   0.0 |  4.62
Comm    | 37.928     | 37.928     | 37.928     |   0.0 |  1.23
Output  | 0.012118   | 0.012118   | 0.012118   |   0.0 |  0.00
Modify  | 318.58     | 318.58     | 318.58     |   0.0 | 10.35
Other   |            | 20.84      |            |       |  0.68

Nlocal:           4740 ave        4740 max        4740 min
Histogram: 1 0 0 0 0 0 0 0 0 0
Nghost:          16833 ave       16833 max       16833 min
Histogram: 1 0 0 0 0 0 0 0 0 0
Neighs:    1.67296e+06 ave 1.67296e+06 max 1.67296e+06 min
Histogram: 1 0 0 0 0 0 0 0 0 0

Total # of neighbors = 1672963
Ave neighs/atom = 352.94578
Ave special neighs/atom = 1.8987342
Neighbor list builds = 1536
Dangerous builds = 0
PPPM initialization ...
  using 12-bit tables for long-range coulomb
  G vector (1/distance) = 0.30564549
  grid = 32 32 32
  stencil order = 5
  estimated absolute RMS force accuracy = 0.003036706
  estimated relative force accuracy = 9.1449501e-06
  using double precision FFTW3
  3d grid and FFT values/proc = 59319 32768
Generated 6 of 6 mixed pair_coeff terms from geometric mixing rule
Setting up Verlet run ...
  Unit style    : real
  Current step  : 0
  Time step     : 1
Per MPI rank memory allocation (min/avg/max) = 27.61 | 27.61 | 27.61 Mbytes
   Step          Temp          Press         Density         PotEng         Volume    
         0   336.71674     -35.55995       1.155057      -31819.405      48527.886    
       500   326.94959      318.86965      1.1631198     -32012.531      48191.489    
      1000   334.06378      382.23868      1.1580804     -31743.742      48401.192    
      1500   339.52153     -928.25201      1.1476635     -31840.584      48840.512    
      2000   334.49625      141.11691      1.1520077     -31659.652      48656.335    
      2500   326.623       -497.43761      1.1437971     -31681.247      49005.608    
      3000   336.73033     -512.46212      1.1467876     -31761.509      48877.819    
      3500   332.17603      360.301        1.1598555     -31824.625      48327.118    
      4000   334.36952      119.23922      1.154166      -31744.236      48565.349    
      4500   340.27942     -366.58398      1.1444831     -31673.006      48976.236    
      5000   333.44112     -212.11529      1.1484524     -31749.372      48806.963    
      5500   332.00896     -36.064526      1.1471854     -31759.349      48860.87     
      6000   330.22871      281.29314      1.151009      -31717.75       48698.555    
      6500   326.44968     -149.62555      1.1501061     -31876.853      48736.786    
      7000   338.10577      109.52352      1.1465173     -31687.198      48889.342    
      7500   326.31472     -132.54696      1.1476746     -31765.324      48840.039    
      8000   335.22351      450.90125      1.1504991     -31910.221      48720.138    
      8500   334.39058      196.77762      1.1405278     -31729.751      49146.085    
      9000   332.45293      457.68875      1.1548709     -31805.374      48535.706    
      9500   325.78424      416.58794      1.1587076     -31842.16       48374.994    
     10000   329.53452     -523.47628      1.1440566     -31853.828      48994.492    
     10500   333.46221      894.21712      1.1559451     -31766.014      48490.602    
     11000   328.34656     -304.24475      1.1505035     -31725.541      48719.952    
     11500   337.69317      394.89128      1.1621578     -31716.375      48231.382    
     12000   335.02844     -521.30981      1.1444285     -31714.115      48978.572    
     12500   326.52116     -246.38262      1.1528193     -31754.261      48622.081    
     13000   331.29387      349.47258      1.1621153     -31843.715      48233.145    
     13500   335.86327     -208.41829      1.1447264     -31713.387      48965.825    
     14000   342.40379     -18.682527      1.1532827     -31820.402      48602.546    
     14500   332.25802     -535.34447      1.1460145     -31827.098      48910.788    
     15000   334.08404      412.11117      1.1540128     -31809.821      48571.795    
     15500   336.93105      313.25865      1.140739      -31751.921      49136.984    
     16000   337.71409      38.353869      1.1516036     -31770.63       48673.409    
     16500   332.41348      367.29242      1.1478277     -31628.64       48833.528    
     17000   332.87589     -238.41031      1.1430936     -31780.768      49035.769    
     17500   330.77491      239.81525      1.1459491     -31792.809      48913.582    
     18000   338.42657     -20.193671      1.1412581     -31740.536      49114.636    
     18500   340.0296      -409.43079      1.1436939     -31772.285      49010.031    
     19000   325.49866     -738.37902      1.1430566     -31844.869      49037.356    
     19500   329.07957      346.82142      1.1479808     -31763.097      48827.015    
     20000   333.89322     -308.62888      1.1381737     -31756.982      49247.733    
     20500   332.8122       798.32466      1.1498359     -31792.714      48748.237    
     21000   330.96893      336.60661      1.1459942     -31767.901      48911.658    
     21500   344.41319      601.31594      1.1519939     -31805.497      48656.92     
     22000   337.31069      424.78091      1.1574465     -31707.182      48427.703    
     22500   336.36235     -140.85144      1.1560235     -31874.093      48487.316    
     23000   324.28612      690.29554      1.1589336     -31772.99       48365.56     
     23500   326.87937      144.76993      1.1459197     -31803.975      48914.836    
     24000   324.90612     -18.102396      1.1439154     -31687.861      49000.54     
     24500   335.31044     -612.84273      1.1439338     -31751.037      48999.753    
     25000   338.42783      10.441511      1.1500278     -31790.009      48740.105    
     25500   331.31122     -279.82974      1.1470324     -31801.441      48867.387    
     26000   329.9438      -309.38518      1.138189      -31779.244      49247.069    
     26500   331.82589      313.37013      1.1556686     -31859.123      48502.203    
     27000   331.16019     -560.89066      1.1362658     -31723.256      49330.424    
     27500   337.99005      857.57267      1.152474      -31794.864      48636.648    
     28000   327.23977      88.723746      1.1412889     -31678.384      49113.307    
     28500   334.87949      538.15843      1.141708      -31737.934      49095.282    
     29000   344.07427     -14.064138      1.1338906     -31774.88       49433.757    
     29500   332.68061      1040.7951      1.1428878     -31722.533      49044.599    
     30000   334.61483     -351.86478      1.1465856     -31679.863      48886.427    
     30500   338.58162     -411.3528       1.1408301     -31741.242      49133.063    
     31000   333.31288     -159.6632       1.1490171     -31843.952      48782.977    
     31500   338.83623     -111.9394       1.1506453     -31825.513      48713.947    
     32000   336.88585      225.03736      1.1522781     -31852.948      48644.918    
     32500   332.73013     -134.50416      1.1367654     -31579.594      49308.746    
     33000   335.7464       384.31682      1.1501397     -31773.524      48735.36     
     33500   339.73707      5.6478683      1.1412634     -31728.45       49114.406    
     34000   349.10586      602.32047      1.1459883     -31695.988      48911.907    
     34500   327.69859      176.32439      1.1455474     -31601.296      48930.735    
     35000   337.1068       39.716211      1.1475674     -31691.799      48844.603    
     35500   329.04433     -108.03579      1.1415901     -31667.511      49100.352    
     36000   337.9127      -72.293637      1.1441914     -31849.413      48988.722    
     36500   336.44789     -562.0059       1.1450233     -31796.944      48953.129    
     37000   336.44359      32.041202      1.150872      -31718.385      48704.351    
     37500   331.49899     -29.42949       1.1495398     -31671.932      48760.794    
     38000   339.31389     -231.47582      1.1470694     -31784.888      48865.808    
     38500   330.20904     -112.88255      1.1580454     -31794.897      48402.656    
     39000   333.34762      781.39497      1.1621678     -31789.707      48230.964    
     39500   331.22526     -235.72467      1.1416332     -31637.091      49098.496    
     40000   337.15429      184.14499      1.1520419     -31701.397      48654.893    
     40500   337.77945     -206.78689      1.1540198     -31704.954      48571.503    
     41000   327.09354      189.54886      1.1591973     -31907.796      48354.559    
     41500   333.61803     -548.75284      1.1470016     -31764.685      48868.698    
     42000   341.54292      478.62664      1.1575028     -31780.497      48425.347    
     42500   336.31522      110.08748      1.1513226     -31729.985      48685.288    
     43000   326.43507     -351.38016      1.1546018     -31579.093      48547.017    
     43500   335.49391     -226.00937      1.1474484     -31769.075      48849.667    
     44000   334.75955      194.86456      1.1404279     -31789.289      49150.39     
     44500   333.20932     -9.4152622      1.1392029     -31726.723      49203.239    
     45000   336.93714      296.67531      1.1483174     -31777.006      48812.699    
     45500   333.47841     -284.01033      1.1383801     -31779.826      49238.804    
     46000   337.35144      576.85757      1.1434225     -31709.875      49021.663    
     46500   337.82832     -29.245361      1.1419717     -31745.126      49083.945    
     47000   338.62267     -2.8328777      1.1449171     -31812.458      48957.669    
     47500   337.9833       646.0475       1.1564583     -31785.503      48469.085    
     48000   335.08343     -496.03126      1.1474821     -31777.954      48848.233    
     48500   331.25471      175.92989      1.1467272     -31624.436      48880.391    
     49000   331.26626      268.34559      1.1485054     -31849.914      48804.712    
     49500   333.40982     -432.46678      1.1410281     -31659.936      49124.536    
     50000   336.09332      392.57126      1.141949      -31681.956      49084.917    
Loop time of 5520.64 on 1 procs for 50000 steps with 4740 atoms

Performance: 0.783 ns/day, 30.670 hours/ns, 9.057 timesteps/s, 42.930 katom-step/s
63.6% CPU use with 1 MPI tasks x 1 OpenMP threads

MPI task timing breakdown:
Section |  min time  |  avg time  |  max time  |%varavg| %total
---------------------------------------------------------------
Pair    | 3585.7     | 3585.7     | 3585.7     |   0.0 | 64.95
Bond    | 0.72893    | 0.72893    | 0.72893    |   0.0 |  0.01
Kspace  | 988.64     | 988.64     | 988.64     |   0.0 | 17.91
Neigh   | 234.31     | 234.31     | 234.31     |   0.0 |  4.24
Comm    | 63.031     | 63.031     | 63.031     |   0.0 |  1.14
Output  | 0.018141   | 0.018141   | 0.018141   |   0.0 |  0.00
Modify  | 614.2      | 614.2      | 614.2      |   0.0 | 11.13
Other   |            | 34.05      |            |       |  0.62

Nlocal:           4740 ave        4740 max        4740 min
Histogram: 1 0 0 0 0 0 0 0 0 0
Nghost:          16631 ave       16631 max       16631 min
Histogram: 1 0 0 0 0 0 0 0 0 0
Neighs:    1.65457e+06 ave 1.65457e+06 max 1.65457e+06 min
Histogram: 1 0 0 0 0 0 0 0 0 0

Total # of neighbors = 1654566
Ave neighs/atom = 349.06456
Ave special neighs/atom = 1.8987342
Neighbor list builds = 2568
Dangerous builds = 0
RESULT density_g_cm3 1.14741861802968
PPPM initialization ...
  using 12-bit tables for long-range coulomb
  G vector (1/distance) = 0.30536776
  grid = 32 32 32
  stencil order = 5
  estimated absolute RMS force accuracy = 0.0030713431
  estimated relative force accuracy = 9.2492584e-06
  using double precision FFTW3
  3d grid and FFT values/proc = 59319 32768
Generated 6 of 6 mixed pair_coeff terms from geometric mixing rule
Setting up Verlet run ...
  Unit style    : real
  Current step  : 0
  Time step     : 1
Per MPI rank memory allocation (min/avg/max) = 29.86 | 29.86 | 29.86 Mbytes
   Step          Temp          Press         Density         PotEng         Volume    
         0   336.09332      378.6461       1.141949      -31681.957      49084.917    
      5000   337.21254     -403.73642      1.141949      -31776.021      49084.917    
     10000   335.64806     -396.03425      1.141949      -31754.763      49084.917    
     15000   327.26812     -491.59894      1.141949      -31723.195      49084.917    
     20000   330.2787      -154.75807      1.141949      -31690.966      49084.917    
     25000   333.29918     -200.35556      1.141949      -31646.714      49084.917    
     30000   335.07134      353.03634      1.141949      -31745.981      49084.917    
     35000   340.88533      49.707517      1.141949      -31698.163      49084.917    
     40000   329.34436      606.1463       1.141949      -31733.904      49084.917    
     45000   330.86021     -897.3479       1.141949      -31807.062      49084.917    
     50000   334.68639     -91.069639      1.141949      -31802.238      49084.917    
     55000   323.92462      208.90984      1.141949      -31769.462      49084.917    
     60000   333.2039      -130.87033      1.141949      -31762.621      49084.917    
     65000   336.2071       479.28464      1.141949      -31724.708      49084.917    
     70000   328.8909      -423.25666      1.141949      -31763.217      49084.917    
     75000   315.51956      583.42535      1.141949      -31697.879      49084.917    
     80000   337.1228       98.431133      1.141949      -31667.17