LAMMPS (22 Jul 2025 - Update 5)
  using 1 OpenMP thread(s) per MPI task
Reading data file ...
  orthogonal box = (0 0 0) to (37.095719 37.095719 37.095719)
  1 by 1 by 1 MPI processor grid
  reading atoms ...
  4912 atoms
  scanning bonds ...
  2 = max bonds/atom
  scanning angles ...
  1 = max angles/atom
  orthogonal box = (0 0 0) to (37.095719 37.095719 37.095719)
  1 by 1 by 1 MPI processor grid
  reading bonds ...
  3000 bonds
  reading angles ...
  1500 angles
Finding 1-2 1-3 1-4 neighbors ...
  special bond factors lj:    0        0        0       
  special bond factors coul:  0        0        0       
     2 = max # of 1-2 neighbors
     1 = max # of 1-3 neighbors
     1 = max # of 1-4 neighbors
     2 = max # of special neighbors
  special bonds CPU = 0.002 seconds
  read_data CPU = 0.043 seconds
Setting atom values ...
  206 settings made for charge
Setting atom values ...
  206 settings made for charge
4500 atoms in group watr
206 atoms in group kion
206 atoms in group ohion
412 atoms in group ions
Finding SHAKE clusters ...
       0 = # of size 2 clusters
       0 = # of size 3 clusters
       0 = # of size 4 clusters
    1500 = # of frozen angles
  find clusters CPU = 0.004 seconds
PPPM initialization ...
  using 12-bit tables for long-range coulomb
  G vector (1/distance) = 0.30441482
  grid = 32 32 32
  stencil order = 5
  estimated absolute RMS force accuracy = 0.0033318687
  estimated relative force accuracy = 1.0033824e-05
  using double precision FFTW3
  3d grid and FFT values/proc = 59319 32768
Generated 6 of 6 mixed pair_coeff terms from geometric mixing rule
WARNING: Should not use fix nve/limit with fix shake or fix rattle (src/lammps/src/fix_nve_limit.cpp:76)
Neighbor list info ...
  update: every = 1 steps, delay = 0 steps, check = yes
  max neighbors/atom: 2000, page size: 100000
  master list distance cutoff = 12
  ghost atom cutoff = 12
  binsize = 6, bins = 7 7 7
  1 neighbor lists, perpetual/occasional/extra = 1 0 0
  (1) pair lj/cut/coul/long, perpetual
      attributes: half, newton on
      pair build: half/bin/newton
      stencil: half/bin/3d
      bin: standard
Setting up Verlet run ...
  Unit style    : real
  Current step  : 0
  Time step     : 0.2
Per MPI rank memory allocation (min/avg/max) = 27.67 | 27.67 | 27.67 Mbytes
   Step          Temp          Press         Density         PotEng         Volume    
         0   298            49167.676      1.2550109     -2284.3114      51047.136    
       500   615.05814      8196.4714      1.2550109     -36321.268      51047.136    
      1000   364.12599      2536.9634      1.2550109     -40297.89       51047.136    
      1500   317.21331      49.497302      1.2550109     -41329.8        51047.136    
      2000   306.64396     -959.44657      1.2550109     -41850.021      51047.136    
      2500   306.77005     -475.91041      1.2550109     -42101.046      51047.136    
      3000   295.48762     -1269.7402      1.2550109     -42329.778      51047.136    
      3500   300.06939      25.773061      1.2550109     -42479.536      51047.136    
      4000   298.86112      63.375638      1.2550109     -42525.471      51047.136    
      4500   292.15123      1827.3241      1.2550109     -42602.578      51047.136    
      5000   297.94914     -1490.3231      1.2550109     -42749.736      51047.136    
      5500   304.5183       314.76798      1.2550109     -42771.318      51047.136    
      6000   299.26999     -149.2364       1.2550109     -42846.874      51047.136    
      6500   293.83009     -218.70296      1.2550109     -42825.554      51047.136    
      7000   303.95171     -171.15176      1.2550109     -42995.38       51047.136    
      7500   305.17411      803.23881      1.2550109     -42981.305      51047.136    
      8000   299.82135      1575.7948      1.2550109     -43013.884      51047.136    
      8500   305.78432      165.94453      1.2550109     -43045.596      51047.136    
      9000   293.0839       614.20626      1.2550109     -43025.353      51047.136    
      9500   299.48326      801.10239      1.2550109     -43023.054      51047.136    
     10000   312.79007     -842.2152       1.2550109     -43080.112      51047.136    
     10500   298.06714      909.65546      1.2550109     -43069.056      51047.136    
     11000   300.35141      1924.3355      1.2550109     -43040.856      51047.136    
     11500   296.2351       1597.6887      1.2550109     -43093.41       51047.136    
     12000   299.56719     -2071.9674      1.2550109     -43186.645      51047.136    
     12500   296.01238      1020.9605      1.2550109     -43223.778      51047.136    
     13000   291.11885      809.47264      1.2550109     -43111.829      51047.136    
     13500   290.79071     -2870.7716      1.2550109     -43257.813      51047.136    
     14000   300.29358      1182.6773      1.2550109     -43169.557      51047.136    
     14500   294.6324      -802.17772      1.2550109     -43123.427      51047.136    
     15000   308.89006     -576.7823       1.2550109     -43188.001      51047.136    
     15500   297.76673     -1357.4198      1.2550109     -43202.422      51047.136    
     16000   299.06451     -952.04433      1.2550109     -43215.17       51047.136    
     16500   305.6212      -80.194658      1.2550109     -43188.636      51047.136    
     17000   293.37931     -1007.5504      1.2550109     -43287.241      51047.136    
     17500   298.87994      740.07161      1.2550109     -43252.715      51047.136    
     18000   296.33222      2314.8848      1.2550109     -43289.604      51047.136    
     18500   301.44882      1413.8015      1.2550109     -43244.455      51047.136    
     19000   297.05651      2.2203417      1.2550109     -43296.126      51047.136    
     19500   299.69942      1215.5392      1.2550109     -43306.192      51047.136    
     20000   300.5882      -1716.2021      1.2550109     -43294.942      51047.136    
Loop time of 1736.57 on 1 procs for 20000 steps with 4912 atoms

Performance: 0.199 ns/day, 120.595 hours/ns, 11.517 timesteps/s, 56.571 katom-step/s
64.0% CPU use with 1 MPI tasks x 1 OpenMP threads

MPI task timing breakdown:
Section |  min time  |  avg time  |  max time  |%varavg| %total
---------------------------------------------------------------
Pair    | 1288.5     | 1288.5     | 1288.5     |   0.0 | 74.20
Bond    | 0.15093    | 0.15093    | 0.15093    |   0.0 |  0.01
Kspace  | 356.62     | 356.62     | 356.62     |   0.0 | 20.54
Neigh   | 16.41      | 16.41      | 16.41      |   0.0 |  0.94
Comm    | 20.444     | 20.444     | 20.444     |   0.0 |  1.18
Output  | 0.0096677  | 0.0096677  | 0.0096677  |   0.0 |  0.00
Modify  | 47.432     | 47.432     | 47.432     |   0.0 |  2.73
Other   |            | 7.013      |            |       |  0.40

Nlocal:           4912 ave        4912 max        4912 min
Histogram: 1 0 0 0 0 0 0 0 0 0
Nghost:          17229 ave       17229 max       17229 min
Histogram: 1 0 0 0 0 0 0 0 0 0
Neighs:    1.70877e+06 ave 1.70877e+06 max 1.70877e+06 min
Histogram: 1 0 0 0 0 0 0 0 0 0

Total # of neighbors = 1708772
Ave neighs/atom = 347.87704
Ave special neighs/atom = 1.8322476
Neighbor list builds = 184
Dangerous builds = 0
PPPM initialization ...
  using 12-bit tables for long-range coulomb
  G vector (1/distance) = 0.30441482
  grid = 32 32 32
  stencil order = 5
  estimated absolute RMS force accuracy = 0.0033318687
  estimated relative force accuracy = 1.0033824e-05
  using double precision FFTW3
  3d grid and FFT values/proc = 59319 32768
Generated 6 of 6 mixed pair_coeff terms from geometric mixing rule
Setting up Verlet run ...
  Unit style    : real
  Current step  : 20000
  Time step     : 0.5
Per MPI rank memory allocation (min/avg/max) = 27.67 | 27.67 | 27.67 Mbytes
   Step          Temp          Press         Density         PotEng         Volume    
     20000   300.5882       364.43675      1.2550109     -43294.942      51047.136    
     20500   306.89385     -288.11296      1.2550109     -43259.866      51047.136    
     21000   301.43647     -5.3307749      1.2550109     -43389.299      51047.136    
     21500   298.61607     -454.94854      1.2550109     -43406.386      51047.136    
     22000   298.9827       557.46941      1.2550109     -43408.379      51047.136    
     22500   298.07698     -139.65877      1.2550109     -43437.312      51047.136    
     23000   299.06543      392.6402       1.2550109     -43342.476      51047.136    
     23500   302.5337       513.89747      1.2550109     -43331.625      51047.136    
     24000   296.93059     -1350.7402      1.2550109     -43465.386      51047.136    
     24500   302.79296      437.37142      1.2550109     -43390.508      51047.136    
     25000   300.72457      344.40402      1.2550109     -43446.02       51047.136    
     25500   302.31074      108.96073      1.2550109     -43518.697      51047.136    
     26000   290.49014      461.47465      1.2550109     -43579.934      51047.136    
     26500   295.22146     -110.4913       1.2550109     -43576.07       51047.136    
     27000   301.9917      -154.54977      1.2550109     -43530.521      51047.136    
     27500   299.2238       861.76459      1.2550109     -43420.191      51047.136    
     28000   297.80663      7.9048944      1.2550109     -43542.527      51047.136    
     28500   297.98968      919.3473       1.2550109     -43577.698      51047.136    
     29000   295.95337      552.08857      1.2550109     -43618.209      51047.136    
     29500   304.26418     -827.33027      1.2550109     -43713.327      51047.136    
     30000   306.65894     -64.696366      1.2550109     -43660.704      51047.136    
     30500   299.23022     -575.10991      1.2550109     -43686.018      51047.136    
     31000   290.4039       26.175844      1.2550109     -43773.938      51047.136    
     31500   297.50167      854.65308      1.2550109     -43663.904      51047.136    
     32000   292.73069     -324.62177      1.2550109     -43654.227      51047.136    
     32500   293.0761      -545.02206      1.2550109     -43777.019      51047.136    
     33000   299.90736      359.01656      1.2550109     -43654.104      51047.136    
     33500   304.05887     -528.98966      1.2550109     -43751.414      51047.136    
     34000   306.04624      172.25249      1.2550109     -43701.921      51047.136    
     34500   293.83342      40.065572      1.2550109     -43724.512      51047.136    
     35000   291.13869     -393.62016      1.2550109     -43635.024      51047.136    
     35500   307.88314     -34.386801      1.2550109     -43662.119      51047.136    
     36000   290.61747     -613.55407      1.2550109     -43691.939      51047.136    
     36500   298.29745      163.55008      1.2550109     -43624.425      51047.136    
     37000   305.63045      767.56092      1.2550109     -43750.325      51047.136    
     37500   299.67205      460.92099      1.2550109     -43753.855      51047.136    
     38000   289.81951     -32.519273      1.2550109     -43681.047      51047.136    
     38500   296.71543     -616.3346       1.2550109     -43747.747      51047.136    
     39000   293.34074      70.640441      1.2550109     -43784.489      51047.136    
     39500   287.97538      590.50188      1.2550109     -43746.647      51047.136    
     40000   298.11399      140.39138      1.2550109     -43769.139      51047.136    
Loop time of 1787.11 on 1 procs for 20000 steps with 4912 atoms

Performance: 0.483 ns/day, 49.642 hours/ns, 11.191 timesteps/s, 54.972 katom-step/s
63.6% CPU use with 1 MPI tasks x 1 OpenMP threads

MPI task timing breakdown:
Section |  min time  |  avg time  |  max time  |%varavg| %total
---------------------------------------------------------------
Pair    | 1309.7     | 1309.7     | 1309.7     |   0.0 | 73.28
Bond    | 0.15905    | 0.15905    | 0.15905    |   0.0 |  0.01
Kspace  | 361.9      | 361.9      | 361.9      |   0.0 | 20.25
Neigh   | 40.237     | 40.237     | 40.237     |   0.0 |  2.25
Comm    | 20.7       | 20.7       | 20.7       |   0.0 |  1.16
Output  | 0.01025    | 0.01025    | 0.01025    |   0.0 |  0.00
Modify  | 47.36      | 47.36      | 47.36      |   0.0 |  2.65
Other   |            | 7.076      |            |       |  0.40

Nlocal:           4912 ave        4912 max        4912 min
Histogram: 1 0 0 0 0 0 0 0 0 0
Nghost:          17116 ave       17116 max       17116 min
Histogram: 1 0 0 0 0 0 0 0 0 0
Neighs:    1.70854e+06 ave 1.70854e+06 max 1.70854e+06 min
Histogram: 1 0 0 0 0 0 0 0 0 0

Total # of neighbors = 1708545
Ave neighs/atom = 347.83082
Ave special neighs/atom = 1.8322476
Neighbor list builds = 443
Dangerous builds = 0
PPPM initialization ...
  using 12-bit tables for long-range coulomb
  G vector (1/distance) = 0.30441482
  grid = 32 32 32
  stencil order = 5
  estimated absolute RMS force accuracy = 0.0033318687
  estimated relative force accuracy = 1.0033824e-05
  using double precision FFTW3
  3d grid and FFT values/proc = 59319 32768
Generated 6 of 6 mixed pair_coeff terms from geometric mixing rule
Setting up Verlet run ...
  Unit style    : real
  Current step  : 40000
  Time step     : 1
Per MPI rank memory allocation (min/avg/max) = 27.67 | 27.67 | 27.67 Mbytes
   Step          Temp          Press         Density         PotEng         Volume    
     40000   298.11399      618.89623      1.2550109     -43769.139      51047.136    
     40500   296.84013     -181.58259      1.2481608     -43672.999      51327.289    
     41000   296.9949      -273.58159      1.2498805     -43601.623      51256.668    
     41500   297.24889      8.7932539      1.2542494     -43588.832      51078.127    
     42000   300.09931      640.57587      1.2625373     -43674.899      50742.824    
     42500   298.519       -8.7657447      1.2580876     -43710.827      50922.296    
     43000   303.38082     -263.66231      1.252462      -43528.228      51151.021    
     43500   296.26499     -97.585622      1.2659982     -43687.638      50604.109    
     44000   297.69728     -77.346199      1.2530069     -43542.641      51128.778    
     44500   301.33736      335.51019      1.2584809     -43593.756      50906.384    
     45000   300.6191       371.42296      1.2565044     -43676.584      50986.46     
     45500   298.92959      230.67905      1.2522502     -43630.226      51159.673    
     46000   298.52242      100.54724      1.2672194     -43827.877      50555.341    
     46500   305.43444      28.864332      1.2608744     -43733.117      50809.747    
     47000   298.1675       223.39827      1.2667765     -43617.37       50573.019    
     47500   298.03054      483.2274       1.2701841     -43664.062      50437.341    
     48000   304.43169     -316.07992      1.2582181     -43635.463      50917.016    
     48500   299.37839      333.52721      1.2673252     -43694.021      50551.12     
     49000   300.89168      274.8635       1.2557959     -43692.312      51015.226    
     49500   299.37335      153.96366      1.2618725     -43723.705      50769.56     
     50000   294.61385     -435.25544      1.2631159     -43780.86       50719.582    
     50500   294.28339     -901.4462       1.2556151     -43743.49       51022.572    
     51000   296.63461      94.683387      1.2704029     -43775.871      50428.656    
     51500   299.08815      526.72841      1.2590263     -43711.37       50884.331    
     52000   289.42061     -85.47805       1.2556895     -43723.166      51019.548    
     52500   296.87846      438.09163      1.2552271     -43629.087      51038.342    
     53000   300.09553     -75.224637      1.2639198     -43672.474      50687.32     
     53500   302.60067     -297.78898      1.2659783     -43706.511      50604.906    
     54000   305.53422     -55.785013      1.2621336     -43806.555      50759.054    
     54500   297.96979     -502.57486      1.2696738     -43720.534      50457.612    
     55000   305.16518     -75.774645      1.2637232     -43712.121      50695.206    
     55500   299.12263      730.87343      1.2674517     -43748.827      50546.076    
     56000   300.39355     -329.98186      1.257547      -43744.282      50944.187    
     56500   303.36019      100.61412      1.2664051     -43752.674      50587.847    
     57000   295.5068       382.28992      1.2693247     -43798.969      50471.493    
     57500   289.24821      56.086961      1.2638285     -43716.132      50690.986    
     58000   300.65344      423.0914       1.2623322     -43658.251      50751.069    
     58500   298.92621      809.82508      1.2651441     -43685.169      50638.271    
     59000   296.38617     -185.64731      1.2615729     -43721.631      50781.614    
     59500   298.01036      283.01623      1.2652236     -43775.638      50635.091    
     60000   291.8632      -1324.2555      1.2486848     -43623.323      51305.75     
     60500   296.08126     -134.94448      1.2692325     -43718.015      50475.155    
     61000   293.91649      54.837781      1.2619458     -43668.521      50766.61     
     61500   305.05468      807.79514      1.2651672     -43673.813      50637.346    
     62000   301.03837      93.061603      1.2623516     -43630.734      50750.291    
     62500   293.08795      16.046868      1.2501756     -43669.796      51244.57     
     63000   291.26651      461.79226      1.2624866     -43752.379      50744.865    
     63500   299.25267      176.39209      1.2538324     -43656.81       51095.114    
     64000   301.38132      439.84298      1.2536767     -43635.575      51101.461    
     64500   297.06448      400.1065       1.2556099     -43578.263      51022.781    
     65000   302.45846      333.55455      1.2593388     -43747.211      50871.703    
     65500   298.21958      462.96919      1.2579653     -43720.442      50927.247    
     66000   296.89603     -500.90446      1.2548247     -43574.713      51054.711    
     66500   302.17679      820.41026      1.2706513     -43776.685      50418.796    
     67000   296.91215     -117.13154      1.260343      -43647.594      50831.172    
     67500   294.8101      -15.896122      1.2674333     -43667.169      50546.812    
     68000   299.7364       57.324322      1.2684806     -43665.395      50505.075    
     68500   299.35417     -292.29858      1.2722241     -43787.816      50356.466    
     69000   293.56307      529.55517      1.2699351     -43800.883      50447.23     
     69500   294.1967      -454.03901      1.2668126     -43719.524      50571.576    
     70000   302.19075     -250.54018      1.2651586     -43655.186      50637.69     
Loop time of 3292.45 on 1 procs for 30000 steps with 4912 atoms

Performance: 0.787 ns/day, 30.486 hours/ns, 9.112 timesteps/s, 44.757 katom-step/s
62.9% CPU use with 1 MPI tasks x 1 OpenMP threads

MPI task timing breakdown:
Section |  min time  |  avg time  |  max time  |%varavg| %total
---------------------------------------------------------------
Pair    | 2116.6     | 2116.6     | 2116.6     |   0.0 | 64.29
Bond    | 0.33793    | 0.33793    | 0.33793    |   0.0 |  0.01
Kspace  | 607.27     | 607.27     | 607.27     |   0.0 | 18.44
Neigh   | 133.64     | 133.64     | 133.64     |   0.0 |  4.06
Comm    | 37.869     | 37.869     | 37.869     |   0.0 |  1.15
Output  | 0.01106    | 0.01106    | 0.01106    |   0.0 |  0.00
Modify  | 375.48     | 375.48     | 375.48     |   0.0 | 11.40
Other   |            | 21.28      |            |       |  0.65

Nlocal:           4912 ave        4912 max        4912 min
Histogram: 1 0 0 0 0 0 0 0 0 0
Nghost:          17127 ave       17127 max       17127 min
Histogram: 1 0 0 0 0 0 0 0 0 0
Neighs:    1.72254e+06 ave 1.72254e+06 max 1.72254e+06 min
Histogram: 1 0 0 0 0 0 0 0 0 0

Total # of neighbors = 1722541
Ave neighs/atom = 350.68017
Ave special neighs/atom = 1.8322476
Neighbor list builds = 1388
Dangerous builds = 0
PPPM initialization ...
  using 12-bit tables for long-range coulomb
  G vector (1/distance) = 0.30461218
  grid = 32 32 32
  stencil order = 5
  estimated absolute RMS force accuracy = 0.0033052496
  estimated relative force accuracy = 9.9536609e-06
  using double precision FFTW3
  3d grid and FFT values/proc = 59319 32768
Generated 6 of 6 mixed pair_coeff terms from geometric mixing rule
Setting up Verlet run ...
  Unit style    : real
  Current step  : 0
  Time step     : 1
Per MPI rank memory allocation (min/avg/max) = 27.67 | 27.67 | 27.67 Mbytes
   Step          Temp          Press         Density         PotEng         Volume    
         0   302.19075     -247.16496      1.2651586     -43655.185      50637.69     
       500   301.2668       596.06734      1.2787446     -43719.886      50099.692    
      1000   302.46465      504.81413      1.273279      -43768.261      50314.747    
      1500   297.1704      -327.39581      1.2734713     -43812.472      50307.15     
      2000   292.97145      173.06581      1.2775065     -43875.843      50148.245    
      2500   293.78312     -670.30608      1.2693742     -43759.33       50469.524    
      3000   293.89992     -426.1779       1.2695077     -43855.854      50464.215    
      3500   294.92827     -244.0442       1.2622886     -43803.375      50752.822    
      4000   294.31416      177.43801      1.2740578     -43793.744      50283.99     
      4500   295.79305     -1016.7598      1.2664324     -43805.997      50586.758    
      5000   299.89285     -100.93552      1.2765808     -43870.84       50184.608    
      5500   300.29998      435.04478      1.272389      -43764.494      50349.94     
      6000   292.12507     -107.62385      1.2751306     -43869.539      50241.686    
      6500   298.86994     -139.48161      1.2706792     -43864.374      50417.69     
      7000   298.93775     -3.3760849      1.2659007     -43794.131      50608.004    
      7500   298.97105      116.16402      1.2678563     -43784.967      50529.946    
      8000   301.56212      283.65206      1.2676611     -43730.52       50537.728    
      8500   302.14214     -376.49773      1.2614528     -43771.524      50786.448    
      9000   291.01219      951.41674      1.2777181     -43701.38       50139.941    
      9500   294.13235      83.968271      1.2707572     -43700.367      50414.594    
     10000   297.36468     -770.7557       1.2651084     -43763.445      50639.7      
     10500   295.79955     -216.40296      1.2717376     -43754.82       50375.731    
     11000   303.9967      -129.24311      1.2647857     -43692.234      50652.621    
     11500   297.55508     -14.984321      1.2743564     -43788.373      50272.209    
     12000   302.12411     -565.66669      1.2598143     -43638.301      50852.503    
     12500   303.02692     -375.38876      1.2725423     -43839.924      50343.876    
     13000   304.92372      559.63778      1.2695015     -43783.193      50464.463    
     13500   306.51517     -427.05246      1.258952      -43762.497      50887.332    
     14000   295.06168      23.948706      1.2751625     -43838.611      50240.428    
     14500   298.18368     -599.98777      1.2616501     -43741.123      50778.509    
     15000   297.36454      140.87406      1.2615431     -43759.934      50782.814    
     15500   293.92606      251.97992      1.2574084     -43815.245      50949.804    
     16000   301.86698      447.55275      1.2711188     -43816.979      50400.254    
     16500   292.84497      343.89519      1.259127      -43723.437      50880.26     
     17000   297.18032     -87.431198      1.2623107     -43820.646      50751.936    
     17500   298.11835     -395.20582      1.2491762     -43705.251      51285.569    
     18000   297.86116      58.087478      1.2601978     -43772.269      50837.029    
     18500   304.33941      185.08736      1.2501046     -43712.886      51247.481    
     19000   301.87922      58.589161      1.259628      -43741.084      50860.025    
     19500   298.99414      504.18868      1.2582178     -43808.516      50917.026    
     20000   295.99174      5.8309105      1.2536756     -43795.402      51101.507    
     20500   297.45124      609.43569      1.2553732     -43817.523      51032.403    
     21000   295.60715      48.796424      1.2555972     -43814.491      51023.297    
     21500   297.52199     -373.05119      1.2536195     -43726.822      51103.791    
     22000   297.40536      112.82138      1.2602994     -43858.366      50832.931    
     22500   301.97454      319.47995      1.2572131     -43792.557      50957.72     
     23000   298.40749      295.24122      1.2581334     -43731.497      50920.444    
     23500   303.56656     -84.338385      1.2566355     -43753.88       50981.141    
     24000   292.08707     -515.3797       1.2510092     -43765.87       51210.422    
     24500   292.22126      47.783262      1.2604749     -43798.624      50825.852    
     25000   303.57747     -4.8835732      1.2637467     -43801.367      50694.263    
     25500   302.8687       165.28445      1.2692339     -43838.395      50475.102    
     26000   298.25156     -355.89619      1.2628242     -43868.009      50731.298    
     26500   296.65811     -398.92907      1.2559207     -43829.417      51010.154    
     27000   293.86207      141.82623      1.2714758     -43784.366      50386.102    
     27500   295.99903     -15.353301      1.2668493     -43774.221      50570.113    
     28000   290.40435     -531.97264      1.2569665     -43660.053      50967.715    
     28500   296.30735      679.27507      1.2637987     -43752.196      50692.178    
     29000   294.50556     -191.62098      1.2573432     -43667.309      50952.446    
     29500   293.27659     -280.56246      1.2674346     -43930.951      50546.756    
     30000   299.30593      208.88661      1.2739966     -43810.805      50286.404    
     30500   292.87498     -236.95244      1.2751474     -43797.143      50241.024    
     31000   304.57376     -90.648373      1.2716635     -43825.084      50378.666    
     31500   294.44604      146.25845      1.2795591     -43806.535      50067.801    
     32000   296.58484     -938.82329      1.2673089     -43887.896      50551.772    
     32500   296.016        412.70465      1.2749931     -43743.155      50247.105    
     33000   297.74982      258.28976      1.2756827     -43680.645      50219.941    
     33500   293.25629      89.95152       1.2654426     -43767.369      50626.328    
     34000   300.29183      687.52755      1.274349      -43838.504      50272.499    
     34500   292.73705     -149.6315       1.2636965     -43693.853      50696.28     
     35000   300.1231      -207.59234      1.2671979     -43838.925      50556.198    
     35500   297.32858      152.04752      1.2706216     -43823.519      50419.975    
     36000   300.35017     -451.56341      1.2652448     -43844.907      50634.241    
     36500   297.25686     -299.53641      1.2614437     -43805.173      50786.819    
     37000   302.2027       210.70502      1.2610513     -43780.455      50802.62     
     37500   299.08544     -324.20766      1.2610833     -43746.43       50801.33     
     38000   292.24861     -150.37272      1.2638864     -43827.14       50688.66     
     38500   290.95987     -696.74302      1.2583808     -43834.476      50910.431    
     39000   305.37654      8.2818175      1.2681797     -43870.593      50517.059    
     39500   296.83943      257.11612      1.2674233     -43815.712      50547.209    
     40000   296.68134     -341.21053      1.271001      -43769.923      50404.927    
     40500   292.95689     -283.68888      1.2723378     -43823.185      50351.967    
     41000   295.96102     -270.04853      1.2735857     -43890.551      50302.63     
     41500   292.81847     -707.38429      1.2718627     -43885.155      50370.777    
     42000   298.99666     -212.68014      1.2671284     -43907.995      50558.973    
     42500   302.17556     -1111.149       1.2649022     -43782.917      50647.957    
     43000   292.41667      97.518046      1.2713604     -43833.122      50390.677    
     43500   294.66927     -38.646815      1.2660495     -43822.087      50602.059    
     44000   294.79247     -416.76451      1.2617709     -43743.862      50773.648    
     44500   292.772        206.2721       1.2703634     -43775.908      50430.225    
     45000   301.22119      178.98715      1.262435      -43911.34       50746.938    
     45500   294.51163      87.04503       1.2636474     -43803.598      50698.247    
     46000   292.3222       225.89345      1.263833      -43716.168      50690.805    
     46500   297.84471     -123.30773      1.2698548     -43856.321      50450.421    
     47000   293.57477      59.273153      1.2654234     -43772.605      50627.094    
     47500   295.09535     -624.90451      1.261403      -43753.554      50788.455    
     48000   294.30878      1.0083422      1.2704864     -43899.102      50425.342    
     48500   298.55305      724.36892      1.2721163     -43884.228      50360.734    
     49000   301.96573      14.899752      1.2698552     -43807.122      50450.404    
     49500   305.20847      809.93865      1.2790453     -43878.935      50087.913    
     50000   297.74465      435.28541      1.2632163     -43702.986      50715.552    
Loop time of 5504.68 on 1 procs for 50000 steps with 4912 atoms

Performance: 0.785 ns/day, 30.582 hours/ns, 9.083 timesteps/s, 44.617 katom-step/s
63.6% CPU use with 1 MPI tasks x 1 OpenMP threads

MPI task timing breakdown:
Section |  min time  |  avg time  |  max time  |%varavg| %total
---------------------------------------------------------------
Pair    | 3601.3     | 3601.3     | 3601.3     |   0.0 | 65.42
Bond    | 0.72005    | 0.72005    | 0.72005    |   0.0 |  0.01
Kspace  | 982.95     | 982.95     | 982.95     |   0.0 | 17.86
Neigh   | 218.44     | 218.44     | 218.44     |   0.0 |  3.97
Comm    | 62.487     | 62.487     | 62.487     |   0.0 |  1.14
Output  | 0.012394   | 0.012394   | 0.012394   |   0.0 |  0.00
Modify  | 604.44     | 604.44     | 604.44     |   0.0 | 10.98
Other   |            | 34.32      |            |       |  0.62

Nlocal:           4912 ave        4912 max        4912 min
Histogram: 1 0 0 0 0 0 0 0 0 0
Nghost:          16982 ave       16982 max       16982 min
Histogram: 1 0 0 0 0 0 0 0 0 0
Neighs:    1.71928e+06 ave 1.71928e+06 max 1.71928e+06 min
Histogram: 1 0 0 0 0 0 0 0 0 0

Total # of neighbors = 1719277
Ave neighs/atom = 350.01568
Ave special neighs/atom = 1.8322476
Neighbor list builds = 2323
Dangerous builds = 0
RESULT density_g_cm3 1.26874598342132
PPPM initialization ...
  using 12-bit tables for long-range coulomb
  G vector (1/distance) = 0.30457454
  grid = 32 32 32
  stencil order = 5
  estimated absolute RMS force accuracy = 0.0033103111
  estimated relative force accuracy = 9.9689036e-06
  using double precision FFTW3
  3d grid and FFT values/proc = 59319 32768
Generated 6 of 6 mixed pair_coeff terms from geometric mixing rule
Setting up Verlet run ...
  Unit style    : real
  Current step  : 0
  Time step     : 1
Per MPI rank memory allocation (min/avg/max) = 29.92 | 29.92 | 29.92 Mbytes
   Step          Temp          Press         Density         PotEng         Volume    
         0   297.74465      409.57889      1.2632163     -43702.986      50715.552    
      5000   307.06604     -355.94283      1.2632163     -43802.22       50715.552    
     10000   298.60927     -721.07311      1.2632163     -43890.494      50715.552    
     15000   295.51731      587.14651      1.2632163     -43685.2        50715.552    
     20000   300.44268     -459.00794      1.2632163     -43767.983      50715.552    
     25000   285.48862      71.621049      1.2632163     -43718.153      50715.552    
     30000   302.72697     -100.60024      1.2632163     -43749.46       50715.552    
     35000   290.81042     -159.17057      1.2632163     -43858.892      50715.552    
     40000   301.87682     -413.53105      1.2632163     -43697.613      50715.552    
     45000   295.91475     -299.09612      1.2632163     -43921.411      50715.552    
     50000   296.55608     -224.09886      1.2632163     -43785.324      50715.552    
     55000   294.85091     -836.3815       1.2632163     -43732.086      50715.552    
     60000   305.6275      -329.18593      1.2632163     -43800.201      50715.552    
     65000   302.15915     -145.46688      1.2632163     -43776.066      50715.552    
     70000   300.58748      329.11948      1.2632163     -43803.165      50715.552    
     75000   295.11887     -192.23232      1.2632163     -43750.983      50715.552    
     80000   290.87054     -319.90005      1.2632163     -43858.0