LAMMPS (22 Jul 2025 - Update 5)
  using 1 OpenMP thread(s) per MPI task
Reading data file ...
  orthogonal box = (0 0 0) to (36.329424 36.329424 36.329424)
  1 by 1 by 1 MPI processor grid
  reading atoms ...
  4740 atoms
  scanning bonds ...
  2 = max bonds/atom
  scanning angles ...
  1 = max angles/atom
  orthogonal box = (0 0 0) to (36.329424 36.329424 36.329424)
  1 by 1 by 1 MPI processor grid
  reading bonds ...
  3000 bonds
  reading angles ...
  1500 angles
Finding 1-2 1-3 1-4 neighbors ...
  special bond factors lj:    0        0        0       
  special bond factors coul:  0        0        0       
     2 = max # of 1-2 neighbors
     1 = max # of 1-3 neighbors
     1 = max # of 1-4 neighbors
     2 = max # of special neighbors
  special bonds CPU = 0.011 seconds
  read_data CPU = 0.130 seconds
Setting atom values ...
  120 settings made for charge
Setting atom values ...
  120 settings made for charge
4500 atoms in group watr
120 atoms in group kion
120 atoms in group ohion
240 atoms in group ions
Finding SHAKE clusters ...
       0 = # of size 2 clusters
       0 = # of size 3 clusters
       0 = # of size 4 clusters
    1500 = # of frozen angles
  find clusters CPU = 0.012 seconds
PPPM initialization ...
  using 12-bit tables for long-range coulomb
  G vector (1/distance) = 0.30117939
  grid = 30 30 30
  stencil order = 5
  estimated absolute RMS force accuracy = 0.0040089904
  estimated relative force accuracy = 1.2072955e-05
  using double precision FFTW3
  3d grid and FFT values/proc = 50653 27000
Generated 6 of 6 mixed pair_coeff terms from geometric mixing rule
WARNING: Should not use fix nve/limit with fix shake or fix rattle (src/lammps/src/fix_nve_limit.cpp:76)
Neighbor list info ...
  update: every = 1 steps, delay = 0 steps, check = yes
  max neighbors/atom: 2000, page size: 100000
  master list distance cutoff = 12
  ghost atom cutoff = 12
  binsize = 6, bins = 7 7 7
  1 neighbor lists, perpetual/occasional/extra = 1 0 0
  (1) pair lj/cut/coul/long, perpetual
      attributes: half, newton on
      pair build: half/bin/newton
      stencil: half/bin/3d
      bin: standard
Setting up Verlet run ...
  Unit style    : real
  Current step  : 0
  Time step     : 0.2
Per MPI rank memory allocation (min/avg/max) = 26.83 | 26.83 | 26.83 Mbytes
   Step          Temp          Press         Density         PotEng         Volume    
         0   333            39609.023      1.1690128      2908.75        47948.556    
       500   620.74948      11222.07       1.1690128     -26155.377      47948.556    
      1000   393.43756      750.54638      1.1690128     -29176.118      47948.556    
      1500   356.61382      1690.6178      1.1690128     -30207.653      47948.556    
      2000   340.02621      604.94734      1.1690128     -30638.441      47948.556    
      2500   334.06071     -447.25241      1.1690128     -30792.488      47948.556    
      3000   333.78869      3222.3549      1.1690128     -30911.278      47948.556    
      3500   332.03296      50.096151      1.1690128     -31119.716      47948.556    
      4000   323.81614      334.126        1.1690128     -31102.73       47948.556    
      4500   338.71952     -535.70722      1.1690128     -31183.863      47948.556    
      5000   332.88634     -2783.5087      1.1690128     -31236.417      47948.556    
      5500   332.75792      230.2366       1.1690128     -31358.106      47948.556    
      6000   335.31033      1470.8169      1.1690128     -31339.261      47948.556    
      6500   339.85447     -1710.1473      1.1690128     -31370.24       47948.556    
      7000   334.82422      1043.0128      1.1690128     -31392.104      47948.556    
      7500   341.66608     -971.76282      1.1690128     -31455.441      47948.556    
      8000   334.62483     -452.77191      1.1690128     -31509.229      47948.556    
      8500   336.04297      7.5957688      1.1690128     -31511.728      47948.556    
      9000   332.4225       1607.0089      1.1690128     -31457.943      47948.556    
      9500   341.79574      1305.807       1.1690128     -31495.309      47948.556    
     10000   335.93244      916.8079       1.1690128     -31489.588      47948.556    
     10500   333.27716      2295.5204      1.1690128     -31514.083      47948.556    
     11000   334.66473      3011.1982      1.1690128     -31536.18       47948.556    
     11500   331.38922      1394.1914      1.1690128     -31616.3        47948.556    
     12000   338.10322      1940.1589      1.1690128     -31651.646      47948.556    
     12500   334.71641      1783.1694      1.1690128     -31579.539      47948.556    
     13000   338.34933      513.82472      1.1690128     -31561.434      47948.556    
     13500   332.16712      506.9538       1.1690128     -31509.29       47948.556    
     14000   334.96151     -394.49174      1.1690128     -31596.49       47948.556    
     14500   336.48669     -726.06631      1.1690128     -31637.244      47948.556    
     15000   332.5161       127.38481      1.1690128     -31605.867      47948.556    
     15500   331.58528      2486.9947      1.1690128     -31549.328      47948.556    
     16000   335.56043      1707.6707      1.1690128     -31597.445      47948.556    
     16500   333.76139     -129.33965      1.1690128     -31582.749      47948.556    
     17000   329.84871     -16.452652      1.1690128     -31594.103      47948.556    
     17500   337.99078      2003.3722      1.1690128     -31618.954      47948.556    
     18000   334.64479      1533.4982      1.1690128     -31742.425      47948.556    
     18500   339.30891      59.173873      1.1690128     -31691.381      47948.556    
     19000   329.10925      750.52585      1.1690128     -31631.453      47948.556    
     19500   331.2134       808.63353      1.1690128     -31639.694      47948.556    
     20000   344.29223     -276.48148      1.1690128     -31681.464      47948.556    
Loop time of 1699.64 on 1 procs for 20000 steps with 4740 atoms

Performance: 0.203 ns/day, 118.031 hours/ns, 11.767 timesteps/s, 55.777 katom-step/s
63.3% CPU use with 1 MPI tasks x 1 OpenMP threads

MPI task timing breakdown:
Section |  min time  |  avg time  |  max time  |%varavg| %total
---------------------------------------------------------------
Pair    | 1313.5     | 1313.5     | 1313.5     |   0.0 | 77.28
Bond    | 0.14057    | 0.14057    | 0.14057    |   0.0 |  0.01
Kspace  | 292.18     | 292.18     | 292.18     |   0.0 | 17.19
Neigh   | 18.564     | 18.564     | 18.564     |   0.0 |  1.09
Comm    | 21.174     | 21.174     | 21.174     |   0.0 |  1.25
Output  | 0.0048095  | 0.0048095  | 0.0048095  |   0.0 |  0.00
Modify  | 46.49      | 46.49      | 46.49      |   0.0 |  2.74
Other   |            | 7.611      |            |       |  0.45

Nlocal:           4740 ave        4740 max        4740 min
Histogram: 1 0 0 0 0 0 0 0 0 0
Nghost:          17024 ave       17024 max       17024 min
Histogram: 1 0 0 0 0 0 0 0 0 0
Neighs:     1.6938e+06 ave  1.6938e+06 max  1.6938e+06 min
Histogram: 1 0 0 0 0 0 0 0 0 0

Total # of neighbors = 1693798
Ave neighs/atom = 357.34135
Ave special neighs/atom = 1.8987342
Neighbor list builds = 203
Dangerous builds = 0
PPPM initialization ...
  using 12-bit tables for long-range coulomb
  G vector (1/distance) = 0.30117939
  grid = 30 30 30
  stencil order = 5
  estimated absolute RMS force accuracy = 0.0040089904
  estimated relative force accuracy = 1.2072955e-05
  using double precision FFTW3
  3d grid and FFT values/proc = 50653 27000
Generated 6 of 6 mixed pair_coeff terms from geometric mixing rule
Setting up Verlet run ...
  Unit style    : real
  Current step  : 20000
  Time step     : 0.5
Per MPI rank memory allocation (min/avg/max) = 26.83 | 26.83 | 26.83 Mbytes
   Step          Temp          Press         Density         PotEng         Volume    
     20000   344.29223      489.8679       1.1690128     -31681.464      47948.556    
     20500   347.81696      1932.1729      1.1690128     -31574.178      47948.556    
     21000   340.93753     -247.60283      1.1690128     -31722.31       47948.556    
     21500   328.38775     -772.74122      1.1690128     -31722.316      47948.556    
     22000   329.39429      252.35637      1.1690128     -31719.966      47948.556    
     22500   336.71952      258.19329      1.1690128     -31771.872      47948.556    
     23000   333.02596      478.70319      1.1690128     -31734.349      47948.556    
     23500   337.40313      1108.1521      1.1690128     -31745.615      47948.556    
     24000   334.62259     -122.04292      1.1690128     -31711.879      47948.556    
     24500   334.62731      1466.1485      1.1690128     -31705.215      47948.556    
     25000   339.31759      959.69337      1.1690128     -31613.659      47948.556    
     25500   334.50451      733.77019      1.1690128     -31676.662      47948.556    
     26000   343.12256     -486.90439      1.1690128     -31694.866      47948.556    
     26500   339.68809      891.86136      1.1690128     -31679.621      47948.556    
     27000   331.56592      439.4089       1.1690128     -31795.908      47948.556    
     27500   339.90269      447.34737      1.1690128     -31812.47       47948.556    
     28000   333.79605      952.27408      1.1690128     -31738.65       47948.556    
     28500   341.69204     -111.02625      1.1690128     -31798.238      47948.556    
     29000   343.74881     -218.29986      1.1690128     -31732.442      47948.556    
     29500   334.71546      276.39532      1.1690128     -31755.14       47948.556    
     30000   345.21976      367.31346      1.1690128     -31772.202      47948.556    
     30500   347.24627      358.71659      1.1690128     -31785.69       47948.556    
     31000   327.72188      183.33012      1.1690128     -31798.58       47948.556    
     31500   336.4308       1290.1853      1.1690128     -31686.456      47948.556    
     32000   327.16739      279.95963      1.1690128     -31734.894      47948.556    
     32500   342.76741      24.755495      1.1690128     -31775.015      47948.556    
     33000   327.68851      1923.033       1.1690128     -31765.753      47948.556    
     33500   333.36781      925.76098      1.1690128     -31742.911      47948.556    
     34000   332.56724      803.68549      1.1690128     -31694.223      47948.556    
     34500   333.32926      434.17593      1.1690128     -31789.225      47948.556    
     35000   325.00659      359.61125      1.1690128     -31781.43       47948.556    
     35500   339.82109      840.9548       1.1690128     -31776.679      47948.556    
     36000   340.66894      857.80355      1.1690128     -31848.642      47948.556    
     36500   330.82147      1659.4539      1.1690128     -31707.265      47948.556    
     37000   331.63389      898.98285      1.1690128     -31902.588      47948.556    
     37500   338.33512      872.60089      1.1690128     -31832.929      47948.556    
     38000   337.93002      289.13077      1.1690128     -31890.215      47948.556    
     38500   325.32901      525.63052      1.1690128     -31878.767      47948.556    
     39000   332.04764      1197.6282      1.1690128     -31799.661      47948.556    
     39500   326.4652      -654.07203      1.1690128     -31810.822      47948.556    
     40000   331.35712     -35.607356      1.1690128     -31846.067      47948.556    
Loop time of 1694.57 on 1 procs for 20000 steps with 4740 atoms

Performance: 0.510 ns/day, 47.071 hours/ns, 11.802 timesteps/s, 55.944 katom-step/s
64.9% CPU use with 1 MPI tasks x 1 OpenMP threads

MPI task timing breakdown:
Section |  min time  |  avg time  |  max time  |%varavg| %total
---------------------------------------------------------------
Pair    | 1298.3     | 1298.3     | 1298.3     |   0.0 | 76.62
Bond    | 0.15041    | 0.15041    | 0.15041    |   0.0 |  0.01
Kspace  | 278.98     | 278.98     | 278.98     |   0.0 | 16.46
Neigh   | 43.077     | 43.077     | 43.077     |   0.0 |  2.54
Comm    | 21.044     | 21.044     | 21.044     |   0.0 |  1.24
Output  | 0.0051071  | 0.0051071  | 0.0051071  |   0.0 |  0.00
Modify  | 45.459     | 45.459     | 45.459     |   0.0 |  2.68
Other   |            | 7.521      |            |       |  0.44

Nlocal:           4740 ave        4740 max        4740 min
Histogram: 1 0 0 0 0 0 0 0 0 0
Nghost:          16997 ave       16997 max       16997 min
Histogram: 1 0 0 0 0 0 0 0 0 0
Neighs:    1.69378e+06 ave 1.69378e+06 max 1.69378e+06 min
Histogram: 1 0 0 0 0 0 0 0 0 0

Total # of neighbors = 1693775
Ave neighs/atom = 357.3365
Ave special neighs/atom = 1.8987342
Neighbor list builds = 493
Dangerous builds = 0
PPPM initialization ...
  using 12-bit tables for long-range coulomb
  G vector (1/distance) = 0.30117939
  grid = 30 30 30
  stencil order = 5
  estimated absolute RMS force accuracy = 0.0040089904
  estimated relative force accuracy = 1.2072955e-05
  using double precision FFTW3
  3d grid and FFT values/proc = 50653 27000
Generated 6 of 6 mixed pair_coeff terms from geometric mixing rule
Setting up Verlet run ...
  Unit style    : real
  Current step  : 40000
  Time step     : 1
Per MPI rank memory allocation (min/avg/max) = 26.83 | 26.83 | 26.83 Mbytes
   Step          Temp          Press         Density         PotEng         Volume    
     40000   331.35712      504.43015      1.1690128     -31846.067      47948.556    
     40500   331.60796     -524.76436      1.1488738     -31772.286      48789.06     
     41000   329.81729      234.21632      1.1638796     -31802.769      48160.028    
     41500   332.03627     -447.65214      1.1508886     -31651.52       48703.65     
     42000   336.57426      231.08617      1.1562269     -31785.351      48478.782    
     42500   328.51152      211.80233      1.1438626     -31805.057      49002.805    
     43000   330.38347      40.013211      1.1538926     -31797.605      48576.854    
     43500   344.86351     -1045.2989      1.1473012     -31690.104      48855.935    
     44000   338.43225     -18.769805      1.160369      -31754.464      48305.732    
     44500   341.99172      80.179739      1.1646182     -31835.845      48129.487    
     45000   334.68479     -292.01388      1.1578788     -31811.391      48409.62     
     45500   330.86452     -646.1481       1.1483567     -31781.964      48811.029    
     46000   326.05605     -586.26022      1.1514746     -31792.405      48678.864    
     46500   334.79031     -76.023095      1.1563692     -31801.73       48472.818    
     47000   332.33457      166.68806      1.1510833     -31674.951      48695.409    
     47500   330.30487      48.36375       1.1470461     -31848.014      48866.803    
     48000   324.62116     -606.89581      1.1482659     -31746.54       48814.891    
     48500   331.11646     -158.108        1.1434213     -31802.095      49021.718    
     49000   330.59293      209.78508      1.1491227     -31717.269      48778.493    
     49500   341.98825      319.96308      1.1484997     -31761.555      48804.952    
     50000   334.66217      573.76454      1.1452928     -31795.677      48941.611    
     50500   335.76872     -136.23895      1.1483008     -31811.7        48813.407    
     51000   326.44953      207.89163      1.1496208     -31732.814      48757.358    
     51500   326.95061     -35.205637      1.1489555     -31747.582      48785.59     
     52000   341.91574      557.0049       1.1467566     -31748.294      48879.137    
     52500   329.90083     -460.40479      1.1481493     -31764.726      48819.85     
     53000   335.23758      553.73567      1.1552971     -31719.702      48517.801    
     53500   336.53677      182.61049      1.1392887     -31691.886      49199.533    
     54000   334.5652       590.10561      1.1471858     -31845.937      48860.852    
     54500   340.1814      -237.87691      1.1401785     -31781.936      49161.14     
     55000   331.43155      637.5515       1.1520626     -31731.885      48654.017    
     55500   334.15485      629.61286      1.1579285     -31754.713      48407.543    
     56000   329.6209      -45.215332      1.1487608     -31630.452      48793.861    
     56500   328.26429     -82.389326      1.1505528     -31759.575      48717.865    
     57000   343.15635     -367.2954       1.1558898     -31710.139      48492.92     
     57500   329.64596      330.90247      1.1600866     -31897.706      48317.493    
     58000   337.5206      -414.02788      1.1496715     -31843.027      48755.209    
     58500   332.14762      60.479919      1.1472883     -31666.876      48856.484    
     59000   336.61712      501.4745       1.1479751     -31779.327      48827.256    
     59500   332.05941      583.15827      1.1556343     -31810.717      48503.643    
     60000   340.62566      439.39454      1.1482428     -31784.923      48815.872    
     60500   337.013        501.23484      1.1449084     -31683.291      48958.043    
     61000   334.52734     -214.3723       1.1422784     -31748.057      49070.763    
     61500   332.79886      90.493743      1.1487127     -31825.508      48795.904    
     62000   332.12965      290.22477      1.14954       -31805.235      48760.785    
     62500   337.46418     -5.6252103      1.147755      -31662.095      48836.621    
     63000   330.83427      173.36548      1.1557615     -31822.469      48498.308    
     63500   328.55368      221.07748      1.1537807     -31700.992      48581.569    
     64000   332.83118     -156.16753      1.1405312     -31692.486      49145.939    
     64500   328.40395      688.31062      1.1541066     -31719.269      48567.848    
     65000   327.44961      169.15266      1.1528503     -31705.823      48620.773    
     65500   334.11278      188.91242      1.1453775     -31681.805      48937.99     
     66000   335.87262     -24.564048      1.1587582     -31786.233      48372.882    
     66500   332.34215     -614.54782      1.1405884     -31791.514      49143.471    
     67000   326.3054      -839.69502      1.1334632     -31751.823      49452.397    
     67500   336.88505      80.470387      1.1527557     -31752.254      48624.762    
     68000   338.21209     -543.64451      1.1428006     -31748.837      49048.343    
     68500   324.77797      528.48742      1.1538049     -31802.767      48580.547    
     69000   336.36151      238.53461      1.1509725     -31689.648      48700.1      
     69500   327.19862      279.99649      1.156962      -31777.022      48447.98     
     70000   321.18842      52.889359      1.1484785     -31755.092      48805.852    
Loop time of 3048.44 on 1 procs for 30000 steps with 4740 atoms

Performance: 0.850 ns/day, 28.226 hours/ns, 9.841 timesteps/s, 46.647 katom-step/s
64.1% CPU use with 1 MPI tasks x 1 OpenMP threads

MPI task timing breakdown:
Section |  min time  |  avg time  |  max time  |%varavg| %total
---------------------------------------------------------------
Pair    | 2085       | 2085       | 2085       |   0.0 | 68.40
Bond    | 0.44475    | 0.44475    | 0.44475    |   0.0 |  0.01
Kspace  | 449.96     | 449.96     | 449.96     |   0.0 | 14.76
Neigh   | 139.26     | 139.26     | 139.26     |   0.0 |  4.57
Comm    | 38.213     | 38.213     | 38.213     |   0.0 |  1.25
Output  | 0.016966   | 0.016966   | 0.016966   |   0.0 |  0.00
Modify  | 313.26     | 313.26     | 313.26     |   0.0 | 10.28
Other   |            | 22.29      |            |       |  0.73

Nlocal:           4740 ave        4740 max        4740 min
Histogram: 1 0 0 0 0 0 0 0 0 0
Nghost:          16895 ave       16895 max       16895 min
Histogram: 1 0 0 0 0 0 0 0 0 0
Neighs:     1.6642e+06 ave  1.6642e+06 max  1.6642e+06 min
Histogram: 1 0 0 0 0 0 0 0 0 0

Total # of neighbors = 1664196
Ave neighs/atom = 351.0962
Ave special neighs/atom = 1.8987342
Neighbor list builds = 1539
Dangerous builds = 0
PPPM initialization ...
  using 12-bit tables for long-range coulomb
  G vector (1/distance) = 0.30550656
  grid = 32 32 32
  stencil order = 5
  estimated absolute RMS force accuracy = 0.0030539887
  estimated relative force accuracy = 9.1969962e-06
  using double precision FFTW3
  3d grid and FFT values/proc = 59319 32768
Generated 6 of 6 mixed pair_coeff terms from geometric mixing rule
Setting up Verlet run ...
  Unit style    : real
  Current step  : 0
  Time step     : 1
Per MPI rank memory allocation (min/avg/max) = 27.65 | 27.65 | 27.65 Mbytes
   Step          Temp          Press         Density         PotEng         Volume    
         0   321.18842      41.016129      1.1484785     -31755.13       48805.852    
       500   328.0997       245.8875       1.1481268     -31698.598      48820.804    
      1000   334.90792     -355.13067      1.1380839     -31770.595      49251.618    
      1500   337.05179      214.40092      1.1449951     -31687.379      48954.335    
      2000   331.26653      40.341979      1.149367      -31722.821      48768.128    
      2500   332.59065      6.8091597      1.1501075     -31731.612      48736.727    
      3000   331.82268     -542.14375      1.140277      -31708.299      49156.892    
      3500   332.35397     -10.434096      1.1489465     -31767.44       48785.973    
      4000   329.63588     -409.2031       1.1446588     -31823.501      48968.718    
      4500   332.38777      215.13259      1.1473567     -31678.874      48853.572    
      5000   340.86969      940.59011      1.15525       -31742.295      48519.781    
      5500   336.76589      575.06673      1.1516749     -31738.723      48670.398    
      6000   333.17302      112.47503      1.1510179     -31856.349      48698.177    
      6500   333.43408      281.58955      1.1486783     -31693.527      48797.364    
      7000   342.59142     -359.27518      1.1347911     -31781.395      49394.532    
      7500   333.29782     -225.52326      1.1366556     -31630.943      49313.506    
      8000   343.78482     -467.67592      1.1340457     -31704.975      49426.998    
      8500   332.5919       9.9539198      1.1488321     -31663.695      48790.832    
      9000   332.67403      385.2242       1.1417515     -31667.078      49093.408    
      9500   334.85254     -329.69985      1.1426945     -31663.177      49052.896    
     10000   330.59942     -83.60789       1.1495026     -31741.645      48762.374    
     10500   338.23148      41.034926      1.1372857     -31682.058      49286.187    
     11000   331.87753     -310.52383      1.1473378     -31800.649      48854.376    
     11500   329.09901     -186.86811      1.1450926     -31753.166      48950.167    
     12000   338.46923      566.08506      1.1475619     -31845.315      48844.836    
     12500   331.15001     -189.77834      1.1447775     -31727.762      48963.639    
     13000   332.71085     -185.03068      1.1504684     -31842.201      48721.437    
     13500   332.55935     -109.31867      1.1477497     -31707.963      48836.847    
     14000   338.54697      16.52112       1.149876      -31867.049      48746.538    
     14500   328.37083      7.0856124      1.1528327     -31817.961      48621.518    
     15000   337.88011      406.19135      1.1511354     -31880.904      48693.206    
     15500   335.70523     -644.4797       1.1378462     -31764.483      49261.908    
     16000   326.21908     -308.67725      1.1468382     -31784.06       48875.658    
     16500   333.84185      275.41876      1.1424497     -31846.823      49063.409    
     17000   337.42028      518.19089      1.1585619     -31859.029      48381.079    
     17500   329.18896     -248.5366       1.1449409     -31799.951      48956.651    
     18000   326.58382     -122.59827      1.1476064     -31780.378      48842.945    
     18500   329.7067      -54.037733      1.1515573     -31845.823      48675.368    
     19000   328.18971      443.71076      1.1571536     -31759.866      48439.959    
     19500   329.97037     -421.57341      1.1417114     -31690.615      49095.133    
     20000   326.99646      333.41532      1.1510277     -31786.236      48697.762    
     20500   338.44851     -279.14206      1.1553771     -31873.683      48514.44     
     21000   337.20229     -90.909816      1.1493669     -31759.738      48768.13     
     21500   341.3931       388.37477      1.1523517     -31711.333      48641.814    
     22000   330.96216     -267.0941       1.1515311     -31751.545      48676.474    
     22500   331.12061      250.00729      1.1574331     -31744.21       48428.264    
     23000   334.64591     -288.63714      1.1458272     -31715.554      48918.786    
     23500   335.00032      282.48169      1.1610817     -31926.594      48276.08     
     24000   327.52968      992.53343      1.1634338     -31758.549      48178.484    
     24500   338.66266     -200.48093      1.1496881     -31776.389      48754.504    
     25000   332.95069      329.35174      1.1540878     -31779.455      48568.641    
     25500   341.87727     -867.26284      1.1423588     -31738.203      49067.31     
     26000   324.31559      41.223935      1.1521722     -31761.512      48649.389    
     26500   334.43355      392.16893      1.1473223     -31826.016      48855.039    
     27000   334.30262     -218.13353      1.1400702     -31697.176      49165.811    
     27500   330.4446       27.911078      1.149536      -31672.399      48760.955    
     28000   335.44662      318.16223      1.1584979     -31728.092      48383.749    
     28500   340.52307      239.60034      1.1554782     -31686.453      48510.196    
     29000   324.47816     -105.41939      1.1479866     -31720.573      48826.768    
     29500   330.92934      322.85457      1.149728      -31845.121      48752.813    
     30000   332.39115     -343.86995      1.135932      -31700.498      49344.921    
     30500   322.33603     -45.703663      1.156117      -31901.032      48483.391    
     31000   333.70046      418.59846      1.1553657     -31784.142      48514.921    
     31500   332.8712       114.83087      1.1493138     -31761.098      48770.383    
     32000   336.18735     -175.79616      1.1468001     -31795.856      48877.285    
     32500   334.82261      206.81314      1.1495648     -31671.121      48759.733    
     33000   325.56138      156.00511      1.1508315     -31829.188      48706.065    
     33500   331.94854     -331.99141      1.146157      -31677.307      48904.71     
     34000   330.08403      252.61082      1.1575959     -31717.155      48421.451    
     34500   329.56243     -225.37889      1.1481483     -31716.341      48819.891    
     35000   329.69437      378.2843       1.1478253     -31793.029      48833.627    
     35500   342.30522      18.597649      1.1510453     -31742.843      48697.017    
     36000   331.36621      652.27452      1.1549504     -31691.346      48532.363    
     36500   335.62531      371.20997      1.1549381     -31631.973      48532.883    
     37000   330.34195     -191.98064      1.1532925     -31811.287      48602.134    
     37500   330.52299     -62.48303       1.153187      -31783.607      48606.579    
     38000   331.91067     -521.74099      1.1437422     -31702.54       49007.961    
     38500   337.93952      397.05795      1.1580715     -31741.323      48401.567    
     39000   329.19109      435.14593      1.1596974     -31796.111      48333.707    
     39500   335.5186       465.23571      1.1571532     -31727.905      48439.979    
     40000   346.15196     -262.11051      1.1571616     -31780.135      48439.625    
     40500   330.85083     -165.1794       1.1620767     -31797.39       48234.746    
     41000   330.76867     -477.37356      1.1434144     -31817.896      49022.012    
     41500   326.47112     -3.0816782      1.1527289     -31725.318      48625.895    
     42000   325.76085      632.67973      1.1556008     -31704.358      48505.05     
     42500   334.03376     -258.99399      1.1467807     -31635.216      48878.11     
     43000   331.8922       117.60631      1.1488383     -31665.94       48790.569    
     43500   332.63821     -98.115734      1.1508548     -31629.207      48705.08     
     44000   332.36334     -242.54141      1.1511528     -31697.294      48692.471    
     44500   329.81336     -925.08939      1.136604      -31693.47       49315.748    
     45000   338.33556     -97.952029      1.1373233     -31748.877      49284.556    
     45500   329.49685      303.75974      1.1402572     -31769.381      49157.749    
     46000   334.30963     -649.77303      1.1409569     -31667.681      49127.601    
     46500   334.34174      439.82821      1.1448023     -31730.823      48962.579    
     47000   326.42275      102.85896      1.152094      -31610.997      48652.693    
     47500   334.82621      334.41049      1.159259      -31785.736      48351.987    
     48000   327.79427     -244.40969      1.1384463     -31709.405      49235.94     
     48500   344.64598      417.93268      1.1509222     -31706.673      48702.228    
     49000   334.10622     -915.05035      1.1377652     -31785.456      49265.415    
     49500   328.67186      762.80128      1.1508635     -31789.408      48704.713    
     50000   335.55611     -592.57255      1.1339294     -31674.384      49432.068    
Loop time of 5482.02 on 1 procs for 50000 steps with 4740 atoms

Performance: 0.788 ns/day, 30.456 hours/ns, 9.121 timesteps/s, 43.232 katom-step/s
63.6% CPU use with 1 MPI tasks x 1 OpenMP threads

MPI task timing breakdown:
Section |  min time  |  avg time  |  max time  |%varavg| %total
---------------------------------------------------------------
Pair    | 3556.6     | 3556.6     | 3556.6     |   0.0 | 64.88
Bond    | 0.58945    | 0.58945    | 0.58945    |   0.0 |  0.01
Kspace  | 981.54     | 981.54     | 981.54     |   0.0 | 17.90
Neigh   | 235.99     | 235.99     | 235.99     |   0.0 |  4.30
Comm    | 64.308     | 64.308     | 64.308     |   0.0 |  1.17
Output  | 0.0098527  | 0.0098527  | 0.0098527  |   0.0 |  0.00
Modify  | 606.4      | 606.4      | 606.4      |   0.0 | 11.06
Other   |            | 36.56      |            |       |  0.67

Nlocal:           4740 ave        4740 max        4740 min
Histogram: 1 0 0 0 0 0 0 0 0 0
Nghost:          16667 ave       16667 max       16667 min
Histogram: 1 0 0 0 0 0 0 0 0 0
Neighs:    1.64328e+06 ave 1.64328e+06 max 1.64328e+06 min
Histogram: 1 0 0 0 0 0 0 0 0 0

Total # of neighbors = 1643275
Ave neighs/atom = 346.68249
Ave special neighs/atom = 1.8987342
Neighbor list builds = 2579
Dangerous builds = 0
RESULT density_g_cm3 1.14721604862962
PPPM initialization ...
  using 12-bit tables for long-range coulomb
  G vector (1/distance) = 0.30519605
  grid = 32 32 32
  stencil order = 5
  estimated absolute RMS force accuracy = 0.0030929363
  estimated relative force accuracy = 9.3142858e-06
  using double precision FFTW3
  3d grid and FFT values/proc = 59319 32768
Generated 6 of 6 mixed pair_coeff terms from geometric mixing rule
Setting up Verlet run ...
  Unit style    : real
  Current step  : 0
  Time step     : 1
Per MPI rank memory allocation (min/avg/max) = 29.9 | 29.9 | 29.9 Mbytes
   Step          Temp          Press         Density         PotEng         Volume    
         0   335.55611     -604.48942      1.1339294     -31674.384      49432.068    
      5000   334.03696      80.03548       1.1339294     -31759.53       49432.068    
     10000   331.15719      105.10132      1.1339294     -31636.179      49432.068    
     15000   332.60385     -201.46079      1.1339294     -31783.599      49432.068    
     20000   339.61347     -26.257594      1.1339294     -31798.957      49432.068    
     25000   331.2893      -468.75544      1.1339294     -31785.482      49432.068    
     30000   334.32212     -56.522955      1.1339294     -31731.827      49432.068    
     35000   336.9112      -502.2994       1.1339294     -31567.327      49432.068    
     40000   336.82703     -820.91868      1.1339294     -31665.871      49432.068    
     45000   329.77457     -277.41756      1.1339294     -31686.082      49432.068    
     50000   334.16219     -697.02924      1.1339294     -31702.205      49432.068    
     55000   321.27479     -89.647762      1.1339294     -31550.628      49432.068    
     60000   333.32266     -289.14955      1.1339294     -31745.172      49432.068    
     65000   327.07296     -329.9784       1.1339294     -31662.708      49432.068    
     70000   334.15044     -836.36906      1.1339294     -31774.073      49432.068    
     75000   332.11332     -367.46652      1.1339294     -31669.685      49432.068    
     80000   330.44489      238.79883      1.1339294     -31641.325   