LAMMPS (22 Jul 2025 - Update 5)
  using 1 OpenMP thread(s) per MPI task
Reading data file ...
  orthogonal box = (0 0 0) to (37.095719 37.095719 37.095719)
  1 by 1 by 1 MPI processor grid
  reading atoms ...
  4912 atoms
  scanning bonds ...
  2 = max bonds/atom
  scanning angles ...
  1 = max angles/atom
  orthogonal box = (0 0 0) to (37.095719 37.095719 37.095719)
  1 by 1 by 1 MPI processor grid
  reading bonds ...
  3000 bonds
  reading angles ...
  1500 angles
Finding 1-2 1-3 1-4 neighbors ...
  special bond factors lj:    0        0        0       
  special bond factors coul:  0        0        0       
     2 = max # of 1-2 neighbors
     1 = max # of 1-3 neighbors
     1 = max # of 1-4 neighbors
     2 = max # of special neighbors
  special bonds CPU = 0.001 seconds
  read_data CPU = 0.152 seconds
Setting atom values ...
  206 settings made for charge
Setting atom values ...
  206 settings made for charge
4500 atoms in group watr
206 atoms in group kion
206 atoms in group ohion
412 atoms in group ions
Finding SHAKE clusters ...
       0 = # of size 2 clusters
       0 = # of size 3 clusters
       0 = # of size 4 clusters
    1500 = # of frozen angles
  find clusters CPU = 0.002 seconds
PPPM initialization ...
  using 12-bit tables for long-range coulomb
  G vector (1/distance) = 0.30441482
  grid = 32 32 32
  stencil order = 5
  estimated absolute RMS force accuracy = 0.0033318687
  estimated relative force accuracy = 1.0033824e-05
  using double precision FFTW3
  3d grid and FFT values/proc = 59319 32768
Generated 6 of 6 mixed pair_coeff terms from geometric mixing rule
WARNING: Should not use fix nve/limit with fix shake or fix rattle (src/lammps/src/fix_nve_limit.cpp:76)
Neighbor list info ...
  update: every = 1 steps, delay = 0 steps, check = yes
  max neighbors/atom: 2000, page size: 100000
  master list distance cutoff = 12
  ghost atom cutoff = 12
  binsize = 6, bins = 7 7 7
  1 neighbor lists, perpetual/occasional/extra = 1 0 0
  (1) pair lj/cut/coul/long, perpetual
      attributes: half, newton on
      pair build: half/bin/newton
      stencil: half/bin/3d
      bin: standard
Setting up Verlet run ...
  Unit style    : real
  Current step  : 0
  Time step     : 0.2
Per MPI rank memory allocation (min/avg/max) = 27.67 | 27.67 | 27.67 Mbytes
   Step          Temp          Press         Density         PotEng         Volume    
         0   333            50260.699      1.2550109     -2284.3114      51047.136    
       500   653.29347      8528.7977      1.2550109     -36149.796      51047.136    
      1000   394.73199      4036.8293      1.2550109     -39900.293      51047.136    
      1500   353.15094      1350.4178      1.2550109     -40979.736      51047.136    
      2000   344.68764      2480.6148      1.2550109     -41413.852      51047.136    
      2500   341.75576     -213.65966      1.2550109     -41747.2        51047.136    
      3000   333.41399     -50.77755       1.2550109     -41939.914      51047.136    
      3500   332.18656     -128.34111      1.2550109     -41969.226      51047.136    
      4000   337.88082      279.49642      1.2550109     -42112.555      51047.136    
      4500   335.5403       482.97821      1.2550109     -42159.24       51047.136    
      5000   327.14303     -1746.2517      1.2550109     -42225.517      51047.136    
      5500   336.46436      119.57229      1.2550109     -42303.178      51047.136    
      6000   327.60448      195.43665      1.2550109     -42307.708      51047.136    
      6500   330.94739      1341.8815      1.2550109     -42324.206      51047.136    
      7000   339.35849      629.86503      1.2550109     -42464.713      51047.136    
      7500   332.70296      1897.9595      1.2550109     -42450.899      51047.136    
      8000   347.0747       1935.0776      1.2550109     -42452.049      51047.136    
      8500   334.28087     -769.54293      1.2550109     -42576.955      51047.136    
      9000   327.53691      1650.2852      1.2550109     -42551.521      51047.136    
      9500   336.60897     -788.73278      1.2550109     -42621.751      51047.136    
     10000   337.7868      -246.69061      1.2550109     -42567.284      51047.136    
     10500   333.9681      -737.15077      1.2550109     -42557.292      51047.136    
     11000   340.39907     -484.44126      1.2550109     -42721.578      51047.136    
     11500   327.50004      1236.5787      1.2550109     -42667.855      51047.136    
     12000   327.36168     -134.90169      1.2550109     -42692.013      51047.136    
     12500   344.37473      312.91972      1.2550109     -42662.061      51047.136    
     13000   334.51526      393.51964      1.2550109     -42668.734      51047.136    
     13500   331.83959      2036.9197      1.2550109     -42671.779      51047.136    
     14000   336.14095      1573.6567      1.2550109     -42718.536      51047.136    
     14500   330.77455      20.26825       1.2550109     -42726.693      51047.136    
     15000   341.22206      2321.8674      1.2550109     -42777.845      51047.136    
     15500   329.70033      516.85861      1.2550109     -42760.75       51047.136    
     16000   335.95345      1458.0785      1.2550109     -42815.158      51047.136    
     16500   332.20065      905.21095      1.2550109     -42747.597      51047.136    
     17000   338.8414       881.6373       1.2550109     -42835.677      51047.136    
     17500   336.14475      774.01307      1.2550109     -42792.777      51047.136    
     18000   329.2854      -524.90337      1.2550109     -42822.41       51047.136    
     18500   336.24533     -100.11396      1.2550109     -42794.262      51047.136    
     19000   337.65844      1380.2303      1.2550109     -42854.35       51047.136    
     19500   339.00925      1531.3489      1.2550109     -42803.112      51047.136    
     20000   333.43941      507.31379      1.2550109     -42778.523      51047.136    
Loop time of 1754.62 on 1 procs for 20000 steps with 4912 atoms

Performance: 0.197 ns/day, 121.848 hours/ns, 11.398 timesteps/s, 55.989 katom-step/s
64.4% CPU use with 1 MPI tasks x 1 OpenMP threads

MPI task timing breakdown:
Section |  min time  |  avg time  |  max time  |%varavg| %total
---------------------------------------------------------------
Pair    | 1298.9     | 1298.9     | 1298.9     |   0.0 | 74.03
Bond    | 0.15927    | 0.15927    | 0.15927    |   0.0 |  0.01
Kspace  | 363.36     | 363.36     | 363.36     |   0.0 | 20.71
Neigh   | 17.819     | 17.819     | 17.819     |   0.0 |  1.02
Comm    | 20.231     | 20.231     | 20.231     |   0.0 |  1.15
Output  | 0.0089589  | 0.0089589  | 0.0089589  |   0.0 |  0.00
Modify  | 47.048     | 47.048     | 47.048     |   0.0 |  2.68
Other   |            | 7.125      |            |       |  0.41

Nlocal:           4912 ave        4912 max        4912 min
Histogram: 1 0 0 0 0 0 0 0 0 0
Nghost:          17107 ave       17107 max       17107 min
Histogram: 1 0 0 0 0 0 0 0 0 0
Neighs:    1.70837e+06 ave 1.70837e+06 max 1.70837e+06 min
Histogram: 1 0 0 0 0 0 0 0 0 0

Total # of neighbors = 1708368
Ave neighs/atom = 347.79479
Ave special neighs/atom = 1.8322476
Neighbor list builds = 200
Dangerous builds = 0
PPPM initialization ...
  using 12-bit tables for long-range coulomb
  G vector (1/distance) = 0.30441482
  grid = 32 32 32
  stencil order = 5
  estimated absolute RMS force accuracy = 0.0033318687
  estimated relative force accuracy = 1.0033824e-05
  using double precision FFTW3
  3d grid and FFT values/proc = 59319 32768
Generated 6 of 6 mixed pair_coeff terms from geometric mixing rule
Setting up Verlet run ...
  Unit style    : real
  Current step  : 20000
  Time step     : 0.5
Per MPI rank memory allocation (min/avg/max) = 27.67 | 27.67 | 27.67 Mbytes
   Step          Temp          Press         Density         PotEng         Volume    
     20000   333.43941      244.53093      1.2550109     -42778.523      51047.136    
     20500   333.70666      1501.7105      1.2550109     -42897.243      51047.136    
     21000   334.0866      -280.90139      1.2550109     -42906.464      51047.136    
     21500   330.83975      588.64783      1.2550109     -42826.152      51047.136    
     22000   335.01708     -157.58201      1.2550109     -42855.144      51047.136    
     22500   337.97533      648.80372      1.2550109     -42966.404      51047.136    
     23000   328.90436      720.36502      1.2550109     -42799.618      51047.136    
     23500   333.49134      1376.8699      1.2550109     -42934.509      51047.136    
     24000   335.84833     -687.13719      1.2550109     -42934.723      51047.136    
     24500   327.69508     -604.90158      1.2550109     -42898.346      51047.136    
     25000   338.50954      588.56758      1.2550109     -42830.108      51047.136    
     25500   337.39793      724.93653      1.2550109     -42789.029      51047.136    
     26000   329.46727      937.43629      1.2550109     -42812.524      51047.136    
     26500   322.91824      67.168938      1.2550109     -42858.13       51047.136    
     27000   336.89821      430.86462      1.2550109     -43001          51047.136    
     27500   331.15459      1369.0525      1.2550109     -42901.437      51047.136    
     28000   332.08739     -166.24584      1.2550109     -42976.743      51047.136    
     28500   343.39888      987.19896      1.2550109     -43018.529      51047.136    
     29000   330.50991      672.91503      1.2550109     -42984.413      51047.136    
     29500   331.29064      465.89722      1.2550109     -42946.643      51047.136    
     30000   333.20641     -544.64567      1.2550109     -42937.482      51047.136    
     30500   334.94325      1457.6572      1.2550109     -42943.247      51047.136    
     31000   329.361        35.162424      1.2550109     -42907.691      51047.136    
     31500   336.25186      435.26678      1.2550109     -42993.575      51047.136    
     32000   322.95836      669.09022      1.2550109     -42931.382      51047.136    
     32500   331.30389     -33.166467      1.2550109     -42958.998      51047.136    
     33000   332.00704      916.59634      1.2550109     -42938.881      51047.136    
     33500   330.75189     -315.5541       1.2550109     -42936.673      51047.136    
     34000   324.06273     -134.9015       1.2550109     -43009.143      51047.136    
     34500   338.73034      365.0941       1.2550109     -42996.125      51047.136    
     35000   342.21529      597.8596       1.2550109     -42950.003      51047.136    
     35500   333.0679       280.27509      1.2550109     -42941.808      51047.136    
     36000   332.50109     -329.41958      1.2550109     -42998.344      51047.136    
     36500   337.86391      578.08714      1.2550109     -43061.978      51047.136    
     37000   329.13312      335.04682      1.2550109     -42900.587      51047.136    
     37500   330.3928       68.621245      1.2550109     -42971.834      51047.136    
     38000   328.37349      596.2003       1.2550109     -42923.731      51047.136    
     38500   335.25044      1242.7461      1.2550109     -42875.192      51047.136    
     39000   340.88668      323.23605      1.2550109     -42920.615      51047.136    
     39500   336.01275      231.38774      1.2550109     -42890.036      51047.136    
     40000   342.51547      312.62524      1.2550109     -42929.42       51047.136    
Loop time of 1862.17 on 1 procs for 20000 steps with 4912 atoms

Performance: 0.464 ns/day, 51.727 hours/ns, 10.740 timesteps/s, 52.756 katom-step/s
61.9% CPU use with 1 MPI tasks x 1 OpenMP threads

MPI task timing breakdown:
Section |  min time  |  avg time  |  max time  |%varavg| %total
---------------------------------------------------------------
Pair    | 1360       | 1360       | 1360       |   0.0 | 73.03
Bond    | 0.16066    | 0.16066    | 0.16066    |   0.0 |  0.01
Kspace  | 377.73     | 377.73     | 377.73     |   0.0 | 20.28
Neigh   | 46.819     | 46.819     | 46.819     |   0.0 |  2.51
Comm    | 21.446     | 21.446     | 21.446     |   0.0 |  1.15
Output  | 0.0083153  | 0.0083153  | 0.0083153  |   0.0 |  0.00
Modify  | 48.886     | 48.886     | 48.886     |   0.0 |  2.63
Other   |            | 7.157      |            |       |  0.38

Nlocal:           4912 ave        4912 max        4912 min
Histogram: 1 0 0 0 0 0 0 0 0 0
Nghost:          16994 ave       16994 max       16994 min
Histogram: 1 0 0 0 0 0 0 0 0 0
Neighs:     1.7089e+06 ave  1.7089e+06 max  1.7089e+06 min
Histogram: 1 0 0 0 0 0 0 0 0 0

Total # of neighbors = 1708902
Ave neighs/atom = 347.9035
Ave special neighs/atom = 1.8322476
Neighbor list builds = 491
Dangerous builds = 0
PPPM initialization ...
  using 12-bit tables for long-range coulomb
  G vector (1/distance) = 0.30441482
  grid = 32 32 32
  stencil order = 5
  estimated absolute RMS force accuracy = 0.0033318687
  estimated relative force accuracy = 1.0033824e-05
  using double precision FFTW3
  3d grid and FFT values/proc = 59319 32768
Generated 6 of 6 mixed pair_coeff terms from geometric mixing rule
Setting up Verlet run ...
  Unit style    : real
  Current step  : 40000
  Time step     : 1
Per MPI rank memory allocation (min/avg/max) = 27.67 | 27.67 | 27.67 Mbytes
   Step          Temp          Press         Density         PotEng         Volume    
     40000   342.51547      423.74896      1.2550109     -42929.42       51047.136    
     40500   342.98757      345.50876      1.2489708     -42897.081      51294.001    
     41000   341.11686      67.133402      1.2426        -42870.168      51556.985    
     41500   322.41253     -867.26168      1.234164      -42975.999      51909.396    
     42000   328.8883       54.501485      1.2498893     -43008.277      51256.307    
     42500   325.23131      655.67641      1.2446227     -42834.158      51473.196    
     43000   326.74965      26.537592      1.2412282     -42821.545      51613.968    
     43500   325.96981     -235.46898      1.2419786     -42806.415      51582.78     
     44000   340.35212      336.23607      1.2455699     -42864.492      51434.054    
     44500   335.14615      11.321496      1.2440015     -42876.336      51498.903    
     45000   330.95959     -441.01252      1.243549      -42941.744      51517.64     
     45500   334.81277     -720.5461       1.2396171     -43059.519      51681.047    
     46000   334.80231      141.06862      1.2403027     -42838.164      51652.481    
     46500   333.35254      233.01247      1.2458119     -42841.545      51424.063    
     47000   327.97495      4.6832469      1.2436359     -42959.138      51514.042    
     47500   327.06789      303.21508      1.2513422     -42902.178      51196.793    
     48000   330.45731     -344.26397      1.2389949     -42968.722      51707.001    
     48500   330.97883      250.2708       1.2582615     -42993.345      50915.258    
     49000   329.62279      359.8604       1.2445661     -42925.597      51475.539    
     49500   340.70281      223.38966      1.2485039     -42937.255      51313.185    
     50000   338.6055       105.64253      1.2345943     -42934.374      51891.305    
     50500   330.07916     -567.73488      1.2418073     -42964.38       51589.898    
     51000   334.32909      47.874726      1.2488662     -42942.996      51298.299    
     51500   337.52655      876.65778      1.2529169     -42998.345      51132.45     
     52000   326.88692      672.11071      1.2461126     -42766.222      51411.655    
     52500   330.65455      349.83651      1.2502674     -42940.432      51240.806    
     53000   334.61151      229.42927      1.2427033     -42939.164      51552.699    
     53500   329.02269     -428.43221      1.2394574     -42957.685      51687.706    
     54000   325.17694     -187.08592      1.2409234     -43013.956      51626.642    
     54500   329.70987      269.07483      1.2457203     -43065.44       51427.844    
     55000   322.40982      204.01149      1.2419967     -42942.891      51582.03     
     55500   325.38301     -196.21911      1.2435031     -42993.083      51519.54     
     56000   333.97461     -475.20385      1.2441236     -43180.183      51493.847    
     56500   330.6487      -362.12632      1.2307849     -42976.138      52051.914    
     57000   328.08882     -306.54859      1.2389608     -42973.675      51708.425    
     57500   337.58773      289.87067      1.2478979     -43065.679      51338.101    
     58000   335.22533     -235.9648       1.2404741     -43040.908      51645.341    
     58500   332.88038     -187.30753      1.2387161     -42980.779      51718.638    
     59000   333.23553      576.44778      1.2498137     -43138.874      51259.409    
     59500   333.80311     -285.65802      1.2365962     -43022.545      51807.3      
     60000   335.43558      433.17086      1.237075      -42887.081      51787.25     
     60500   338.60173      459.75009      1.2376124     -42939.998      51764.76     
     61000   329.40597      556.83804      1.2460675     -42930.371      51413.515    
     61500   331.26787     -446.8557       1.2423547     -42945.489      51567.167    
     62000   332.10413     -463.67478      1.2425339     -42962.482      51559.728    
     62500   333.03111     -229.17342      1.2376858     -42866.19       51761.691    
     63000   329.98213     -148.70104      1.240151      -42900.179      51658.796    
     63500   335.30519     -221.79946      1.2413543     -43049.921      51608.721    
     64000   337.1268      -178.21678      1.2376331     -42954.016      51763.895    
     64500   325.77185     -234.33903      1.2392545     -43033.71       51696.171    
     65000   323.77952     -123.01801      1.2388272     -42970.18       51714        
     65500   323.65974      17.205588      1.243669      -42932.999      51512.67     
     66000   341.6602       317.85794      1.2374879     -42898.9        51769.97     
     66500   327.74167     -223.31262      1.2345126     -42886.639      51894.742    
     67000   325.39819     -171.90585      1.2367312     -42914.673      51801.644    
     67500   327.52426      314.18437      1.2390058     -42934.245      51706.544    
     68000   335.82304      132.69379      1.2456385     -42922.326      51431.221    
     68500   327.89458      418.54844      1.2470507     -43005.406      51372.979    
     69000   332.94698     -107.76471      1.2386445     -42931.593      51721.628    
     69500   327.28436     -288.74277      1.2311246     -43021.384      52037.552    
     70000   333.56437     -238.44856      1.2306566     -42996.768      52057.341    
Loop time of 3269.99 on 1 procs for 30000 steps with 4912 atoms

Performance: 0.793 ns/day, 30.278 hours/ns, 9.174 timesteps/s, 45.064 katom-step/s
63.6% CPU use with 1 MPI tasks x 1 OpenMP threads

MPI task timing breakdown:
Section |  min time  |  avg time  |  max time  |%varavg| %total
---------------------------------------------------------------
Pair    | 2092.7     | 2092.7     | 2092.7     |   0.0 | 64.00
Bond    | 0.36786    | 0.36786    | 0.36786    |   0.0 |  0.01
Kspace  | 599.16     | 599.16     | 599.16     |   0.0 | 18.32
Neigh   | 147.49     | 147.49     | 147.49     |   0.0 |  4.51
Comm    | 37.641     | 37.641     | 37.641     |   0.0 |  1.15
Output  | 0.0073369  | 0.0073369  | 0.0073369  |   0.0 |  0.00
Modify  | 371.32     | 371.32     | 371.32     |   0.0 | 11.36
Other   |            | 21.28      |            |       |  0.65

Nlocal:           4912 ave        4912 max        4912 min
Histogram: 1 0 0 0 0 0 0 0 0 0
Nghost:          16759 ave       16759 max       16759 min
Histogram: 1 0 0 0 0 0 0 0 0 0
Neighs:    1.67606e+06 ave 1.67606e+06 max 1.67606e+06 min
Histogram: 1 0 0 0 0 0 0 0 0 0

Total # of neighbors = 1676057
Ave neighs/atom = 341.21682
Ave special neighs/atom = 1.8322476
Neighbor list builds = 1518
Dangerous builds = 0
PPPM initialization ...
  using 12-bit tables for long-range coulomb
  G vector (1/distance) = 0.30393378
  grid = 32 32 32
  stencil order = 5
  estimated absolute RMS force accuracy = 0.0033975694
  estimated relative force accuracy = 1.0231679e-05
  using double precision FFTW3
  3d grid and FFT values/proc = 59319 32768
Generated 6 of 6 mixed pair_coeff terms from geometric mixing rule
Setting up Verlet run ...
  Unit style    : real
  Current step  : 0
  Time step     : 1
Per MPI rank memory allocation (min/avg/max) = 27.67 | 27.67 | 27.67 Mbytes
   Step          Temp          Press         Density         PotEng         Volume    
         0   333.56437     -194.13731      1.2306566     -42996.767      52057.341    
       500   331.9253       28.941205      1.2377661     -43020.311      51758.334    
      1000   335.46317     -359.19323      1.2450571     -42957.112      51455.24     
      1500   335.28267     -241.58155      1.2342897     -42894.157      51904.113    
      2000   333.69445     -390.96096      1.2356761     -42822.045      51845.877    
      2500   327.44497      338.48309      1.2407        -42924.409      51635.94     
      3000   325.62302      260.3221       1.2372166     -42878.265      51781.32     
      3500   333.1015       780.1822       1.2477591     -42899.271      51343.812    
      4000   334.18893     -344.07946      1.2405211     -42912.608      51643.388    
      4500   326.27239     -106.04457      1.2554149     -43144.741      51030.707    
      5000   332.032       -215.96436      1.2345655     -42846.693      51892.518    
      5500   335.55845      158.64709      1.2477514     -42943.752      51344.129    
      6000   332.87634      245.91496      1.2417097     -42822.353      51593.952    
      6500   337.47893      108.35678      1.2361983     -42912.234      51823.974    
      7000   338.59359      291.91801      1.2454883     -43004.208      51437.424    
      7500   331.51022      397.23176      1.254212      -42926.761      51079.649    
      8000   332.56991      1027.7076      1.2486494     -43017.322      51307.203    
      8500   333.71597     -401.86048      1.2394948     -42873.127      51686.147    
      9000   339.65677     -492.80494      1.2356008     -42965.962      51849.036    
      9500   335.91234     -130.99995      1.2478001     -42871.994      51342.126    
     10000   330.30677      228.81584      1.2464992     -42822.087      51395.708    
     10500   337.04321     -203.45035      1.2438501     -42974.759      51505.168    
     11000   336.38383     -480.60674      1.2442598     -42957.421      51488.209    
     11500   328.88002     -39.501591      1.2450031     -42939.391      51457.472    
     12000   330.43932     -248.81422      1.2434181     -42956.548      51523.063    
     12500   329.33408     -225.84803      1.2481831     -43080.774      51326.372    
     13000   329.79182     -282.21016      1.2410932     -42973.665      51619.582    
     13500   327.20279     -590.41044      1.2328028     -42865.35       51966.713    
     14000   335.49879     -531.1529       1.2328503     -42926.46       51964.71     
     14500   328.33276      265.6722       1.2342179     -42909.584      51907.129    
     15000   332.42945      252.15107      1.2404579     -42982.04       51646.016    
     15500   341.35448     -412.32575      1.2276604     -42888.608      52184.39     
     16000   331.19241      312.74795      1.2318764     -42968.277      52005.794    
     16500   330.4989       179.76318      1.2406956     -42911.307      51636.121    
     17000   333.39401      218.12894      1.2431545     -43002.49       51533.988    
     17500   328.42407      100.84788      1.2425361     -42869.615      51559.638    
     18000   331.8169       352.99613      1.2442288     -42868.46       51489.494    
     18500   335.15675      11.635894      1.2363177     -42837.162      51818.969    
     19000   335.93562      337.83245      1.240012      -42928.189      51664.588    
     19500   333.97895      71.64175       1.2374543     -42901.807      51771.373    
     20000   327.81079      308.1185       1.2388207     -42938.648      51714.273    
     20500   329.08121     -1005.5669      1.2283603     -42996.85       52154.658    
     21000   335.77444      92.685848      1.2353903     -42992.596      51857.87     
     21500   334.76114     -437.4193       1.2239622     -42882.628      52342.068    
     22000   339.65874      517.84809      1.2405242     -42919.431      51643.255    
     22500   328.41668      206.43226      1.2375019     -42939.29       51769.384    
     23000   329.39288     -316.54722      1.2276521     -42892.024      52184.744    
     23500   331.80944     -249.94258      1.2372307     -42966.101      51780.731    
     24000   334.74557      168.0696       1.2372612     -42824.063      51779.453    
     24500   325.14947      618.94581      1.2463193     -43043.716      51403.128    
     25000   327.10816     -585.97714      1.2249575     -42902.457      52299.535    
     25500   325.99513     -42.155879      1.230097      -42857.527      52081.024    
     26000   335.17161      561.77776      1.2436026     -42903.608      51515.42     
     26500   334.03595     -174.03496      1.2358784     -42892.277      51837.39     
     27000   330.54506     -71.533332      1.2450581     -42999.981      51455.196    
     27500   331.62912     -88.957057      1.2394132     -43086.026      51689.551    
     28000   338.05296      740.41727      1.244584      -42925.739      51474.796    
     28500   338.27778      484.43344      1.2532409     -42976.309      51119.232    
     29000   342.15196      114.86848      1.2387921     -42941.279      51715.467    
     29500   328.82662      30.301911      1.2417329     -42973.802      51592.989    
     30000   333.42299     -650.67748      1.2360204     -42882.064      51831.433    
     30500   341.77014      356.2525       1.2462466     -42972.839      51406.126    
     31000   330.19291     -54.257305      1.2338175     -42954.91       51923.976    
     31500   337.66465      147.76272      1.2521081     -42965.37       51165.477    
     32000   329.92446     -117.5022       1.2478107     -42961.036      51341.691    
     32500   330.10027      163.98718      1.2390813     -42808.247      51703.397    
     33000   338.05479      84.22516       1.2460919     -42942.374      51412.506    
     33500   344.38073     -28.359262      1.2480761     -43003.425      51330.774    
     34000   336.75065      331.40535      1.2455213     -42990.063      51436.061    
     34500   335.30975      390.06057      1.2336363     -42859.085      51931.603    
     35000   339.21273      258.09643      1.2435483     -42936.858      51517.67     
     35500   333.70671      486.35993      1.2379661     -42878.365      51749.97     
     36000   338.91377      432.98747      1.2495936     -43009.651      51268.435    
     36500   336.95101     -740.93049      1.2423909     -42992.012      51565.663    
     37000   342.01117      120.54931      1.2402827     -43017.232      51653.313    
     37500   341.73998     -23.29025       1.2354951     -42931.752      51853.47     
     38000   323.79923      393.47331      1.2469186     -43053.474      51378.421    
     38500   333.0528       87.762973      1.2406866     -42887.235      51636.496    
     39000   332.3502      -212.86237      1.2510484     -42989.289      51208.818    
     39500   329.54702     -173.55032      1.2388444     -42945.744      51713.282    
     40000   334.31994      737.84809      1.2429433     -42985.644      51542.744    
     40500   334.75392     -69.247988      1.2347771     -42862.111      51883.622    
     41000   331.7449       159.88937      1.2471039     -43044.926      51370.788    
     41500   339.60648     -455.75809      1.2543599     -43084.756      51073.627    
     42000   332.80623     -275.30346      1.2529171     -42979.206      51132.44     
     42500   329.85612     -652.54475      1.2518841     -43018.808      51174.635    
     43000   329.51018     -182.43466      1.2523579     -43038.936      51155.274    
     43500   336.95571     -881.72598      1.2354691     -43001.864      51854.564    
     44000   342.44621      698.7579       1.2547804     -43015.068      51056.511    
     44500   335.47996     -565.63692      1.2423961     -42845.91       51565.446    
     45000   336.26457      220.71628      1.2456187     -43038.12       51432.038    
     45500   338.16964      284.20419      1.2454879     -42998.021      51437.441    
     46000   336.68709      107.7076       1.2426542     -42967.14       51554.739    
     46500   341.02915     -41.570325      1.2454701     -43075.325      51438.176    
     47000   330.15623     -416.5272       1.2479284     -42984.762      51336.849    
     47500   328.48889     -369.00353      1.2419217     -43016.934      51585.145    
     48000   334.95277     -77.93592       1.2418575     -42947.813      51587.812    
     48500   337.24085     -75.266588      1.2420363     -43095.815      51580.385    
     49000   335.07439     -30.917802      1.2372322     -42954.503      51780.668    
     49500   326.29125      750.25483      1.2487313     -43023.857      51303.841    
     50000   336.61211     -478.99071      1.2383909     -43027.599      51732.218    
Loop time of 5473.86 on 1 procs for 50000 steps with 4912 atoms

Performance: 0.789 ns/day, 30.410 hours/ns, 9.134 timesteps/s, 44.868 katom-step/s
64.1% CPU use with 1 MPI tasks x 1 OpenMP threads

MPI task timing breakdown:
Section |  min time  |  avg time  |  max time  |%varavg| %total
---------------------------------------------------------------
Pair    | 3552.8     | 3552.8     | 3552.8     |   0.0 | 64.90
Bond    | 0.60035    | 0.60035    | 0.60035    |   0.0 |  0.01
Kspace  | 978.35     | 978.35     | 978.35     |   0.0 | 17.87
Neigh   | 239.11     | 239.11     | 239.11     |   0.0 |  4.37
Comm    | 61.142     | 61.142     | 61.142     |   0.0 |  1.12
Output  | 0.018069   | 0.018069   | 0.018069   |   0.0 |  0.00
Modify  | 608.16     | 608.16     | 608.16     |   0.0 | 11.11
Other   |            | 33.7       |            |       |  0.62

Nlocal:           4912 ave        4912 max        4912 min
Histogram: 1 0 0 0 0 0 0 0 0 0
Nghost:          16948 ave       16948 max       16948 min
Histogram: 1 0 0 0 0 0 0 0 0 0
Neighs:    1.68601e+06 ave 1.68601e+06 max 1.68601e+06 min
Histogram: 1 0 0 0 0 0 0 0 0 0

Total # of neighbors = 1686008
Ave neighs/atom = 343.24267
Ave special neighs/atom = 1.8322476
Neighbor list builds = 2534
Dangerous builds = 0
RESULT density_g_cm3 1.24541255372197
PPPM initialization ...
  using 12-bit tables for long-range coulomb
  G vector (1/distance) = 0.3040877
  grid = 32 32 32
  stencil order = 5
  estimated absolute RMS force accuracy = 0.0033764206
  estimated relative force accuracy = 1.016799e-05
  using double precision FFTW3
  3d grid and FFT values/proc = 59319 32768
Generated 6 of 6 mixed pair_coeff terms from geometric mixing rule
Setting up Verlet run ...
  Unit style    : real
  Current step  : 0
  Time step     : 1
Per MPI rank memory allocation (min/avg/max) = 29.92 | 29.92 | 29.92 Mbytes
   Step          Temp          Press         Density         PotEng         Volume    
         0   336.61211     -516.84851      1.2383909     -43027.599      51732.218    
      5000   336.393       -211.76798      1.2383909     -42956.497      51732.218    
     10000   332.10454     -89.441265      1.2383909     -43068.891      51732.218    
     15000   331.25896      136.0033       1.2383909     -42867.442      51732.218    
     20000   336.66937      92.131233      1.2383909     -42982.135      51732.218    
     25000   337.80101      51.658225      1.2383909     -42880.197      51732.218    
     30000   335.47724      249.75372      1.2383909     -43009.928      51732.218    
     35000   341.14261      134.24276      1.2383909     -43001.161      51732.218    
     40000   336.56242     -461.42589      1.2383909     -42992.597      51732.218    
     45000   324.1441      -186.53191      1.2383909     -42865.557      51732.218    
     50000   344.39013      195.19112      1.2383909     -42830.341      51732.218    
     55000   336.07134     -1107.3475      1.2383909     -42974.245      51732.218    
     60000   332.61157      262.45201      1.2383909     -42913.814      51732.218    
     65000   335.03881     -107.73718      1.2383909     -42931.943      51732.218    
     70000   333.69754     -266.04998      1.2383909     -43078.315      51732.218    
     75000   325.06159      158.52128      1.2383909     -42959.725      51732.218    
     80000   334.7837      -337.74644      1.2383909     -42953.449 