LAMMPS (22 Jul 2025 - Update 5)
  using 1 OpenMP thread(s) per MPI task
Reading data file ...
  orthogonal box = (0 0 0) to (36.329424 36.329424 36.329424)
  1 by 1 by 1 MPI processor grid
  reading atoms ...
  4740 atoms
  scanning bonds ...
  2 = max bonds/atom
  scanning angles ...
  1 = max angles/atom
  orthogonal box = (0 0 0) to (36.329424 36.329424 36.329424)
  1 by 1 by 1 MPI processor grid
  reading bonds ...
  3000 bonds
  reading angles ...
  1500 angles
Finding 1-2 1-3 1-4 neighbors ...
  special bond factors lj:    0        0        0       
  special bond factors coul:  0        0        0       
     2 = max # of 1-2 neighbors
     1 = max # of 1-3 neighbors
     1 = max # of 1-4 neighbors
     2 = max # of special neighbors
  special bonds CPU = 0.003 seconds
  read_data CPU = 0.069 seconds
Setting atom values ...
  120 settings made for charge
Setting atom values ...
  120 settings made for charge
4500 atoms in group watr
120 atoms in group kion
120 atoms in group ohion
240 atoms in group ions
Finding SHAKE clusters ...
       0 = # of size 2 clusters
       0 = # of size 3 clusters
       0 = # of size 4 clusters
    1500 = # of frozen angles
  find clusters CPU = 0.002 seconds
PPPM initialization ...
  using 12-bit tables for long-range coulomb
  G vector (1/distance) = 0.30117939
  grid = 30 30 30
  stencil order = 5
  estimated absolute RMS force accuracy = 0.0040089904
  estimated relative force accuracy = 1.2072955e-05
  using double precision FFTW3
  3d grid and FFT values/proc = 50653 27000
Generated 6 of 6 mixed pair_coeff terms from geometric mixing rule
WARNING: Should not use fix nve/limit with fix shake or fix rattle (src/lammps/src/fix_nve_limit.cpp:76)
Neighbor list info ...
  update: every = 1 steps, delay = 0 steps, check = yes
  max neighbors/atom: 2000, page size: 100000
  master list distance cutoff = 12
  ghost atom cutoff = 12
  binsize = 6, bins = 7 7 7
  1 neighbor lists, perpetual/occasional/extra = 1 0 0
  (1) pair lj/cut/coul/long, perpetual
      attributes: half, newton on
      pair build: half/bin/newton
      stencil: half/bin/3d
      bin: standard
Setting up Verlet run ...
  Unit style    : real
  Current step  : 0
  Time step     : 0.2
Per MPI rank memory allocation (min/avg/max) = 26.83 | 26.83 | 26.83 Mbytes
   Step          Temp          Press         Density         PotEng         Volume    
         0   298            39700.168      1.1690128      2908.75        47948.556    
       500   588.22638      10380.807      1.1690128     -26349.392      47948.556    
      1000   355.7752       82.173102      1.1690128     -29401.998      47948.556    
      1500   318.93556      783.84469      1.1690128     -30437.385      47948.556    
      2000   308.6591      -958.26586      1.1690128     -30824.913      47948.556    
      2500   303.17208      372.33967      1.1690128     -31170.785      47948.556    
      3000   305.43798      1149.6796      1.1690128     -31340.028      47948.556    
      3500   295.94107      445.10079      1.1690128     -31451.772      47948.556    
      4000   304.38895      713.73905      1.1690128     -31572.418      47948.556    
      4500   307.46022     -264.455        1.1690128     -31614.62       47948.556    
      5000   298.27385      1099.6229      1.1690128     -31610.001      47948.556    
      5500   301.05743     -762.49888      1.1690128     -31703.146      47948.556    
      6000   299.87619     -582.52124      1.1690128     -31717.712      47948.556    
      6500   302.55517     -690.24921      1.1690128     -31795.28       47948.556    
      7000   300.5592       763.75163      1.1690128     -31853.981      47948.556    
      7500   303.62347      967.86063      1.1690128     -31847.194      47948.556    
      8000   299.5306       621.34294      1.1690128     -31945.989      47948.556    
      8500   301.19923      19.576318      1.1690128     -31972.148      47948.556    
      9000   300.8435      -249.23312      1.1690128     -32010.034      47948.556    
      9500   298.84074      605.71493      1.1690128     -31992.548      47948.556    
     10000   299.53905      982.20581      1.1690128     -32024.878      47948.556    
     10500   294.45521     -332.06856      1.1690128     -32092.25       47948.556    
     11000   297.21104      718.8945       1.1690128     -32058.997      47948.556    
     11500   297.64354      248.28019      1.1690128     -32112.926      47948.556    
     12000   298.73364     -238.81993      1.1690128     -32125.92       47948.556    
     12500   299.51659      181.17096      1.1690128     -32165.64       47948.556    
     13000   298.49891      200.75749      1.1690128     -32223.096      47948.556    
     13500   300.02283     -407.84999      1.1690128     -32213.917      47948.556    
     14000   302.97175      465.82292      1.1690128     -32215.162      47948.556    
     14500   301.66419      1716.6189      1.1690128     -32165.025      47948.556    
     15000   306.46343     -719.09305      1.1690128     -32268.251      47948.556    
     15500   295.62831      275.13387      1.1690128     -32256.749      47948.556    
     16000   309.99947     -828.67634      1.1690128     -32336.346      47948.556    
     16500   301.00618     -775.95363      1.1690128     -32234.285      47948.556    
     17000   303.66103      1041.6573      1.1690128     -32312.907      47948.556    
     17500   296.58032     -492.34495      1.1690128     -32296.598      47948.556    
     18000   298.78347     -427.53454      1.1690128     -32396.002      47948.556    
     18500   294.75073      517.1712       1.1690128     -32401.258      47948.556    
     19000   293.46084      584.28572      1.1690128     -32383.558      47948.556    
     19500   295.23559      316.24299      1.1690128     -32387.661      47948.556    
     20000   294.20024      673.67465      1.1690128     -32403.097      47948.556    
Loop time of 1654.84 on 1 procs for 20000 steps with 4740 atoms

Performance: 0.209 ns/day, 114.920 hours/ns, 12.086 timesteps/s, 57.286 katom-step/s
64.4% CPU use with 1 MPI tasks x 1 OpenMP threads

MPI task timing breakdown:
Section |  min time  |  avg time  |  max time  |%varavg| %total
---------------------------------------------------------------
Pair    | 1292.5     | 1292.5     | 1292.5     |   0.0 | 78.10
Bond    | 0.16792    | 0.16792    | 0.16792    |   0.0 |  0.01
Kspace  | 271.76     | 271.76     | 271.76     |   0.0 | 16.42
Neigh   | 16.416     | 16.416     | 16.416     |   0.0 |  0.99
Comm    | 20.789     | 20.789     | 20.789     |   0.0 |  1.26
Output  | 0.011044   | 0.011044   | 0.011044   |   0.0 |  0.00
Modify  | 46.125     | 46.125     | 46.125     |   0.0 |  2.79
Other   |            | 7.093      |            |       |  0.43

Nlocal:           4740 ave        4740 max        4740 min
Histogram: 1 0 0 0 0 0 0 0 0 0
Nghost:          17158 ave       17158 max       17158 min
Histogram: 1 0 0 0 0 0 0 0 0 0
Neighs:    1.69337e+06 ave 1.69337e+06 max 1.69337e+06 min
Histogram: 1 0 0 0 0 0 0 0 0 0

Total # of neighbors = 1693372
Ave neighs/atom = 357.25148
Ave special neighs/atom = 1.8987342
Neighbor list builds = 187
Dangerous builds = 0
PPPM initialization ...
  using 12-bit tables for long-range coulomb
  G vector (1/distance) = 0.30117939
  grid = 30 30 30
  stencil order = 5
  estimated absolute RMS force accuracy = 0.0040089904
  estimated relative force accuracy = 1.2072955e-05
  using double precision FFTW3
  3d grid and FFT values/proc = 50653 27000
Generated 6 of 6 mixed pair_coeff terms from geometric mixing rule
Setting up Verlet run ...
  Unit style    : real
  Current step  : 20000
  Time step     : 0.5
Per MPI rank memory allocation (min/avg/max) = 26.83 | 26.83 | 26.83 Mbytes
   Step          Temp          Press         Density         PotEng         Volume    
     20000   294.20024      65.590884      1.1690128     -32403.097      47948.556    
     20500   304.26933      575.41062      1.1690128     -32346.72       47948.556    
     21000   299.95613     -252.23755      1.1690128     -32347.414      47948.556    
     21500   300.13901      40.908438      1.1690128     -32343.212      47948.556    
     22000   303.17585      1051.5653      1.1690128     -32277.612      47948.556    
     22500   297.14468     -480.78498      1.1690128     -32305.077      47948.556    
     23000   297.48909      142.79066      1.1690128     -32289.003      47948.556    
     23500   301.19174      50.13238       1.1690128     -32383.989      47948.556    
     24000   304.15345     -542.39847      1.1690128     -32397.359      47948.556    
     24500   296.58173     -414.73224      1.1690128     -32328.845      47948.556    
     25000   306.70171      78.610862      1.1690128     -32423.859      47948.556    
     25500   302.39481     -561.54648      1.1690128     -32448.322      47948.556    
     26000   296.5237       642.95357      1.1690128     -32334.94       47948.556    
     26500   297.29342     -311.89942      1.1690128     -32369.9        47948.556    
     27000   299.21454     -285.38701      1.1690128     -32521.967      47948.556    
     27500   297.20746     -461.73907      1.1690128     -32425.233      47948.556    
     28000   298.66194      13.646243      1.1690128     -32433.709      47948.556    
     28500   301.68083     -337.53639      1.1690128     -32478.039      47948.556    
     29000   301.76332     -726.65382      1.1690128     -32470.489      47948.556    
     29500   301.33678     -455.84269      1.1690128     -32409.787      47948.556    
     30000   305.53824      126.20118      1.1690128     -32419.557      47948.556    
     30500   300.0638      -1031.5421      1.1690128     -32464.154      47948.556    
     31000   294.55573     -282.70968      1.1690128     -32459.046      47948.556    
     31500   299.4247       233.67812      1.1690128     -32465.014      47948.556    
     32000   294.13272     -1432.8201      1.1690128     -32508.62       47948.556    
     32500   291.13469     -496.74348      1.1690128     -32491.719      47948.556    
     33000   299.06005     -576.57119      1.1690128     -32479.981      47948.556    
     33500   295.12165     -110.39606      1.1690128     -32441.614      47948.556    
     34000   294.43413     -403.05057      1.1690128     -32486.864      47948.556    
     34500   302.0019      -350.18565      1.1690128     -32467.2        47948.556    
     35000   297.91559     -134.41484      1.1690128     -32502.387      47948.556    
     35500   297.86094      779.63518      1.1690128     -32546.04       47948.556    
     36000   304.94707     -36.896994      1.1690128     -32560.465      47948.556    
     36500   297.92751     -510.37066      1.1690128     -32504.146      47948.556    
     37000   297.66041      580.69812      1.1690128     -32587.981      47948.556    
     37500   301.38001      69.839303      1.1690128     -32535.502      47948.556    
     38000   300.73958     -187.5089       1.1690128     -32437.085      47948.556    
     38500   303.6332      -558.56128      1.1690128     -32504.357      47948.556    
     39000   307.70295      78.536279      1.1690128     -32527.36       47948.556    
     39500   298.36664      197.84709      1.1690128     -32586.872      47948.556    
     40000   302.32981      181.29124      1.1690128     -32527.941      47948.556    
Loop time of 1676.62 on 1 procs for 20000 steps with 4740 atoms

Performance: 0.515 ns/day, 46.573 hours/ns, 11.929 timesteps/s, 56.542 katom-step/s
64.1% CPU use with 1 MPI tasks x 1 OpenMP threads

MPI task timing breakdown:
Section |  min time  |  avg time  |  max time  |%varavg| %total
---------------------------------------------------------------
Pair    | 1295.2     | 1295.2     | 1295.2     |   0.0 | 77.25
Bond    | 0.13064    | 0.13064    | 0.13064    |   0.0 |  0.01
Kspace  | 267.51     | 267.51     | 267.51     |   0.0 | 15.96
Neigh   | 39.56      | 39.56      | 39.56      |   0.0 |  2.36
Comm    | 21.142     | 21.142     | 21.142     |   0.0 |  1.26
Output  | 0.00543    | 0.00543    | 0.00543    |   0.0 |  0.00
Modify  | 45.82      | 45.82      | 45.82      |   0.0 |  2.73
Other   |            | 7.286      |            |       |  0.43

Nlocal:           4740 ave        4740 max        4740 min
Histogram: 1 0 0 0 0 0 0 0 0 0
Nghost:          16962 ave       16962 max       16962 min
Histogram: 1 0 0 0 0 0 0 0 0 0
Neighs:    1.69438e+06 ave 1.69438e+06 max 1.69438e+06 min
Histogram: 1 0 0 0 0 0 0 0 0 0

Total # of neighbors = 1694379
Ave neighs/atom = 357.46392
Ave special neighs/atom = 1.8987342
Neighbor list builds = 453
Dangerous builds = 0
PPPM initialization ...
  using 12-bit tables for long-range coulomb
  G vector (1/distance) = 0.30117939
  grid = 30 30 30
  stencil order = 5
  estimated absolute RMS force accuracy = 0.0040089904
  estimated relative force accuracy = 1.2072955e-05
  using double precision FFTW3
  3d grid and FFT values/proc = 50653 27000
Generated 6 of 6 mixed pair_coeff terms from geometric mixing rule
Setting up Verlet run ...
  Unit style    : real
  Current step  : 40000
  Time step     : 1
Per MPI rank memory allocation (min/avg/max) = 26.83 | 26.83 | 26.83 Mbytes
   Step          Temp          Press         Density         PotEng         Volume    
     40000   302.32981      368.44116      1.1690128     -32527.941      47948.556    
     40500   291.72157      607.94522      1.1740319     -32473.447      47743.569    
     41000   300.12563     -104.61679      1.1656343     -32415.796      48087.529    
     41500   300.00355      527.40471      1.1820797     -32454.143      47418.524    
     42000   298.78189      391.70726      1.1800871     -32508.255      47498.593    
     42500   301.19492     -273.37839      1.183714      -32554.512      47353.054    
     43000   295.45632     -153.52248      1.1786964     -32517.167      47554.633    
     43500   297.26345      173.30708      1.1838689     -32419.203      47346.858    
     44000   300.35484      413.84717      1.1808744     -32520.863      47466.923    
     44500   297.01412      188.13741      1.1817023     -32619.106      47433.669    
     45000   294.67015      105.27307      1.1855893     -32530.378      47278.156    
     45500   299.84841     -127.83727      1.1807839     -32485.044      47470.561    
     46000   296.51916      500.27787      1.1875332     -32528.397      47200.765    
     46500   303.67821     -823.71036      1.1659879     -32516.326      48072.948    
     47000   294.50867      684.71751      1.1789064     -32557.165      47546.161    
     47500   299.35041      99.99153       1.1620315     -32404.72       48236.623    
     48000   299.96689      249.71012      1.1739485     -32564.72       47746.963    
     48500   296.33676     -214.05182      1.1708258     -32530.821      47874.306    
     49000   294.49331     -193.98173      1.1730579     -32608.898      47783.213    
     49500   293.60319      443.90426      1.1831151     -32546.711      47377.025    
     50000   300.04674      634.13294      1.1921228     -32584.588      47019.044    
     50500   300.57598      208.24073      1.1778567     -32565.09       47588.533    
     51000   304.6555       527.45177      1.1879473     -32667.189      47184.311    
     51500   294.41086     -12.121649      1.1804792     -32622.241      47482.815    
     52000   293.76768     -953.66167      1.1709463     -32577.185      47869.381    
     52500   295.54275      470.72577      1.1863367     -32666.088      47248.37     
     53000   296.97893     -486.64259      1.1706893     -32624.395      47879.888    
     53500   301.64513      310.30933      1.181535      -32633.569      47440.384    
     54000   296.16522     -331.67319      1.1622811     -32552.111      48226.265    
     54500   294.39656     -269.52666      1.1661675     -32639.06       48065.544    
     55000   304.08919      265.29248      1.1648914     -32500.212      48118.198    
     55500   291.40862     -42.729435      1.1740871     -32573.392      47741.326    
     56000   291.14922      58.24328       1.1696475     -32568.271      47922.536    
     56500   297.48961     -361.58136      1.159915      -32520.737      48324.638    
     57000   297.30615      127.31569      1.172878      -32622.323      47790.541    
     57500   296.01173     -198.88901      1.1704548     -32627.664      47889.481    
     58000   302.20844     -4.8287087      1.1750847     -32575.425      47700.796    
     58500   298.50122     -463.8444       1.1746885     -32562.482      47716.884    
     59000   296.53548     -383.12408      1.1696155     -32633.153      47923.849    
     59500   288.14009      468.95155      1.1837429     -32585.762      47351.897    
     60000   299.31629     -549.64914      1.1647344     -32456.051      48124.682    
     60500   300.53717      425.99861      1.180879      -32667.591      47466.74     
     61000   304.30799     -195.82981      1.1664242     -32508.434      48054.966    
     61500   299.80377      323.39817      1.1732132     -32604.253      47776.887    
     62000   297.3674      -357.80479      1.170997      -32416.671      47867.31     
     62500   296.83345     -101.54447      1.1789121     -32577.444      47545.933    
     63000   301.09325     -417.62742      1.1738166     -32513.583      47752.327    
     63500   300.12584      232.97883      1.175403      -32602.246      47687.876    
     64000   296.52692      501.25335      1.176323      -32605.733      47650.58     
     64500   299.34438      439.74287      1.1713441     -32501.522      47853.126    
     65000   293.41561      13.895186      1.1721561     -32488.849      47819.976    
     65500   297.09571      206.54774      1.1707972     -32635.727      47875.479    
     66000   296.24673     -275.51741      1.1666002     -32589.79       48047.717    
     66500   301.66875      120.27881      1.1702221     -32449.903      47899.003    
     67000   302.05277      254.17713      1.1674705     -32541.147      48011.897    
     67500   297.34075     -81.559534      1.1727259     -32530.163      47796.74     
     68000   297.67382      445.61564      1.1736271     -32499.825      47760.037    
     68500   303.80185      528.8341       1.1754299     -32521.392      47686.786    
     69000   306.32652     -230.3183       1.1619832     -32530.532      48238.626    
     69500   301.81699     -593.67544      1.1734106     -32670.719      47768.849    
     70000   299.9972      -121.84047      1.1702422     -32450.984      47898.182    
Loop time of 3024.24 on 1 procs for 30000 steps with 4740 atoms

Performance: 0.857 ns/day, 28.002 hours/ns, 9.920 timesteps/s, 47.020 katom-step/s
64.2% CPU use with 1 MPI tasks x 1 OpenMP threads

MPI task timing breakdown:
Section |  min time  |  avg time  |  max time  |%varavg| %total
---------------------------------------------------------------
Pair    | 2082.5     | 2082.5     | 2082.5     |   0.0 | 68.86
Bond    | 0.34756    | 0.34756    | 0.34756    |   0.0 |  0.01
Kspace  | 440.29     | 440.29     | 440.29     |   0.0 | 14.56
Neigh   | 129.77     | 129.77     | 129.77     |   0.0 |  4.29
Comm    | 37.552     | 37.552     | 37.552     |   0.0 |  1.24
Output  | 0.018583   | 0.018583   | 0.018583   |   0.0 |  0.00
Modify  | 312.6      | 312.6      | 312.6      |   0.0 | 10.34
Other   |            | 21.16      |            |       |  0.70

Nlocal:           4740 ave        4740 max        4740 min
Histogram: 1 0 0 0 0 0 0 0 0 0
Nghost:          16974 ave       16974 max       16974 min
Histogram: 1 0 0 0 0 0 0 0 0 0
Neighs:    1.69515e+06 ave 1.69515e+06 max 1.69515e+06 min
Histogram: 1 0 0 0 0 0 0 0 0 0

Total # of neighbors = 1695150
Ave neighs/atom = 357.62658
Ave special neighs/atom = 1.8987342
Neighbor list builds = 1420
Dangerous builds = 0
PPPM initialization ...
  using 12-bit tables for long-range coulomb
  G vector (1/distance) = 0.30120556
  grid = 30 30 30
  stencil order = 5
  estimated absolute RMS force accuracy = 0.0040047801
  estimated relative force accuracy = 1.2060276e-05
  using double precision FFTW3
  3d grid and FFT values/proc = 50653 27000
Generated 6 of 6 mixed pair_coeff terms from geometric mixing rule
Setting up Verlet run ...
  Unit style    : real
  Current step  : 0
  Time step     : 1
Per MPI rank memory allocation (min/avg/max) = 26.83 | 26.83 | 26.83 Mbytes
   Step          Temp          Press         Density         PotEng         Volume    
         0   299.9972      -105.30918      1.1702422     -32450.984      47898.182    
       500   298.29391      46.064869      1.1802036     -32549.629      47493.902    
      1000   292.66838      524.9362       1.186324      -32661.892      47248.875    
      1500   291.22956     -36.830521      1.1749184     -32572.936      47707.548    
      2000   300.31905     -103.40151      1.1783181     -32683.369      47569.901    
      2500   293.89574      258.36976      1.1872651     -32657.002      47211.422    
      3000   294.76803     -383.53114      1.1742969     -32551.423      47732.794    
      3500   301.3107       414.02665      1.1769162     -32603.892      47626.565    
      4000   297.50011     -27.512495      1.1801812     -32582.817      47494.805    
      4500   299.45677     -522.14198      1.1718901     -32498.274      47830.827    
      5000   300.95352      567.45642      1.177837      -32481.616      47589.331    
      5500   297.96197     -317.52523      1.1695643     -32541.448      47925.945    
      6000   291.14138     -139.06464      1.1783539     -32464.657      47568.455    
      6500   296.17173     -221.88966      1.1782564     -32573.528      47572.39     
      7000   297.15265     -422.7854       1.1751361     -32470.432      47698.71     
      7500   303.82298      401.84043      1.1742784     -32486.961      47733.549    
      8000   292.46562     -276.67232      1.1760395     -32638.651      47662.07     
      8500   298.33141      187.33945      1.1757926     -32622.23       47672.076    
      9000   298.71829     -685.89779      1.1715123     -32530.486      47846.254    
      9500   289.83787     -238.57063      1.1749438     -32495.781      47706.514    
     10000   293.46204      293.53863      1.1786037     -32534.476      47558.373    
     10500   300.17685     -670.58381      1.1756417     -32538.027      47678.193    
     11000   298.64938     -43.275767      1.1755249     -32562.09       47682.931    
     11500   287.44176      406.79601      1.1746032     -32642.432      47720.348    
     12000   295.76449     -300.52917      1.1736064     -32468.662      47760.88     
     12500   298.9812      -169.95201      1.1792965     -32625.945      47530.432    
     13000   295.37237      231.8805       1.179175      -32513.93       47535.332    
     13500   297.5455      -174.81059      1.1803682     -32598.828      47487.281    
     14000   301.43379      98.920489      1.1744901     -32638.256      47724.945    
     14500   302.88586      279.69426      1.1722455     -32530.289      47816.327    
     15000   296.0578       255.36495      1.1728443     -32520.166      47791.914    
     15500   303.90499      8.064076       1.1725931     -32687.594      47802.152    
     16000   295.08963     -590.20767      1.1691861     -32604.692      47941.448    
     16500   295.41136      384.83208      1.1711303     -32635.325      47861.859    
     17000   305.48002      599.65938      1.1761881     -32601.222      47656.047    
     17500   301.73781      200.18965      1.1716814     -32562.459      47839.347    
     18000   291.50181      6.7085863      1.1841885     -32640.272      47334.081    
     18500   294.38444     -891.7016       1.1684004     -32628.235      47973.685    
     19000   294.45753      163.40923      1.1668582     -32494.508      48037.091    
     19500   298.17872      382.03485      1.1794952     -32484.941      47522.427    
     20000   294.6185       253.0509       1.172235      -32461.483      47816.756    
     20500   301.9418      -45.599065      1.164344      -32532.133      48140.818    
     21000   300.172       -585.4996       1.1658762     -32482.251      48077.554    
     21500   288.41193      54.536075      1.1761253     -32570.746      47658.59     
     22000   303.79113     -184.04671      1.1702131     -32471.502      47899.373    
     22500   302.41626      802.35633      1.1730023     -32528.365      47785.476    
     23000   290.86321     -41.413469      1.1625406     -32456.713      48215.497    
     23500   295.60587     -99.24005       1.1659616     -32579.186      48074.03     
     24000   303.64977      444.29823      1.171833      -32495.63       47833.16     
     24500   303.7207       339.34568      1.1664428     -32551.766      48054.2      
     25000   298.94865      447.21301      1.1727899     -32592.23       47794.131    
     25500   302.70903      510.90304      1.1731022     -32494.895      47781.409    
     26000   299.14153     -365.46822      1.1682035     -32470.298      47981.773    
     26500   297.51496      390.50087      1.1680415     -32582.119      47988.429    
     27000   291.30198      672.84043      1.1700043     -32551.193      47907.922    
     27500   295.17709     -193.68578      1.1598226     -32503.069      48328.49     
     28000   297.4476      -679.73535      1.1645979     -32558.941      48130.322    
     28500   297.07809      883.15008      1.187405      -32693.421      47205.86     
     29000   301.37609     -1014.154       1.1705301     -32523.777      47886.403    
     29500   299.76231      411.76889      1.1774109     -32639.697      47606.552    
     30000   290.73121      298.46967      1.1724516     -32540.832      47807.923    
     30500   298.44099     -94.671381      1.1748494     -32523.224      47710.349    
     31000   297.32269     -6.0061321      1.1731114     -32625.667      47781.033    
     31500   294.15638     -298.31685      1.1785436     -32679.495      47560.799    
     32000   296.4411      -266.51536      1.1790986     -32583.764      47538.41     
     32500   297.8441      -416.405        1.1685043     -32677.559      47969.422    
     33000   297.37326      606.07105      1.1840942     -32491.366      47337.852    
     33500   294.91306      204.64828      1.1787769     -32502.25       47551.383    
     34000   289.24803     -294.50985      1.1736915     -32544.469      47757.417    
     34500   289.71495     -247.51445      1.1769331     -32520.31       47625.88     
     35000   295.33803     -514.756        1.1701783     -32541.769      47900.798    
     35500   297.43589     -587.51453      1.1756092     -32641.786      47679.513    
     36000   294.8745       242.70899      1.1765262     -32513.541      47642.351    
     36500   296.31184      700.27596      1.1784629     -32593.01       47564.057    
     37000   302.57455      267.10166      1.179662      -32535.059      47515.709    
     37500   299.4536      -519.89449      1.1714704     -32575.104      47847.965    
     38000   305.50069     -337.78311      1.1706586     -32548.618      47881.144    
     38500   294.19723      368.76895      1.1729339     -32477.158      47788.263    
     39000   306.00695      539.78802      1.1739078     -32563.808      47748.618    
     39500   295.6891      -380.42092      1.1675562     -32565.238      48008.373    
     40000   299.30877     -604.16153      1.1760936     -32488.168      47659.876    
     40500   299.93022     -429.84803      1.1674825     -32518.484      48011.403    
     41000   295.49377      180.8269       1.1687371     -32608.989      47959.866    
     41500   295.91697     -4.6127426      1.1762399     -32481.277      47653.949    
     42000   304.94079     -1156.3514      1.1609734     -32410.362      48280.583    
     42500   302.85412     -196.74877      1.1747731     -32551.802      47713.449    
     43000   305.25553      73.593169      1.1643073     -32420.414      48142.335    
     43500   297.30217     -243.65174      1.1689041     -32444.161      47953.014    
     44000   297.31439      124.70041      1.1735714     -32537.954      47762.305    
     44500   294.32796     -510.52425      1.1691493     -32547.956      47942.957    
     45000   295.82553     -427.42909      1.17257       -32519.379      47803.093    
     45500   289.34693      0.11888366     1.1756535     -32466.346      47677.716    
     46000   300.01682      288.84266      1.1748121     -32563.384      47711.865    
     46500   297.29851      264.36525      1.1777073     -32491.154      47594.573    
     47000   299.87955      821.87406      1.1848109     -32538.076      47309.216    
     47500   303.4461       44.617128      1.1724492     -32606.999      47808.019    
     48000   297.58884      312.954        1.1673274     -32515.68       48017.785    
     48500   295.94333      470.30898      1.174839      -32588.86       47710.77     
     49000   294.87492     -475.4594       1.1701757     -32544.238      47900.905    
     49500   298.24383     -90.217415      1.1653185     -32431.096      48100.563    
     50000   299.18621      403.49351      1.1662785     -32542.175      48060.968    
Loop time of 5182.29 on 1 procs for 50000 steps with 4740 atoms

Performance: 0.834 ns/day, 28.790 hours/ns, 9.648 timesteps/s, 45.733 katom-step/s
63.4% CPU use with 1 MPI tasks x 1 OpenMP threads

MPI task timing breakdown:
Section |  min time  |  avg time  |  max time  |%varavg| %total
---------------------------------------------------------------
Pair    | 3608.7     | 3608.7     | 3608.7     |   0.0 | 69.63
Bond    | 0.73785    | 0.73785    | 0.73785    |   0.0 |  0.01
Kspace  | 739.94     | 739.94     | 739.94     |   0.0 | 14.28
Neigh   | 215.35     | 215.35     | 215.35     |   0.0 |  4.16
Comm    | 64.447     | 64.447     | 64.447     |   0.0 |  1.24
Output  | 0.018109   | 0.018109   | 0.018109   |   0.0 |  0.00
Modify  | 517.06     | 517.06     | 517.06     |   0.0 |  9.98
Other   |            | 36.08      |            |       |  0.70

Nlocal:           4740 ave        4740 max        4740 min
Histogram: 1 0 0 0 0 0 0 0 0 0
Nghost:          17064 ave       17064 max       17064 min
Histogram: 1 0 0 0 0 0 0 0 0 0
Neighs:    1.68916e+06 ave 1.68916e+06 max 1.68916e+06 min
Histogram: 1 0 0 0 0 0 0 0 0 0

Total # of neighbors = 1689157
Ave neighs/atom = 356.36224
Ave special neighs/atom = 1.8987342
Neighbor list builds = 2355
Dangerous builds = 0
RESULT density_g_cm3 1.17156995375288
PPPM initialization ...
  using 12-bit tables for long-range coulomb
  G vector (1/distance) = 0.3011211
  grid = 30 30 30
  stencil order = 5
  estimated absolute RMS force accuracy = 0.004018386
  estimated relative force accuracy = 1.210125e-05
  using double precision FFTW3
  3d grid and FFT values/proc = 50653 27000
Generated 6 of 6 mixed pair_coeff terms from geometric mixing rule
Setting up Verlet run ...
  Unit style    : real
  Current step  : 0
  Time step     : 1
Per MPI rank memory allocation (min/avg/max) = 29.08 | 29.08 | 29.08 Mbytes
   Step          Temp          Press         Density         PotEng         Volume    
         0   299.18621      308.42753      1.1662785     -32542.175      48060.968    
      5000   298.62041     -328.91485      1.1662785     -32512.187      48060.968    
     10000   302.72347      242.91214      1.1662785     -32432.623      48060.968    
     15000   299.82748      124.15703      1.1662785     -32386.738      48060.968    
     20000   296.53403     -175.6418       1.1662785     -32542.607      48060.968    
     25000   302.7094      -572.45989      1.1662785     -32550.209      48060.968    
     30000   298.23434      398.19309      1.1662785     -32490.603      48060.968    
     35000   296.73975     -55.090224      1.1662785     -32551.044      48060.968    
     40000   303.7889      -249.12571      1.1662785     -32613.717      48060.968    
     45000   298.98048     -197.30207      1.1662785     -32502.749      48060.968    
     50000   307.04223     -651.25181      1.1662785     -32519.583      48060.968    
     55000   293.08334      373.41505      1.1662785     -32455.901      48060.968    
     60000   292.9271       173.14902      1.1662785     -32448.213      48060.968    
     65000   290.18347      223.734        1.1662785     -32604.706      48060.968    
     70000   303.23274      579.35297      1.1662785     -32423.384      48060.968    
     75000   293.45027      43.602514      1.1662785     -32508.802      48060.968    
     80000   301.05983     -598.39628      1.1662785     -32450.266      48060.968    
     85000   296.38349     -228.97165      1.1662785     -32573.164      48060.968    
     90000   301.01197     -633.02971      1.1662785     -32530.458      48060.968    
     95000   301.07101     -470.17133      1.1662785     -32450.675      48060.968    
    100000   295.43423     -383.6883       1.1662785     -32512.853      48060.968    
    105000   297.20226     -256.90394      1.1662785     -32511.027      48060.968    
    110000   298.14831     -162.76491      1.1662785     -32561.524      48060.968    
    115000   291.93325     -523.92126      1.1662785     -32487.433      48060.968    
    120000   299.91054     -301.23062      1.1662785     -32604.585      48060.968    
    125000   302.37363     -85.919958      1.1662785     -32385.623      48060.968    
    130000   298.37971     -459.98983      1.1662785     -32520.759      48060.968    
    135000   297.30978      211.21985      1.1662785     -32438.028      48060.968    
    140000   293.61292     -340.3722       1.1662785     -32459.879      48060.968    
    145000   295.48276     -47.285017      1.1662785     -32555.279      48060.968    
    150000   289.42586     -540.72431      1.1662785     -32477.245      48060.968    
    155000   290.97269     -714.94905      1.1662785     -32636.928      48060.968    
    160000   294.80831     -249.54138      1.1662785     -32529.133      48060.968    
    165000   300.03059     -681.00874      1.1662785     -32689.893      48060.968    
    170000   287.74305     -164.42397      1.1662785     -32547.118      48060.968    
    175000   293.55786     -627.30467      1.1662785     -32599.762      48060.968    
    180000   298.96176     -814.36288      1.1662785     -32466.812      48060.968    
    185000   301.9673      -254.14197      1.1662785     -32538.032      48060.968    
    190000   290.41071     -569.93009      1.1662785     -32602.205      48060.968    
    195000   299.89914     -81.753817      1.1662785     -32570.589      48060.968    
    200000   299.71046     -131.05969      1.1662785     -32448.194      48060.968    
Loop time of 24292.2 on 1 procs for 200000 steps with 4740 atoms

Performance: 0.711 ns/day, 33.739 hours/ns, 8.233 timesteps/s, 39.025 katom-step/s
63.6% CPU use with 1 MPI tasks x 1 OpenMP threads

MPI task timing breakdown:
Section |  min time  |  avg time  |  max time  |%varavg| %total
---------------------------------------------------------------
Pair    | 19667      | 19667      | 19667      |   0.0 | 80.96
Bond    | 2.6144     | 2.6144     | 2.6144     |   0.0 |  0.01
Kspace  | 2944.1     | 2944.1     | 2944.1     |   0.0 | 12.12
Neigh   | 851.77     | 851.77     | 851.77     |   0.0 |  3.51
Comm    | 218.37     | 218.37     | 218.37     |   0.0 |  0.90
Output  | 0.54639    | 0.54639    | 0.54639    |   0.0 |  0.00
Modify  | 535.44     | 535.44     | 535.44     |   0.0 |  2.20
Other   |            | 72.01      |            |       |  0.30

Nlocal:           4740 ave        4740 max        4740 min
Histogram: 1 0 0 0 0 0 0 0 0 0
Nghost:          16945 ave       16945 max       16945 min
Histogram: 1 0 0 0 0 0 0 0 0 0
Neighs:    1.68986e+06 ave 1.68986e+06 max 1.68986e+06 min
Histogram: 1 0 0 0 0 0 0 0 0 0

Total # of neighbors = 1689855
Ave neighs/atom = 356.50949
Ave special neighs/atom = 1.8987342
Neighbor list builds = 9342
Dangerous builds = 0
DONE koh20_s2_298
Total wall time: 9:57:11
