LAMMPS (22 Jul 2025 - Update 5)
  using 1 OpenMP thread(s) per MPI task
Reading data file ...
  orthogonal box = (0 0 0) to (36.329424 36.329424 36.329424)
  1 by 1 by 1 MPI processor grid
  reading atoms ...
  4740 atoms
  scanning bonds ...
  2 = max bonds/atom
  scanning angles ...
  1 = max angles/atom
  orthogonal box = (0 0 0) to (36.329424 36.329424 36.329424)
  1 by 1 by 1 MPI processor grid
  reading bonds ...
  3000 bonds
  reading angles ...
  1500 angles
Finding 1-2 1-3 1-4 neighbors ...
  special bond factors lj:    0        0        0       
  special bond factors coul:  0        0        0       
     2 = max # of 1-2 neighbors
     1 = max # of 1-3 neighbors
     1 = max # of 1-4 neighbors
     2 = max # of special neighbors
  special bonds CPU = 0.002 seconds
  read_data CPU = 0.057 seconds
Setting atom values ...
  120 settings made for charge
Setting atom values ...
  120 settings made for charge
4500 atoms in group watr
120 atoms in group kion
120 atoms in group ohion
240 atoms in group ions
Finding SHAKE clusters ...
       0 = # of size 2 clusters
       0 = # of size 3 clusters
       0 = # of size 4 clusters
    1500 = # of frozen angles
  find clusters CPU = 0.002 seconds
PPPM initialization ...
  using 12-bit tables for long-range coulomb
  G vector (1/distance) = 0.30117939
  grid = 30 30 30
  stencil order = 5
  estimated absolute RMS force accuracy = 0.0040089904
  estimated relative force accuracy = 1.2072955e-05
  using double precision FFTW3
  3d grid and FFT values/proc = 50653 27000
Generated 6 of 6 mixed pair_coeff terms from geometric mixing rule
WARNING: Should not use fix nve/limit with fix shake or fix rattle (src/lammps/src/fix_nve_limit.cpp:76)
Neighbor list info ...
  update: every = 1 steps, delay = 0 steps, check = yes
  max neighbors/atom: 2000, page size: 100000
  master list distance cutoff = 12
  ghost atom cutoff = 12
  binsize = 6, bins = 7 7 7
  1 neighbor lists, perpetual/occasional/extra = 1 0 0
  (1) pair lj/cut/coul/long, perpetual
      attributes: half, newton on
      pair build: half/bin/newton
      stencil: half/bin/3d
      bin: standard
Setting up Verlet run ...
  Unit style    : real
  Current step  : 0
  Time step     : 0.2
Per MPI rank memory allocation (min/avg/max) = 26.82 | 26.82 | 26.82 Mbytes
   Step          Temp          Press         Density         PotEng         Volume    
         0   333            45071.323      1.1690128      2258.4711      47948.556    
       500   606.2453       9853.012       1.1690128     -25870.517      47948.556    
      1000   390.25388      1045.502       1.1690128     -29163.419      47948.556    
      1500   355.8518       373.86154      1.1690128     -30161.957      47948.556    
      2000   341.3418      -212.13443      1.1690128     -30585.122      47948.556    
      2500   337.28973     -339.76894      1.1690128     -30782.324      47948.556    
      3000   336.52729     -40.62518       1.1690128     -30924.949      47948.556    
      3500   337.99662      894.90512      1.1690128     -31072.09       47948.556    
      4000   336.08715      2323.6896      1.1690128     -31188.716      47948.556    
      4500   345.1931      -464.09659      1.1690128     -31210.035      47948.556    
      5000   340.18318     -1318.1344      1.1690128     -31288.804      47948.556    
      5500   331.06665      238.21007      1.1690128     -31331.843      47948.556    
      6000   339.86457      715.73924      1.1690128     -31406.328      47948.556    
      6500   331.38961      795.40287      1.1690128     -31388.461      47948.556    
      7000   333.40222     -196.06441      1.1690128     -31431.389      47948.556    
      7500   332.21676     -21.755908      1.1690128     -31436.871      47948.556    
      8000   333.4147       67.245828      1.1690128     -31517.558      47948.556    
      8500   336.47387     -76.097584      1.1690128     -31466.321      47948.556    
      9000   337.74927      1374.7217      1.1690128     -31566.158      47948.556    
      9500   331.65071     -699.13052      1.1690128     -31562.05       47948.556    
     10000   329.45381      1106.89        1.1690128     -31612.83       47948.556    
     10500   344.13261     -699.91019      1.1690128     -31637.688      47948.556    
     11000   338.29631      2389.7036      1.1690128     -31607.514      47948.556    
     11500   338.12358      906.88678      1.1690128     -31613.32       47948.556    
     12000   333.71606      1008.1338      1.1690128     -31592.267      47948.556    
     12500   328.45885      829.94714      1.1690128     -31618.236      47948.556    
     13000   336.26065     -904.5395       1.1690128     -31694.548      47948.556    
     13500   331.89995     -2305.2595      1.1690128     -31749.567      47948.556    
     14000   338.53472      749.35882      1.1690128     -31682.52       47948.556    
     14500   343.10715     -397.37336      1.1690128     -31635.961      47948.556    
     15000   335.67438      1845.5465      1.1690128     -31629.475      47948.556    
     15500   333.28563     -774.44982      1.1690128     -31802.751      47948.556    
     16000   329.96221     -70.733006      1.1690128     -31728.998      47948.556    
     16500   330.82675     -530.18991      1.1690128     -31737.421      47948.556    
     17000   334.55284     -3.0878134      1.1690128     -31774.071      47948.556    
     17500   330.44957     -910.48888      1.1690128     -31755.24       47948.556    
     18000   336.67824      349.80929      1.1690128     -31733.681      47948.556    
     18500   334.74598      1004.9653      1.1690128     -31753.84       47948.556    
     19000   330.11638      2037.7834      1.1690128     -31718.434      47948.556    
     19500   326.84285      130.79608      1.1690128     -31750.988      47948.556    
     20000   333.36031      2043.1186      1.1690128     -31705.897      47948.556    
Loop time of 1645.26 on 1 procs for 20000 steps with 4740 atoms

Performance: 0.210 ns/day, 114.254 hours/ns, 12.156 timesteps/s, 57.620 katom-step/s
63.6% CPU use with 1 MPI tasks x 1 OpenMP threads

MPI task timing breakdown:
Section |  min time  |  avg time  |  max time  |%varavg| %total
---------------------------------------------------------------
Pair    | 1284.1     | 1284.1     | 1284.1     |   0.0 | 78.05
Bond    | 0.13521    | 0.13521    | 0.13521    |   0.0 |  0.01
Kspace  | 270.79     | 270.79     | 270.79     |   0.0 | 16.46
Neigh   | 17.747     | 17.747     | 17.747     |   0.0 |  1.08
Comm    | 20.427     | 20.427     | 20.427     |   0.0 |  1.24
Output  | 0.0096626  | 0.0096626  | 0.0096626  |   0.0 |  0.00
Modify  | 45.221     | 45.221     | 45.221     |   0.0 |  2.75
Other   |            | 6.86       |            |       |  0.42

Nlocal:           4740 ave        4740 max        4740 min
Histogram: 1 0 0 0 0 0 0 0 0 0
Nghost:          17087 ave       17087 max       17087 min
Histogram: 1 0 0 0 0 0 0 0 0 0
Neighs:    1.69439e+06 ave 1.69439e+06 max 1.69439e+06 min
Histogram: 1 0 0 0 0 0 0 0 0 0

Total # of neighbors = 1694390
Ave neighs/atom = 357.46624
Ave special neighs/atom = 1.8987342
Neighbor list builds = 202
Dangerous builds = 0
PPPM initialization ...
  using 12-bit tables for long-range coulomb
  G vector (1/distance) = 0.30117939
  grid = 30 30 30
  stencil order = 5
  estimated absolute RMS force accuracy = 0.0040089904
  estimated relative force accuracy = 1.2072955e-05
  using double precision FFTW3
  3d grid and FFT values/proc = 50653 27000
Generated 6 of 6 mixed pair_coeff terms from geometric mixing rule
Setting up Verlet run ...
  Unit style    : real
  Current step  : 20000
  Time step     : 0.5
Per MPI rank memory allocation (min/avg/max) = 26.82 | 26.82 | 26.82 Mbytes
   Step          Temp          Press         Density         PotEng         Volume    
     20000   333.36031      1133.9283      1.1690128     -31705.897      47948.556    
     20500   339.45524      616.06706      1.1690128     -31721.04       47948.556    
     21000   343.09027      1547.5203      1.1690128     -31679.026      47948.556    
     21500   339.46059     -178.23076      1.1690128     -31810.064      47948.556    
     22000   333.49624      260.5886       1.1690128     -31821.275      47948.556    
     22500   331.69487      1125.4395      1.1690128     -31838.799      47948.556    
     23000   333.15503      858.48657      1.1690128     -31775.514      47948.556    
     23500   341.54707      1265.9668      1.1690128     -31599.306      47948.556    
     24000   336.31878      330.01674      1.1690128     -31697.495      47948.556    
     24500   339.99036      1968.504       1.1690128     -31699.858      47948.556    
     25000   341.0065      -32.543201      1.1690128     -31858.218      47948.556    
     25500   334.94739     -276.58443      1.1690128     -31836.933      47948.556    
     26000   331.72957      496.89298      1.1690128     -31817.963      47948.556    
     26500   324.98979      490.17398      1.1690128     -31831.291      47948.556    
     27000   344.77372      616.79452      1.1690128     -31804.124      47948.556    
     27500   337.82679      1406.1996      1.1690128     -31806.259      47948.556    
     28000   330.38658      1231.6368      1.1690128     -31825.033      47948.556    
     28500   346.03167      1087.1091      1.1690128     -31928.428      47948.556    
     29000   338.98585      709.57153      1.1690128     -31893.346      47948.556    
     29500   331.77619      634.58244      1.1690128     -31857.029      47948.556    
     30000   343.94304      813.39553      1.1690128     -31943.075      47948.556    
     30500   340.61824      640.46777      1.1690128     -31933.863      47948.556    
     31000   328.40894      350.89353      1.1690128     -31837.501      47948.556    
     31500   336.42009     -1148.7135      1.1690128     -31861.725      47948.556    
     32000   330.74347     -353.17185      1.1690128     -31967.994      47948.556    
     32500   336.38698      566.0391       1.1690128     -31828.027      47948.556    
     33000   339.47534      800.49086      1.1690128     -31920.102      47948.556    
     33500   336.97438      100.4162       1.1690128     -31935.982      47948.556    
     34000   339.26755      1494.4537      1.1690128     -31786.372      47948.556    
     34500   333.31092      718.49343      1.1690128     -31820.493      47948.556    
     35000   332.85307      250.64587      1.1690128     -31856.323      47948.556    
     35500   330.83995      1467.4556      1.1690128     -31849.514      47948.556    
     36000   335.95116      1186.4692      1.1690128     -31838.938      47948.556    
     36500   335.65249      71.278661      1.1690128     -31742.011      47948.556    
     37000   324.8828       355.88         1.1690128     -31820.157      47948.556    
     37500   338.70392     -196.24476      1.1690128     -31792.284      47948.556    
     38000   339.09283      1040.249       1.1690128     -31750.795      47948.556    
     38500   340.07215      638.55434      1.1690128     -31739.595      47948.556    
     39000   337.49549      140.80843      1.1690128     -31842.344      47948.556    
     39500   335.4793       111.16716      1.1690128     -31829.84       47948.556    
     40000   333.27747      1165.6455      1.1690128     -31695.69       47948.556    
Loop time of 1681.53 on 1 procs for 20000 steps with 4740 atoms

Performance: 0.514 ns/day, 46.709 hours/ns, 11.894 timesteps/s, 56.377 katom-step/s
64.3% CPU use with 1 MPI tasks x 1 OpenMP threads

MPI task timing breakdown:
Section |  min time  |  avg time  |  max time  |%varavg| %total
---------------------------------------------------------------
Pair    | 1295.2     | 1295.2     | 1295.2     |   0.0 | 77.02
Bond    | 0.15779    | 0.15779    | 0.15779    |   0.0 |  0.01
Kspace  | 268.57     | 268.57     | 268.57     |   0.0 | 15.97
Neigh   | 43.938     | 43.938     | 43.938     |   0.0 |  2.61
Comm    | 20.736     | 20.736     | 20.736     |   0.0 |  1.23
Output  | 0.0054042  | 0.0054042  | 0.0054042  |   0.0 |  0.00
Modify  | 45.973     | 45.973     | 45.973     |   0.0 |  2.73
Other   |            | 6.966      |            |       |  0.41

Nlocal:           4740 ave        4740 max        4740 min
Histogram: 1 0 0 0 0 0 0 0 0 0
Nghost:          17038 ave       17038 max       17038 min
Histogram: 1 0 0 0 0 0 0 0 0 0
Neighs:     1.6934e+06 ave  1.6934e+06 max  1.6934e+06 min
Histogram: 1 0 0 0 0 0 0 0 0 0

Total # of neighbors = 1693402
Ave neighs/atom = 357.25781
Ave special neighs/atom = 1.8987342
Neighbor list builds = 499
Dangerous builds = 0
PPPM initialization ...
  using 12-bit tables for long-range coulomb
  G vector (1/distance) = 0.30117939
  grid = 30 30 30
  stencil order = 5
  estimated absolute RMS force accuracy = 0.0040089904
  estimated relative force accuracy = 1.2072955e-05
  using double precision FFTW3
  3d grid and FFT values/proc = 50653 27000
Generated 6 of 6 mixed pair_coeff terms from geometric mixing rule
Setting up Verlet run ...
  Unit style    : real
  Current step  : 40000
  Time step     : 1
Per MPI rank memory allocation (min/avg/max) = 26.82 | 26.82 | 26.82 Mbytes
   Step          Temp          Press         Density         PotEng         Volume    
     40000   333.27747      662.96007      1.1690128     -31695.69       47948.556    
     40500   333.32033     -702.70008      1.153656      -31793.831      48586.818    
     41000   339.13007      651.8865       1.16716       -31754.615      48024.671    
     41500   332.67295      6.4246751      1.1470019     -31811.388      48868.686    
     42000   334.27402      467.45492      1.1520566     -31811.309      48654.273    
     42500   332.26486      68.166466      1.1448321     -31783.786      48961.305    
     43000   331.40317      678.35592      1.1592543     -31831.251      48352.18     
     43500   337.37058     -240.13072      1.1430225     -31707.463      49038.818    
     44000   337.38642     -655.41141      1.1418903     -31650.433      49087.443    
     44500   336.04964     -349.51671      1.1526259     -31629.626      48630.24     
     45000   323.19598     -90.867122      1.1543568     -31671.577      48557.324    
     45500   333.47067      158.36062      1.1634244     -31701.698      48178.871    
     46000   329.89995     -539.66633      1.1517329     -31760.31       48667.946    
     46500   328.89989      502.86099      1.1528319     -31735.527      48621.552    
     47000   334.35354     -79.887241      1.1470349     -31762.728      48867.279    
     47500   334.84327     -72.061268      1.1528854     -31782.102      48619.293    
     48000   341.425        75.124896      1.1514376     -31755.002      48680.427    
     48500   339.08799     -226.74228      1.1583195     -31817.791      48391.204    
     49000   338.11894      29.468592      1.1519838     -31791.885      48657.346    
     49500   329.45004      238.36983      1.1517982     -31886.143      48665.188    
     50000   331.28432      47.176321      1.1497853     -31893.269      48750.383    
     50500   331.56149      286.96743      1.1439415     -31690.162      48999.425    
     51000   331.90701      560.93661      1.1496603     -31689.162      48755.685    
     51500   332.8915      -220.76459      1.1495279     -31778.745      48761.301    
     52000   326.02658     -157.72522      1.1446719     -31771.614      48968.158    
     52500   330.35623     -355.20844      1.1396009     -31806.122      49186.057    
     53000   337.41054     -17.248032      1.1441959     -31678.57       48988.528    
     53500   328.21396      333.17452      1.1570164     -31698.073      48445.704    
     54000   332.27184      132.92362      1.1457118     -31714.617      48923.71     
     54500   334.43151      415.58331      1.1415268     -31672.511      49103.073    
     55000   331.63326     -29.14034       1.1418607     -31646.364      49088.713    
     55500   334.0592       29.031454      1.149706      -31729.412      48753.748    
     56000   326.90756     -181.4531       1.1436115     -31765.639      49013.561    
     56500   328.81514     -452.81156      1.1440536     -31762.942      48994.621    
     57000   334.79         909.06762      1.1489698     -31713.201      48784.987    
     57500   336.79346      3.534062       1.1388964     -31748.846      49216.482    
     58000   336.04374      466.34241      1.1371288     -31809.498      49292.985    
     58500   320.61608      157.84308      1.1411038     -31696.313      49121.275    
     59000   334.35061      167.56641      1.1532461     -31820.392      48604.086    
     59500   337.53148     -361.17798      1.1472875     -31847.395      48856.519    
     60000   333.00815     -337.30584      1.1435352     -31688.616      49016.835    
     60500   335.508       -51.489453      1.1502203     -31812.881      48731.945    
     61000   330.09523      64.846295      1.1525922     -31727.674      48631.663    
     61500   333.022       -629.79061      1.1410811     -31596.89       49122.253    
     62000   333.20371      350.19362      1.1458398     -31691.481      48918.246    
     62500   335.11564     -122.35287      1.144827      -31692.635      48961.523    
     63000   340.06914     -347.74402      1.141225      -31779.118      49116.059    
     63500   331.44153     -80.454464      1.1453952     -31681.703      48937.233    
     64000   327.10369     -675.50462      1.1370154     -31730.261      49297.902    
     64500   337.86659      89.78284       1.1503574     -31767.508      48726.14     
     65000   335.76012     -436.90655      1.1504945     -31648.872      48720.331    
     65500   339.40862      809.28456      1.1558429     -31797.101      48494.888    
     66000   340.29111     -27.482632      1.145504      -31691.998      48932.587    
     66500   325.22766     -158.34269      1.1458125     -31618.128      48919.413    
     67000   329.43043      397.35415      1.1495665     -31767.933      48759.661    
     67500   332.99786     -846.4488       1.1458052     -31707.242      48919.724    
     68000   337.09316      694.48552      1.1550083     -31832.414      48529.933    
     68500   331.05493     -197.16091      1.140741      -31810.457      49136.898    
     69000   332.68929      376.09201      1.1419409     -31836.898      49085.269    
     69500   329.98273      196.82507      1.152437      -31841.697      48638.213    
     70000   331.83469      299.79478      1.1526044     -31657.079      48631.146    
Loop time of 3045.6 on 1 procs for 30000 steps with 4740 atoms

Performance: 0.851 ns/day, 28.200 hours/ns, 9.850 timesteps/s, 46.690 katom-step/s
63.3% CPU use with 1 MPI tasks x 1 OpenMP threads

MPI task timing breakdown:
Section |  min time  |  avg time  |  max time  |%varavg| %total
---------------------------------------------------------------
Pair    | 2058.9     | 2058.9     | 2058.9     |   0.0 | 67.60
Bond    | 0.39943    | 0.39943    | 0.39943    |   0.0 |  0.01
Kspace  | 455.35     | 455.35     | 455.35     |   0.0 | 14.95
Neigh   | 140.99     | 140.99     | 140.99     |   0.0 |  4.63
Comm    | 36.872     | 36.872     | 36.872     |   0.0 |  1.21
Output  | 0.019294   | 0.019294   | 0.019294   |   0.0 |  0.00
Modify  | 332.9      | 332.9      | 332.9      |   0.0 | 10.93
Other   |            | 20.16      |            |       |  0.66

Nlocal:           4740 ave        4740 max        4740 min
Histogram: 1 0 0 0 0 0 0 0 0 0
Nghost:          16879 ave       16879 max       16879 min
Histogram: 1 0 0 0 0 0 0 0 0 0
Neighs:    1.67113e+06 ave 1.67113e+06 max 1.67113e+06 min
Histogram: 1 0 0 0 0 0 0 0 0 0

Total # of neighbors = 1671126
Ave neighs/atom = 352.55823
Ave special neighs/atom = 1.8987342
Neighbor list builds = 1542
Dangerous builds = 0
PPPM initialization ...
  using 12-bit tables for long-range coulomb
  G vector (1/distance) = 0.3055938
  grid = 32 32 32
  stencil order = 5
  estimated absolute RMS force accuracy = 0.0030431259
  estimated relative force accuracy = 9.1642832e-06
  using double precision FFTW3
  3d grid and FFT values/proc = 59319 32768
Generated 6 of 6 mixed pair_coeff terms from geometric mixing rule
Setting up Verlet run ...
  Unit style    : real
  Current step  : 0
  Time step     : 1
Per MPI rank memory allocation (min/avg/max) = 27.64 | 27.64 | 27.64 Mbytes
   Step          Temp          Press         Density         PotEng         Volume    
         0   331.83469      357.42497      1.1526044     -31657.091      48631.146    
       500   329.45916      209.53507      1.1505328     -31704.657      48718.711    
      1000   336.19178     -67.292009      1.1437835     -31716.295      49006.192    
      1500   329.10281      734.89823      1.1592003     -31703.837      48354.433    
      2000   329.50727     -384.88367      1.1348232     -31652.886      49393.133    
      2500   333.93124     -103.47143      1.1522634     -31720.828      48645.539    
      3000   326.47187     -349.85813      1.1485849     -31759.599      48801.333    
      3500   331.17403     -102.74064      1.1548068     -31920.907      48538.401    
      4000   330.70392      173.20765      1.1457746     -31739.543      48921.032    
      4500   332.65475      302.5455       1.1466278     -31672.698      48884.63     
      5000   334.54827      661.05188      1.156782      -31784.557      48455.521    
      5500   331.93164     -333.40355      1.139255      -31725.837      49200.991    
      6000   339.16311     -226.76914      1.1389553     -31696.394      49213.938    
      6500   338.74842     -475.72937      1.1449573     -31750.655      48955.951    
      7000   333.01704     -261.22993      1.1486694     -31833.967      48797.743    
      7500   334.82242      620.95045      1.1525277     -31759.11       48634.383    
      8000   332.53967     -182.07651      1.144737      -31721.8        48965.371    
      8500   337.36063      213.97811      1.1556597     -31853.111      48502.577    
      9000   323.97977     -220.85236      1.1409509     -31801.914      49127.857    
      9500   330.93433      130.19062      1.1579349     -31846.518      48407.277    
     10000   332.53889     -295.74881      1.1398789     -31650.541      49174.06     
     10500   335.02172     -645.10741      1.1467661     -31791.799      48878.735    
     11000   327.6084      -104.88015      1.1446507     -31813.909      48969.063    
     11500   325.31275     -74.379055      1.1600463     -31763.242      48319.17     
     12000   336.69402     -606.7281       1.1468082     -31621.516      48876.938    
     12500   337.59093      521.23965      1.1544287     -31822.514      48554.296    
     13000   328.31788     -335.64348      1.1386114     -31644.09       49228.8      
     13500   331.13524     -182.80217      1.1365236     -31663.765      49319.236    
     14000   329.27522      510.97592      1.1419316     -31636.137      49085.667    
     14500   333.38733     -549.95436      1.1431276     -31732.425      49034.312    
     15000   333.42089      420.8509       1.157961      -31796.381      48406.187    
     15500   331.75017     -412.19683      1.1470872     -31677.176      48865.051    
     16000   329.8607      -305.37085      1.1496419     -31715.405      48756.465    
     16500   331.81251     -470.13877      1.1484828     -31787.735      48805.67     
     17000   336.43472     -145.26947      1.1523135     -31950.453      48643.425    
     17500   332.34143      111.87578      1.1591089     -31900.801      48358.247    
     18000   335.10131     -1119.0642      1.1359945     -31744.932      49342.204    
     18500   331.25229      388.5155       1.1527192     -31818.802      48626.306    
     19000   331.6495       138.45586      1.1493753     -31797.667      48767.774    
     19500   331.0181      -528.48414      1.1499887     -31699.316      48741.762    
     20000   339.73632      427.64953      1.1549912     -31838.5        48530.651    
     20500   334.62012      222.81155      1.1467705     -31754.465      48878.544    
     21000   340.13657     -219.51404      1.1582631     -31823.278      48393.558    
     21500   329.36794     -72.084612      1.1541681     -31719.568      48565.261    
     22000   341.1348      -68.83417       1.1499257     -31709.396      48744.433    
     22500   342.40607     -259.2273       1.1410883     -31679.224      49121.944    
     23000   328.19227      106.08834      1.1420658     -31734.269      49079.897    
     23500   331.68962     -43.729088      1.1421886     -31706.23       49074.62     
     24000   336.30993      541.96912      1.1456058     -31796.895      48928.237    
     24500   340.83842     -473.31904      1.1410251     -31743.68       49124.665    
     25000   332.00467     -104.14836      1.1368236     -31784.651      49306.22     
     25500   324.17254     -464.45077      1.1498036     -31766.481      48749.607    
     26000   326.70758     -407.6025       1.1524317     -31767.784      48638.435    
     26500   327.17656     -318.34783      1.1490665     -31755.728      48780.879    
     27000   327.51127     -208.14186      1.1514191     -31724.179      48681.207    
     27500   335.0438      -445.90858      1.1412571     -31700.223      49114.678    
     28000   333.48758     -64.096753      1.1439983     -31752.403      48996.99     
     28500   337.19283      256.70191      1.1464813     -31822.341      48890.874    
     29000   335.57845     -668.55828      1.1361774     -31736.974      49334.262    
     29500   333.01138      316.58788      1.1481067     -31820.041      48821.661    
     30000   329.43395      319.18358      1.135839      -31756.26       49348.96     
     30500   330.15739      388.03687      1.1437682     -31651.464      49006.846    
     31000   332.19654      190.73407      1.1506652     -31551.906      48713.105    
     31500   335.2052       75.679364      1.1506336     -31612.346      48714.442    
     32000   331.98129      178.58785      1.1494961     -31803.002      48762.647    
     32500   344.26144      345.0585       1.1488412     -31707.92       48790.444    
     33000   321.92315     -224.28139      1.1478637     -31710.468      48831.996    
     33500   329.10695     -386.71901      1.1494025     -31700.192      48766.621    
     34000   326.48727     -186.09076      1.1518731     -31729.594      48662.021    
     34500   332.56183     -92.275836      1.1504089     -31761.032      48723.958    
     35000   334.84976     -428.3151       1.1381526     -31749.377      49248.646    
     35500   333.10574      623.91558      1.1483445     -31788.378      48811.551    
     36000   327.17197      486.19236      1.145241      -31685.053      48943.825    
     36500   333.54169     -177.9361       1.1341679     -31675.127      49421.674    
     37000   339.10753      235.73768      1.1464442     -31851.069      48892.459    
     37500   335.53593      164.112        1.1638555     -31782.953      48161.026    
     38000   334.62479     -74.475917      1.1612087     -31911.689      48270.8      
     38500   328.01963     -103.04766      1.1540738     -31803.665      48569.227    
     39000   332.68306      48.635267      1.1542313     -31744.04       48562.6      
     39500   337.31283      168.1941       1.1628085     -31771.573      48204.389    
     40000   334.12875     -21.668277      1.1420113     -31644.05       49082.241    
     40500   328.92894     -84.992268      1.1558027     -31806.056      48496.578    
     41000   329.87545     -19.528218      1.1602941     -31819.465      48308.85     
     41500   335.48837     -229.9301       1.1539011     -31839.931      48576.496    
     42000   339.99352     -301.16515      1.1517534     -31873.918      48667.078    
     42500   337.44106      46.223648      1.1498281     -31856.972      48748.57     
     43000   332.41659     -5.4005685      1.1527805     -31696.967      48623.718    
     43500   344.19038      281.65225      1.1533697     -31764.662      48598.879    
     44000   330.61163     -71.129892      1.1520267     -31902.204      48655.536    
     44500   329.27355     -504.86434      1.144126      -31674.525      48991.52     
     45000   330.19494      41.618334      1.1537316     -31790.449      48583.635    
     45500   336.55141     -2.376379       1.1545221     -31836.766      48550.371    
     46000   335.11602      8.5343255      1.1522467     -31764.433      48646.243    
     46500   327.33896     -376.38307      1.1514019     -31892.71       48681.936    
     47000   332.75506      294.91259      1.1473389     -31855.337      48854.333    
     47500   330.3276      -675.4651       1.1364358     -31742.412      49323.044    
     48000   336.07763     -486.98669      1.1487892     -31754.279      48792.654    
     48500   329.4031      -107.15706      1.1493003     -31724.839      48770.957    
     49000   328.98026     -136.85885      1.1534675     -31753.462      48594.757    
     49500   332.74067      154.80563      1.1509975     -31730.94       48699.042    
     50000   329.16248     -41.017091      1.1555513     -31839.241      48507.127    
Loop time of 5534.19 on 1 procs for 50000 steps with 4740 atoms

Performance: 0.781 ns/day, 30.745 hours/ns, 9.035 timesteps/s, 42.825 katom-step/s
62.9% CPU use with 1 MPI tasks x 1 OpenMP threads

MPI task timing breakdown:
Section |  min time  |  avg time  |  max time  |%varavg| %total
---------------------------------------------------------------
Pair    | 3569.2     | 3569.2     | 3569.2     |   0.0 | 64.49
Bond    | 0.69765    | 0.69765    | 0.69765    |   0.0 |  0.01
Kspace  | 984.76     | 984.76     | 984.76     |   0.0 | 17.79
Neigh   | 239.85     | 239.85     | 239.85     |   0.0 |  4.33
Comm    | 62.781     | 62.781     | 62.781     |   0.0 |  1.13
Output  | 0.019406   | 0.019406   | 0.019406   |   0.0 |  0.00
Modify  | 642.96     | 642.96     | 642.96     |   0.0 | 11.62
Other   |            | 33.87      |            |       |  0.61

Nlocal:           4740 ave        4740 max        4740 min
Histogram: 1 0 0 0 0 0 0 0 0 0
Nghost:          16863 ave       16863 max       16863 min
Histogram: 1 0 0 0 0 0 0 0 0 0
Neighs:    1.67429e+06 ave 1.67429e+06 max 1.67429e+06 min
Histogram: 1 0 0 0 0 0 0 0 0 0

Total # of neighbors = 1674287
Ave neighs/atom = 353.22511
Ave special neighs/atom = 1.8987342
Neighbor list builds = 2584
Dangerous builds = 0
RESULT density_g_cm3 1.15138269993553
PPPM initialization ...
  using 12-bit tables for long-range coulomb
  G vector (1/distance) = 0.3056559
  grid = 32 32 32
  stencil order = 5
  estimated absolute RMS force accuracy = 0.0030354155
  estimated relative force accuracy = 9.1410636e-06
  using double precision FFTW3
  3d grid and FFT values/proc = 59319 32768
Generated 6 of 6 mixed pair_coeff terms from geometric mixing rule
Setting up Verlet run ...
  Unit style    : real
  Current step  : 0
  Time step     : 1
Per MPI rank memory allocation (min/avg/max) = 29.89 | 29.89 | 29.89 Mbytes
   Step          Temp          Press         Density         PotEng         Volume    
         0   329.16248     -104.47252      1.1555513     -31839.241      48507.127    
      5000   333.82717      116.46513      1.1555513     -31712.586      48507.127    
     10000   334.11092     -57.253381      1.1555513     -31832.04       48507.127    
     15000   340.57139      597.84537      1.1555513     -31828.098      48507.127    
     20000   341.27488      308.84016      1.1555513     -31819.738      48507.127    
     25000   328.79635     -254.92241      1.1555513     -31900.415      48507.127    
     30000   328.99929      383.23868      1.1555513     -31705.948      48507.127    
     35000   323.35827      407.19413      1.1555513     -31797.205      48507.127    
     40000   336.85626      596.52329      1.1555513     -31811.393      48507.127    
     45000   332.40932      164.38834      1.1555513     -31828.576      48507.127    
     50000   329.81864      457.52726      1.1555513     -31678.647      48507.127    
     55000   336.87859     -129.29953      1.1555513     -31870.832      48507.127    
     60000   330.97328      55.72367       1.1555513     -31742.657      48507.127    
     65000   342.31523      409.40027      1.1555513     -31788.891      48507.127    
     70000   331.5496       302.02722      1.1555513     -31718.256      48507.127    
     75000   332.12612      204.65419      1.1555513     -31819.589      48507.127    
     80000   332.70453      195.93229      1.1555513     -31780.237 