LAMMPS (22 Jul 2025 - Update 5)
  using 1 OpenMP thread(s) per MPI task
Reading data file ...
  orthogonal box = (0 0 0) to (37.095719 37.095719 37.095719)
  1 by 1 by 1 MPI processor grid
  reading atoms ...
  4912 atoms
  scanning bonds ...
  2 = max bonds/atom
  scanning angles ...
  1 = max angles/atom
  orthogonal box = (0 0 0) to (37.095719 37.095719 37.095719)
  1 by 1 by 1 MPI processor grid
  reading bonds ...
  3000 bonds
  reading angles ...
  1500 angles
Finding 1-2 1-3 1-4 neighbors ...
  special bond factors lj:    0        0        0       
  special bond factors coul:  0        0        0       
     2 = max # of 1-2 neighbors
     1 = max # of 1-3 neighbors
     1 = max # of 1-4 neighbors
     2 = max # of special neighbors
  special bonds CPU = 0.006 seconds
  read_data CPU = 0.109 seconds
Setting atom values ...
  206 settings made for charge
Setting atom values ...
  206 settings made for charge
4500 atoms in group watr
206 atoms in group kion
206 atoms in group ohion
412 atoms in group ions
Finding SHAKE clusters ...
       0 = # of size 2 clusters
       0 = # of size 3 clusters
       0 = # of size 4 clusters
    1500 = # of frozen angles
  find clusters CPU = 0.002 seconds
PPPM initialization ...
  using 12-bit tables for long-range coulomb
  G vector (1/distance) = 0.30441482
  grid = 32 32 32
  stencil order = 5
  estimated absolute RMS force accuracy = 0.0033318687
  estimated relative force accuracy = 1.0033824e-05
  using double precision FFTW3
  3d grid and FFT values/proc = 59319 32768
Generated 6 of 6 mixed pair_coeff terms from geometric mixing rule
WARNING: Should not use fix nve/limit with fix shake or fix rattle (src/lammps/src/fix_nve_limit.cpp:76)
Neighbor list info ...
  update: every = 1 steps, delay = 0 steps, check = yes
  max neighbors/atom: 2000, page size: 100000
  master list distance cutoff = 12
  ghost atom cutoff = 12
  binsize = 6, bins = 7 7 7
  1 neighbor lists, perpetual/occasional/extra = 1 0 0
  (1) pair lj/cut/coul/long, perpetual
      attributes: half, newton on
      pair build: half/bin/newton
      stencil: half/bin/3d
      bin: standard
Setting up Verlet run ...
  Unit style    : real
  Current step  : 0
  Time step     : 0.2
Per MPI rank memory allocation (min/avg/max) = 27.67 | 27.67 | 27.67 Mbytes
   Step          Temp          Press         Density         PotEng         Volume    
         0   333            45766.412      1.2550109     -186.2747       51047.136    
       500   650.88475      10604.527      1.2550109     -35770.075      51047.136    
      1000   390.95253      2413.8636      1.2550109     -39782.568      51047.136    
      1500   356.95489      1387.1526      1.2550109     -41036.628      51047.136    
      2000   348.79421      1164.741       1.2550109     -41477.736      51047.136    
      2500   339.45839     -770.27788      1.2550109     -41708.035      51047.136    
      3000   338.36355      14.251185      1.2550109     -41856.235      51047.136    
      3500   332.17499     -99.242606      1.2550109     -41971.446      51047.136    
      4000   340.11256      2347.1385      1.2550109     -42115.047      51047.136    
      4500   336.93764      1732.0514      1.2550109     -42226.592      51047.136    
      5000   338.63838      52.822694      1.2550109     -42263.621      51047.136    
      5500   327.65627      994.21472      1.2550109     -42275.477      51047.136    
      6000   336.86395      64.84587       1.2550109     -42315.24       51047.136    
      6500   339.1922       44.040567      1.2550109     -42351.415      51047.136    
      7000   341.14602      762.7672       1.2550109     -42496.359      51047.136    
      7500   343.1164       2709.5472      1.2550109     -42491.183      51047.136    
      8000   326.07693      722.32744      1.2550109     -42526.959      51047.136    
      8500   332.54903      2212.8499      1.2550109     -42586.233      51047.136    
      9000   325.65642     -263.63798      1.2550109     -42505.32       51047.136    
      9500   341.24266     -337.25975      1.2550109     -42548.251      51047.136    
     10000   334.15262      2286.9841      1.2550109     -42507.648      51047.136    
     10500   331.94798      449.48308      1.2550109     -42606.771      51047.136    
     11000   340.5804       393.08499      1.2550109     -42606.711      51047.136    
     11500   339.78227     -197.41446      1.2550109     -42665.007      51047.136    
     12000   331.30916     -42.344538      1.2550109     -42713.963      51047.136    
     12500   327.99125     -346.25877      1.2550109     -42770.636      51047.136    
     13000   337.08581      555.85905      1.2550109     -42827.539      51047.136    
     13500   326.91277      596.32212      1.2550109     -42711.403      51047.136    
     14000   328.78877     -80.482262      1.2550109     -42648.926      51047.136    
     14500   334.60182     -1333.7976      1.2550109     -42744.223      51047.136    
     15000   334.09857      104.20311      1.2550109     -42671.91       51047.136    
     15500   326.35414      873.64468      1.2550109     -42753.344      51047.136    
     16000   337.62275      677.69899      1.2550109     -42742.903      51047.136    
     16500   333.50817      78.585284      1.2550109     -42705.945      51047.136    
     17000   332.32636      1139.8862      1.2550109     -42649.28       51047.136    
     17500   338.62619      439.56855      1.2550109     -42689.887      51047.136    
     18000   326.48621     -1554.7078      1.2550109     -42748.304      51047.136    
     18500   331.93029      861.85151      1.2550109     -42696.174      51047.136    
     19000   330.58191      461.7085       1.2550109     -42795.568      51047.136    
     19500   340.13112     -1281.0434      1.2550109     -42786.628      51047.136    
     20000   333.52766      1261.4669      1.2550109     -42761.31       51047.136    
Loop time of 1779.98 on 1 procs for 20000 steps with 4912 atoms

Performance: 0.194 ns/day, 123.610 hours/ns, 11.236 timesteps/s, 55.192 katom-step/s
64.0% CPU use with 1 MPI tasks x 1 OpenMP threads

MPI task timing breakdown:
Section |  min time  |  avg time  |  max time  |%varavg| %total
---------------------------------------------------------------
Pair    | 1313.7     | 1313.7     | 1313.7     |   0.0 | 73.80
Bond    | 0.12304    | 0.12304    | 0.12304    |   0.0 |  0.01
Kspace  | 371.64     | 371.64     | 371.64     |   0.0 | 20.88
Neigh   | 17.553     | 17.553     | 17.553     |   0.0 |  0.99
Comm    | 20.662     | 20.662     | 20.662     |   0.0 |  1.16
Output  | 0.0098923  | 0.0098923  | 0.0098923  |   0.0 |  0.00
Modify  | 49.165     | 49.165     | 49.165     |   0.0 |  2.76
Other   |            | 7.124      |            |       |  0.40

Nlocal:           4912 ave        4912 max        4912 min
Histogram: 1 0 0 0 0 0 0 0 0 0
Nghost:          17100 ave       17100 max       17100 min
Histogram: 1 0 0 0 0 0 0 0 0 0
Neighs:    1.70863e+06 ave 1.70863e+06 max 1.70863e+06 min
Histogram: 1 0 0 0 0 0 0 0 0 0

Total # of neighbors = 1708634
Ave neighs/atom = 347.84894
Ave special neighs/atom = 1.8322476
Neighbor list builds = 200
Dangerous builds = 0
PPPM initialization ...
  using 12-bit tables for long-range coulomb
  G vector (1/distance) = 0.30441482
  grid = 32 32 32
  stencil order = 5
  estimated absolute RMS force accuracy = 0.0033318687
  estimated relative force accuracy = 1.0033824e-05
  using double precision FFTW3
  3d grid and FFT values/proc = 59319 32768
Generated 6 of 6 mixed pair_coeff terms from geometric mixing rule
Setting up Verlet run ...
  Unit style    : real
  Current step  : 20000
  Time step     : 0.5
Per MPI rank memory allocation (min/avg/max) = 27.67 | 27.67 | 27.67 Mbytes
   Step          Temp          Press         Density         PotEng         Volume    
     20000   333.52766      516.13976      1.2550109     -42761.31       51047.136    
     20500   337.91575      1703.0837      1.2550109     -42729.903      51047.136    
     21000   339.53881      134.06         1.2550109     -42776.945      51047.136    
     21500   341.26762      749.8343       1.2550109     -42943.175      51047.136    
     22000   334.605        1408.0347      1.2550109     -43031.089      51047.136    
     22500   334.17725      429.17777      1.2550109     -43031.735      51047.136    
     23000   329.30479     -535.82071      1.2550109     -43041.103      51047.136    
     23500   329.50025      1275.5501      1.2550109     -43024.076      51047.136    
     24000   339.70564     -404.3078       1.2550109     -42956.036      51047.136    
     24500   334.47135     -210.89498      1.2550109     -42967.346      51047.136    
     25000   334.0279       1446.1411      1.2550109     -42987.079      51047.136    
     25500   334.25192      34.370232      1.2550109     -42952.39       51047.136    
     26000   336.74844      213.15043      1.2550109     -42913.617      51047.136    
     26500   335.53186      1396.2086      1.2550109     -42933.697      51047.136    
     27000   339.40856      777.58205      1.2550109     -43003.086      51047.136    
     27500   337.15036      400.22911      1.2550109     -43089.293      51047.136    
     28000   332.7587      -146.18969      1.2550109     -42957.319      51047.136    
     28500   332.67219      322.81418      1.2550109     -42972.284      51047.136    
     29000   343.19043      896.46813      1.2550109     -43028.501      51047.136    
     29500   325.27075      76.024371      1.2550109     -42990.215      51047.136    
     30000   331.02458     -404.21204      1.2550109     -42956.307      51047.136    
     30500   337.58786      67.535599      1.2550109     -43028.874      51047.136    
     31000   339.31446     -241.35054      1.2550109     -42975.271      51047.136    
     31500   327.80374      283.2836       1.2550109     -42963.726      51047.136    
     32000   328.03937      91.705856      1.2550109     -42897.737      51047.136    
     32500   338.37355     -337.73874      1.2550109     -42934.487      51047.136    
     33000   330.63439     -619.8955       1.2550109     -42931.303      51047.136    
     33500   337.29452      876.45577      1.2550109     -42900.658      51047.136    
     34000   321.07166      79.673219      1.2550109     -42884.873      51047.136    
     34500   332.32101      544.7965       1.2550109     -42934.1        51047.136    
     35000   326.43131      194.44153      1.2550109     -42890.578      51047.136    
     35500   334.8622      -612.83153      1.2550109     -42950.727      51047.136    
     36000   331.32998      1458.5614      1.2550109     -42945.992      51047.136    
     36500   340.24655      1836.7203      1.2550109     -42910.712      51047.136    
     37000   331.5414       97.894773      1.2550109     -42932.897      51047.136    
     37500   333.38303      220.74885      1.2550109     -43076.734      51047.136    
     38000   333.67185     -38.347099      1.2550109     -43021.031      51047.136    
     38500   336.11378      615.97762      1.2550109     -42996.063      51047.136    
     39000   340.74595      859.44038      1.2550109     -43036.787      51047.136    
     39500   331.28474      247.01154      1.2550109     -42898.709      51047.136    
     40000   337.98417     -351.23489      1.2550109     -43011.49       51047.136    
Loop time of 1805.94 on 1 procs for 20000 steps with 4912 atoms

Performance: 0.478 ns/day, 50.165 hours/ns, 11.075 timesteps/s, 54.398 katom-step/s
63.8% CPU use with 1 MPI tasks x 1 OpenMP threads

MPI task timing breakdown:
Section |  min time  |  avg time  |  max time  |%varavg| %total
---------------------------------------------------------------
Pair    | 1322       | 1322       | 1322       |   0.0 | 73.20
Bond    | 0.15447    | 0.15447    | 0.15447    |   0.0 |  0.01
Kspace  | 361.58     | 361.58     | 361.58     |   0.0 | 20.02
Neigh   | 45.586     | 45.586     | 45.586     |   0.0 |  2.52
Comm    | 20.621     | 20.621     | 20.621     |   0.0 |  1.14
Output  | 0.01982    | 0.01982    | 0.01982    |   0.0 |  0.00
Modify  | 48.86      | 48.86      | 48.86      |   0.0 |  2.71
Other   |            | 7.083      |            |       |  0.39

Nlocal:           4912 ave        4912 max        4912 min
Histogram: 1 0 0 0 0 0 0 0 0 0
Nghost:          17048 ave       17048 max       17048 min
Histogram: 1 0 0 0 0 0 0 0 0 0
Neighs:    1.70789e+06 ave 1.70789e+06 max 1.70789e+06 min
Histogram: 1 0 0 0 0 0 0 0 0 0

Total # of neighbors = 1707892
Ave neighs/atom = 347.69788
Ave special neighs/atom = 1.8322476
Neighbor list builds = 493
Dangerous builds = 0
PPPM initialization ...
  using 12-bit tables for long-range coulomb
  G vector (1/distance) = 0.30441482
  grid = 32 32 32
  stencil order = 5
  estimated absolute RMS force accuracy = 0.0033318687
  estimated relative force accuracy = 1.0033824e-05
  using double precision FFTW3
  3d grid and FFT values/proc = 59319 32768
Generated 6 of 6 mixed pair_coeff terms from geometric mixing rule
Setting up Verlet run ...
  Unit style    : real
  Current step  : 40000
  Time step     : 1
Per MPI rank memory allocation (min/avg/max) = 27.67 | 27.67 | 27.67 Mbytes
   Step          Temp          Press         Density         PotEng         Volume    
     40000   337.98417     -331.38596      1.2550109     -43011.49       51047.136    
     40500   333.1718      -197.13808      1.248299      -42985.929      51321.608    
     41000   328.12558     -394.66362      1.2526161     -42884.142      51144.728    
     41500   329.14865      198.25853      1.2489974     -42916.358      51292.91     
     42000   338.82574     -340.73272      1.2444321     -42945.709      51481.083    
     42500   333.74043     -453.09027      1.2384613     -42976.3        51729.28     
     43000   329.58987     -737.50295      1.2276573     -42913.091      52184.522    
     43500   330.38118     -288.41868      1.23472       -42941.979      51886.023    
     44000   329.61684      232.49018      1.2343908     -42787.808      51899.862    
     44500   329.93943      605.67274      1.2403703     -42883.683      51649.666    
     45000   328.04232     -116.34445      1.2365111     -42953.422      51810.866    
     45500   330.31655     -429.38599      1.227705      -43013.173      52182.497    
     46000   329.36424      404.94427      1.2457277     -43061.968      51427.54     
     46500   330.3414      -482.33872      1.2421227     -43035.097      51576.796    
     47000   325.98322     -233.12363      1.2389009     -42946.049      51710.922    
     47500   325.92996      547.70782      1.25145       -42963.058      51192.385    
     48000   334.83943      27.714017      1.2424641     -42970.349      51562.624    
     48500   331.07359      17.977817      1.242386      -42980.475      51565.868    
     49000   332.89902     -215.11018      1.2411446     -43003.12       51617.442    
     49500   337.34239     -268.91102      1.2392078     -43005.083      51698.118    
     50000   325.19464      7.3229407      1.2358818     -42944.48       51837.247    
     50500   335.63232     -11.690857      1.2518901     -43029.113      51174.388    
     51000   329.28797     -116.60102      1.2425084     -42926.712      51560.784    
     51500   332.48591      857.98567      1.2559437     -43090.682      51009.223    
     52000   337.24388     -255.24452      1.2461762     -42946.73       51409.028    
     52500   338.6037      -590.73578      1.2339385     -42949.526      51918.885    
     53000   339.72436     -84.419303      1.2405028     -42916.934      51644.15     
     53500   331.63315     -370.70644      1.2340185     -42893.891      51915.519    
     54000   325.46849     -104.45118      1.2364705     -42942.495      51812.566    
     54500   332.11749      254.41479      1.2329587     -42900.457      51960.141    
     55000   328.56071      129.1605       1.2411922     -42853.795      51615.461    
     55500   332.06703      136.26579      1.2427158     -43029.459      51552.182    
     56000   328.1235       192.11368      1.2324233     -43005.984      51982.715    
     56500   332.55464     -387.83662      1.2371318     -42969.11       51784.87     
     57000   340.51721     -83.08175       1.2451471     -42951.928      51451.52     
     57500   331.12391      190.8024       1.2426219     -42924.836      51556.075    
     58000   324.09932     -51.23427       1.243227      -42924.873      51530.983    
     58500   332.23164     -437.30012      1.2369371     -42925.014      51793.021    
     59000   330.3153      -7.8899383      1.2459392     -42897.815      51418.807    
     59500   336.51018     -233.50139      1.2445028     -43014.812      51478.155    
     60000   328.85581      206.25561      1.2425864     -43038.246      51557.551    
     60500   331.34642     -170.89733      1.2406114     -42935.003      51639.629    
     61000   335.59917     -464.8068       1.2357479     -42986.994      51842.866    
     61500   327.72241      167.51075      1.2365515     -42944.532      51809.171    
     62000   334.90113     -235.11419      1.2455223     -43068.385      51436.02     
     62500   331.2127       332.54823      1.2514684     -42948.896      51191.631    
     63000   333.33663     -155.4062       1.2475849     -42974.759      51350.981    
     63500   338.10328      610.08521      1.2443296     -42972.907      51485.322    
     64000   328.11        -198.22532      1.247934      -43028.811      51336.616    
     64500   330.68638      59.989634      1.2385411     -43035.116      51725.945    
     65000   334.14524     -885.77663      1.2364572     -43007.05       51813.125    
     65500   330.39504     -64.28945       1.2377004     -43023.653      51761.08     
     66000   339.22127      209.33288      1.2320593     -42991.233      51998.075    
     66500   332.2566      -236.02698      1.234243      -42878.644      51906.076    
     67000   343.22011      322.87867      1.2278856     -42902.55       52174.819    
     67500   332.823        12.442106      1.2253673     -42843.096      52282.046    
     68000   327.65719      163.22188      1.2355063     -42939.255      51853.003    
     68500   335.15341      167.87306      1.2333696     -43029.764      51942.833    
     69000   331.6868       508.49344      1.2463371     -42878.218      51402.393    
     69500   330.81014      562.47604      1.2520762     -42951.136      51166.784    
     70000   327.21198     -466.41448      1.2393163     -42839.183      51693.592    
Loop time of 3347.11 on 1 procs for 30000 steps with 4912 atoms

Performance: 0.774 ns/day, 30.992 hours/ns, 8.963 timesteps/s, 44.026 katom-step/s
62.6% CPU use with 1 MPI tasks x 1 OpenMP threads

MPI task timing breakdown:
Section |  min time  |  avg time  |  max time  |%varavg| %total
---------------------------------------------------------------
Pair    | 2142.9     | 2142.9     | 2142.9     |   0.0 | 64.02
Bond    | 0.41021    | 0.41021    | 0.41021    |   0.0 |  0.01
Kspace  | 615.38     | 615.38     | 615.38     |   0.0 | 18.39
Neigh   | 149.44     | 149.44     | 149.44     |   0.0 |  4.46
Comm    | 39.067     | 39.067     | 39.067     |   0.0 |  1.17
Output  | 0.015219   | 0.015219   | 0.015219   |   0.0 |  0.00
Modify  | 378.33     | 378.33     | 378.33     |   0.0 | 11.30
Other   |            | 21.59      |            |       |  0.65

Nlocal:           4912 ave        4912 max        4912 min
Histogram: 1 0 0 0 0 0 0 0 0 0
Nghost:          16913 ave       16913 max       16913 min
Histogram: 1 0 0 0 0 0 0 0 0 0
Neighs:    1.68813e+06 ave 1.68813e+06 max 1.68813e+06 min
Histogram: 1 0 0 0 0 0 0 0 0 0

Total # of neighbors = 1688128
Ave neighs/atom = 343.67427
Ave special neighs/atom = 1.8322476
Neighbor list builds = 1525
Dangerous builds = 0
PPPM initialization ...
  using 12-bit tables for long-range coulomb
  G vector (1/distance) = 0.30410604
  grid = 32 32 32
  stencil order = 5
  estimated absolute RMS force accuracy = 0.0033739083
  estimated relative force accuracy = 1.0160425e-05
  using double precision FFTW3
  3d grid and FFT values/proc = 59319 32768
Generated 6 of 6 mixed pair_coeff terms from geometric mixing rule
Setting up Verlet run ...
  Unit style    : real
  Current step  : 0
  Time step     : 1
Per MPI rank memory allocation (min/avg/max) = 27.67 | 27.67 | 27.67 Mbytes
   Step          Temp          Press         Density         PotEng         Volume    
         0   327.21198     -434.6055       1.2393163     -42839.183      51693.592    
       500   335.54906     -166.15366      1.2473963     -42856.867      51358.745    
      1000   330.96371     -349.20977      1.2393183     -42960          51693.508    
      1500   341.56601     -167.0311       1.2382723     -42947.255      51737.174    
      2000   338.93425     -32.28404       1.2360605     -42880.53       51829.753    
      2500   325.56513     -330.14971      1.2409421     -43077.141      51625.865    
      3000   334.16216      39.203138      1.2346477     -42941.893      51889.06     
      3500   334.48888     -53.846956      1.2348385     -42983.995      51881.045    
      4000   326.93407      245.8264       1.2401149     -43067.021      51660.301    
      4500   328.80979     -465.76188      1.2308945     -43033.08       52047.278    
      5000   324.71911      101.89135      1.2382389     -43001.027      51738.569    
      5500   338.7487       619.14192      1.2418664     -42892.443      51587.441    
      6000   334.24929     -268.0455       1.2369256     -42965.7        51793.503    
      6500   333.07638     -332.86688      1.2337916     -42959.493      51925.064    
      7000   335.9255      -922.86303      1.231804      -42945.324      52008.85     
      7500   337.66029     -5.361063       1.2430006     -42861.954      51540.371    
      8000   335.42918      455.76348      1.2443005     -43003.018      51486.526    
      8500   332.65609     -77.013559      1.2376009     -42799.134      51765.242    
      9000   342.16121     -371.85254      1.2433569     -42962.621      51525.602    
      9500   329.7463       428.16749      1.2445942     -42907.622      51474.378    
     10000   337.51995     -987.48732      1.2326439     -42921.559      51973.412    
     10500   336.45139     -394.44653      1.23539       -42983.63       51857.883    
     11000   342.90498      298.24704      1.2521289     -42924.706      51164.629    
     11500   335.52226      301.97181      1.24883       -42928.303      51299.786    
     12000   336.48059     -177.91022      1.2432267     -42933.896      51530.995    
     12500   337.0359       293.26577      1.2361552     -42850.661      51825.783    
     13000   330.70333     -116.23804      1.249471      -42999.433      51273.465    
     13500   337.08154     -131.58316      1.2417711     -42992.465      51591.4      
     14000   331.88227     -336.07966      1.2388791     -43081.129      51711.834    
     14500   339.38847      269.97724      1.2524097     -43066.87       51153.157    
     15000   331.95464      139.8359       1.2438473     -42967.828      51505.287    
     15500   329.46456      405.29393      1.2449599     -42935.676      51459.257    
     16000   331.41313      196.38252      1.2477899     -42911.496      51342.548    
     16500   337.31427      178.81229      1.242681      -42866.689      51553.625    
     17000   327.66144      614.91632      1.2434229     -42998.775      51522.866    
     17500   335.93612     -16.169956      1.2416067     -42876.494      51598.232    
     18000   337.57009     -102.6244       1.2391312     -42968.597      51701.313    
     18500   327.17772     -174.99695      1.2426092     -42997.919      51556.602    
     19000   329.02212     -78.828223      1.2453762     -42865.321      51442.054    
     19500   330.39475      340.52088      1.2580925     -42849.903      50922.1      
     20000   327.65169     -231.64062      1.2432726     -42774.543      51529.094    
     20500   320.05428     -437.15575      1.2468789     -42993.09       51380.056    
     21000   330.99136     -152.39246      1.2413152     -42851.546      51610.348    
     21500   340.32921     -219.27663      1.2420562     -42928.335      51579.558    
     22000   328.36702      287.99211      1.2491601     -43103.329      51286.227    
     22500   329.51796     -246.64701      1.2422713     -43013.618      51570.625    
     23000   331.86527      113.94833      1.2409728     -42905.428      51624.587    
     23500   331.98035     -117.72723      1.2322311     -42826.622      51990.825    
     24000   333.89697     -144.57232      1.2539024     -43043.014      51092.26     
     24500   337.91865      464.53642      1.2586104     -42937.994      50901.143    
     25000   333.02382      466.52137      1.2564235     -43059.377      50989.742    
     25500   327.08107      399.13776      1.2541081     -42920.773      51083.883    
     26000   335.04614     -411.4413       1.2475459     -42967.202      51352.586    
     26500   329.24034      281.91521      1.2534162     -43036.809      51112.082    
     27000   332.4597       474.05958      1.2416902     -42806.817      51594.76     
     27500   330.041        707.19228      1.2470754     -42837.647      51371.961    
     28000   336.10207      485.61357      1.2446456     -42873.939      51472.25     
     28500   334.54766      220.96171      1.2415275     -42831.711      51601.525    
     29000   336.03597      326.72035      1.2393839     -42864.311      51690.774    
     29500   322.27248      465.91136      1.2487528     -42881.035      51302.958    
     30000   338.0229       317.68667      1.2455904     -42921.388      51433.207    
     30500   333.08988      451.56067      1.2402306     -42858.491      51655.483    
     31000   331.25248     -137.21911      1.2328029     -42983.696      51966.71     
     31500   330.15567     -909.66882      1.2301912     -42961.796      52077.034    
     32000   330.6267      -303.21901      1.2390047     -42877.956      51706.59     
     32500   331.75935      430.20343      1.2509517     -42927.524      51212.775    
     33000   332.96401      171.10335      1.2430108     -42978.147      51539.945    
     33500   332.38944      140.7162       1.2410406     -43029.252      51621.767    
     34000   329.92616     -238.48481      1.2394844     -42931.892      51686.581    
     34500   332.57273     -718.6928       1.2323584     -42932.143      51985.453    
     35000   330.44442      453.15448      1.238776      -42982.714      51716.139    
     35500   328.40951     -132.31778      1.2419683     -42958.245      51583.208    
     36000   332.43405     -354.81351      1.2336084     -42891.239      51932.777    
     36500   334.59417     -536.68377      1.2354749     -42969.751      51854.321    
     37000   335.45506      142.25545      1.2396884     -42944.012      51678.076    
     37500   328.40148      388.8515       1.2449843     -43024.822      51458.246    
     38000   329.55482     -545.7032       1.2339984     -43000.042      51916.365    
     38500   333.36182      102.924        1.2448123     -42960.746      51465.357    
     39000   331.41333     -477.67587      1.2326977     -42816.25       51971.145    
     39500   334.77109      19.181145      1.2453762     -42948.307      51442.054    
     40000   334.31843     -898.23016      1.234493      -42798.061      51895.564    
     40500   329.66996      500.21332      1.2585843     -42986.291      50902.2      
     41000   335.46203     -517.11776      1.2383865     -42784.837      51732.402    
     41500   327.68039     -57.542916      1.2409721     -42889.756      51624.617    
     42000   330.44737     -266.52389      1.2396404     -42894.329      51680.077    
     42500   331.34164     -588.94926      1.2352611     -42937.917      51863.293    
     43000   326.91797     -368.14212      1.2386        -43084.632      51723.485    
     43500   337.28376     -135.67541      1.2339045     -43005.732      51920.313    
     44000   334.21737     -71.052726      1.248763      -42915.951      51302.537    
     44500   329.23019      64.028379      1.2459537     -43036.044      51418.211    
     45000   330.92804      2.9132561      1.2475377     -43041.134      51352.925    
     45500   331.76969      469.1485       1.2492513     -43070.803      51282.483    
     46000   327.31106     -661.95352      1.229184      -42920.26       52119.709    
     46500   330.82289      660.95749      1.2501962     -42958.723      51243.725    
     47000   336.46226     -24.420764      1.2394215     -42923.723      51689.203    
     47500   335.6583      -93.706382      1.2475427     -43038.927      51352.719    
     48000   329.12731      373.74769      1.2449457     -43026.458      51459.844    
     48500   335.42268      176.41577      1.2494236     -43110.129      51275.411    
     49000   336.16146      524.48669      1.2536422     -42963.947      51102.865    
     49500   343.78398     -255.67835      1.242894      -43002.227      51544.791    
     50000   329.33392     -391.69704      1.2392653     -43010.726      51695.717    
Loop time of 5528.62 on 1 procs for 50000 steps with 4912 atoms

Performance: 0.781 ns/day, 30.715 hours/ns, 9.044 timesteps/s, 44.423 katom-step/s
63.8% CPU use with 1 MPI tasks x 1 OpenMP threads

MPI task timing breakdown:
Section |  min time  |  avg time  |  max time  |%varavg| %total
---------------------------------------------------------------
Pair    | 3594       | 3594       | 3594       |   0.0 | 65.01
Bond    | 0.64467    | 0.64467    | 0.64467    |   0.0 |  0.01
Kspace  | 983.4      | 983.4      | 983.4      |   0.0 | 17.79
Neigh   | 241.79     | 241.79     | 241.79     |   0.0 |  4.37
Comm    | 62.698     | 62.698     | 62.698     |   0.0 |  1.13
Output  | 0.013391   | 0.013391   | 0.013391   |   0.0 |  0.00
Modify  | 610.9      | 610.9      | 610.9      |   0.0 | 11.05
Other   |            | 35.14      |            |       |  0.64

Nlocal:           4912 ave        4912 max        4912 min
Histogram: 1 0 0 0 0 0 0 0 0 0
Nghost:          17066 ave       17066 max       17066 min
Histogram: 1 0 0 0 0 0 0 0 0 0
Neighs:    1.68717e+06 ave 1.68717e+06 max 1.68717e+06 min
Histogram: 1 0 0 0 0 0 0 0 0 0

Total # of neighbors = 1687174
Ave neighs/atom = 343.48005
Ave special neighs/atom = 1.8322476
Neighbor list builds = 2529
Dangerous builds = 0
RESULT density_g_cm3 1.24372657170054
PPPM initialization ...
  using 12-bit tables for long-range coulomb
  G vector (1/distance) = 0.30410503
  grid = 32 32 32
  stencil order = 5
  estimated absolute RMS force accuracy = 0.0033740465
  estimated relative force accuracy = 1.0160841e-05
  using double precision FFTW3
  3d grid and FFT values/proc = 59319 32768
Generated 6 of 6 mixed pair_coeff terms from geometric mixing rule
Setting up Verlet run ...
  Unit style    : real
  Current step  : 0
  Time step     : 1
Per MPI rank memory allocation (min/avg/max) = 29.92 | 29.92 | 29.92 Mbytes
   Step          Temp          Press         Density         PotEng         Volume    
         0   329.33392     -455.65364      1.2392653     -43010.726      51695.717    
      5000   330.94716      339.63568      1.2392653     -42885.743      51695.717    
     10000   338.19586     -101.07317      1.2392653     -42906.07       51695.717    
     15000   332.36224     -194.40009      1.2392653     -43053.371      51695.717    
     20000   337.40269      531.12036      1.2392653     -42938.049      51695.717    
     25000   331.63525      583.9379       1.2392653     -42870.606      51695.717    
     30000   333.67493     -430.77015      1.2392653     -42943.593      51695.717    
     35000   335.64332     -559.0142       1.2392653     -43010.277      51695.717    
     40000   336.02398     -199.70921      1.2392653     -42988.844      51695.717    
     45000   337.24945     -366.00789      1.2392653     -42893.081      51695.717    
     50000   337.98901      90.88713       1.2392653     -42942.283      51695.717    
     55000   331.78447     -152.59833      1.2392653     -43052.283      51695.717    
     60000   336.22551      525.45351      1.2392653     -42920.628      51695.717    
     65000   332.61065      264.889        1.2392653     -43062.751      51695.717    
     70000   338.49323      119.99861      1.2392653     -42917.525      51695.717    
     75000   334.72417     -328.27852      1.2392653     -42907.931      51695.717    
     80000   336.47697     -626.90108      1.2392653     -43041.944      51695.717    
     85000   340.32764      55.6034        1.2392653     -42853.271      51695.717    
     90000   334.36701     -35.290635      1.2392653     -42881.835      51695.717    
     95000   334.34634     -84.043255      1.2392653     -42940.961      51695.717    
    100000   335.24089      741.92626      1.2392653     -42811.552      51695.717    
    105000   341.63929     -197.58487      1.2392653     -42889.006      51695.717    
    110000   336.30002     -405.59564      1.2392653     -42880.84       51695.717    
    115000   343.58862      93.081115      1.2392653     -42927.984      51695.717    
    120000   336.91332      35.652306      1.2392653     -42841.082      51695.717    
    125000   333.97327     -427.29461      1.2392653     -42977.608      51695.717    
    130000   340.91694     -189.89538      1.2392653     -42922.214      51695.717    
    135000   330.37483      81.089001      1.2392653     -42963.46       51695.717    
    140000   330.27602     -181.48761      1.2392653     -43080.953      51695.717    
    145000   333.50617      47.883175      1.2392653     -42928.686      51695.717    
    150000   347.51423      656.26377      1.2392653     -42903.84       51695.717    
    155000   334.2182      -243.58542      1.2392653     -42955.613      51695.717    
    160000   333.98032     -138.89158      1.2392653     -42944.462      51695.717    
    165000   334.43138     -418.05789      1.2392653     -42989.046      51695.717    
    170000   339.90509     -84.808575      1.2392653     -42938.281      51695.717    
    175000   329.96173     -227.42038      1.2392653     -42969.281      51695.717    
    180000   335.39113      293.13774      1.2392653     -42874.419      51695.717    
    185000   323.68939     -170.22716      1.2392653     -42888.404      51695.717    
    190000   337.39682     -215.21792      1.2392653     -42907.645      51695.717    
    195000   329.80336      424.7149       1.2392653     -43002.623      51695.717    
    200000   334.40218     -381.63346      1.2392653     -42982.793      51695.717    
Loop time of 24940 on 1 procs for 200000 steps with 4912 atoms

Performance: 0.693 ns/day, 34.639 hours/ns, 8.019 timesteps/s, 39.390 katom-step/s
65.2% CPU use with 1 MPI tasks x 1 OpenMP threads

MPI task timing breakdown:
Section |  min time  |  avg time  |  max time  |%varavg| %total
---------------------------------------------------------------
Pair    | 19337      | 19337      | 19337      |   0.0 | 77.53
Bond    | 2.4353     | 2.4353     | 2.4353     |   0.0 |  0.01
Kspace  | 3822.6     | 3822.6     | 3822.6     |   0.0 | 15.33
Neigh   | 941.7      | 941.7      | 941.7      |   0.0 |  3.78
Comm    | 214.41     | 214.41     | 214.41     |   0.0 |  0.86
Output  | 0.52132    | 0.52132    | 0.52132    |   0.0 |  0.00
Modify  | 551.77     | 551.77     | 551.77     |   0.0 |  2.21
Other   |            | 69.65      |            |       |  0.28

Nlocal:           4912 ave        4912 max        4912 min
Histogram: 1 0 0 0 0 0 0 0 0 0
Nghost:          16997 ave       16997 max       16997 min
Histogram: 1 0 0 0 0 0 0 0 0 0
Neighs:    1.68657e+06 ave 1.68657e+06 max 1.68657e+06 min
Histogram: 1 0 0 0 0 0 0 0 0 0

Total # of neighbors = 1686572
Ave neighs/atom = 343.35749
Ave special neighs/atom = 1.8322476
Neighbor list builds = 10094
Dangerous builds = 0
DONE koh30_s2_333
Total wall time: 10:23:23
