LAMMPS (22 Jul 2025 - Update 5)
  using 1 OpenMP thread(s) per MPI task
Reading data file ...
  orthogonal box = (0 0 0) to (37.095719 37.095719 37.095719)
  1 by 1 by 1 MPI processor grid
  reading atoms ...
  4912 atoms
  scanning bonds ...
  2 = max bonds/atom
  scanning angles ...
  1 = max angles/atom
  orthogonal box = (0 0 0) to (37.095719 37.095719 37.095719)
  1 by 1 by 1 MPI processor grid
  reading bonds ...
  3000 bonds
  reading angles ...
  1500 angles
Finding 1-2 1-3 1-4 neighbors ...
  special bond factors lj:    0        0        0       
  special bond factors coul:  0        0        0       
     2 = max # of 1-2 neighbors
     1 = max # of 1-3 neighbors
     1 = max # of 1-4 neighbors
     2 = max # of special neighbors
  special bonds CPU = 0.002 seconds
  read_data CPU = 0.032 seconds
4500 atoms in group watr
206 atoms in group kion
206 atoms in group ohion
412 atoms in group ions
Finding SHAKE clusters ...
       0 = # of size 2 clusters
       0 = # of size 3 clusters
       0 = # of size 4 clusters
    1500 = # of frozen angles
  find clusters CPU = 0.002 seconds
PPPM initialization ...
  using 12-bit tables for long-range coulomb
  G vector (1/distance) = 0.30441929
  grid = 32 32 32
  stencil order = 5
  estimated absolute RMS force accuracy = 0.0035943975
  estimated relative force accuracy = 1.0824421e-05
  using double precision FFTW3
  3d grid and FFT values/proc = 59319 32768
Generated 6 of 6 mixed pair_coeff terms from arithmetic mixing rule
WARNING: Should not use fix nve/limit with fix shake or fix rattle (src/lammps/src/fix_nve_limit.cpp:76)
Neighbor list info ...
  update: every = 1 steps, delay = 0 steps, check = yes
  max neighbors/atom: 2000, page size: 100000
  master list distance cutoff = 12
  ghost atom cutoff = 12
  binsize = 6, bins = 7 7 7
  1 neighbor lists, perpetual/occasional/extra = 1 0 0
  (1) pair lj/cut/coul/long, perpetual
      attributes: half, newton on
      pair build: half/bin/newton
      stencil: half/bin/3d
      bin: standard
Setting up Verlet run ...
  Unit style    : real
  Current step  : 0
  Time step     : 0.2
Per MPI rank memory allocation (min/avg/max) = 27.63 | 27.63 | 27.63 Mbytes
   Step          Temp          Press         Density         PotEng         Volume    
         0   333            44164.613      1.2550109     -229.24188      51047.136    
       500   803.13215      5888.028       1.2550109     -50471.13       51047.136    
      1000   432.46302     -1275.4195      1.2550109     -55988.014      51047.136    
      1500   364.61138     -2825.0938      1.2550109     -57523.407      51047.136    
      2000   351.86487     -2585.0326      1.2550109     -58151.977      51047.136    
      2500   340.47668     -3099.4741      1.2550109     -58447.686      51047.136    
      3000   326.87859     -4786.8563      1.2550109     -58739.874      51047.136    
      3500   346.77152     -3592.7705      1.2550109     -58886.259      51047.136    
      4000   329.94772     -2189.0684      1.2550109     -59009.247      51047.136    
      4500   338.5676      -3711.7984      1.2550109     -59038.123      51047.136    
      5000   334.74203     -4054.1058      1.2550109     -59178.55       51047.136    
      5500   338.44336     -3333.8901      1.2550109     -59295.626      51047.136    
      6000   334.6274      -4029.6456      1.2550109     -59338.341      51047.136    
      6500   340.43626     -4819.1549      1.2550109     -59432.972      51047.136    
      7000   330.71888     -4090.3747      1.2550109     -59501.849      51047.136    
      7500   332.28235     -1062.632       1.2550109     -59562.378      51047.136    
      8000   329.38706     -3509.7243      1.2550109     -59590.463      51047.136    
      8500   333.70105     -894.99888      1.2550109     -59564.895      51047.136    
      9000   342.27526     -4734.9937      1.2550109     -59711.363      51047.136    
      9500   334.6436      -2988.9629      1.2550109     -59680.581      51047.136    
     10000   338.97705     -1659.173       1.2550109     -59648.213      51047.136    
     10500   328.24218     -3811.8555      1.2550109     -59724.49       51047.136    
     11000   348.96812     -492.19987      1.2550109     -59625.885      51047.136    
     11500   335.67809     -3104.3796      1.2550109     -59625.03       51047.136    
     12000   331.33668     -1575.9628      1.2550109     -59665.894      51047.136    
     12500   332.98826     -2132.4955      1.2550109     -59675.16       51047.136    
     13000   340.85507     -3348.0757      1.2550109     -59708.044      51047.136    
     13500   330.85742     -4885.7169      1.2550109     -59729.636      51047.136    
     14000   333.85371     -3789.0112      1.2550109     -59639.695      51047.136    
     14500   334.95511     -4386.7684      1.2550109     -59771.091      51047.136    
     15000   334.12905     -4004.6891      1.2550109     -59653.931      51047.136    
     15500   339.76227     -4159.3743      1.2550109     -59840.559      51047.136    
     16000   330.45765     -2598.3199      1.2550109     -59766.907      51047.136    
     16500   336.91161     -3020.7533      1.2550109     -59788.482      51047.136    
     17000   327.75023     -4074.1396      1.2550109     -59881.417      51047.136    
     17500   337.27999     -1635.2807      1.2550109     -59837.077      51047.136    
     18000   324.4274      -3296.0583      1.2550109     -59815.625      51047.136    
     18500   330.25784     -1526.8257      1.2550109     -59795.603      51047.136    
     19000   328.52877     -3525.4776      1.2550109     -59920.673      51047.136    
     19500   340.12859     -3481.0944      1.2550109     -59945.005      51047.136    
     20000   335.59458     -2882.3043      1.2550109     -59889.072      51047.136    
Loop time of 939.683 on 1 procs for 20000 steps with 4912 atoms

Performance: 0.368 ns/day, 65.256 hours/ns, 21.284 timesteps/s, 104.546 katom-step/s
100.0% CPU use with 1 MPI tasks x 1 OpenMP threads

MPI task timing breakdown:
Section |  min time  |  avg time  |  max time  |%varavg| %total
---------------------------------------------------------------
Pair    | 702.1      | 702.1      | 702.1      |   0.0 | 74.72
Bond    | 0.081166   | 0.081166   | 0.081166   |   0.0 |  0.01
Kspace  | 190.05     | 190.05     | 190.05     |   0.0 | 20.22
Neigh   | 10.102     | 10.102     | 10.102     |   0.0 |  1.08
Comm    | 10.458     | 10.458     | 10.458     |   0.0 |  1.11
Output  | 0.0047312  | 0.0047312  | 0.0047312  |   0.0 |  0.00
Modify  | 23.676     | 23.676     | 23.676     |   0.0 |  2.52
Other   |            | 3.211      |            |       |  0.34

Nlocal:           4912 ave        4912 max        4912 min
Histogram: 1 0 0 0 0 0 0 0 0 0
Nghost:          17067 ave       17067 max       17067 min
Histogram: 1 0 0 0 0 0 0 0 0 0
Neighs:    1.70942e+06 ave 1.70942e+06 max 1.70942e+06 min
Histogram: 1 0 0 0 0 0 0 0 0 0

Total # of neighbors = 1709423
Ave neighs/atom = 348.00957
Ave special neighs/atom = 1.8322476
Neighbor list builds = 201
Dangerous builds = 0
PPPM initialization ...
  using 12-bit tables for long-range coulomb
  G vector (1/distance) = 0.30441929
  grid = 32 32 32
  stencil order = 5
  estimated absolute RMS force accuracy = 0.0035943975
  estimated relative force accuracy = 1.0824421e-05
  using double precision FFTW3
  3d grid and FFT values/proc = 59319 32768
Generated 6 of 6 mixed pair_coeff terms from arithmetic mixing rule
Setting up Verlet run ...
  Unit style    : real
  Current step  : 20000
  Time step     : 0.5
Per MPI rank memory allocation (min/avg/max) = 27.63 | 27.63 | 27.63 Mbytes
   Step          Temp          Press         Density         PotEng         Volume    
     20000   335.59458     -2771.0968      1.2550109     -59889.072      51047.136    
     20500   335.16451     -2896.4205      1.2550109     -59798.691      51047.136    
     21000   333.55975     -2777.8845      1.2550109     -59827.284      51047.136    
     21500   333.39514     -2880.6504      1.2550109     -59847.338      51047.136    
     22000   331.10676     -3292.9358      1.2550109     -59938.141      51047.136    
     22500   335.01617     -2148.953       1.2550109     -59921.956      51047.136    
     23000   343.74714     -3319.8615      1.2550109     -60037.818      51047.136    
     23500   328.47579     -2897.3001      1.2550109     -60024.469      51047.136    
     24000   331.10244     -2643.5047      1.2550109     -59885.842      51047.136    
     24500   335.33398     -1520.322       1.2550109     -59966.049      51047.136    
     25000   331.06272     -2566.2221      1.2550109     -60106.877      51047.136    
     25500   327.25904     -3052.5912      1.2550109     -60119.784      51047.136    
     26000   327.74795     -2709.3984      1.2550109     -60211.333      51047.136    
     26500   331.51103     -2983.6786      1.2550109     -60122.382      51047.136    
     27000   326.47302     -3376.6053      1.2550109     -60228.583      51047.136    
     27500   327.04524     -3982.7104      1.2550109     -60098.741      51047.136    
     28000   333.99156     -3193.4287      1.2550109     -60179.524      51047.136    
     28500   329.32095     -4298.6129      1.2550109     -60154.899      51047.136    
     29000   335.08723     -4144.6563      1.2550109     -60228.809      51047.136    
     29500   336.87747     -3279.249       1.2550109     -60191.596      51047.136    
     30000   335.09301     -2735.4662      1.2550109     -60224.209      51047.136    
     30500   332.12705     -3814.6882      1.2550109     -60217.551      51047.136    
     31000   335.11199     -3599.6447      1.2550109     -60217.956      51047.136    
     31500   331.75012     -3052.0879      1.2550109     -60196.183      51047.136    
     32000   334.68099     -2925.7084      1.2550109     -60171.985      51047.136    
     32500   333.00814     -3029.3093      1.2550109     -60029.193      51047.136    
     33000   338.9362      -1962.7438      1.2550109     -60094.866      51047.136    
     33500   336.84291     -3363.2181      1.2550109     -60112.371      51047.136    
     34000   341.0649      -1961.0471      1.2550109     -60117.499      51047.136    
     34500   340.74329     -2887.6755      1.2550109     -60141.697      51047.136    
     35000   326.73341     -3820.1733      1.2550109     -60138.944      51047.136    
     35500   330.12093     -2172.2616      1.2550109     -60100.553      51047.136    
     36000   336.80651     -3488.1548      1.2550109     -60206.964      51047.136    
     36500   333.67682     -2292.5134      1.2550109     -60259.217      51047.136    
     37000   328.02306     -2995.2414      1.2550109     -60140.884      51047.136    
     37500   330.36662     -2709.1474      1.2550109     -60263.393      51047.136    
     38000   334.50725     -2790.3593      1.2550109     -60177.307      51047.136    
     38500   338.7618      -3459.2504      1.2550109     -60264.307      51047.136    
     39000   340.78112     -2561.4843      1.2550109     -60275.656      51047.136    
     39500   330.26696     -2615.7983      1.2550109     -60229.499      51047.136    
     40000   333.01726     -2543.2821      1.2550109     -60327.235      51047.136    
Loop time of 805.063 on 1 procs for 20000 steps with 4912 atoms

Performance: 1.073 ns/day, 22.363 hours/ns, 24.843 timesteps/s, 122.028 katom-step/s
100.0% CPU use with 1 MPI tasks x 1 OpenMP threads

MPI task timing breakdown:
Section |  min time  |  avg time  |  max time  |%varavg| %total
---------------------------------------------------------------
Pair    | 604.23     | 604.23     | 604.23     |   0.0 | 75.05
Bond    | 0.061919   | 0.061919   | 0.061919   |   0.0 |  0.01
Kspace  | 150.17     | 150.17     | 150.17     |   0.0 | 18.65
Neigh   | 21.564     | 21.564     | 21.564     |   0.0 |  2.68
Comm    | 7.4761     | 7.4761     | 7.4761     |   0.0 |  0.93
Output  | 0.0044664  | 0.0044664  | 0.0044664  |   0.0 |  0.00
Modify  | 19.275     | 19.275     | 19.275     |   0.0 |  2.39
Other   |            | 2.288      |            |       |  0.28

Nlocal:           4912 ave        4912 max        4912 min
Histogram: 1 0 0 0 0 0 0 0 0 0
Nghost:          17017 ave       17017 max       17017 min
Histogram: 1 0 0 0 0 0 0 0 0 0
Neighs:    1.70889e+06 ave 1.70889e+06 max 1.70889e+06 min
Histogram: 1 0 0 0 0 0 0 0 0 0

Total # of neighbors = 1708890
Ave neighs/atom = 347.90106
Ave special neighs/atom = 1.8322476
Neighbor list builds = 491
Dangerous builds = 0
PPPM initialization ...
  using 12-bit tables for long-range coulomb
  G vector (1/distance) = 0.30441929
  grid = 32 32 32
  stencil order = 5
  estimated absolute RMS force accuracy = 0.0035943975
  estimated relative force accuracy = 1.0824421e-05
  using double precision FFTW3
  3d grid and FFT values/proc = 59319 32768
Generated 6 of 6 mixed pair_coeff terms from arithmetic mixing rule
Setting up Verlet run ...
  Unit style    : real
  Current step  : 40000
  Time step     : 1
Per MPI rank memory allocation (min/avg/max) = 27.63 | 27.63 | 27.63 Mbytes
   Step          Temp          Press         Density         PotEng         Volume    
     40000   333.01726     -2371.0067      1.2550109     -60327.235      51047.136    
     40500   330.07876      467.4984       1.3132904     -60541.267      48781.832    
     41000   331.65041     -338.94684      1.3198115     -60602.84       48540.805    
     41500   340.79293     -249.18803      1.325799      -60511.185      48321.586    
     42000   325.22405      571.5794       1.3457788     -60652.607      47604.192    
     42500   337.5588      -940.38006      1.336257      -60616.983      47943.406    
     43000   328.40596      522.66451      1.356134      -60883.906      47240.694    
     43500   330.25397     -469.43827      1.3539233     -60719.365      47317.828    
     44000   332.46058     -282.923        1.3588723     -60790.415      47145.496    
     44500   336.44101      457.60556      1.3733123     -60900.756      46649.777    
     45000   337.56329     -305.57014      1.3619576     -60954.707      47038.697    
     45500   334.50584     -573.80562      1.3653229     -60878.995      46922.753    
     46000   333.312       -549.8599       1.3742269     -60791.701      46618.726    
     46500   327.96447      126.35979      1.3688251     -60777.886      46802.7      
     47000   335.49749     -288.63228      1.3756944     -60854.239      46568.998    
     47500   334.77516     -815.01684      1.3726467     -60886.642      46672.394    
     48000   326.40865      911.21781      1.3778949     -60851.465      46494.626    
     48500   342.26771     -359.05572      1.3676375     -60906.03       46843.341    
     49000   329.56942      830.98886      1.3664996     -60905.623      46882.349    
     49500   334.46604      1132.3607      1.3697268     -60933.814      46771.89     
     50000   333.33454      166.88008      1.3731823     -60837.675      46654.191    
     50500   338.03488      243.10675      1.3665792     -60727.567      46879.617    
     51000   337.6366      -235.04275      1.366224      -60863.875      46891.806    
     51500   330.27269      166.06182      1.3673516     -60908.388      46853.134    
     52000   330.61943      39.006492      1.3746936     -60917.44       46602.901    
     52500   331.80437      357.04701      1.3765977     -60927.801      46538.442    
     53000   336.12485      1037.0581      1.3845052     -60920.79       46272.639    
     53500   334.53195      671.54535      1.3742646     -60822.877      46617.45     
     54000   340.93693      1204.8286      1.3805201     -60917.16       46406.214    
     54500   327.81561      663.9121       1.3853866     -60969.431      46243.2      
     55000   339.27449      697.87824      1.3789214     -60961.928      46460.015    
     55500   331.37099      648.32254      1.3738764     -60941.239      46630.622    
     56000   324.93977      355.42575      1.3798792     -61057.555      46427.768    
     56500   323.12952      227.51551      1.3846233     -60882.406      46268.692    
     57000   326.20884     -237.35659      1.377686      -60947.019      46501.677    
     57500   338.16777      75.801716      1.3828106     -61004.87       46329.347    
     58000   333.08542      783.89474      1.3825229     -60861.443      46338.985    
     58500   331.76575      246.43154      1.3833233     -61054.333      46312.173    
     59000   342.16623     -601.80151      1.3771119     -60981.74       46521.065    
     59500   338.07622     -331.19302      1.379181      -60938.784      46451.272    
     60000   330.33157      680.76003      1.3802588     -60997.886      46414.998    
     60500   337.37853      926.24507      1.3813767     -61025.063      46377.436    
     61000   324.00906      27.412606      1.3724838     -60908.365      46677.934    
     61500   333.36504     -497.40407      1.3732584     -61003.226      46651.605    
     62000   338.47754      427.68443      1.3936207     -61002.637      45969.975    
     62500   332.94883     -841.76391      1.3703966     -60916.486      46749.028    
     63000   330.85016      212.89599      1.3819517     -61063.325      46358.14     
     63500   334.12478     -1393.2558      1.3720491     -61016.281      46692.724    
     64000   332.47102      91.60513       1.3793954     -61017.001      46444.051    
     64500   339.55841     -171.53573      1.3755579     -61028.719      46573.619    
     65000   342.63231      53.19632       1.3768755     -60994.966      46529.051    
     65500   324.38666      512.81038      1.3852374     -61052.978      46248.18     
     66000   336.78544      251.73157      1.3834538     -60983.906      46307.806    
     66500   329.33199     -674.55043      1.3802319     -61028.62       46415.903    
     67000   336.08707     -1674.6549      1.3745708     -60981.219      46607.064    
     67500   331.44706     -295.89476      1.3735105     -60948.592      46643.043    
     68000   331.51455     -95.894495      1.3837463     -60958.328      46298.016    
     68500   334.14444     -138.29026      1.3813971     -60994.907      46376.75     
     69000   328.82446      542.67633      1.3830511     -60968.582      46321.289    
     69500   331.29217      254.43228      1.383586      -61069.163      46303.382    
     70000   335.7175       473.41676      1.3770943     -60865.274      46521.658    
Loop time of 1809.74 on 1 procs for 30000 steps with 4912 atoms

Performance: 1.432 ns/day, 16.757 hours/ns, 16.577 timesteps/s, 81.426 katom-step/s
99.9% CPU use with 1 MPI tasks x 1 OpenMP threads

MPI task timing breakdown:
Section |  min time  |  avg time  |  max time  |%varavg| %total
---------------------------------------------------------------
Pair    | 1180.4     | 1180.4     | 1180.4     |   0.0 | 65.23
Bond    | 0.19129    | 0.19129    | 0.19129    |   0.0 |  0.01
Kspace  | 287.51     | 287.51     | 287.51     |   0.0 | 15.89
Neigh   | 92.8       | 92.8       | 92.8       |   0.0 |  5.13
Comm    | 18.829     | 18.829     | 18.829     |   0.0 |  1.04
Output  | 0.0058965  | 0.0058965  | 0.0058965  |   0.0 |  0.00
Modify  | 220.08     | 220.08     | 220.08     |   0.0 | 12.16
Other   |            | 9.925      |            |       |  0.55

Nlocal:           4912 ave        4912 max        4912 min
Histogram: 1 0 0 0 0 0 0 0 0 0
Nghost:          17769 ave       17769 max       17769 min
Histogram: 1 0 0 0 0 0 0 0 0 0
Neighs:    1.87406e+06 ave 1.87406e+06 max 1.87406e+06 min
Histogram: 1 0 0 0 0 0 0 0 0 0

Total # of neighbors = 1874063
Ave neighs/atom = 381.52748
Ave special neighs/atom = 1.8322476
Neighbor list builds = 1502
Dangerous builds = 0
PPPM initialization ...
  using 12-bit tables for long-range coulomb
  G vector (1/distance) = 0.30668745
  grid = 32 32 32
  stencil order = 5
  estimated absolute RMS force accuracy = 0.0032770296
  estimated relative force accuracy = 9.8686774e-06
  using double precision FFTW3
  3d grid and FFT values/proc = 59319 32768
Generated 6 of 6 mixed pair_coeff terms from arithmetic mixing rule
Setting up Verlet run ...
  Unit style    : real
  Current step  : 0
  Time step     : 1
Per MPI rank memory allocation (min/avg/max) = 28.4 | 28.4 | 28.4 Mbytes
   Step          Temp          Press         Density         PotEng         Volume    
         0   335.7175       519.49733      1.3770943     -60865.277      46521.658    
       500   335.0427       1260.307       1.3960841     -61035.74       45888.862    
      1000   332.59535     -126.59003      1.3817151     -60873.168      46366.077    
      1500   336.88416      816.80221      1.3911687     -60973.315      46051        
      2000   342.42655      245.54061      1.3810058     -60902.517      46389.892    
      2500   342.85852      525.1327       1.3828265     -60944.87       46328.811    
      3000   332.96447     -492.33527      1.3771255     -60998.061      46520.605    
      3500   332.36393      574.35298      1.3782505     -60989.719      46482.631    
      4000   339.31348     -739.91818      1.3676937     -60870.337      46841.415    
      4500   331.85528      396.22338      1.3893032     -60964.305      46112.835    
      5000   335.77713     -26.825497      1.3855777     -61003.748      46236.822    
      5500   335.94794     -705.86795      1.3721455     -60971.561      46689.444    
      6000   329.81096     -39.454006      1.3817619     -60930.139      46364.506    
      6500   327.05405     -892.64431      1.3699301     -61050.301      46764.947    
      7000   329.23234      9.7147582      1.3749235     -60968.823      46595.11     
      7500   336.68518     -695.51828      1.3718297     -60913.781      46700.193    
      8000   333.26521      337.95255      1.3791623     -60953.3        46451.902    
      8500   327.52095      449.50684      1.3712737     -60996.942      46719.127    
      9000   320.28783     -221.4556       1.3695867     -60966.053      46776.674    
      9500   326.16324      877.28318      1.3792175     -61033.74       46450.04     
     10000   330.96093     -40.440059      1.3752105     -61060.526      46585.385    
     10500   341.67453      77.752639      1.3734544     -61098.91       46644.95     
     11000   328.41116      282.56242      1.3700652     -60946.614      46760.335    
     11500   322.76248      946.80678      1.3734729     -61035.864      46644.321    
     12000   328.23021      688.8674       1.3772534     -61008.742      46516.283    
     12500   338.77637     -84.585247      1.3756245     -61030.714      46571.363    
     13000   338.35393     -214.78639      1.3773386     -60996.007      46513.407    
     13500   330.31732     -495.03595      1.3797819     -61090.095      46431.042    
     14000   337.80956     -379.02388      1.3840294     -61018.584      46288.548    
     14500   328.62199      859.17253      1.3807782     -60895.603      46397.538    
     15000   335.50115      296.36838      1.3826455     -61015.284      46334.877    
     15500   329.13409      884.35382      1.3847295     -61021.077      46265.143    
     16000   328.21646      270.40655      1.3769524     -61025.045      46526.451    
     16500   337.72095     -223.34122      1.3792214     -60939.697      46449.911    
     17000   322.75104      305.02584      1.3897433     -61141.766      46098.233    
     17500   331.94743     -562.69158      1.3743715     -60968.685      46613.822    
     18000   331.50994     -908.99834      1.378934      -61019.829      46459.591    
     18500   333.82408     -429.28464      1.3794805     -61130.03       46441.185    
     19000   333.36692     -841.40169      1.3840567     -61102.896      46287.635    
     19500   333.03287     -459.53708      1.3837214     -61055.311      46298.849    
     20000   333.45782     -289.13682      1.3934752     -61081.45       45974.775    
     20500   333.46196     -99.514623      1.3873286     -61156.124      46178.468    
     21000   329.43017      821.00349      1.3948208     -61128.203      45930.422    
     21500   337.52216      371.0929       1.3914351     -61038.06       46042.183    
     22000   332.65159     -122.1499       1.3871642     -61003.411      46183.941    
     22500   333.22977     -134.23631      1.386647      -61055.304      46201.168    
     23000   328.21449      191.31836      1.3817851     -61065.417      46363.728    
     23500   334.2919       280.69895      1.3874704     -61009.165      46173.749    
     24000   339.80126     -570.86325      1.3794772     -61042.669      46441.295    
     24500   329.55343      1231.6286      1.3967212     -61117.192      45867.929    
     25000   331.83235      380.55347      1.3898637     -61020.914      46094.24     
     25500   330.71704     -116.10223      1.3836784     -61064.633      46300.288    
     26000   337.40143      572.14647      1.3928481     -60993.065      45995.474    
     26500   328.16152      8.6418639      1.3916095     -61151.252      46036.415    
     27000   330.85588     -237.56832      1.3844653     -61023.859      46273.972    
     27500   333.62228      930.97657      1.3994769     -61115.752      45777.613    
     28000   331.43016      79.962288      1.3824434     -61080.348      46341.651    
     28500   336.0867      -303.553        1.3758036     -61071.635      46565.3      
     29000   329.66995      213.99819      1.3875507     -61122.065      46171.076    
     29500   329.43864     -450.13478      1.3829521     -61220.835      46324.604    
     30000   333.63031     -325.21261      1.3896048     -61061.543      46102.827    
     30500   330.20464     -413.24985      1.3883916     -61140.14       46143.111    
     31000   331.28855      411.66489      1.3858061     -61152.497      46229.201    
     31500   326.63368     -435.82883      1.3861748     -61068.73       46216.907    
     32000   321.13379      484.53543      1.3853868     -61032.132      46243.192    
     32500   332.7923       71.193084      1.3867572     -61052.491      46197.497    
     33000   332.5749      -189.44929      1.3896661     -61058.942      46100.792    
     33500   328.2306       40.769674      1.380298      -61074.332      46413.679    
     34000   340.49012      156.23415      1.3859016     -61152.325      46226.016    
     34500   336.93782     -263.05673      1.3734586     -60970.894      46644.806    
     35000   329.76356     -745.30446      1.3793959     -61125.646      46444.035    
     35500   327.69902     -548.23925      1.372603      -61052.979      46673.883    
     36000   328.41739      387.13844      1.3815668     -61014.826      46371.056    
     36500   333.35836      142.48081      1.3789965     -61020.221      46457.485    
     37000   320.90653     -35.915286      1.3809775     -61076.824      46390.843    
     37500   340.27975     -380.21689      1.3794528     -61019.957      46442.12     
     38000   334.74665      169.83594      1.3883837     -60983.605      46143.375    
     38500   335.7769       559.02632      1.3829859     -61090.137      46323.472    
     39000   337.5967      -33.801462      1.3854052     -61150.773      46242.581    
     39500   331.46723      676.70877      1.3931017     -61063.977      45987.103    
     40000   335.52745     -874.92418      1.3790632     -61040.241      46455.237    
     40500   325.26033      60.986637      1.3881099     -61072.049      46152.477    
     41000   336.39374      75.793408      1.3838577     -61059.064      46294.289    
     41500   330.81811      239.90569      1.3925527     -61044.693      46005.233    
     42000   329.94202      43.828774      1.3863463     -61093.514      46211.189    
     42500   327.9919      -400.50757      1.3785289     -61037.171      46473.246    
     43000   325.58527      41.343622      1.388147      -61095.362      46151.245    
     43500   333.61438      898.36584      1.3850691     -61031.16       46253.802    
     44000   334.46496     -917.2555       1.372485      -60996.918      46677.896    
     44500   333.75405      454.58684      1.3781437     -61075.88       46486.233    
     45000   338.27104      599.42423      1.3845897     -61129.543      46269.817    
     45500   328.87129     -369.25719      1.3791586     -60985.254      46452.026    
     46000   331.66051     -172.5216       1.3841456     -61138.103      46284.662    
     46500   324.69124      236.43338      1.3870819     -61076.495      46186.682    
     47000   331.54346      361.22383      1.3894428     -61008.007      46108.204    
     47500   333.29911      315.46447      1.3825128     -61024.818      46339.326    
     48000   324.32439     -5.7202989      1.382015      -61109.643      46356.016    
     48500   338.67712     -253.12428      1.3704194     -60933.299      46748.252    
     49000   342.54963      197.23618      1.3788548     -61052.416      46462.26     
     49500   333.1503       178.38497      1.3756739     -60998.601      46569.692    
     50000   334.94507      520.63441      1.3724151     -60987.264      46680.273    
Loop time of 2979.92 on 1 procs for 50000 steps with 4912 atoms

Performance: 1.450 ns/day, 16.555 hours/ns, 16.779 timesteps/s, 82.418 katom-step/s
99.9% CPU use with 1 MPI tasks x 1 OpenMP threads

MPI task timing breakdown:
Section |  min time  |  avg time  |  max time  |%varavg| %total
---------------------------------------------------------------
Pair    | 1958.2     | 1958.2     | 1958.2     |   0.0 | 65.71
Bond    | 0.29184    | 0.29184    | 0.29184    |   0.0 |  0.01
Kspace  | 446.39     | 446.39     | 446.39     |   0.0 | 14.98
Neigh   | 157.47     | 157.47     | 157.47     |   0.0 |  5.28
Comm    | 27.869     | 27.869     | 27.869     |   0.0 |  0.94
Output  | 0.0083973  | 0.0083973  | 0.0083973  |   0.0 |  0.00
Modify  | 375.19     | 375.19     | 375.19     |   0.0 | 12.59
Other   |            | 14.55      |            |       |  0.49

Nlocal:           4912 ave        4912 max        4912 min
Histogram: 1 0 0 0 0 0 0 0 0 0
Nghost:          17759 ave       17759 max       17759 min
Histogram: 1 0 0 0 0 0 0 0 0 0
Neighs:    1.86817e+06 ave 1.86817e+06 max 1.86817e+06 min
Histogram: 1 0 0 0 0 0 0 0 0 0

Total # of neighbors = 1868173
Ave neighs/atom = 380.32838
Ave special neighs/atom = 1.8322476
Neighbor list builds = 2496
Dangerous builds = 0
RESULT density_g_cm3 1.38226593269521
PPPM initialization ...
  using 12-bit tables for long-range coulomb
  G vector (1/distance) = 0.30660473
  grid = 32 32 32
  stencil order = 5
  estimated absolute RMS force accuracy = 0.00328814
  estimated relative force accuracy = 9.9021358e-06
  using double precision FFTW3
  3d grid and FFT values/proc = 59319 32768
Generated 6 of 6 mixed pair_coeff terms from arithmetic mixing rule
Setting up Verlet run ...
  Unit style    : real
  Current step  : 0
  Time step     : 1
Per MPI rank memory allocation (min/avg/max) = 30.65 | 30.65 | 30.65 Mbytes
   Step          Temp          Press         Density         PotEng         Volume    
         0   334.94507      442.22273      1.3724151     -60987.264      46680.273    
      5000   345.64144     -78.220426      1.3724151     -60950.9        46680.273    
     10000   324.10279     -695.58228      1.3724151     -60996.934      46680.273    
     15000   332.35669     -891.86781      1.3724151     -61021.484      46680.273    
     20000   328.7913       46.625377      1.3724151     -60892.346      46680.273    
     25000   339.86926     -338.56924      1.3724151     -61021.571      46680.273    
     30000   330.31964     -444.24273      1.3724151     -60947.598      46680.273    
     35000   335.22198      384.85888      1.3724151     -60947.702      46680.273    
     40000   325.18585     -232.50767      1.3724151     -61029.802      46680.273    
     45000   337.70906      328.08938      1.3724151     -60990.821      46680.273    
     50000   330.10205     -198.96745      1.3724151     -60942.007      46680.273    
     55000   341.98934     -176.68259      1.3724151     -60955.442      46680.273    
     60000   331.20264     -437.70332      1.3724151     -60924.539      46680.273    
     65000   335.75048      171.20287      1.3724151     -60915.819      46680.273    
     70000   329.91351     -768.27093      1.3724151     -61025.281      46680.273    
     75000   331.00953      16.906787      1.3724151     -60877.946      46680.273    
     80000   329.03057     -41.699251      1.3724151     -60932.301      46680.273    
     85000   332.95693     -680.12149      1.3724151     -60990.969      46680.273    
     90000   332.69205      21.031218      1.3724151     -60951.645      46680.273    
     95000   334.82565     -224.73859      1.3724151     -61046.01       46680.273    
    100000   336.50987      75.82736       1.3724151     -60965.179      46680.273    
    105000   342.54453      291.83438      1.3724151     -61066.851      46680.273    
    110000   331.86831     -756.48831      1.3724151     -60918.095      46680.273    
    115000   329.19972      414.03518      1.3724151     -61024.155      46680.273    
    120000   334.92982     -398.35666      1.3724151     -60974.694      46680.273    
    125000   332.16638     -628.12377      1.3724151     -60983.415      46680.273    
    130000   334.44301      625.77373      1.3724151     -60956.696      46680.273    
    135000   334.16298     -42.024267      1.3724151     -60953.238      46680.273    
    140000   324.71842      140.29702      1.3724151     -60848.36       46680.273    
    145000   323.46453      196.97923      1.3724151     -61059.392      46680.273    
    150000   333.27118     -138.76834      1.3724151     -61076.993      46680.273    
    155000   334.64492     -495.93705      1.3724151     -60965.758      46680.273    
    160000   331.53309     -958.32191      1.3724151     -61041.143      46680.273    
    165000   334.19112     -485.2317       1.3724151     -61092.542      46680.273    
    170000   334.53288     -795.01676      1.3724151     -60919.524      46680.273    
    175000   338.3187       513.06915      1.3724151     -60824.684      46680.273    
    180000   340.88846     -210.16482      1.3724151     -61107.701      46680.273    
    185000   336.41743     -211.41976      1.3724151     -60961.838      46680.273    
    190000   338.34167     -288.86969      1.3724151     -61027.424      46680.273    
    195000   332.15251     -15.04896       1.3724151     -60920.971      46680.273    
    200000   334.35706      731.69312      1.3724151     -60968.478      46680.273    
Loop time of 12384.3 on 1 procs for 200000 steps with 4912 atoms

Performance: 1.395 ns/day, 17.200 hours/ns, 16.149 timesteps/s, 79.326 katom-step/s
99.8% CPU use with 1 MPI tasks x 1 OpenMP threads

MPI task timing breakdown:
Section |  min time  |  avg time  |  max time  |%varavg| %total
---------------------------------------------------------------
Pair    | 9989.3     | 9989.3     | 9989.3     |   0.0 | 80.66
Bond    | 1.0048     | 1.0048     | 1.0048     |   0.0 |  0.01
Kspace  | 1603.5     | 1603.5     | 1603.5     |   0.0 | 12.95
Neigh   | 470.74     | 470.74     | 470.74     |   0.0 |  3.80
Comm    | 81.821     | 81.821     | 81.821     |   0.0 |  0.66
Output  | 0.0020709  | 0.0020709  | 0.0020709  |   0.0 |  0.00
Modify  | 215.06     | 215.06     | 215.06     |   0.0 |  1.74
Other   |            | 22.81      |            |       |  0.18

Nlocal:           4912 ave        4912 max        4912 min
Histogram: 1 0 0 0 0 0 0 0 0 0
Nghost:          17769 ave       17769 max       17769 min
Histogram: 1 0 0 0 0 0 0 0 0 0
Neighs:    1.86858e+06 ave 1.86858e+06 max 1.86858e+06 min
Histogram: 1 0 0 0 0 0 0 0 0 0

Total # of neighbors = 1868575
Ave neighs/atom = 380.41022
Ave special neighs/atom = 1.8322476
Neighbor list builds = 9935
Dangerous builds = 0
DONE koh30_s3_333
Total wall time: 5:15:19
