LAMMPS (22 Jul 2025 - Update 5)
  using 1 OpenMP thread(s) per MPI task
Reading data file ...
  orthogonal box = (0 0 0) to (36.329424 36.329424 36.329424)
  1 by 1 by 1 MPI processor grid
  reading atoms ...
  4740 atoms
  scanning bonds ...
  2 = max bonds/atom
  scanning angles ...
  1 = max angles/atom
  orthogonal box = (0 0 0) to (36.329424 36.329424 36.329424)
  1 by 1 by 1 MPI processor grid
  reading bonds ...
  3000 bonds
  reading angles ...
  1500 angles
Finding 1-2 1-3 1-4 neighbors ...
  special bond factors lj:    0        0        0       
  special bond factors coul:  0        0        0       
     2 = max # of 1-2 neighbors
     1 = max # of 1-3 neighbors
     1 = max # of 1-4 neighbors
     2 = max # of special neighbors
  special bonds CPU = 0.002 seconds
  read_data CPU = 0.053 seconds
Setting atom values ...
  120 settings made for charge
Setting atom values ...
  120 settings made for charge
4500 atoms in group watr
120 atoms in group kion
120 atoms in group ohion
240 atoms in group ions
Finding SHAKE clusters ...
       0 = # of size 2 clusters
       0 = # of size 3 clusters
       0 = # of size 4 clusters
    1500 = # of frozen angles
  find clusters CPU = 0.002 seconds
PPPM initialization ...
  using 12-bit tables for long-range coulomb
  G vector (1/distance) = 0.30117939
  grid = 30 30 30
  stencil order = 5
  estimated absolute RMS force accuracy = 0.0040089904
  estimated relative force accuracy = 1.2072955e-05
  using double precision FFTW3
  3d grid and FFT values/proc = 50653 27000
Generated 6 of 6 mixed pair_coeff terms from geometric mixing rule
WARNING: Should not use fix nve/limit with fix shake or fix rattle (src/lammps/src/fix_nve_limit.cpp:76)
Neighbor list info ...
  update: every = 1 steps, delay = 0 steps, check = yes
  max neighbors/atom: 2000, page size: 100000
  master list distance cutoff = 12
  ghost atom cutoff = 12
  binsize = 6, bins = 7 7 7
  1 neighbor lists, perpetual/occasional/extra = 1 0 0
  (1) pair lj/cut/coul/long, perpetual
      attributes: half, newton on
      pair build: half/bin/newton
      stencil: half/bin/3d
      bin: standard
Setting up Verlet run ...
  Unit style    : real
  Current step  : 0
  Time step     : 0.2
Per MPI rank memory allocation (min/avg/max) = 26.79 | 26.79 | 26.79 Mbytes
   Step          Temp          Press         Density         PotEng         Volume    
         0   298            40293.863      1.1690128      3564.2144      47948.556    
       500   584.10435      8448.5396      1.1690128     -26131.735      47948.556    
      1000   358.78724     -1009.1534      1.1690128     -29430.063      47948.556    
      1500   312.51108     -1870.0081      1.1690128     -30418.3        47948.556    
      2000   310.8842      -1955.7555      1.1690128     -30957.884      47948.556    
      2500   301.98952     -327.58605      1.1690128     -31168.804      47948.556    
      3000   307.32784     -635.94552      1.1690128     -31364.95       47948.556    
      3500   299.55171      154.53123      1.1690128     -31474.658      47948.556    
      4000   297.71442      98.711959      1.1690128     -31641.112      47948.556    
      4500   304.04706     -1528.8764      1.1690128     -31702.684      47948.556    
      5000   297.95046      958.73437      1.1690128     -31699.889      47948.556    
      5500   300.73107     -1381.5455      1.1690128     -31842.25       47948.556    
      6000   301.77833      276.29277      1.1690128     -31807.519      47948.556    
      6500   305.76254     -591.78815      1.1690128     -31947.623      47948.556    
      7000   303.17466     -596.42374      1.1690128     -31954.763      47948.556    
      7500   299.22892     -619.30914      1.1690128     -31997.569      47948.556    
      8000   294.09365     -1862.2664      1.1690128     -32059.389      47948.556    
      8500   302.76626     -1264.7923      1.1690128     -31954.235      47948.556    
      9000   296.13179      2108.5801      1.1690128     -32083.279      47948.556    
      9500   294.32685      6.5589091      1.1690128     -32035.595      47948.556    
     10000   295.91929     -1330.7937      1.1690128     -32085.819      47948.556    
     10500   297.27519      601.61941      1.1690128     -32146.103      47948.556    
     11000   302.67636      155.70544      1.1690128     -32088.034      47948.556    
     11500   299.29458      1102.0899      1.1690128     -32149.739      47948.556    
     12000   294.85854     -1688.848       1.1690128     -32097.787      47948.556    
     12500   299.21631      119.2263       1.1690128     -32089.765      47948.556    
     13000   300.95995     -1428.6519      1.1690128     -32153.536      47948.556    
     13500   298.51771      1128.1209      1.1690128     -32216.285      47948.556    
     14000   297.47795     -199.18764      1.1690128     -32152.08       47948.556    
     14500   296.41536      122.34067      1.1690128     -32174.462      47948.556    
     15000   297.29699     -2802.39        1.1690128     -32201.043      47948.556    
     15500   299.34827     -1158.5202      1.1690128     -32210.099      47948.556    
     16000   301.5386       863.37906      1.1690128     -32226.358      47948.556    
     16500   300.4202       43.791325      1.1690128     -32193.346      47948.556    
     17000   296.49147     -1051.968       1.1690128     -32296.459      47948.556    
     17500   301.07472      941.52666      1.1690128     -32290.057      47948.556    
     18000   295.22358     -1104.484       1.1690128     -32177.725      47948.556    
     18500   299.15463     -112.41161      1.1690128     -32232.839      47948.556    
     19000   301.18982      513.04689      1.1690128     -32243.956      47948.556    
     19500   295.0401      -573.88089      1.1690128     -32296.774      47948.556    
     20000   300.52702     -1898.9805      1.1690128     -32344.079      47948.556    
Loop time of 1701.72 on 1 procs for 20000 steps with 4740 atoms

Performance: 0.203 ns/day, 118.175 hours/ns, 11.753 timesteps/s, 55.709 katom-step/s
62.4% CPU use with 1 MPI tasks x 1 OpenMP threads

MPI task timing breakdown:
Section |  min time  |  avg time  |  max time  |%varavg| %total
---------------------------------------------------------------
Pair    | 1321.2     | 1321.2     | 1321.2     |   0.0 | 77.64
Bond    | 0.16828    | 0.16828    | 0.16828    |   0.0 |  0.01
Kspace  | 287.94     | 287.94     | 287.94     |   0.0 | 16.92
Neigh   | 16.264     | 16.264     | 16.264     |   0.0 |  0.96
Comm    | 20.731     | 20.731     | 20.731     |   0.0 |  1.22
Output  | 0.031153   | 0.031153   | 0.031153   |   0.0 |  0.00
Modify  | 48.103     | 48.103     | 48.103     |   0.0 |  2.83
Other   |            | 7.26       |            |       |  0.43

Nlocal:           4740 ave        4740 max        4740 min
Histogram: 1 0 0 0 0 0 0 0 0 0
Nghost:          16924 ave       16924 max       16924 min
Histogram: 1 0 0 0 0 0 0 0 0 0
Neighs:    1.69433e+06 ave 1.69433e+06 max 1.69433e+06 min
Histogram: 1 0 0 0 0 0 0 0 0 0

Total # of neighbors = 1694328
Ave neighs/atom = 357.45316
Ave special neighs/atom = 1.8987342
Neighbor list builds = 185
Dangerous builds = 0
PPPM initialization ...
  using 12-bit tables for long-range coulomb
  G vector (1/distance) = 0.30117939
  grid = 30 30 30
  stencil order = 5
  estimated absolute RMS force accuracy = 0.0040089904
  estimated relative force accuracy = 1.2072955e-05
  using double precision FFTW3
  3d grid and FFT values/proc = 50653 27000
Generated 6 of 6 mixed pair_coeff terms from geometric mixing rule
Setting up Verlet run ...
  Unit style    : real
  Current step  : 20000
  Time step     : 0.5
Per MPI rank memory allocation (min/avg/max) = 26.79 | 26.79 | 26.79 Mbytes
   Step          Temp          Press         Density         PotEng         Volume    
     20000   300.52702     -221.78405      1.1690128     -32344.079      47948.556    
     20500   296.18247     -144.47863      1.1690128     -32260.27       47948.556    
     21000   299.48492     -410.98915      1.1690128     -32338.95       47948.556    
     21500   300.05969     -248.9928       1.1690128     -32397.038      47948.556    
     22000   298.03008     -349.06722      1.1690128     -32347.484      47948.556    
     22500   300.39055      978.06301      1.1690128     -32311.785      47948.556    
     23000   302.64602     -338.59464      1.1690128     -32456.122      47948.556    
     23500   296.94426      524.68099      1.1690128     -32367.192      47948.556    
     24000   299.10537      382.02297      1.1690128     -32412.021      47948.556    
     24500   294.78186      587.21533      1.1690128     -32405.796      47948.556    
     25000   303.87799      189.07248      1.1690128     -32433.16       47948.556    
     25500   293.07562     -288.07778      1.1690128     -32479.014      47948.556    
     26000   301.04835     -463.70827      1.1690128     -32449.195      47948.556    
     26500   294.41671     -1083.4303      1.1690128     -32521.299      47948.556    
     27000   294.54756      135.77891      1.1690128     -32492.394      47948.556    
     27500   302.92316      320.55344      1.1690128     -32534.571      47948.556    
     28000   293.35493     -143.03056      1.1690128     -32448.975      47948.556    
     28500   292.5709       1245.6047      1.1690128     -32423.023      47948.556    
     29000   308.43272     -669.75178      1.1690128     -32468.008      47948.556    
     29500   304.25594     -22.912168      1.1690128     -32390.818      47948.556    
     30000   297.15736      590.63265      1.1690128     -32313.046      47948.556    
     30500   300.11219     -123.64568      1.1690128     -32365.185      47948.556    
     31000   301.34323     -953.17801      1.1690128     -32448.931      47948.556    
     31500   302.39207     -782.35851      1.1690128     -32482.721      47948.556    
     32000   305.65397     -1338.0267      1.1690128     -32477.333      47948.556    
     32500   301.6798      -174.98046      1.1690128     -32459.829      47948.556    
     33000   299.85683      114.49926      1.1690128     -32558.547      47948.556    
     33500   294.95467     -61.718659      1.1690128     -32486.689      47948.556    
     34000   300.29811      683.6558       1.1690128     -32407.645      47948.556    
     34500   303.07704     -790.2926       1.1690128     -32413.184      47948.556    
     35000   303.69607     -620.29065      1.1690128     -32312.965      47948.556    
     35500   301.46404     -350.26331      1.1690128     -32428.044      47948.556    
     36000   292.81772      825.74886      1.1690128     -32395.544      47948.556    
     36500   296.94247     -64.290487      1.1690128     -32500.788      47948.556    
     37000   300.68337     -204.46228      1.1690128     -32474.419      47948.556    
     37500   303.83392     -402.08241      1.1690128     -32531.534      47948.556    
     38000   300.68        -618.3174       1.1690128     -32533.151      47948.556    
     38500   294.9114      -334.59973      1.1690128     -32508.348      47948.556    
     39000   302.21974      76.601022      1.1690128     -32476.981      47948.556    
     39500   298.4812      -533.94851      1.1690128     -32489.801      47948.556    
     40000   305.15749      259.36435      1.1690128     -32451.575      47948.556    
Loop time of 1744.46 on 1 procs for 20000 steps with 4740 atoms

Performance: 0.495 ns/day, 48.457 hours/ns, 11.465 timesteps/s, 54.344 katom-step/s
62.1% CPU use with 1 MPI tasks x 1 OpenMP threads

MPI task timing breakdown:
Section |  min time  |  avg time  |  max time  |%varavg| %total
---------------------------------------------------------------
Pair    | 1340.1     | 1340.1     | 1340.1     |   0.0 | 76.82
Bond    | 0.19584    | 0.19584    | 0.19584    |   0.0 |  0.01
Kspace  | 285.63     | 285.63     | 285.63     |   0.0 | 16.37
Neigh   | 41.768     | 41.768     | 41.768     |   0.0 |  2.39
Comm    | 21.648     | 21.648     | 21.648     |   0.0 |  1.24
Output  | 0.0051776  | 0.0051776  | 0.0051776  |   0.0 |  0.00
Modify  | 47.978     | 47.978     | 47.978     |   0.0 |  2.75
Other   |            | 7.153      |            |       |  0.41

Nlocal:           4740 ave        4740 max        4740 min
Histogram: 1 0 0 0 0 0 0 0 0 0
Nghost:          16878 ave       16878 max       16878 min
Histogram: 1 0 0 0 0 0 0 0 0 0
Neighs:    1.69399e+06 ave 1.69399e+06 max 1.69399e+06 min
Histogram: 1 0 0 0 0 0 0 0 0 0

Total # of neighbors = 1693986
Ave neighs/atom = 357.38101
Ave special neighs/atom = 1.8987342
Neighbor list builds = 456
Dangerous builds = 0
PPPM initialization ...
  using 12-bit tables for long-range coulomb
  G vector (1/distance) = 0.30117939
  grid = 30 30 30
  stencil order = 5
  estimated absolute RMS force accuracy = 0.0040089904
  estimated relative force accuracy = 1.2072955e-05
  using double precision FFTW3
  3d grid and FFT values/proc = 50653 27000
Generated 6 of 6 mixed pair_coeff terms from geometric mixing rule
Setting up Verlet run ...
  Unit style    : real
  Current step  : 40000
  Time step     : 1
Per MPI rank memory allocation (min/avg/max) = 26.79 | 26.79 | 26.79 Mbytes
   Step          Temp          Press         Density         PotEng         Volume    
     40000   305.15749     -196.64194      1.1690128     -32451.575      47948.556    
     40500   301.02253      8.9100057      1.1682237     -32610.037      47980.943    
     41000   294.71509      251.00128      1.1717453     -32468.344      47836.74     
     41500   296.58506      46.621888      1.1738516     -32550.421      47750.903    
     42000   300.29643      247.90428      1.1694932     -32579.087      47928.858    
     42500   302.25029     -350.91329      1.166251      -32696.682      48062.1      
     43000   298.87795      214.6161       1.165527      -32528.588      48091.956    
     43500   298.75032     -120.81813      1.1627109     -32561.209      48208.436    
     44000   296.10361     -445.10501      1.1665024     -32572.9        48051.742    
     44500   289.19652     -533.78065      1.1640494     -32480.865      48153.001    
     45000   300.98798      219.41894      1.1624316     -32499.28       48220.019    
     45500   296.63122      629.34196      1.169272      -32492.493      47937.927    
     46000   301.84139      556.23701      1.1787325     -32589.378      47553.175    
     46500   295.99284     -211.51547      1.1770966     -32469.444      47619.263    
     47000   299.33741      28.100911      1.1717919     -32520.213      47834.837    
     47500   295.18106     -255.58949      1.1768872     -32553.68       47627.739    
     48000   286.92512     -521.13976      1.1680202     -32519.868      47989.302    
     48500   288.07199     -146.38591      1.1734932     -32591.344      47765.486    
     49000   294.95988     -335.33604      1.1783314     -32539.764      47569.364    
     49500   301.36973      405.33299      1.1812816     -32547.804      47450.559    
     50000   303.646       -266.14618      1.1622492     -32530.397      48227.587    
     50500   307.53007      257.11612      1.1611094     -32345.844      48274.928    
     51000   294.8593       491.64765      1.1764535     -32571.579      47645.297    
     51500   290.49273      306.21885      1.1704389     -32468.073      47890.132    
     52000   300.82516      44.222485      1.16829       -32542.347      47978.221    
     52500   302.97345     -141.67513      1.1719608     -32550.841      47827.942    
     53000   298.33785      539.3594       1.1722576     -32575.972      47815.832    
     53500   293.76302     -218.24331      1.1682704     -32520.248      47979.025    
     54000   299.90814     -49.992525      1.1761351     -32557.801      47658.192    
     54500   295.07495     -130.73662      1.1739385     -32682.247      47747.37     
     55000   303.62343      578.14072      1.1817471     -32594.92       47431.871    
     55500   292.16894      596.72319      1.1813278     -32527.302      47448.705    
     56000   304.06188     -298.30755      1.1660428     -32445.767      48070.684    
     56500   296.78953      348.16507      1.1739543     -32550.33       47746.728    
     57000   299.60227      51.059006      1.1792312     -32521.554      47533.065    
     57500   293.53466     -402.47236      1.1763227     -32482.518      47650.593    
     58000   289.03589     -405.92017      1.1784996     -32437.232      47562.573    
     58500   305.30448     -130.79216      1.1702237     -32577.738      47898.94     
     59000   298.33687     -366.73424      1.179258      -32605.386      47531.984    
     59500   293.1952       242.91744      1.1823886     -32538.738      47406.134    
     60000   293.42315      9.1043433      1.1774577     -32559.898      47604.662    
     60500   292.1593      -520.15029      1.169603      -32607.106      47924.361    
     61000   301.06211      66.823418      1.1721773     -32556.55       47819.107    
     61500   297.33086      372.75931      1.1751363     -32508.109      47698.7      
     62000   296.91217     -126.57627      1.1648292     -32655.123      48120.766    
     62500   297.29429     -157.59165      1.169163      -32557.588      47942.394    
     63000   295.42621      184.4956       1.1750602     -32614.449      47701.79     
     63500   299.20361     -472.55357      1.1671862     -32506.663      48023.593    
     64000   304.12755      840.18411      1.1814829     -32640.161      47442.477    
     64500   295.10161     -355.2736       1.1760484     -32547.877      47661.706    
     65000   297.85901      632.35109      1.1844534     -32593.68       47323.493    
     65500   302.56763     -204.83664      1.1901097     -32523.63       47098.577    
     66000   294.96883     -578.37247      1.1817076     -32497.6        47433.456    
     66500   289.58768     -219.22033      1.1814965     -32502.401      47441.931    
     67000   297.85603      88.462635      1.1800722     -32580.687      47499.192    
     67500   300.654        322.62146      1.1712819     -32553.666      47855.664    
     68000   295.91442     -60.717481      1.166285      -32538.67       48060.699    
     68500   298.11163      1050.9091      1.1806433     -32593.354      47476.215    
     69000   297.37665     -257.80206      1.1656232     -32484.802      48087.989    
     69500   301.19649      79.410638      1.1781456     -32575.406      47576.864    
     70000   294.87064     -86.235897      1.1716307     -32526.591      47841.419    
Loop time of 3068.17 on 1 procs for 30000 steps with 4740 atoms

Performance: 0.845 ns/day, 28.409 hours/ns, 9.778 timesteps/s, 46.347 katom-step/s
63.2% CPU use with 1 MPI tasks x 1 OpenMP threads

MPI task timing breakdown:
Section |  min time  |  avg time  |  max time  |%varavg| %total
---------------------------------------------------------------
Pair    | 2099.7     | 2099.7     | 2099.7     |   0.0 | 68.43
Bond    | 0.43036    | 0.43036    | 0.43036    |   0.0 |  0.01
Kspace  | 459.09     | 459.09     | 459.09     |   0.0 | 14.96
Neigh   | 132.48     | 132.48     | 132.48     |   0.0 |  4.32
Comm    | 37.767     | 37.767     | 37.767     |   0.0 |  1.23
Output  | 0.025957   | 0.025957   | 0.025957   |   0.0 |  0.00
Modify  | 317.43     | 317.43     | 317.43     |   0.0 | 10.35
Other   |            | 21.25      |            |       |  0.69

Nlocal:           4740 ave        4740 max        4740 min
Histogram: 1 0 0 0 0 0 0 0 0 0
Nghost:          17013 ave       17013 max       17013 min
Histogram: 1 0 0 0 0 0 0 0 0 0
Neighs:    1.69652e+06 ave 1.69652e+06 max 1.69652e+06 min
Histogram: 1 0 0 0 0 0 0 0 0 0

Total # of neighbors = 1696523
Ave neighs/atom = 357.91624
Ave special neighs/atom = 1.8987342
Neighbor list builds = 1422
Dangerous builds = 0
PPPM initialization ...
  using 12-bit tables for long-range coulomb
  G vector (1/distance) = 0.30123507
  grid = 30 30 30
  stencil order = 5
  estimated absolute RMS force accuracy = 0.004000036
  estimated relative force accuracy = 1.2045989e-05
  using double precision FFTW3
  3d grid and FFT values/proc = 50653 27000
Generated 6 of 6 mixed pair_coeff terms from geometric mixing rule
Setting up Verlet run ...
  Unit style    : real
  Current step  : 0
  Time step     : 1
Per MPI rank memory allocation (min/avg/max) = 26.79 | 26.79 | 26.79 Mbytes
   Step          Temp          Press         Density         PotEng         Volume    
         0   294.87064     -216.5035       1.1716307     -32526.591      47841.419    
       500   305.09107     -355.28496      1.1767902     -32613.987      47631.663    
      1000   298.59825     -394.8767       1.1734677     -32523.959      47766.526    
      1500   298.11331     -143.26438      1.1784485     -32452.242      47564.636    
      2000   294.77217      374.21567      1.1835964     -32544.448      47357.762    
      2500   294.97288     -252.89738      1.1748688     -32517.316      47709.561    
      3000   297.78057     -528.18414      1.1765918     -32491.929      47639.697    
      3500   302.23347     -699.96621      1.1719414     -32512.341      47828.735    
      4000   296.32799      352.29954      1.187562      -32637.729      47199.619    
      4500   301.5275       413.83701      1.1822902     -32471.389      47410.082    
      5000   297.89653      163.86054      1.1847364     -32520.104      47312.189    
      5500   301.0398      -25.555952      1.1816447     -32527.276      47435.981    
      6000   297.20288      52.65588       1.1763544     -32526.27       47649.31     
      6500   296.82215     -321.21629      1.1711434     -32493.971      47861.324    
      7000   297.9064       78.05548       1.1778604     -32511.802      47588.385    
      7500   296.10825     -0.60686116     1.1810669     -32612.627      47459.187    
      8000   300.30214     -136.53927      1.1860774     -32578.153      47258.7      
      8500   299.08856      200.54993      1.1806532     -32636.454      47475.818    
      9000   309.94021      413.90609      1.17388       -32471.595      47749.748    
      9500   295.93176      785.97969      1.1918019     -32663.22       47031.703    
     10000   300.42636     -79.429561      1.1777268     -32554.525      47593.784    
     10500   296.31903      335.19201      1.178238      -32656.069      47573.134    
     11000   296.54609      563.43566      1.1837683     -32650.227      47350.884    
     11500   300.61935     -245.4682       1.1718341     -32623.098      47833.115    
     12000   296.53657     -33.335632      1.1671194     -32548.128      48026.34     
     12500   293.57305     -59.9465        1.1770793     -32602.33       47619.965    
     13000   293.21242      53.450587      1.1737389     -32695.863      47755.487    
     13500   294.06032     -586.38495      1.1658615     -32563.478      48078.159    
     14000   293.96411     -445.72838      1.1736273     -32607.409      47760.028    
     14500   309.57581     -350.92723      1.167885      -32563.67       47994.857    
     15000   298.02147      616.77703      1.1831488     -32613.246      47375.677    
     15500   304.78073     -471.89767      1.1750772     -32559.214      47701.098    
     16000   298.61889      239.66424      1.1683994     -32553.741      47973.727    
     16500   295.34488     -141.20304      1.1739218     -32664.121      47748.048    
     17000   297.1343      -406.78722      1.1674457     -32561.528      48012.917    
     17500   291.76493     -189.83944      1.1735507     -32586.704      47763.147    
     18000   298.15921     -1081.9665      1.1599518     -32529.22       48323.108    
     18500   297.98962     -1.4245633      1.1719071     -32526.266      47830.134    
     19000   297.14144     -278.20279      1.1762572     -32493.212      47653.248    
     19500   299.81833     -183.32855      1.1766657     -32571.383      47636.704    
     20000   294.93173     -264.18026      1.165971      -32447.553      48073.646    
     20500   303.23623      15.366631      1.1695022     -32465.299      47928.488    
     21000   291.31975     -121.85851      1.1744831     -32601.666      47725.23     
     21500   300.88884     -46.638046      1.1787215     -32629.23       47553.622    
     22000   291.52696      36.558921      1.183018      -32611.437      47380.915    
     22500   299.8219       67.1412        1.1760631     -32572          47661.111    
     23000   301.30106     -526.90646      1.1600861     -32510.022      48317.513    
     23500   299.08306      839.64032      1.1766431     -32611.106      47637.619    
     24000   299.50819     -603.64631      1.1702282     -32538.892      47898.754    
     24500   298.2414      -341.3562       1.1805565     -32636.337      47479.704    
     25000   295.17611      600.88073      1.1767688     -32466.068      47632.531    
     25500   306.9246       353.11589      1.1697134     -32457.852      47919.836    
     26000   297.94755      433.89413      1.1748248     -32551.253      47711.346    
     26500   301.08817     -108.94859      1.1731897     -32540.681      47777.845    
     27000   304.42021     -349.45337      1.1748972     -32440.473      47708.408    
     27500   294.30299     -407.49108      1.173548      -32539.238      47763.257    
     28000   302.98971     -42.289704      1.178724      -32592.725      47553.52     
     28500   291.45879      953.89024      1.1763231     -32556.16       47650.579    
     29000   298.99559     -131.73573      1.1769606     -32578.575      47624.766    
     29500   295.71958     -98.878338      1.1713743     -32474.819      47851.89     
     30000   295.38025      199.48165      1.1718757     -32574.293      47831.418    
     30500   293.67016      171.1012       1.171042      -32476.839      47865.467    
     31000   296.47738     -481.78093      1.1620321     -32477.041      48236.595    
     31500   297.11368      269.72315      1.1746587     -32593.659      47718.094    
     32000   296.69342     -82.083795      1.1600778     -32616.294      48317.858    
     32500   304.2455       85.6464        1.1676648     -32646.316      48003.907    
     33000   300.23538     -30.17671       1.16733       -32623.673      48017.677    
     33500   301.56042     -592.15077      1.1670135     -32557.947      48030.701    
     34000   299.23916     -167.82462      1.1732896     -32522.805      47773.777    
     34500   299.36911     -851.7604       1.1722737     -32496.767      47815.178    
     35000   300.66263      25.594834      1.1822061     -32607.672      47413.456    
     35500   305.81814      327.49617      1.1787639     -32473.752      47551.91     
     36000   306.93129      565.82723      1.1819163     -32540.875      47425.08     
     36500   293.79272     -189.79564      1.1711576     -32387.844      47860.744    
     37000   295.2156      -37.522536      1.1728428     -32524.532      47791.974    
     37500   297.71075     -180.18657      1.1723677     -32535.259      47811.343    
     38000   301.18331     -327.83944      1.1665148     -32535.416      48051.234    
     38500   303.11029      185.53361      1.1751487     -32531.383      47698.197    
     39000   295.6402       311.26813      1.1700443     -32516.676      47906.282    
     39500   295.97094     -326.93065      1.1727366     -32415.392      47796.304    
     40000   296.51721      424.40334      1.1744496     -32570.866      47726.591    
     40500   291.0617       490.96982      1.1679417     -32481.028      47992.528    
     41000   297.16745     -359.26361      1.1638813     -32539.07       48159.959    
     41500   296.26804      432.99189      1.1815081     -32533.158      47441.465    
     42000   293.36977     -304.13468      1.1719627     -32516.99       47827.866    
     42500   299.74843      576.84475      1.1748753     -32426.905      47709.297    
     43000   300.57966     -776.75227      1.1678979     -32493.478      47994.33     
     43500   295.58843     -416.84849      1.171558      -32503.717      47844.385    
     44000   296.69329     -153.83066      1.1737408     -32515.174      47755.412    
     44500   297.57673     -595.69985      1.1641422     -32533.704      48149.163    
     45000   298.68541     -308.61652      1.1751987     -32527.028      47696.167    
     45500   299.33524      159.48456      1.1798381     -32477.218      47508.616    
     46000   301.69153      289.34535      1.1757388     -32478.583      47674.259    
     46500   293.11334      515.29387      1.1785773     -32488.26       47559.438    
     47000   293.47157     -291.94614      1.1687363     -32483.205      47959.898    
     47500   291.60437      132.72598      1.1702795     -32534.355      47896.657    
     48000   295.04596      216.89436      1.1701109     -32516.086      47903.557    
     48500   301.01475      42.898477      1.1612723     -32577.229      48268.156    
     49000   298.64315     -79.316597      1.1617217     -32497.467      48249.487    
     49500   306.39831      130.98244      1.1627892     -32486.304      48205.189    
     50000   305.08116      213.7347       1.1646512     -32537.803      48128.12     
Loop time of 5165.44 on 1 procs for 50000 steps with 4740 atoms

Performance: 0.836 ns/day, 28.697 hours/ns, 9.680 timesteps/s, 45.882 katom-step/s
63.5% CPU use with 1 MPI tasks x 1 OpenMP threads

MPI task timing breakdown:
Section |  min time  |  avg time  |  max time  |%varavg| %total
---------------------------------------------------------------
Pair    | 3571.5     | 3571.5     | 3571.5     |   0.0 | 69.14
Bond    | 0.66811    | 0.66811    | 0.66811    |   0.0 |  0.01
Kspace  | 754.9      | 754.9      | 754.9      |   0.0 | 14.61
Neigh   | 214.98     | 214.98     | 214.98     |   0.0 |  4.16
Comm    | 63.423     | 63.423     | 63.423     |   0.0 |  1.23
Output  | 0.013886   | 0.013886   | 0.013886   |   0.0 |  0.00
Modify  | 524.96     | 524.96     | 524.96     |   0.0 | 10.16
Other   |            | 35.02      |            |       |  0.68

Nlocal:           4740 ave        4740 max        4740 min
Histogram: 1 0 0 0 0 0 0 0 0 0
Nghost:          16905 ave       16905 max       16905 min
Histogram: 1 0 0 0 0 0 0 0 0 0
Neighs:    1.68789e+06 ave 1.68789e+06 max 1.68789e+06 min
Histogram: 1 0 0 0 0 0 0 0 0 0

Total # of neighbors = 1687887
Ave neighs/atom = 356.0943
Ave special neighs/atom = 1.8987342
Neighbor list builds = 2365
Dangerous builds = 0
RESULT density_g_cm3 1.17034841843395
PPPM initialization ...
  using 12-bit tables for long-range coulomb
  G vector (1/distance) = 0.30108633
  grid = 30 30 30
  stencil order = 5
  estimated absolute RMS force accuracy = 0.0040239988
  estimated relative force accuracy = 1.2118153e-05
  using double precision FFTW3
  3d grid and FFT values/proc = 50653 27000
Generated 6 of 6 mixed pair_coeff terms from geometric mixing rule
Setting up Verlet run ...
  Unit style    : real
  Current step  : 0
  Time step     : 1
Per MPI rank memory allocation (min/avg/max) = 29.04 | 29.04 | 29.04 Mbytes
   Step          Temp          Press         Density         PotEng         Volume    
         0   305.08116      171.38206      1.1646512     -32537.803      48128.12     
      5000   299.12571     -265.07587      1.1646512     -32459.546      48128.12     
     10000   298.54906     -74.426861      1.1646512     -32509.442      48128.12     
     15000   306.27476      431.98447      1.1646512     -32549.726      48128.12     
     20000   292.01471      518.55027      1.1646512     -32485.307      48128.12     
     25000   294.17678     -746.09461      1.1646512     -32485.338      48128.12     
     30000   294.22368     -365.70992      1.1646512     -32565.561      48128.12     
     35000   295.10782     -414.60858      1.1646512     -32533.168      48128.12     
     40000   299.21318     -375.76865      1.1646512     -32511.256      48128.12     
     45000   293.39823     -538.48107      1.1646512     -32606.628      48128.12     
     50000   300.64272      414.33184      1.1646512     -32535.622      48128.12     
     55000   301.85402     -130.47644      1.1646512     -32488.778      48128.12     
     60000   308.38936     -542.18187      1.1646512     -32506.684      48128.12     
     65000   293.79563      41.758211      1.1646512     -32453.716      48128.12     
     70000   289.52466     -312.40921      1.1646512     -32516.683      48128.12     
     75000   293.69914     -880.69839      1.1646512     -32566.64       48128.12     
     80000   299.22867     -5.589517       1.1646512     -32419.839      48128.12     
     85000   299.72761     -500.58368      1.1646512     -32545.308      48128.12     
     90000   298.62787     -220.84133      1.1646512     -32464.45       48128.12     
     95000   299.38971     -588.35066      1.1646512     -32480.434      48128.12     
    100000   299.76436     -313.57033      1.1646512     -32553.515      48128.12     
    105000   296.47414      464.0188       1.1646512     -32445.321      48128.12     
    110000   307.69974      567.79068      1.1646512     -32402.831      48128.12     
    115000   299.78876      179.6278       1.1646512     -32461.047      48128.12     
    120000   300.00674      4.8928461      1.1646512     -32588.329      48128.12     
    125000   298.44742     -533.2038       1.1646512     -32589.311      48128.12     
    130000   297.86286      9.778852       1.1646512     -32602.807      48128.12     
    135000   292.97314     -99.850152      1.1646512     -32436.235      48128.12     
    140000   298.73085     -596.90001      1.1646512     -32471.346      48128.12     
    145000   294.40206     -189.5286       1.1646512     -32569.112      48128.12     
    150000   300.751       -36.565877      1.1646512     -32489.445      48128.12     
    155000   296.06391     -820.89404      1.1646512     -32566.332      48128.12     
    160000   299.32894     -278.98198      1.1646512     -32375.392      48128.12     
    165000   295.74282      110.36125      1.1646512     -32594.311      48128.12     
    170000   303.35799      125.75576      1.1646512     -32419.056      48128.12     
    175000   298.96001     -59.371547      1.1646512     -32612.453      48128.12     
    180000   291.62499      88.725609      1.1646512     -32499.453      48128.12     
    185000   292.19015     -296.00337      1.1646512     -32587.773      48128.12     
    190000   292.91605     -1002.3128      1.1646512     -32518.74       48128.12     
    195000   299.22781     -284.57043      1.1646512     -32451.452      48128.12     
    200000   290.76122      220.54661      1.1646512     -32550.156      48128.12     
Loop time of 24221.1 on 1 procs for 200000 steps with 4740 atoms

Performance: 0.713 ns/day, 33.640 hours/ns, 8.257 timesteps/s, 39.139 katom-step/s
63.5% CPU use with 1 MPI tasks x 1 OpenMP threads

MPI task timing breakdown:
Section |  min time  |  avg time  |  max time  |%varavg| %total
---------------------------------------------------------------
Pair    | 19550      | 19550      | 19550      |   0.0 | 80.71
Bond    | 2.5903     | 2.5903     | 2.5903     |   0.0 |  0.01
Kspace  | 2988.2     | 2988.2     | 2988.2     |   0.0 | 12.34
Neigh   | 859.07     | 859.07     | 859.07     |   0.0 |  3.55
Comm    | 217.38     | 217.38     | 217.38     |   0.0 |  0.90
Output  | 0.51718    | 0.51718    | 0.51718    |   0.0 |  0.00
Modify  | 534.48     | 534.48     | 534.48     |   0.0 |  2.21
Other   |            | 69.33      |            |       |  0.29

Nlocal:           4740 ave        4740 max        4740 min
Histogram: 1 0 0 0 0 0 0 0 0 0
Nghost:          17111 ave       17111 max       17111 min
Histogram: 1 0 0 0 0 0 0 0 0 0
Neighs:    1.68781e+06 ave 1.68781e+06 max 1.68781e+06 min
Histogram: 1 0 0 0 0 0 0 0 0 0

Total # of neighbors = 1687813
Ave neighs/atom = 356.07869
Ave special neighs/atom = 1.8987342
Neighbor list builds = 9377
Dangerous builds = 0
DONE koh20_s3_298
Total wall time: 9:58:21
