LAMMPS (22 Jul 2025 - Update 5)
  using 1 OpenMP thread(s) per MPI task
Reading data file ...
  orthogonal box = (0 0 0) to (37.095719 37.095719 37.095719)
  1 by 1 by 1 MPI processor grid
  reading atoms ...
  4912 atoms
  scanning bonds ...
  2 = max bonds/atom
  scanning angles ...
  1 = max angles/atom
  orthogonal box = (0 0 0) to (37.095719 37.095719 37.095719)
  1 by 1 by 1 MPI processor grid
  reading bonds ...
  3000 bonds
  reading angles ...
  1500 angles
Finding 1-2 1-3 1-4 neighbors ...
  special bond factors lj:    0        0        0       
  special bond factors coul:  0        0        0       
     2 = max # of 1-2 neighbors
     1 = max # of 1-3 neighbors
     1 = max # of 1-4 neighbors
     2 = max # of special neighbors
  special bonds CPU = 0.001 seconds
  read_data CPU = 0.150 seconds
Setting atom values ...
  206 settings made for charge
Setting atom values ...
  206 settings made for charge
4500 atoms in group watr
206 atoms in group kion
206 atoms in group ohion
412 atoms in group ions
Finding SHAKE clusters ...
       0 = # of size 2 clusters
       0 = # of size 3 clusters
       0 = # of size 4 clusters
    1500 = # of frozen angles
  find clusters CPU = 0.010 seconds
PPPM initialization ...
  using 12-bit tables for long-range coulomb
  G vector (1/distance) = 0.30441482
  grid = 32 32 32
  stencil order = 5
  estimated absolute RMS force accuracy = 0.0033318687
  estimated relative force accuracy = 1.0033824e-05
  using double precision FFTW3
  3d grid and FFT values/proc = 59319 32768
Generated 6 of 6 mixed pair_coeff terms from geometric mixing rule
WARNING: Should not use fix nve/limit with fix shake or fix rattle (src/lammps/src/fix_nve_limit.cpp:76)
Neighbor list info ...
  update: every = 1 steps, delay = 0 steps, check = yes
  max neighbors/atom: 2000, page size: 100000
  master list distance cutoff = 12
  ghost atom cutoff = 12
  binsize = 6, bins = 7 7 7
  1 neighbor lists, perpetual/occasional/extra = 1 0 0
  (1) pair lj/cut/coul/long, perpetual
      attributes: half, newton on
      pair build: half/bin/newton
      stencil: half/bin/3d
      bin: standard
Setting up Verlet run ...
  Unit style    : real
  Current step  : 0
  Time step     : 0.2
Per MPI rank memory allocation (min/avg/max) = 27.63 | 27.63 | 27.63 Mbytes
   Step          Temp          Press         Density         PotEng         Volume    
         0   298            45132.326      1.2550109      1233.949       51047.136    
       500   647.11898      9213.0131      1.2550109     -36135.692      51047.136    
      1000   367.29836      1254.051       1.2550109     -40289.278      51047.136    
      1500   324.65506     -154.5524       1.2550109     -41474.907      51047.136    
      2000   303.87112     -1796.3388      1.2550109     -41842.662      51047.136    
      2500   310.38188      1034.04        1.2550109     -42138.2        51047.136    
      3000   308.77972     -1788.2391      1.2550109     -42378.474      51047.136    
      3500   302.87514     -294.65924      1.2550109     -42493.351      51047.136    
      4000   305.59895      2072.7891      1.2550109     -42587.796      51047.136    
      4500   302.75768      294.85283      1.2550109     -42718.777      51047.136    
      5000   297.54284     -617.76207      1.2550109     -42712.187      51047.136    
      5500   302.28369      1149.2661      1.2550109     -42715.062      51047.136    
      6000   300.96661     -998.98395      1.2550109     -42810.064      51047.136    
      6500   300.75987      1317.0922      1.2550109     -42805.22       51047.136    
      7000   297.11076     -927.48767      1.2550109     -42919.772      51047.136    
      7500   298.11106      385.60992      1.2550109     -42939.648      51047.136    
      8000   303.51807     -1829.9925      1.2550109     -42933.338      51047.136    
      8500   302.54523     -489.27965      1.2550109     -42954.983      51047.136    
      9000   308.54915     -175.65049      1.2550109     -42963.579      51047.136    
      9500   303.07038      855.47427      1.2550109     -42980.592      51047.136    
     10000   297.38899     -375.81493      1.2550109     -43018.454      51047.136    
     10500   301.3929       477.37189      1.2550109     -43054.905      51047.136    
     11000   304.87572      1906.3762      1.2550109     -43061.269      51047.136    
     11500   302.15449     -1328.0996      1.2550109     -43105.761      51047.136    
     12000   297.05908     -678.71721      1.2550109     -43142.222      51047.136    
     12500   294.88199     -508.7117       1.2550109     -43210.004      51047.136    
     13000   299.17131     -366.80213      1.2550109     -43138.616      51047.136    
     13500   298.95453     -116.82045      1.2550109     -43214.725      51047.136    
     14000   298.2748      -596.31635      1.2550109     -43242.985      51047.136    
     14500   293.95155      48.291159      1.2550109     -43148.326      51047.136    
     15000   300.89996     -1708.3735      1.2550109     -43126.735      51047.136    
     15500   299.61605     -1505.706       1.2550109     -43245.775      51047.136    
     16000   297.14017      339.87724      1.2550109     -43239.653      51047.136    
     16500   297.11686      1698.9312      1.2550109     -43192.787      51047.136    
     17000   291.78655      173.0457       1.2550109     -43268.709      51047.136    
     17500   293.82758      1282.5397      1.2550109     -43272.579      51047.136    
     18000   293.46652     -431.86801      1.2550109     -43355.799      51047.136    
     18500   302.69881     -622.09413      1.2550109     -43337.572      51047.136    
     19000   299.13571      138.95877      1.2550109     -43381.934      51047.136    
     19500   301.58582      1425.1966      1.2550109     -43283.654      51047.136    
     20000   305.48645      1043.3898      1.2550109     -43345.2        51047.136    
Loop time of 1805.88 on 1 procs for 20000 steps with 4912 atoms

Performance: 0.191 ns/day, 125.408 hours/ns, 11.075 timesteps/s, 54.400 katom-step/s
62.9% CPU use with 1 MPI tasks x 1 OpenMP threads

MPI task timing breakdown:
Section |  min time  |  avg time  |  max time  |%varavg| %total
---------------------------------------------------------------
Pair    | 1329.3     | 1329.3     | 1329.3     |   0.0 | 73.61
Bond    | 0.15621    | 0.15621    | 0.15621    |   0.0 |  0.01
Kspace  | 380.16     | 380.16     | 380.16     |   0.0 | 21.05
Neigh   | 18.025     | 18.025     | 18.025     |   0.0 |  1.00
Comm    | 21.609     | 21.609     | 21.609     |   0.0 |  1.20
Output  | 0.0101     | 0.0101     | 0.0101     |   0.0 |  0.00
Modify  | 48.851     | 48.851     | 48.851     |   0.0 |  2.71
Other   |            | 7.723      |            |       |  0.43

Nlocal:           4912 ave        4912 max        4912 min
Histogram: 1 0 0 0 0 0 0 0 0 0
Nghost:          17047 ave       17047 max       17047 min
Histogram: 1 0 0 0 0 0 0 0 0 0
Neighs:    1.70917e+06 ave 1.70917e+06 max 1.70917e+06 min
Histogram: 1 0 0 0 0 0 0 0 0 0

Total # of neighbors = 1709166
Ave neighs/atom = 347.95725
Ave special neighs/atom = 1.8322476
Neighbor list builds = 188
Dangerous builds = 0
PPPM initialization ...
  using 12-bit tables for long-range coulomb
  G vector (1/distance) = 0.30441482
  grid = 32 32 32
  stencil order = 5
  estimated absolute RMS force accuracy = 0.0033318687
  estimated relative force accuracy = 1.0033824e-05
  using double precision FFTW3
  3d grid and FFT values/proc = 59319 32768
Generated 6 of 6 mixed pair_coeff terms from geometric mixing rule
Setting up Verlet run ...
  Unit style    : real
  Current step  : 20000
  Time step     : 0.5
Per MPI rank memory allocation (min/avg/max) = 27.63 | 27.63 | 27.63 Mbytes
   Step          Temp          Press         Density         PotEng         Volume    
     20000   305.48645      266.77702      1.2550109     -43345.2        51047.136    
     20500   310.82921      6.5869242      1.2550109     -43260.972      51047.136    
     21000   300.42662     -211.30747      1.2550109     -43359.726      51047.136    
     21500   300.17684     -743.57529      1.2550109     -43339.793      51047.136    
     22000   297.89096      105.68645      1.2550109     -43389.549      51047.136    
     22500   303.91209     -439.85504      1.2550109     -43427.898      51047.136    
     23000   290.94112      119.68533      1.2550109     -43407.313      51047.136    
     23500   293.91371     -642.5123       1.2550109     -43363.326      51047.136    
     24000   299.22846     -1214.6265      1.2550109     -43485.59       51047.136    
     24500   297.52472     -476.61351      1.2550109     -43378.107      51047.136    
     25000   303.4563      -422.13032      1.2550109     -43454.787      51047.136    
     25500   294.21649     -765.54528      1.2550109     -43473.816      51047.136    
     26000   301.44433     -595.70014      1.2550109     -43381.977      51047.136    
     26500   298.61274     -479.31393      1.2550109     -43484.878      51047.136    
     27000   300.70654     -586.37217      1.2550109     -43544.666      51047.136    
     27500   296.63061      709.70319      1.2550109     -43428.015      51047.136    
     28000   300.92219      290.08851      1.2550109     -43562.486      51047.136    
     28500   296.37843      375.17489      1.2550109     -43607.4        51047.136    
     29000   295.98941     -460.73164      1.2550109     -43606.465      51047.136    
     29500   297.03869     -796.03402      1.2550109     -43611.29       51047.136    
     30000   295.37966     -295.11509      1.2550109     -43612.33       51047.136    
     30500   296.82295      24.74968       1.2550109     -43573.955      51047.136    
     31000   290.74339     -831.37159      1.2550109     -43696.121      51047.136    
     31500   298.92255     -238.45287      1.2550109     -43627.328      51047.136    
     32000   297.43514     -192.8794       1.2550109     -43585.499      51047.136    
     32500   300.27973      202.35597      1.2550109     -43558.127      51047.136    
     33000   290.89254      37.878195      1.2550109     -43701.736      51047.136    
     33500   290.216        182.96278      1.2550109     -43584.706      51047.136    
     34000   303.03908     -546.60365      1.2550109     -43702.987      51047.136    
     34500   306.25715     -575.77818      1.2550109     -43599.619      51047.136    
     35000   293.09477     -1084.4948      1.2550109     -43642.09       51047.136    
     35500   300.16737     -964.63139      1.2550109     -43640.436      51047.136    
     36000   298.7968      -451.70197      1.2550109     -43638.408      51047.136    
     36500   294.4335      -196.29604      1.2550109     -43619.083      51047.136    
     37000   294.66123     -764.20371      1.2550109     -43720.465      51047.136    
     37500   297.99186     -861.66746      1.2550109     -43693.385      51047.136    
     38000   297.52523     -548.23083      1.2550109     -43641.676      51047.136    
     38500   295.01717      310.84764      1.2550109     -43695.852      51047.136    
     39000   299.09031      314.14945      1.2550109     -43669.346      51047.136    
     39500   288.69471     -357.5506       1.2550109     -43743.747      51047.136    
     40000   297.52556     -429.62568      1.2550109     -43658.681      51047.136    
Loop time of 1811.92 on 1 procs for 20000 steps with 4912 atoms

Performance: 0.477 ns/day, 50.331 hours/ns, 11.038 timesteps/s, 54.219 katom-step/s
63.8% CPU use with 1 MPI tasks x 1 OpenMP threads

MPI task timing breakdown:
Section |  min time  |  avg time  |  max time  |%varavg| %total
---------------------------------------------------------------
Pair    | 1326.5     | 1326.5     | 1326.5     |   0.0 | 73.21
Bond    | 0.19303    | 0.19303    | 0.19303    |   0.0 |  0.01
Kspace  | 368.93     | 368.93     | 368.93     |   0.0 | 20.36
Neigh   | 39.429     | 39.429     | 39.429     |   0.0 |  2.18
Comm    | 21.385     | 21.385     | 21.385     |   0.0 |  1.18
Output  | 0.0050456  | 0.0050456  | 0.0050456  |   0.0 |  0.00
Modify  | 47.891     | 47.891     | 47.891     |   0.0 |  2.64
Other   |            | 7.592      |            |       |  0.42

Nlocal:           4912 ave        4912 max        4912 min
Histogram: 1 0 0 0 0 0 0 0 0 0
Nghost:          17013 ave       17013 max       17013 min
Histogram: 1 0 0 0 0 0 0 0 0 0
Neighs:    1.70787e+06 ave 1.70787e+06 max 1.70787e+06 min
Histogram: 1 0 0 0 0 0 0 0 0 0

Total # of neighbors = 1707874
Ave neighs/atom = 347.69422
Ave special neighs/atom = 1.8322476
Neighbor list builds = 443
Dangerous builds = 0
PPPM initialization ...
  using 12-bit tables for long-range coulomb
  G vector (1/distance) = 0.30441482
  grid = 32 32 32
  stencil order = 5
  estimated absolute RMS force accuracy = 0.0033318687
  estimated relative force accuracy = 1.0033824e-05
  using double precision FFTW3
  3d grid and FFT values/proc = 59319 32768
Generated 6 of 6 mixed pair_coeff terms from geometric mixing rule
Setting up Verlet run ...
  Unit style    : real
  Current step  : 40000
  Time step     : 1
Per MPI rank memory allocation (min/avg/max) = 27.63 | 27.63 | 27.63 Mbytes
   Step          Temp          Press         Density         PotEng         Volume    
     40000   297.52556     -57.158685      1.2550109     -43658.681      51047.136    
     40500   287.72071      40.623443      1.2625682     -43685.699      50741.583    
     41000   299.52757     -202.44266      1.2587144     -43687.508      50896.94     
     41500   301.63413      16.211598      1.2604596     -43582.496      50826.468    
     42000   295.41237      535.15669      1.2625147     -43696.883      50743.735    
     42500   299.46228      21.4753        1.260052      -43707.108      50842.911    
     43000   299.97338      246.78426      1.2668551     -43680.343      50569.879    
     43500   290.30086     -27.604448      1.2643782     -43821.872      50668.946    
     44000   293.62081     -262.34241      1.2610007     -43666.994      50804.659    
     44500   301.0379      -380.27083      1.265574      -43748.826      50621.068    
     45000   300.44285      332.70386      1.2575549     -43749.423      50943.867    
     45500   297.6093       356.56971      1.2660476     -43808.851      50602.135    
     46000   293.98487     -69.24902       1.2631254     -43757.158      50719.199    
     46500   296.43919      23.963347      1.2623124     -43708.769      50751.867    
     47000   301.44744     -195.98187      1.2522823     -43680.96       51158.361    
     47500   299.22935      111.96077      1.2675991     -43657.41       50540.198    
     48000   295.96028     -55.555576      1.2634165     -43668.805      50707.515    
     48500   305.45955      127.26512      1.2607516     -43681.362      50814.696    
     49000   301.2114      -74.251804      1.2614999     -43733.192      50784.552    
     49500   306.75717      93.105818      1.2626568     -43862.94       50738.024    
     50000   304.72624     -373.70274      1.2557623     -43753.43       51016.59     
     50500   291.82645      124.56794      1.2668128     -43865.689      50571.569    
     51000   294.79156     -848.32573      1.2488251     -43698.369      51299.987    
     51500   293.59497      336.03884      1.2614926     -43729.528      50784.85     
     52000   296.76291      297.36439      1.2637276     -43786.8        50695.029    
     52500   301.52408     -220.24876      1.2589105     -43762.379      50889.011    
     53000   294.42156      256.13887      1.2597674     -43729.542      50854.395    
     53500   300.10366     -17.280093      1.2588962     -43907.046      50889.588    
     54000   294.15474     -488.64428      1.2442179     -43667.442      51489.943    
     54500   297.4893      -19.006628      1.2599422     -43856.955      50847.342    
     55000   301.32158      270.11032      1.2588149     -43763.937      50892.875    
     55500   298.80617     -179.4135       1.2582055     -43810.225      50917.524    
     56000   296.55122     -126.76813      1.2651106     -43831.529      50639.614    
     56500   296.26716     -306.95114      1.2607061     -43731.196      50816.529    
     57000   298.40743     -160.9872       1.2664858     -43752.075      50584.627    
     57500   291.77074     -563.5211       1.2706565     -43683.299      50418.589    
     58000   297.80084      78.65454       1.2757265     -43749.655      50218.219    
     58500   295.98152     -596.38678      1.2660009     -43697.73       50604        
     59000   294.00343      74.47528       1.2682923     -43733.583      50512.576    
     59500   300.46215      38.606428      1.2713018     -43757.363      50392.999    
     60000   306.17933     -349.43929      1.2707156     -43722.591      50416.246    
     60500   299.2464      -126.53866      1.2663036     -43843.293      50591.903    
     61000   299.22467      221.81281      1.2627286     -43714.237      50735.137    
     61500   295.67802      140.31314      1.2656917     -43708.369      50616.363    
     62000   296.52793     -761.81504      1.2507117     -43596.668      51222.606    
     62500   298.63857      791.68994      1.2598817     -43684.241      50849.781    
     63000   300.7793       54.382546      1.2548293     -43670.417      51054.521    
     63500   298.88491      266.23297      1.2606151     -43704.751      50820.199    
     64000   295.90652      287.48051      1.2577564     -43706.983      50935.705    
     64500   293.68316      104.77252      1.259461      -43680.433      50866.769    
     65000   305.99668      255.83748      1.2675189     -43748.46       50543.398    
     65500   294.82905     -4.8303113      1.2637673     -43693.981      50693.44     
     66000   300.56178      169.63224      1.2574734     -43655.882      50947.168    
     66500   296.28501      232.86157      1.2651785     -43776.588      50636.893    
     67000   292.99892     -423.86004      1.2650891     -43752.333      50640.471    
     67500   291.2616      -549.30466      1.2587413     -43690.527      50895.85     
     68000   291.05167      261.39963      1.2674172     -43789.334      50547.451    
     68500   302.95012     -462.73747      1.2543744     -43741.204      51073.038    
     69000   299.49533      133.01365      1.2634942     -43784.357      50704.395    
     69500   305.05426     -30.450306      1.2540817     -43625.465      51084.958    
     70000   293.01532      430.30313      1.2635532     -43777.236      50702.028    
Loop time of 3275.29 on 1 procs for 30000 steps with 4912 atoms

Performance: 0.791 ns/day, 30.327 hours/ns, 9.160 timesteps/s, 44.991 katom-step/s
63.6% CPU use with 1 MPI tasks x 1 OpenMP threads

MPI task timing breakdown:
Section |  min time  |  avg time  |  max time  |%varavg| %total
---------------------------------------------------------------
Pair    | 2105.4     | 2105.4     | 2105.4     |   0.0 | 64.28
Bond    | 0.37418    | 0.37418    | 0.37418    |   0.0 |  0.01
Kspace  | 601.99     | 601.99     | 601.99     |   0.0 | 18.38
Neigh   | 133.79     | 133.79     | 133.79     |   0.0 |  4.08
Comm    | 38.512     | 38.512     | 38.512     |   0.0 |  1.18
Output  | 0.010296   | 0.010296   | 0.010296   |   0.0 |  0.00
Modify  | 372.78     | 372.78     | 372.78     |   0.0 | 11.38
Other   |            | 22.46      |            |       |  0.69

Nlocal:           4912 ave        4912 max        4912 min
Histogram: 1 0 0 0 0 0 0 0 0 0
Nghost:          17106 ave       17106 max       17106 min
Histogram: 1 0 0 0 0 0 0 0 0 0
Neighs:    1.71936e+06 ave 1.71936e+06 max 1.71936e+06 min
Histogram: 1 0 0 0 0 0 0 0 0 0

Total # of neighbors = 1719364
Ave neighs/atom = 350.03339
Ave special neighs/atom = 1.8322476
Neighbor list builds = 1386
Dangerous builds = 0
PPPM initialization ...
  using 12-bit tables for long-range coulomb
  G vector (1/distance) = 0.30458108
  grid = 32 32 32
  stencil order = 5
  estimated absolute RMS force accuracy = 0.003309432
  estimated relative force accuracy = 9.966256e-06
  using double precision FFTW3
  3d grid and FFT values/proc = 59319 32768
Generated 6 of 6 mixed pair_coeff terms from geometric mixing rule
Setting up Verlet run ...
  Unit style    : real
  Current step  : 0
  Time step     : 1
Per MPI rank memory allocation (min/avg/max) = 27.63 | 27.63 | 27.63 Mbytes
   Step          Temp          Press         Density         PotEng         Volume    
         0   293.01532      420.6878       1.2635532     -43777.235      50702.028    
       500   293.28268     -181.52658      1.2606359     -43732.948      50819.359    
      1000   293.9053      -0.85655301     1.2631538     -43768.121      50718.06     
      1500   293.81683     -200.62281      1.2604835     -43698.582      50825.507    
      2000   297.12726     -302.25904      1.2647452     -43730.312      50654.244    
      2500   296.4694       368.81499      1.2684503     -43771.442      50506.282    
      3000   304.78765      282.49474      1.2599209     -43775.703      50848.199    
      3500   296.73704     -331.83259      1.2656345     -43887.788      50618.65     
      4000   290.76838     -74.843337      1.2705456     -43750.02       50422.993    
      4500   296.91929     -370.03953      1.2672565     -43822.574      50553.86     
      5000   297.52106     -380.96256      1.2680544     -43838.088      50522.052    
      5500   294.29767      33.201706      1.2664753     -43740.406      50585.043    
      6000   301.28122      5.3402848      1.2746163     -43844.459      50261.959    
      6500   293.18283     -565.35222      1.2551763     -43699.6        51040.408    
      7000   299.62724      78.053595      1.2628883     -43774.409      50728.721    
      7500   302.95687      275.95621      1.2694508     -43762.514      50466.476    
      8000   300.08798      347.74968      1.2647938     -43684.564      50652.295    
      8500   298.21702      254.41111      1.2692887     -43859.097      50472.922    
      9000   300.61199      142.33358      1.2660045     -43781.496      50603.857    
      9500   294.84297      63.674025      1.2679708     -43875.392      50525.381    
     10000   302.45777      639.11758      1.2613119     -43731.051      50792.122    
     10500   305.41853      157.14186      1.2668915     -43770.589      50568.429    
     11000   304.40012      8.4890109      1.2552628     -43747.094      51036.89     
     11500   296.64912      170.19664      1.2630121     -43691.338      50723.749    
     12000   293.07022      1.6720356      1.2592849     -43695.088      50873.881    
     12500   293.61908     -615.82107      1.2642928     -43910.029      50672.369    
     13000   300.88502      187.20081      1.2647762     -43692.42       50653.002    
     13500   296.6083       625.77014      1.2648056     -43865.898      50651.825    
     14000   296.20324      37.978516      1.2658957     -43830.126      50608.205    
     14500   294.04867      265.30305      1.2668328     -43761.77       50570.768    
     15000   300.40063      872.46698      1.2708554     -43716.08       50410.699    
     15500   303.24193     -532.10159      1.2648846     -43711.209      50648.661    
     16000   292.29833      687.93618      1.2733322     -43765.815      50312.645    
     16500   305.04027      243.37544      1.2582912     -43751.49       50914.059    
     17000   300.84154      395.53367      1.2626213     -43770.978      50739.449    
     17500   293.18397     -12.879138      1.2591266     -43824.433      50880.277    
     18000   299.57244      337.67491      1.2616476     -43812.836      50778.608    
     18500   302.038       -345.8077       1.257513      -43778.534      50945.566    
     19000   297.27275      54.77284       1.2677843     -43862.498      50532.816    
     19500   299.38334      52.084277      1.2645358     -43754.06       50662.629    
     20000   297.11592      172.61872      1.2665221     -43699.458      50583.174    
     20500   290.04509      175.43797      1.2635199     -43785.732      50703.363    
     21000   299.51656      281.27883      1.2713587     -43726.989      50390.745    
     21500   300.05423      102.0978       1.2615017     -43724.681      50784.481    
     22000   301.72233      2.5951991      1.2599461     -43718.738      50847.182    
     22500   292.99996     -209.63807      1.2649613     -43752.431      50645.587    
     23000   298.02624     -453.62998      1.2552016     -43769.892      51039.378    
     23500   294.42408      67.928436      1.2625724     -43832.14       50741.414    
     24000   296.93976     -44.26511       1.2632085     -43834.365      50715.863    
     24500   295.52782     -345.27902      1.2591371     -43752.806      50879.853    
     25000   295.62751     -413.84712      1.2630344     -43755.583      50722.854    
     25500   289.14873      158.56995      1.2699337     -43806.847      50447.286    
     26000   303.9102       666.85648      1.2746803     -43788.43       50259.435    
     26500   299.65477      389.69725      1.2668119     -43734.454      50571.603    
     27000   295.24061      259.52139      1.2709697     -43818.938      50406.167    
     27500   300.58616     -645.60942      1.2508438     -43621.414      51217.196    
     28000   294.43269     -6.6471467      1.2582854     -43721.943      50914.293    
     28500   294.37387      10.921263      1.2692968     -43792.465      50472.6      
     29000   291.64416     -591.60017      1.2666905     -43725.3        50576.452    
     29500   295.02496     -80.991251      1.2698825     -43706.352      50449.32     
     30000   301.79581      33.581172      1.2770403     -43772.206      50166.553    
     30500   299.2093       364.86408      1.280222      -43797.546      50041.877    
     31000   291.33378     -57.957685      1.2722817     -43798.529      50354.185    
     31500   300.61025      239.63839      1.2770576     -43617.824      50165.874    
     32000   302.04046     -497.84616      1.2689761     -43839.886      50485.354    
     32500   295.2233       115.15141      1.277332      -43821.198      50155.097    
     33000   300.73604     -232.85758      1.2721023     -43653.09       50361.286    
     33500   295.84555     -393.60914      1.2751279     -43844.929      50241.79     
     34000   296.03484     -462.25496      1.2692274     -43741.711      50475.36     
     34500   297.52423     -332.49922      1.2730085     -43741.126      50325.437    
     35000   289.1585       317.12933      1.2695844     -43725.679      50461.166    
     35500   304.37004     -349.33832      1.2671899     -43729.603      50556.517    
     36000   305.8955       213.81672      1.2708084     -43751.209      50412.566    
     36500   302.96359      19.716482      1.2710544     -43624.355      50402.806    
     37000   298.92575      793.85347      1.2755912     -43718.645      50223.545    
     37500   298.16269     -95.982205      1.2579277     -43656.824      50928.77     
     38000   299.19702      328.23253      1.2639661     -43705.783      50685.464    
     38500   308.35868      8.7674669      1.2606024     -43673.635      50820.709    
     39000   300.01047      633.57017      1.2674323     -43833.103      50546.848    
     39500   299.35692      570.05644      1.2678798     -43846.937      50529.01     
     40000   296.55992      66.308903      1.2707132     -43793.842      50416.342    
     40500   299.07055      597.09931      1.2668827     -43790.434      50568.78     
     41000   296.96894      405.35979      1.2625497     -43856.235      50742.328    
     41500   291.29678     -558.44909      1.2600516     -43749.456      50842.928    
     42000   299.18892     -823.31501      1.2624472     -43841.775      50746.446    
     42500   299.29739      39.531106      1.2690957     -43863.678      50480.598    
     43000   296.83578     -101.50522      1.2685827     -43840.374      50501.011    
     43500   306.6737       595.77958      1.2689236     -43794.12       50487.443    
     44000   302.45621      549.72277      1.2700729     -43830.955      50441.76     
     44500   297.20695     -153.80812      1.2634188     -43783.334      50707.424    
     45000   295.82227     -59.429592      1.2630214     -43782.738      50723.378    
     45500   298.90119      46.663967      1.2630675     -43670.179      50721.524    
     46000   292.43979     -335.79153      1.2631157     -43766.299      50719.588    
     46500   297.14505     -375.71016      1.2548473     -43705.515      51053.792    
     47000   304.58201      418.90741      1.2643528     -43861.7        50669.965    
     47500   299.17746     -184.77353      1.2571577     -43768.694      50959.961    
     48000   296.36792     -730.08898      1.259143      -43696.348      50879.614    
     48500   303.49019     -319.6341       1.2619879     -43732.268      50764.918    
     49000   296.14375      35.328255      1.267251      -43737.359      50554.082    
     49500   305.47978      489.41791      1.2674441     -43786.044      50546.379    
     50000   301.74461     -20.24999       1.258677      -43647.171      50898.453    
Loop time of 5516.84 on 1 procs for 50000 steps with 4912 atoms

Performance: 0.783 ns/day, 30.649 hours/ns, 9.063 timesteps/s, 44.518 katom-step/s
63.6% CPU use with 1 MPI tasks x 1 OpenMP threads

MPI task timing breakdown:
Section |  min time  |  avg time  |  max time  |%varavg| %total
---------------------------------------------------------------
Pair    | 3609.7     | 3609.7     | 3609.7     |   0.0 | 65.43
Bond    | 0.5758     | 0.5758     | 0.5758     |   0.0 |  0.01
Kspace  | 975.69     | 975.69     | 975.69     |   0.0 | 17.69
Neigh   | 215.52     | 215.52     | 215.52     |   0.0 |  3.91
Comm    | 63.202     | 63.202     | 63.202     |   0.0 |  1.15
Output  | 0.034591   | 0.034591   | 0.034591   |   0.0 |  0.00
Modify  | 614.15     | 614.15     | 614.15     |   0.0 | 11.13
Other   |            | 37.93      |            |       |  0.69

Nlocal:           4912 ave        4912 max        4912 min
Histogram: 1 0 0 0 0 0 0 0 0 0
Nghost:          17008 ave       17008 max       17008 min
Histogram: 1 0 0 0 0 0 0 0 0 0
Neighs:    1.71408e+06 ave 1.71408e+06 max 1.71408e+06 min
Histogram: 1 0 0 0 0 0 0 0 0 0

Total # of neighbors = 1714084
Ave neighs/atom = 348.95847
Ave special neighs/atom = 1.8322476
Neighbor list builds = 2319
Dangerous builds = 0
RESULT density_g_cm3 1.26392946721066
PPPM initialization ...
  using 12-bit tables for long-range coulomb
  G vector (1/distance) = 0.30448633
  grid = 32 32 32
  stencil order = 5
  estimated absolute RMS force accuracy = 0.0033222018
  estimated relative force accuracy = 1.0004712e-05
  using double precision FFTW3
  3d grid and FFT values/proc = 59319 32768
Generated 6 of 6 mixed pair_coeff terms from geometric mixing rule
Setting up Verlet run ...
  Unit style    : real
  Current step  : 0
  Time step     : 1
Per MPI rank memory allocation (min/avg/max) = 29.88 | 29.88 | 29.88 Mbytes
   Step          Temp          Press         Density         PotEng         Volume    
         0   301.74461      34.708911      1.258677      -43647.171      50898.453    
      5000   304.59836     -520.99124      1.258677      -43791.168      50898.453    
     10000   304.33525     -159.73738      1.258677      -43733.456      50898.453    
     15000   296.75067     -80.990765      1.258677      -43784.231      50898.453    
     20000   296.66316      477.55294      1.258677      -43844.233      50898.453    
     25000   304.25933      199.31676      1.258677      -43709.898      50898.453    
     30000   307.33737     -654.51359      1.258677      -43714.198      50898.453    
     35000   298.68503     -414.91068      1.258677      -43773.982      50898.453    
     40000   299.15928      373.49547      1.258677      -43705.77       50898.453    
     45000   297.92999     -804.17023      1.258677      -43875.715      50898.453    
     50000   297.9434       50.787169      1.258677      -43678.449      50898.453    
     55000   294.05342      144.66704      1.258677      -43733.715      50898.453    
     60000   303.07251     -293.65761      1.258677      -43738.358      50898.453    
     65000   295.29469     -496.16034      1.258677      -43810.582      50898.453    
     70000   293.31765     -137.44547      1.258677      -43643.703      50898.453    
     75000   290.22491      57.537777      1.258677      -43777.223      50898.453    
     80000   295.16602     -288.292        1.258677      -43807.218      50898.453    
     85000   301.90377     -313.53714      1.258677      -43725.412      50898.453    
     90000   301.68926     -184.57688      1.258677      -43741.539      50898.453    
     95000   291.77285      173.29229      1.258677      -43706.619      50898.453    
    100000   298.1395      -459.38107      1.258677      -43730.735      50898.453    
    105000   302.75214      26.904514      1.258677      -43703.641      50898.453    
    110000   294.61269     -146.90228      1.258677      -43729.208      50898.453    
    115000   294.92404     -445.0248       1.258677      -43798.152      50898.453    
    120000   298.47909      72.428788      1.258677      -43783.161      50898.453    
    125000   295.17468     -393.69474      1.258677      -43780.925      50898.453    
    130000   297.88994      58.724259      1.258677      -43761.643      50898.453    
    135000   302.7032      -785.56494      1.258677      -43671.623      50898.453    
    140000   299.53016     -550.99117      1.258677      -43773.512      50898.453    
    145000   292.57038     -365.43048      1.258677      -43768.488      50898.453    
    150000   294.06919     -678.63056      1.258677      -43832.772      50898.453    
    155000   300.5757       153.73963      1.258677      -43796.807      50898.453    
    160000   297.81416     -290.80667      1.258677      -43712.326      50898.453    
    165000   296.34035     -586.28934      1.258677      -43854.985      50898.453    
    170000   293.83351     -110.63031      1.258677      -43780.064      50898.453    
    175000   299.22352     -58.851222      1.258677      -43743.528      50898.453    
    180000   292.63849     -713.36876      1.258677      -43786.838      50898.453    
    185000   296.40271     -121.48664      1.258677      -43748.774      50898.453    
    190000   299.60997     -213.20957      1.258677      -43739.848      50898.453    
    195000   300.72336     -661.20328      1.258677      -43719.709      50898.453    
    200000   297.519       -506.34894      1.258677      -43715.886      50898.453    
Loop time of 24969.7 on 1 procs for 200000 steps with 4912 atoms

Performance: 0.692 ns/day, 34.680 hours/ns, 8.010 timesteps/s, 39.344 katom-step/s
64.9% CPU use with 1 MPI tasks x 1 OpenMP threads

MPI task timing breakdown:
Section |  min time  |  avg time  |  max time  |%varavg| %total
---------------------------------------------------------------
Pair    | 19425      | 19425      | 19425      |   0.0 | 77.79
Bond    | 2.4242     | 2.4242     | 2.4242     |   0.0 |  0.01
Kspace  | 3855.7     | 3855.7     | 3855.7     |   0.0 | 15.44
Neigh   | 851.48     | 851.48     | 851.48     |   0.0 |  3.41
Comm    | 218.95     | 218.95     | 218.95     |   0.0 |  0.88
Output  | 0.51225    | 0.51225    | 0.51225    |   0.0 |  0.00
Modify  | 541.46     | 541.46     | 541.46     |   0.0 |  2.17
Other   |            | 74.39      |            |       |  0.30

Nlocal:           4912 ave        4912 max        4912 min
Histogram: 1 0 0 0 0 0 0 0 0 0
Nghost:          17074 ave       17074 max       17074 min
Histogram: 1 0 0 0 0 0 0 0 0 0
Neighs:    1.71311e+06 ave 1.71311e+06 max 1.71311e+06 min
Histogram: 1 0 0 0 0 0 0 0 0 0

Total # of neighbors = 1713113
Ave neighs/atom = 348.76079
Ave special neighs/atom = 1.8322476
Neighbor list builds = 9216
Dangerous builds = 0
DONE koh30_s3_298
Total wall time: 10:23:01
