LAMMPS (22 Jul 2025 - Update 5)
  using 1 OpenMP thread(s) per MPI task
Reading data file ...
  orthogonal box = (0 0 0) to (36.329424 36.329424 36.329424)
  1 by 1 by 1 MPI processor grid
  reading atoms ...
  4740 atoms
  scanning bonds ...
  2 = max bonds/atom
  scanning angles ...
  1 = max angles/atom
  orthogonal box = (0 0 0) to (36.329424 36.329424 36.329424)
  1 by 1 by 1 MPI processor grid
  reading bonds ...
  3000 bonds
  reading angles ...
  1500 angles
Finding 1-2 1-3 1-4 neighbors ...
  special bond factors lj:    0        0        0       
  special bond factors coul:  0        0        0       
     2 = max # of 1-2 neighbors
     1 = max # of 1-3 neighbors
     1 = max # of 1-4 neighbors
     2 = max # of special neighbors
  special bonds CPU = 0.001 seconds
  read_data CPU = 0.027 seconds
4500 atoms in group watr
120 atoms in group kion
120 atoms in group ohion
240 atoms in group ions
Finding SHAKE clusters ...
       0 = # of size 2 clusters
       0 = # of size 3 clusters
       0 = # of size 4 clusters
    1500 = # of frozen angles
  find clusters CPU = 0.001 seconds
PPPM initialization ...
  using 12-bit tables for long-range coulomb
  G vector (1/distance) = 0.30594483
  grid = 32 32 32
  stencil order = 5
  estimated absolute RMS force accuracy = 0.003146693
  estimated relative force accuracy = 9.4761726e-06
  using double precision FFTW3
  3d grid and FFT values/proc = 59319 32768
Generated 6 of 6 mixed pair_coeff terms from arithmetic mixing rule
WARNING: Should not use fix nve/limit with fix shake or fix rattle (src/lammps/src/fix_nve_limit.cpp:76)
Neighbor list info ...
  update: every = 1 steps, delay = 0 steps, check = yes
  max neighbors/atom: 2000, page size: 100000
  master list distance cutoff = 12
  ghost atom cutoff = 12
  binsize = 6, bins = 7 7 7
  1 neighbor lists, perpetual/occasional/extra = 1 0 0
  (1) pair lj/cut/coul/long, perpetual
      attributes: half, newton on
      pair build: half/bin/newton
      stencil: half/bin/3d
      bin: standard
Setting up Verlet run ...
  Unit style    : real
  Current step  : 0
  Time step     : 0.2
Per MPI rank memory allocation (min/avg/max) = 27.64 | 27.64 | 27.64 Mbytes
   Step          Temp          Press         Density         PotEng         Volume    
         0   298            43356.845      1.1690128      856.17296      47948.556    
       500   648.71072      5998.0818      1.1690128     -34806.841      47948.556    
      1000   373.68527     -637.09339      1.1690128     -38819.996      47948.556    
      1500   315.82819     -1539.354       1.1690128     -40076.459      47948.556    
      2000   313.03472     -1677.3115      1.1690128     -40666.527      47948.556    
      2500   304.12437     -5991.9923      1.1690128     -40903.821      47948.556    
      3000   302.11664     -3268.5983      1.1690128     -41053.987      47948.556    
      3500   305.42949     -2481.8408      1.1690128     -41332.806      47948.556    
      4000   306.92827     -1813.5418      1.1690128     -41394.362      47948.556    
      4500   298.7585      -4529.4401      1.1690128     -41530.065      47948.556    
      5000   301.22137     -2992.2812      1.1690128     -41601.338      47948.556    
      5500   305.95019     -3767.6121      1.1690128     -41693.355      47948.556    
      6000   303.64087     -2280.4471      1.1690128     -41727.283      47948.556    
      6500   295.53518     -5815.0185      1.1690128     -41769.424      47948.556    
      7000   300.80595     -2745.6225      1.1690128     -41818.33       47948.556    
      7500   304.20918     -3093.8624      1.1690128     -41885.648      47948.556    
      8000   299.64351     -2229.5463      1.1690128     -41890.651      47948.556    
      8500   297.85589     -2782.7682      1.1690128     -41936.401      47948.556    
      9000   304.5523      -2981.7565      1.1690128     -42010.34       47948.556    
      9500   304.4855      -5086.3205      1.1690128     -42032.367      47948.556    
     10000   300.54091     -3088.5281      1.1690128     -42036.785      47948.556    
     10500   297.22757     -2301.5291      1.1690128     -42125.104      47948.556    
     11000   298.40831     -3454.0288      1.1690128     -42142.45       47948.556    
     11500   304.37429     -1329.8221      1.1690128     -42131.852      47948.556    
     12000   299.1908      -3789.4029      1.1690128     -42170.325      47948.556    
     12500   301.4713      -3702.4057      1.1690128     -42121.113      47948.556    
     13000   298.73687     -2864.9542      1.1690128     -42131.656      47948.556    
     13500   295.4001      -3017.1673      1.1690128     -42221.325      47948.556    
     14000   299.25096     -3051.6139      1.1690128     -42180.526      47948.556    
     14500   287.23612     -4299.5364      1.1690128     -42120.423      47948.556    
     15000   309.46731     -4655.2767      1.1690128     -42237.597      47948.556    
     15500   297.51999     -3065.4129      1.1690128     -42207.129      47948.556    
     16000   304.23483     -2073.868       1.1690128     -42285.216      47948.556    
     16500   292.54136     -3397.6427      1.1690128     -42299.786      47948.556    
     17000   293.4706      -3631.6862      1.1690128     -42331.262      47948.556    
     17500   295.84996     -3704.2008      1.1690128     -42294.992      47948.556    
     18000   289.90835     -4153.0172      1.1690128     -42376.37       47948.556    
     18500   302.20976     -2396.6424      1.1690128     -42308.34       47948.556    
     19000   301.2995      -2646.2873      1.1690128     -42263.702      47948.556    
     19500   298.34485     -3253.5859      1.1690128     -42246.624      47948.556    
     20000   296.74588     -2793.5131      1.1690128     -42374.435      47948.556    
Loop time of 922.241 on 1 procs for 20000 steps with 4740 atoms

Performance: 0.375 ns/day, 64.044 hours/ns, 21.686 timesteps/s, 102.793 katom-step/s
99.9% CPU use with 1 MPI tasks x 1 OpenMP threads

MPI task timing breakdown:
Section |  min time  |  avg time  |  max time  |%varavg| %total
---------------------------------------------------------------
Pair    | 693.1      | 693.1      | 693.1      |   0.0 | 75.15
Bond    | 0.086012   | 0.086012   | 0.086012   |   0.0 |  0.01
Kspace  | 182.98     | 182.98     | 182.98     |   0.0 | 19.84
Neigh   | 8.6747     | 8.6747     | 8.6747     |   0.0 |  0.94
Comm    | 10.612     | 10.612     | 10.612     |   0.0 |  1.15
Output  | 0.0043089  | 0.0043089  | 0.0043089  |   0.0 |  0.00
Modify  | 23.463     | 23.463     | 23.463     |   0.0 |  2.54
Other   |            | 3.327      |            |       |  0.36

Nlocal:           4740 ave        4740 max        4740 min
Histogram: 1 0 0 0 0 0 0 0 0 0
Nghost:          17130 ave       17130 max       17130 min
Histogram: 1 0 0 0 0 0 0 0 0 0
Neighs:    1.69512e+06 ave 1.69512e+06 max 1.69512e+06 min
Histogram: 1 0 0 0 0 0 0 0 0 0

Total # of neighbors = 1695123
Ave neighs/atom = 357.62089
Ave special neighs/atom = 1.8987342
Neighbor list builds = 186
Dangerous builds = 0
PPPM initialization ...
  using 12-bit tables for long-range coulomb
  G vector (1/distance) = 0.30594483
  grid = 32 32 32
  stencil order = 5
  estimated absolute RMS force accuracy = 0.003146693
  estimated relative force accuracy = 9.4761726e-06
  using double precision FFTW3
  3d grid and FFT values/proc = 59319 32768
Generated 6 of 6 mixed pair_coeff terms from arithmetic mixing rule
Setting up Verlet run ...
  Unit style    : real
  Current step  : 20000
  Time step     : 0.5
Per MPI rank memory allocation (min/avg/max) = 27.64 | 27.64 | 27.64 Mbytes
   Step          Temp          Press         Density         PotEng         Volume    
     20000   296.74588     -2995.8482      1.1690128     -42374.435      47948.556    
     20500   295.68371     -3058.7274      1.1690128     -42357.119      47948.556    
     21000   307.64735     -3622.1731      1.1690128     -42274.292      47948.556    
     21500   301.50531     -2141.2584      1.1690128     -42363.236      47948.556    
     22000   297.40173     -2650.3304      1.1690128     -42320.489      47948.556    
     22500   301.97356     -3931.5169      1.1690128     -42363.616      47948.556    
     23000   301.87284     -2046.4164      1.1690128     -42412.721      47948.556    
     23500   299.89517     -1662.7611      1.1690128     -42452.823      47948.556    
     24000   303.07509     -3160.1943      1.1690128     -42489.425      47948.556    
     24500   297.16381     -3553.7879      1.1690128     -42413.977      47948.556    
     25000   297.15072     -2940.1368      1.1690128     -42418.039      47948.556    
     25500   294.89128     -1739.1789      1.1690128     -42427.93       47948.556    
     26000   296.0906      -2272.0794      1.1690128     -42462.909      47948.556    
     26500   299.67633     -1733.5728      1.1690128     -42471.064      47948.556    
     27000   298.5944      -2565.3325      1.1690128     -42420.036      47948.556    
     27500   291.54413     -1857.7803      1.1690128     -42367.711      47948.556    
     28000   300.90494     -1367.2961      1.1690128     -42455.111      47948.556    
     28500   300.31171     -2374.9622      1.1690128     -42521.349      47948.556    
     29000   298.57777     -1764.1192      1.1690128     -42499.585      47948.556    
     29500   305.46223     -2250.0885      1.1690128     -42430.166      47948.556    
     30000   305.77167     -2608.2643      1.1690128     -42504.88       47948.556    
     30500   290.92177     -1984.5782      1.1690128     -42527.317      47948.556    
     31000   296.7553      -1967.5219      1.1690128     -42620.77       47948.556    
     31500   304.86024     -1739.3313      1.1690128     -42520.804      47948.556    
     32000   297.35842     -2111.6937      1.1690128     -42551.72       47948.556    
     32500   301.30323     -2453.348       1.1690128     -42581.766      47948.556    
     33000   301.65873     -2536.8188      1.1690128     -42569.272      47948.556    
     33500   300.84208     -3228.84        1.1690128     -42534.341      47948.556    
     34000   300.86334     -1820.2604      1.1690128     -42533.204      47948.556    
     34500   305.20095     -2620.7115      1.1690128     -42709.962      47948.556    
     35000   299.86277     -2447.1107      1.1690128     -42572.971      47948.556    
     35500   300.08602     -2208.1779      1.1690128     -42607.594      47948.556    
     36000   301.43394     -2925.728       1.1690128     -42535.265      47948.556    
     36500   301.1297      -1839.994       1.1690128     -42527.547      47948.556    
     37000   304.59481     -2300.3353      1.1690128     -42581.717      47948.556    
     37500   298.02173     -2113.9876      1.1690128     -42510.369      47948.556    
     38000   297.61245     -1188.3511      1.1690128     -42544.093      47948.556    
     38500   300.05981     -2392.2565      1.1690128     -42552.363      47948.556    
     39000   298.06188     -2167.516       1.1690128     -42558.643      47948.556    
     39500   303.54383     -2552.5917      1.1690128     -42563.647      47948.556    
     40000   302.9845      -3304.6248      1.1690128     -42581.176      47948.556    
Loop time of 796.838 on 1 procs for 20000 steps with 4740 atoms

Performance: 1.084 ns/day, 22.134 hours/ns, 25.099 timesteps/s, 118.970 katom-step/s
100.0% CPU use with 1 MPI tasks x 1 OpenMP threads

MPI task timing breakdown:
Section |  min time  |  avg time  |  max time  |%varavg| %total
---------------------------------------------------------------
Pair    | 599.09     | 599.09     | 599.09     |   0.0 | 75.18
Bond    | 0.065952   | 0.065952   | 0.065952   |   0.0 |  0.01
Kspace  | 149.62     | 149.62     | 149.62     |   0.0 | 18.78
Neigh   | 19.012     | 19.012     | 19.012     |   0.0 |  2.39
Comm    | 7.5661     | 7.5661     | 7.5661     |   0.0 |  0.95
Output  | 0.0044823  | 0.0044823  | 0.0044823  |   0.0 |  0.00
Modify  | 19.114     | 19.114     | 19.114     |   0.0 |  2.40
Other   |            | 2.361      |            |       |  0.30

Nlocal:           4740 ave        4740 max        4740 min
Histogram: 1 0 0 0 0 0 0 0 0 0
Nghost:          17031 ave       17031 max       17031 min
Histogram: 1 0 0 0 0 0 0 0 0 0
Neighs:    1.69538e+06 ave 1.69538e+06 max 1.69538e+06 min
Histogram: 1 0 0 0 0 0 0 0 0 0

Total # of neighbors = 1695385
Ave neighs/atom = 357.67616
Ave special neighs/atom = 1.8987342
Neighbor list builds = 453
Dangerous builds = 0
PPPM initialization ...
  using 12-bit tables for long-range coulomb
  G vector (1/distance) = 0.30594483
  grid = 32 32 32
  stencil order = 5
  estimated absolute RMS force accuracy = 0.003146693
  estimated relative force accuracy = 9.4761726e-06
  using double precision FFTW3
  3d grid and FFT values/proc = 59319 32768
Generated 6 of 6 mixed pair_coeff terms from arithmetic mixing rule
Setting up Verlet run ...
  Unit style    : real
  Current step  : 40000
  Time step     : 1
Per MPI rank memory allocation (min/avg/max) = 27.64 | 27.64 | 27.64 Mbytes
   Step          Temp          Press         Density         PotEng         Volume    
     40000   302.9845      -3045.1151      1.1690128     -42581.176      47948.556    
     40500   292.98953      39.812061      1.2151998     -42775.121      46126.139    
     41000   299.64751      358.41959      1.2207658     -42887.622      45915.829    
     41500   296.13371      73.673193      1.2336434     -42904.271      45436.529    
     42000   304.73368     -531.30767      1.2374624     -42879.385      45296.305    
     42500   291.72566      573.52073      1.2442508     -42867.215      45049.176    
     43000   304.14093     -147.88237      1.2499275     -42960.561      44844.58     
     43500   303.09237      195.52636      1.2608151     -42893.727      44457.33     
     44000   300.21741      315.64326      1.2614653     -42892.681      44434.418    
     44500   298.51111     -723.50326      1.2503851     -43022.793      44828.169    
     45000   297.65726     -125.18346      1.2589316     -43004.902      44523.843    
     45500   304.23141      389.95118      1.2628714     -42896.805      44384.941    
     46000   302.19458      183.49993      1.2558613     -42909.867      44632.694    
     46500   295.84207      13.599343      1.2579118     -42875.866      44559.94     
     47000   301.08696     -398.74131      1.2537455     -43003.508      44708.017    
     47500   294.6496      -223.77124      1.2500051     -42925.337      44841.795    
     48000   298.57306     -246.852        1.2643122     -42986.154      44334.362    
     48500   297.33097      663.95163      1.2737316     -42933.289      44006.505    
     49000   300.54141     -592.4925       1.2613366     -42878.977      44438.951    
     49500   303.13746     -41.394944      1.2595947     -42925.745      44500.405    
     50000   301.75139      38.904082      1.2578857     -42882.747      44560.864    
     50500   291.94073      889.90747      1.2642742     -42944.516      44335.693    
     51000   303.6862      -381.69614      1.2574494     -42941.195      44576.325    
     51500   300.42565      78.766592      1.2623735     -42914.401      44402.45     
     52000   294.92558     -741.53388      1.2529842     -42920.814      44735.182    
     52500   294.33182      34.725514      1.2700442     -42992.206      44134.27     
     53000   295.5519       533.0173       1.2625317     -42995.896      44396.884    
     53500   297.5326       51.41669       1.2602314     -42942.616      44477.923    
     54000   299.34799      626.08701      1.2708817     -43057.658      44105.186    
     54500   290.25934     -289.35624      1.2588492     -42905.753      44526.759    
     55000   303.8612       332.45591      1.267403      -42998.471      44226.243    
     55500   302.91082     -12.494725      1.2660168     -43034.495      44274.669    
     56000   300.14013      198.44395      1.2621637     -42979.986      44409.828    
     56500   302.27358     -155.25486      1.263179      -42954.961      44374.136    
     57000   299.13303      72.276673      1.2639184     -42974.123      44348.174    
     57500   297.14864     -980.4377       1.2590598     -42998.752      44519.311    
     58000   307.81537      33.42544       1.2641255     -43038.943      44340.911    
     58500   293.4328      -347.75186      1.2685914     -42959.15       44184.813    
     59000   296.1651       394.83594      1.2645519     -42942.815      44325.958    
     59500   294.31376     -524.48283      1.2655624     -42980.16       44290.567    
     60000   297.12318     -985.94819      1.2577294     -42991.71       44566.404    
     60500   298.54434     -35.012619      1.2652388     -43095.555      44301.892    
     61000   295.98143     -319.51694      1.2604696     -42964.563      44469.517    
     61500   299.77564      11.097307      1.2636115     -43029.848      44358.945    
     62000   299.45699      279.74073      1.2609042     -43038.386      44454.189    
     62500   294.20773      440.74621      1.2652091     -43034.347      44302.932    
     63000   299.8773      -40.899106      1.2578628     -42862.801      44561.676    
     63500   292.86522     -346.48761      1.2541133     -43016.055      44694.904    
     64000   301.05782      78.792795      1.2627015     -43053.275      44390.916    
     64500   301.88976     -214.6779       1.2575624     -42978.314      44572.319    
     65000   298.94559      204.70964      1.2674859     -43043.626      44223.352    
     65500   299.47787      1252.4539      1.2678605     -43067.891      44210.284    
     66000   297.33299      339.53111      1.2664649     -43068.466      44259.004    
     66500   302.86275      169.2301       1.2658199     -42999.27       44281.557    
     67000   292.49265     -685.06068      1.2562996     -42854.044      44617.124    
     67500   292.16665     -350.7856       1.2650564     -43130.359      44308.282    
     68000   297.74665     -195.49366      1.2570463     -43013.852      44590.621    
     68500   293.10452     -36.229769      1.2633222     -42981.337      44369.103    
     69000   293.04593     -1378.1691      1.2624574     -43017.849      44399.496    
     69500   301.22387      290.70805      1.2690174     -43044.409      44169.981    
     70000   300.67755      469.66684      1.270119      -43073.55       44131.671    
Loop time of 1802.39 on 1 procs for 30000 steps with 4740 atoms

Performance: 1.438 ns/day, 16.689 hours/ns, 16.645 timesteps/s, 78.895 katom-step/s
100.0% CPU use with 1 MPI tasks x 1 OpenMP threads

MPI task timing breakdown:
Section |  min time  |  avg time  |  max time  |%varavg| %total
---------------------------------------------------------------
Pair    | 1171.6     | 1171.6     | 1171.6     |   0.0 | 65.00
Bond    | 0.2135     | 0.2135     | 0.2135     |   0.0 |  0.01
Kspace  | 293.76     | 293.76     | 293.76     |   0.0 | 16.30
Neigh   | 90.459     | 90.459     | 90.459     |   0.0 |  5.02
Comm    | 19.503     | 19.503     | 19.503     |   0.0 |  1.08
Output  | 0.0061624  | 0.0061624  | 0.0061624  |   0.0 |  0.00
Modify  | 216.64     | 216.64     | 216.64     |   0.0 | 12.02
Other   |            | 10.2       |            |       |  0.57

Nlocal:           4740 ave        4740 max        4740 min
Histogram: 1 0 0 0 0 0 0 0 0 0
Nghost:          17738 ave       17738 max       17738 min
Histogram: 1 0 0 0 0 0 0 0 0 0
Neighs:    1.83976e+06 ave 1.83976e+06 max 1.83976e+06 min
Histogram: 1 0 0 0 0 0 0 0 0 0

Total # of neighbors = 1839761
Ave neighs/atom = 388.13523
Ave special neighs/atom = 1.8987342
Neighbor list builds = 1402
Dangerous builds = 0
PPPM initialization ...
  using 12-bit tables for long-range coulomb
  G vector (1/distance) = 0.30323658
  grid = 30 30 30
  stencil order = 5
  estimated absolute RMS force accuracy = 0.0038702588
  estimated relative force accuracy = 1.1655169e-05
  using double precision FFTW3
  3d grid and FFT values/proc = 50653 27000
Generated 6 of 6 mixed pair_coeff terms from arithmetic mixing rule
Setting up Verlet run ...
  Unit style    : real
  Current step  : 0
  Time step     : 1
Per MPI rank memory allocation (min/avg/max) = 27.2 | 27.2 | 27.2 Mbytes
   Step          Temp          Press         Density         PotEng         Volume    
         0   300.67755      429.71729      1.270119      -43073.51       44131.671    
       500   300.03063      698.49006      1.2665875     -42990.928      44254.718    
      1000   302.32901      567.31622      1.2671723     -42976.508      44234.296    
      1500   299.45387     -61.075082      1.261444      -43051.243      44435.167    
      2000   297.84237     -192.67144      1.2690353     -43077.512      44169.357    
      2500   294.60991      99.888724      1.2678209     -42976.982      44211.668    
      3000   302.23484     -107.4797       1.2711039     -43122.516      44097.476    
      3500   296.76382      109.28756      1.268127      -42984.821      44200.994    
      4000   299.00418      87.266359      1.2715765     -43033.452      44081.086    
      4500   294.99536      456.35077      1.2695086     -43051.522      44152.89     
      5000   286.20746      534.93828      1.2698238     -43047.298      44141.93     
      5500   296.28741     -131.33435      1.2649972     -43141.579      44310.355    
      6000   291.21168     -138.51582      1.2631035     -43046.079      44376.788    
      6500   302.33229     -566.7211       1.2668328     -43049.629      44246.152    
      7000   302.55532     -167.54904      1.2660307     -43122.309      44274.183    
      7500   300.44363     -332.09573      1.2673481     -43127.806      44228.162    
      8000   298.22547     -153.5029       1.2659834     -43092.616      44275.838    
      8500   288.93736     -113.25538      1.2646704     -43062.024      44321.805    
      9000   299.03808     -296.32791      1.2692433     -42989.815      44162.12     
      9500   295.10746     -139.91638      1.2659005     -43062.085      44278.736    
     10000   301.38959      703.30407      1.2732417     -43129.582      44023.434    
     10500   292.74707     -884.48959      1.2611747     -43086.996      44444.654    
     11000   290.09543      401.39835      1.2787715     -43034.845      43833.065    
     11500   298.33486     -447.98852      1.2641223     -43110.959      44341.021    
     12000   291.84827     -33.211601      1.266096      -43050.806      44271.898    
     12500   296.71417     -185.21928      1.2619144     -42953.251      44418.602    
     13000   301.38139      319.29176      1.2576568     -43107.132      44568.974    
     13500   302.16273      692.38827      1.2701462     -43048.404      44130.725    
     14000   297.92399      51.69925       1.2659351     -43025.605      44277.526    
     14500   295.23525     -35.997994      1.2640197     -43170.102      44344.621    
     15000   293.21959      54.184943      1.2619063     -43078.445      44418.889    
     15500   298.01545     -0.48415056     1.2615422     -43041.22       44431.706    
     16000   296.44948     -480.95351      1.2577191     -43074.116      44566.766    
     16500   297.16223      303.3781       1.262922      -43148.005      44383.163    
     17000   301.68494      163.662        1.267108      -43062.359      44236.541    
     17500   303.76579      114.38583      1.2763076     -43162.725      43917.683    
     18000   293.0181      -748.56826      1.2687353     -43083.346      44179.803    
     18500   295.08548      229.77986      1.2721265     -43240.309      44062.027    
     19000   300.51055      23.319528      1.2613761     -43115.845      44437.56     
     19500   294.78945      745.97699      1.2722919     -43108.319      44056.302    
     20000   296.04216      319.89848      1.2688146     -43131.452      44177.041    
     20500   293.50577      467.96834      1.269583      -43046.877      44150.305    
     21000   295.7839      -3.6062587      1.2735042     -43115.715      44014.361    
     21500   301.99378     -5.8245936      1.2699179     -43051.836      44138.66     
     22000   303.09744      868.61722      1.2829523     -43170.416      43690.226    
     22500   294.63279      141.25763      1.2718236     -43090.315      44072.522    
     23000   294.71053     -5.5389779      1.2683505     -43186.119      44193.205    
     23500   301.91488      377.74917      1.2656584     -43084.097      44287.207    
     24000   303.9628       430.88475      1.263367      -43146.636      44367.531    
     24500   295.05653      123.32354      1.2640389     -42993.671      44343.947    
     25000   293.7123       856.35088      1.2663794     -43046.643      44261.993    
     25500   303.12713     -89.573346      1.2580348     -43094.096      44555.582    
     26000   302.49615      454.21317      1.2569853     -43060.13       44592.786    
     26500   305.24565     -598.01636      1.2552004     -43046.877      44656.197    
     27000   297.09612      270.45549      1.2654953     -43059.208      44292.913    
     27500   297.26589      564.93347      1.2648932     -43071.316      44313.999    
     28000   301.71472      136.09562      1.2684272     -43040.891      44190.533    
     28500   299.40496      720.90838      1.2664205     -43029.866      44260.554    
     29000   296.56688     -157.24914      1.2641084     -43062.854      44341.508    
     29500   291.30804     -69.784344      1.2705886     -43052.539      44115.36     
     30000   299.76365      806.73806      1.2698719     -43076.857      44140.258    
     30500   292.70527      490.67736      1.2710829     -43061.949      44098.207    
     31000   305.1852      -264.63245      1.2612455     -42995.538      44442.161    
     31500   289.70332     -419.526        1.2614324     -43056.046      44435.575    
     32000   290.37164     -1004.7976      1.2665711     -43024.666      44255.293    
     32500   303.96606     -435.76459      1.2659416     -43128.342      44277.297    
     33000   307.0442      -2.038298       1.2656306     -43076.774      44288.179    
     33500   295.3269       122.93124      1.2692208     -43076.917      44162.901    
     34000   298.5493      -371.02001      1.2657591     -43132.205      44283.681    
     34500   297.44905      338.43919      1.2698194     -43021.027      44142.085    
     35000   303.1546      -166.34465      1.2658065     -43177.205      44282.025    
     35500   300.13624      176.30859      1.2726041     -43157.216      44045.492    
     36000   296.85047     -995.93651      1.2601016     -43023.865      44482.506    
     36500   303.05841     -211.67036      1.2616274     -43039.911      44428.707    
     37000   300.21637      953.17259      1.2766399     -43120.59       43906.251    
     37500   302.65365     -144.89443      1.2644288     -42988.041      44330.273    
     38000   297.43692      1617.6672      1.2793954     -43085.594      43811.691    
     38500   296.44254     -319.03256      1.2613365     -43061.537      44438.954    
     39000   297.45401     -382.20657      1.2709706     -43071.97       44102.1      
     39500   299.91826      180.49671      1.2694227     -43164.682      44155.879    
     40000   300.25107     -114.69788      1.274167      -43131.099      43991.466    
     40500   299.80482      549.30079      1.2704334     -43037.076      44120.751    
     41000   308.59992      809.19081      1.2704615     -43048.928      44119.775    
     41500   293.60476      370.15551      1.2710568     -43126.863      44099.112    
     42000   301.44096      273.68959      1.2642209     -43000.332      44337.563    
     42500   294.62606      335.21576      1.2747282     -43070.351      43972.097    
     43000   299.48464      141.09156      1.2714068     -43081.275      44086.971    
     43500   298.04491      483.3935       1.2803984     -43232.746      43777.372    
     44000   291.15384     -196.49151      1.2681977     -43116.469      44198.53     
     44500   300.28301      396.92635      1.2746711     -43111.755      43974.069    
     45000   295.78504     -848.46333      1.2607642     -43087.019      44459.127    
     45500   297.65619     -619.72458      1.266974      -43117.049      44241.218    
     46000   303.37507      150.52633      1.2736128     -43101.558      44010.609    
     46500   298.92137     -231.64654      1.2653865     -43080.97       44296.721    
     47000   298.08709      80.446924      1.262312      -43045.601      44404.612    
     47500   294.044       -816.26972      1.2663736     -43130.342      44262.193    
     48000   294.75903      230.86963      1.2641016     -43054.597      44341.748    
     48500   295.87836     -47.930743      1.2624682     -43173.183      44399.118    
     49000   298.85095      801.26705      1.2648478     -43085.145      44315.589    
     49500   303.0946       449.42109      1.2633508     -43078.315      44368.098    
     50000   310.45523     -438.07753      1.25474       -43103.454      44672.58     
Loop time of 2703.33 on 1 procs for 50000 steps with 4740 atoms

Performance: 1.598 ns/day, 15.019 hours/ns, 18.496 timesteps/s, 87.670 katom-step/s
99.9% CPU use with 1 MPI tasks x 1 OpenMP threads

MPI task timing breakdown:
Section |  min time  |  avg time  |  max time  |%varavg| %total
---------------------------------------------------------------
Pair    | 1879.2     | 1879.2     | 1879.2     |   0.0 | 69.51
Bond    | 0.30506    | 0.30506    | 0.30506    |   0.0 |  0.01
Kspace  | 327.95     | 327.95     | 327.95     |   0.0 | 12.13
Neigh   | 140.82     | 140.82     | 140.82     |   0.0 |  5.21
Comm    | 26.373     | 26.373     | 26.373     |   0.0 |  0.98
Output  | 0.0088512  | 0.0088512  | 0.0088512  |   0.0 |  0.00
Modify  | 315.07     | 315.07     | 315.07     |   0.0 | 11.65
Other   |            | 13.61      |            |       |  0.50

Nlocal:           4740 ave        4740 max        4740 min
Histogram: 1 0 0 0 0 0 0 0 0 0
Nghost:          17386 ave       17386 max       17386 min
Histogram: 1 0 0 0 0 0 0 0 0 0
Neighs:    1.81881e+06 ave 1.81881e+06 max 1.81881e+06 min
Histogram: 1 0 0 0 0 0 0 0 0 0

Total # of neighbors = 1818809
Ave neighs/atom = 383.71498
Ave special neighs/atom = 1.8987342
Neighbor list builds = 2334
Dangerous builds = 0
RESULT density_g_cm3 1.26771612947427
PPPM initialization ...
  using 12-bit tables for long-range coulomb
  G vector (1/distance) = 0.30293555
  grid = 30 30 30
  stencil order = 5
  estimated absolute RMS force accuracy = 0.0039176195
  estimated relative force accuracy = 1.1797795e-05
  using double precision FFTW3
  3d grid and FFT values/proc = 50653 27000
Generated 6 of 6 mixed pair_coeff terms from arithmetic mixing rule
Setting up Verlet run ...
  Unit style    : real
  Current step  : 0
  Time step     : 1
Per MPI rank memory allocation (min/avg/max) = 29.45 | 29.45 | 29.45 Mbytes
   Step          Temp          Press         Density         PotEng         Volume    
         0   310.45523     -403.52715      1.25474       -43103.454      44672.58     
      5000   301.53244     -199.50861      1.25474       -42952.485      44672.58     
     10000   293.6195      -581.65056      1.25474       -43081.654      44672.58     
     15000   297.67187     -480.62622      1.25474       -43036.328      44672.58     
     20000   295.42767      161.89817      1.25474       -43076.297      44672.58     
     25000   303.30485     -901.01425      1.25474       -43176.93       44672.58     
     30000   298.43313     -325.49413      1.25474       -43039.691      44672.58     
     35000   302.81059      31.139246      1.25474       -43026.256      44672.58     
     40000   299.07397     -486.74532      1.25474       -43059.269      44672.58     
     45000   293.81682     -516.46928      1.25474       -43052.056      44672.58     
     50000   296.49081     -273.69329      1.25474       -43032.857      44672.58     
     55000   301.17291     -1186.8356      1.25474       -43103.756      44672.58     
     60000   304.54984     -477.75485      1.25474       -43087.639      44672.58     
     65000   292.21565     -1046.1682      1.25474       -43083.803      44672.58     
     70000   292.60559     -125.00615      1.25474       -43166.959      44672.58     
     75000   300.53295      538.53226      1.25474       -43157.6        44672.58     
     80000   298.00675     -253.33876      1.25474       -43094.604      44672.58     
     85000   299.56534     -787.94485      1.25474       -43163.637      44672.58   