LAMMPS (22 Jul 2025 - Update 5)
  using 1 OpenMP thread(s) per MPI task
Reading data file ...
  orthogonal box = (0 0 0) to (37.095719 37.095719 37.095719)
  1 by 1 by 1 MPI processor grid
  reading atoms ...
  4912 atoms
  scanning bonds ...
  2 = max bonds/atom
  scanning angles ...
  1 = max angles/atom
  orthogonal box = (0 0 0) to (37.095719 37.095719 37.095719)
  1 by 1 by 1 MPI processor grid
  reading bonds ...
  3000 bonds
  reading angles ...
  1500 angles
Finding 1-2 1-3 1-4 neighbors ...
  special bond factors lj:    0        0        0       
  special bond factors coul:  0        0        0       
     2 = max # of 1-2 neighbors
     1 = max # of 1-3 neighbors
     1 = max # of 1-4 neighbors
     2 = max # of special neighbors
  special bonds CPU = 0.002 seconds
  read_data CPU = 0.067 seconds
4500 atoms in group watr
206 atoms in group kion
206 atoms in group ohion
412 atoms in group ions
Finding SHAKE clusters ...
       0 = # of size 2 clusters
       0 = # of size 3 clusters
       0 = # of size 4 clusters
    1500 = # of frozen angles
  find clusters CPU = 0.003 seconds
PPPM initialization ...
  using 12-bit tables for long-range coulomb
  G vector (1/distance) = 0.30441929
  grid = 32 32 32
  stencil order = 5
  estimated absolute RMS force accuracy = 0.0035943975
  estimated relative force accuracy = 1.0824421e-05
  using double precision FFTW3
  3d grid and FFT values/proc = 59319 32768
Generated 6 of 6 mixed pair_coeff terms from arithmetic mixing rule
WARNING: Should not use fix nve/limit with fix shake or fix rattle (src/lammps/src/fix_nve_limit.cpp:76)
Neighbor list info ...
  update: every = 1 steps, delay = 0 steps, check = yes
  max neighbors/atom: 2000, page size: 100000
  master list distance cutoff = 12
  ghost atom cutoff = 12
  binsize = 6, bins = 7 7 7
  1 neighbor lists, perpetual/occasional/extra = 1 0 0
  (1) pair lj/cut/coul/long, perpetual
      attributes: half, newton on
      pair build: half/bin/newton
      stencil: half/bin/3d
      bin: standard
Setting up Verlet run ...
  Unit style    : real
  Current step  : 0
  Time step     : 0.2
Per MPI rank memory allocation (min/avg/max) = 27.67 | 27.67 | 27.67 Mbytes
   Step          Temp          Press         Density         PotEng         Volume    
         0   298            42787.454      1.2550109     -2800.7824      51047.136    
       500   720.86767      6884.1466      1.2550109     -50870.656      51047.136    
      1000   387.95109     -2198.3758      1.2550109     -56398.145      51047.136    
      1500   328.41909     -3948.0969      1.2550109     -57937.513      51047.136    
      2000   318.72297     -2935.6215      1.2550109     -58571.957      51047.136    
      2500   310.77574     -3820.2013      1.2550109     -58997.068      51047.136    
      3000   301.39046     -3704.9035      1.2550109     -59225.827      51047.136    
      3500   297.90073     -1705.2357      1.2550109     -59329.286      51047.136    
      4000   299.64711     -990.27821      1.2550109     -59445.696      51047.136    
      4500   305.48272     -4039.0231      1.2550109     -59564.805      51047.136    
      5000   304.61196     -2567.7788      1.2550109     -59664.071      51047.136    
      5500   300.15471     -4047.2859      1.2550109     -59633.316      51047.136    
      6000   297.32156     -3921.4301      1.2550109     -59787.773      51047.136    
      6500   309.49023     -2714.4641      1.2550109     -59795.771      51047.136    
      7000   301.55819     -4277.2476      1.2550109     -59925.921      51047.136    
      7500   305.60967     -3872.6076      1.2550109     -59917.899      51047.136    
      8000   307.72718     -4292.0812      1.2550109     -59959.606      51047.136    
      8500   294.70463     -4472.6359      1.2550109     -60108.264      51047.136    
      9000   296.19787     -2734.3519      1.2550109     -59995.551      51047.136    
      9500   301.77229     -2884.2847      1.2550109     -60101.321      51047.136    
     10000   300.28511     -4817.5892      1.2550109     -60120.102      51047.136    
     10500   298.59323     -3367.3561      1.2550109     -60191.635      51047.136    
     11000   299.17232     -4198.7295      1.2550109     -60200.553      51047.136    
     11500   297.96279     -4629.8013      1.2550109     -60316.511      51047.136    
     12000   286.42096     -3707.9325      1.2550109     -60302.553      51047.136    
     12500   306.128       -3937.7992      1.2550109     -60287.783      51047.136    
     13000   305.24396     -4838.8481      1.2550109     -60300.152      51047.136    
     13500   297.059       -1721.13        1.2550109     -60273.616      51047.136    
     14000   297.32509     -3865.1798      1.2550109     -60295.281      51047.136    
     14500   298.35147     -2065.3303      1.2550109     -60358.959      51047.136    
     15000   299.55088     -3826.7274      1.2550109     -60306.07       51047.136    
     15500   297.11275     -2637.7821      1.2550109     -60339.82       51047.136    
     16000   299.21197     -3102.816       1.2550109     -60343.808      51047.136    
     16500   299.31339     -3963.4557      1.2550109     -60326.536      51047.136    
     17000   300.29421     -3394.2688      1.2550109     -60332.136      51047.136    
     17500   304.49149     -4002.3712      1.2550109     -60424.555      51047.136    
     18000   298.61751     -5293.4906      1.2550109     -60438.71       51047.136    
     18500   298.47617     -3695.537       1.2550109     -60402.206      51047.136    
     19000   300.09753     -4354.2838      1.2550109     -60437.339      51047.136    
     19500   296.70206     -2854.4993      1.2550109     -60411.274      51047.136    
     20000   302.20411     -2177.4102      1.2550109     -60383.647      51047.136    
Loop time of 933.608 on 1 procs for 20000 steps with 4912 atoms

Performance: 0.370 ns/day, 64.834 hours/ns, 21.422 timesteps/s, 105.226 katom-step/s
100.0% CPU use with 1 MPI tasks x 1 OpenMP threads

MPI task timing breakdown:
Section |  min time  |  avg time  |  max time  |%varavg| %total
---------------------------------------------------------------
Pair    | 699.02     | 699.02     | 699.02     |   0.0 | 74.87
Bond    | 0.088694   | 0.088694   | 0.088694   |   0.0 |  0.01
Kspace  | 187.4      | 187.4      | 187.4      |   0.0 | 20.07
Neigh   | 9.2019     | 9.2019     | 9.2019     |   0.0 |  0.99
Comm    | 10.532     | 10.532     | 10.532     |   0.0 |  1.13
Output  | 0.00452    | 0.00452    | 0.00452    |   0.0 |  0.00
Modify  | 24.194     | 24.194     | 24.194     |   0.0 |  2.59
Other   |            | 3.16       |            |       |  0.34

Nlocal:           4912 ave        4912 max        4912 min
Histogram: 1 0 0 0 0 0 0 0 0 0
Nghost:          17104 ave       17104 max       17104 min
Histogram: 1 0 0 0 0 0 0 0 0 0
Neighs:    1.70841e+06 ave 1.70841e+06 max 1.70841e+06 min
Histogram: 1 0 0 0 0 0 0 0 0 0

Total # of neighbors = 1708413
Ave neighs/atom = 347.80395
Ave special neighs/atom = 1.8322476
Neighbor list builds = 184
Dangerous builds = 0
PPPM initialization ...
  using 12-bit tables for long-range coulomb
  G vector (1/distance) = 0.30441929
  grid = 32 32 32
  stencil order = 5
  estimated absolute RMS force accuracy = 0.0035943975
  estimated relative force accuracy = 1.0824421e-05
  using double precision FFTW3
  3d grid and FFT values/proc = 59319 32768
Generated 6 of 6 mixed pair_coeff terms from arithmetic mixing rule
Setting up Verlet run ...
  Unit style    : real
  Current step  : 20000
  Time step     : 0.5
Per MPI rank memory allocation (min/avg/max) = 27.67 | 27.67 | 27.67 Mbytes
   Step          Temp          Press         Density         PotEng         Volume    
     20000   302.20411     -3038.5262      1.2550109     -60383.647      51047.136    
     20500   295.80945     -3921.8738      1.2550109     -60431.502      51047.136    
     21000   293.49169     -4310.2566      1.2550109     -60415.108      51047.136    
     21500   303.16043     -2663.1987      1.2550109     -60541.236      51047.136    
     22000   304.90247     -4450.2136      1.2550109     -60477.074      51047.136    
     22500   297.18893     -3890.6108      1.2550109     -60626.204      51047.136    
     23000   298.49168     -3684.7225      1.2550109     -60512.933      51047.136    
     23500   298.30283     -3033.4913      1.2550109     -60621.547      51047.136    
     24000   301.02083     -3880.8979      1.2550109     -60632.837      51047.136    
     24500   306.28761     -4136.4354      1.2550109     -60629.342      51047.136    
     25000   296.38901     -3033.6076      1.2550109     -60487.203      51047.136    
     25500   294.99501     -3651.251       1.2550109     -60641.843      51047.136    
     26000   288.87099     -4074.3459      1.2550109     -60689.243      51047.136    
     26500   299.45905     -4909.5897      1.2550109     -60798.84       51047.136    
     27000   303.43003     -3278.6184      1.2550109     -60758.119      51047.136    
     27500   295.05494     -4068.3433      1.2550109     -60745.075      51047.136    
     28000   295.25367     -3601.4899      1.2550109     -60755.078      51047.136    
     28500   293.60461     -4139.4024      1.2550109     -60750.061      51047.136    
     29000   298.32117     -2758.6535      1.2550109     -60753.601      51047.136    
     29500   300.06821     -3531.4104      1.2550109     -60734.898      51047.136    
     30000   293.56283     -3547.4882      1.2550109     -60645.374      51047.136    
     30500   300.9831      -3360.7946      1.2550109     -60820.995      51047.136    
     31000   298.48611     -4052.5662      1.2550109     -60816.239      51047.136    
     31500   301.02318     -3597.5651      1.2550109     -60797.133      51047.136    
     32000   303.75463     -2848.8844      1.2550109     -60829.369      51047.136    
     32500   303.06303     -3614.224       1.2550109     -60878.834      51047.136    
     33000   297.94268     -3566.5323      1.2550109     -60831.687      51047.136    
     33500   302.69341     -3369.8676      1.2550109     -60822.758      51047.136    
     34000   301.43557     -3459.7968      1.2550109     -60816.036      51047.136    
     34500   305.70736     -3700.6742      1.2550109     -60723.815      51047.136    
     35000   292.76365     -4125.5677      1.2550109     -60869.026      51047.136    
     35500   299.56964     -3842.6555      1.2550109     -60819.409      51047.136    
     36000   296.82501     -3935.1863      1.2550109     -60880.389      51047.136    
     36500   299.27308     -3653.1606      1.2550109     -60856.418      51047.136    
     37000   301.5876      -3283.1897      1.2550109     -60934.691      51047.136    
     37500   298.64417     -4070.6473      1.2550109     -60818.399      51047.136    
     38000   298.55782     -4047.6903      1.2550109     -60848.599      51047.136    
     38500   304.89129     -4261.2759      1.2550109     -60855.063      51047.136    
     39000   304.19338     -3722.3931      1.2550109     -60794.204      51047.136    
     39500   293.94605     -3164.4101      1.2550109     -60951.888      51047.136    
     40000   297.38192     -4043.2867      1.2550109     -60857.692      51047.136    
Loop time of 803.583 on 1 procs for 20000 steps with 4912 atoms

Performance: 1.075 ns/day, 22.322 hours/ns, 24.889 timesteps/s, 122.252 katom-step/s
99.9% CPU use with 1 MPI tasks x 1 OpenMP threads

MPI task timing breakdown:
Section |  min time  |  avg time  |  max time  |%varavg| %total
---------------------------------------------------------------
Pair    | 602.89     | 602.89     | 602.89     |   0.0 | 75.03
Bond    | 0.064381   | 0.064381   | 0.064381   |   0.0 |  0.01
Kspace  | 151.57     | 151.57     | 151.57     |   0.0 | 18.86
Neigh   | 19.559     | 19.559     | 19.559     |   0.0 |  2.43
Comm    | 7.5611     | 7.5611     | 7.5611     |   0.0 |  0.94
Output  | 0.0038806  | 0.0038806  | 0.0038806  |   0.0 |  0.00
Modify  | 19.647     | 19.647     | 19.647     |   0.0 |  2.44
Other   |            | 2.285      |            |       |  0.28

Nlocal:           4912 ave        4912 max        4912 min
Histogram: 1 0 0 0 0 0 0 0 0 0
Nghost:          16980 ave       16980 max       16980 min
Histogram: 1 0 0 0 0 0 0 0 0 0
Neighs:    1.70886e+06 ave 1.70886e+06 max 1.70886e+06 min
Histogram: 1 0 0 0 0 0 0 0 0 0

Total # of neighbors = 1708858
Ave neighs/atom = 347.89454
Ave special neighs/atom = 1.8322476
Neighbor list builds = 448
Dangerous builds = 0
PPPM initialization ...
  using 12-bit tables for long-range coulomb
  G vector (1/distance) = 0.30441929
  grid = 32 32 32
  stencil order = 5
  estimated absolute RMS force accuracy = 0.0035943975
  estimated relative force accuracy = 1.0824421e-05
  using double precision FFTW3
  3d grid and FFT values/proc = 59319 32768
Generated 6 of 6 mixed pair_coeff terms from arithmetic mixing rule
Setting up Verlet run ...
  Unit style    : real
  Current step  : 40000
  Time step     : 1
Per MPI rank memory allocation (min/avg/max) = 27.67 | 27.67 | 27.67 Mbytes
   Step          Temp          Press         Density         PotEng         Volume    
     40000   297.38192     -3722.1339      1.2550109     -60857.692      51047.136    
     40500   296.95221      280.4758       1.3310171     -61295.343      48132.146    
     41000   292.89778      642.06197      1.3468908     -61321.768      47564.887    
     41500   299.63481     -531.45931      1.3550008     -61396.511      47280.202    
     42000   303.31938      235.65978      1.3641387     -61379.93       46963.487    
     42500   293.33393      403.90162      1.374985      -61500.198      46593.024    
     43000   296.77416     -105.10475      1.380562      -61454.282      46404.804    
     43500   296.01925      570.20163      1.3779424     -61477.722      46493.026    
     44000   304.2715       433.27788      1.3785358     -61457.752      46473.013    
     44500   299.95051     -209.54531      1.3764717     -61569.785      46542.7      
     45000   296.00975     -180.81216      1.381504      -61531.538      46373.162    
     45500   296.30379     -88.393659      1.3856775     -61607.455      46233.493    
     46000   297.62494      854.34399      1.3924875     -61651.416      46007.387    
     46500   297.35988      182.82994      1.3899635     -61496.64       46090.93     
     47000   297.43485      285.65948      1.3880123     -61561.749      46155.721    
     47500   297.89102     -168.2108       1.3858839     -61634.198      46226.607    
     48000   295.16195      388.57518      1.3943435     -61656.277      45946.147    
     48500   298.45049     -261.7516       1.391578      -61580.071      46037.456    
     49000   303.43726      59.054115      1.3957258     -61564.831      45900.643    
     49500   300.00104      228.2187       1.3998587     -61617.935      45765.126    
     50000   300.08326      43.998828      1.3999609     -61557.202      45761.786    
     50500   293.21799     -486.59412      1.3993414     -61621.258      45782.046    
     51000   296.71911      392.51827      1.4062522     -61641.688      45557.057    
     51500   302.63473     -424.87381      1.3995288     -61602.02       45775.915    
     52000   292.44664      32.845156      1.4069371     -61629.537      45534.879    
     52500   295.78338     -708.47713      1.3964298     -61542.117      45877.501    
     53000   297.11522     -281.38366      1.4067582     -61630.358      45540.67     
     53500   295.72593     -151.9634       1.4076086     -61754.336      45513.157    
     54000   304.45148     -170.52587      1.4003407     -61717.353      45749.375    
     54500   295.92756     -383.12485      1.4003313     -61706.197      45749.68     
     55000   294.1935       901.47778      1.4033346     -61649.484      45651.771    
     55500   302.96731     -400.32664      1.4001146     -61729.063      45756.763    
     56000   297.35679      543.86683      1.401596      -61740.561      45708.4      
     56500   298.65728      332.06316      1.4073198     -61807.617      45522.495    
     57000   295.09283     -677.8883       1.3942014     -61711.106      45950.829    
     57500   297.02434      458.48744      1.3997515     -61739.988      45768.63     
     58000   295.63056     -186.02898      1.3945809     -61834.614      45938.324    
     58500   297.11749      118.44542      1.3982542     -61783.171      45817.643    
     59000   303.74926      256.89831      1.4047776     -61748.884      45604.877    
     59500   302.10361      153.83984      1.4060195     -61791.925      45564.595    
     60000   286.64731     -260.56395      1.3964926     -61625.819      45875.437    
     60500   299.56633      95.974046      1.4012354     -61837.527      45720.162    
     61000   291.54799      95.758652      1.404747      -61730.108      45605.871    
     61500   305.99323      52.184173      1.402483      -61727.055      45679.49     
     62000   299.74113     -219.80339      1.4118323     -61755.941      45376.998    
     62500   301.46771     -304.65082      1.4109274     -61827.153      45406.099    
     63000   298.93986      457.12528      1.4100699     -61702.042      45433.711    
     63500   292.02179     -44.187408      1.4157163     -61778.151      45252.504    
     64000   296.54298      156.27831      1.4125465     -61788.525      45354.055    
     64500   291.35344      962.0964       1.4183977     -61809.055      45166.959    
     65000   300.84079      665.21032      1.4107768     -61717.247      45410.947    
     65500   301.47846     -466.79633      1.4181565     -61807.413      45174.64     
     66000   293.50001     -275.74215      1.4111349     -61778.587      45399.423    
     66500   293.05679     -383.97871      1.414991      -61819.667      45275.702    
     67000   298.83841     -617.07745      1.4110369     -61751.701      45402.575    
     67500   297.75459     -588.44279      1.4063812     -61850.499      45552.876    
     68000   299.55412      488.30328      1.4213235     -61907.15       45073.983    
     68500   299.91068      172.48506      1.4137885     -61882.878      45314.211    
     69000   304.26289     -69.161753      1.4062245     -61844.962      45557.953    
     69500   308.25171     -384.43503      1.4013955     -61860.878      45714.941    
     70000   299.63269     -446.02013      1.4022878     -61808.752      45685.852    
Loop time of 1828.86 on 1 procs for 30000 steps with 4912 atoms

Performance: 1.417 ns/day, 16.934 hours/ns, 16.404 timesteps/s, 80.575 katom-step/s
99.9% CPU use with 1 MPI tasks x 1 OpenMP threads

MPI task timing breakdown:
Section |  min time  |  avg time  |  max time  |%varavg| %total
---------------------------------------------------------------
Pair    | 1198.1     | 1198.1     | 1198.1     |   0.0 | 65.51
Bond    | 0.21413    | 0.21413    | 0.21413    |   0.0 |  0.01
Kspace  | 290.07     | 290.07     | 290.07     |   0.0 | 15.86
Neigh   | 90.6       | 90.6       | 90.6       |   0.0 |  4.95
Comm    | 18.773     | 18.773     | 18.773     |   0.0 |  1.03
Output  | 0.0065937  | 0.0065937  | 0.0065937  |   0.0 |  0.00
Modify  | 221.01     | 221.01     | 221.01     |   0.0 | 12.08
Other   |            | 10.04      |            |       |  0.55

Nlocal:           4912 ave        4912 max        4912 min
Histogram: 1 0 0 0 0 0 0 0 0 0
Nghost:          18002 ave       18002 max       18002 min
Histogram: 1 0 0 0 0 0 0 0 0 0
Neighs:    1.90934e+06 ave 1.90934e+06 max 1.90934e+06 min
Histogram: 1 0 0 0 0 0 0 0 0 0

Total # of neighbors = 1909338
Ave neighs/atom = 388.70888
Ave special neighs/atom = 1.8322476
Neighbor list builds = 1376
Dangerous builds = 0
PPPM initialization ...
  using 12-bit tables for long-range coulomb
  G vector (1/distance) = 0.30712744
  grid = 32 32 32
  stencil order = 5
  estimated absolute RMS force accuracy = 0.003218503
  estimated relative force accuracy = 9.6924263e-06
  using double precision FFTW3
  3d grid and FFT values/proc = 59319 32768
Generated 6 of 6 mixed pair_coeff terms from arithmetic mixing rule
Setting up Verlet run ...
  Unit style    : real
  Current step  : 0
  Time step     : 1
Per MPI rank memory allocation (min/avg/max) = 28.43 | 28.43 | 28.43 Mbytes
   Step          Temp          Press         Density         PotEng         Volume    
         0   299.63269     -448.19471      1.4022878     -61808.746      45685.852    
       500   305.31791     -538.1456       1.4079507     -61797.707      45502.096    
      1000   298.97323     -197.89347      1.4113835     -61840.296      45391.427    
      1500   292.9394      -505.47719      1.4117635     -61772.444      45379.21     
      2000   296.42317      159.87715      1.4099659     -61775.124      45437.063    
      2500   301.00377      418.74251      1.4196586     -61923.638      45126.843    
      3000   302.58654      212.92199      1.4150133     -61843.001      45274.989    
      3500   302.22628     -344.21897      1.4109212     -61752.176      45406.298    
      4000   295.51749      183.65926      1.4109721     -61749.654      45404.662    
      4500   295.76787      700.51093      1.4183551     -61823.324      45168.314    
      5000   294.18499      260.73419      1.4119975     -61855.06       45371.687    
      5500   291.10349     -63.804391      1.4055978     -61799.769      45578.267    
      6000   302.17176      218.13012      1.4151368     -61981.121      45271.037    
      6500   300.49857     -882.25188      1.4092228     -61884.396      45461.024    
      7000   299.90859     -58.256662      1.4141876     -61887.744      45301.423    
      7500   297.35153     -247.59193      1.4084936     -61813.575      45484.559    
      8000   292.75881     -1034.4563      1.4027059     -61739.93       45672.233    
      8500   296.43883      25.769911      1.4011266     -61773.706      45723.713    
      9000   301.15605     -51.948863      1.4028038     -61881.141      45669.046    
      9500   296.97127     -211.95386      1.4043324     -61829.508      45619.337    
     10000   300.04458     -228.33789      1.4026924     -61821.605      45672.672    
     10500   292.50555      449.75023      1.404945      -61696.464      45599.445    
     11000   303.13622      718.10224      1.409323      -61841.685      45457.792    
     11500   300.23007      282.34887      1.4091522     -61765.584      45463.3      
     12000   298.07431      413.06699      1.4088071     -61782.202      45474.436    
     12500   303.18942      47.704061      1.4079107     -61736.515      45503.389    
     13000   300.39393     -895.23367      1.3979673     -61679.741      45827.043    
     13500   294.60397     -256.22162      1.4095192     -61789.317      45451.464    
     14000   296.84399      356.83367      1.414143      -61768.245      45302.851    
     14500   293.45374      57.840041      1.4044714     -61736.674      45614.82     
     15000   299.14651      546.2578       1.4182069     -61892.468      45173.037    
     15500   303.60463     -1085.4351      1.3994503     -61780.79       45778.481    
     16000   299.77629      667.31079      1.416298      -61744.791      45233.921    
     16500   299.89321      35.563339      1.4129096     -61840.778      45342.4      
     17000   295.06433      129.29092      1.4127328     -61834.559      45348.073    
     17500   295.97423     -1044.9308      1.404712      -61830.83       45607.007    
     18000   299.20229      556.28839      1.4099584     -61816.782      45437.306    
     18500   286.16833     -135.65345      1.4143969     -61854.234      45294.718    
     19000   298.63654     -562.89987      1.4087863     -61905.055      45475.108    
     19500   297.56784     -62.200722      1.4071036     -61818.741      45529.489    
     20000   290.47924      591.40343      1.4232428     -61927.638      45013.197    
     20500   299.4368      -895.04695      1.4043389     -61836.514      45619.125    
     21000   299.13619      473.98821      1.4174612     -61909.28       45196.799    
     21500   299.33147     -67.631514      1.418167      -61900.978      45174.305    
     22000   295.54396     -218.37889      1.4132275     -61884.166      45332.2      
     22500   284.08507     -814.49031      1.4072633     -61814.406      45524.324    
     23000   291.45128      894.97743      1.4168251     -61923.192      45217.092    
     23500   301.04876      285.75159      1.418663      -61880.566      45158.511    
     24000   294.96672     -428.16475      1.4129127     -61807.977      45342.3      
     24500   299.46694     -35.817833      1.4112734     -61914.298      45394.966    
     25000   292.85698     -593.65203      1.403619      -61814.488      45642.52     
     25500   298.98136      80.402626      1.4102258     -61833.557      45428.688    
     26000   300.99749      280.61012      1.4124478     -61887.598      45357.223    
     26500   295.75175     -207.98321      1.4082381     -61793.374      45492.813    
     27000   296.60585      404.94342      1.4100913     -61845.386      45433.023    
     27500   302.82886      33.670724      1.4090953     -61891.504      45465.135    
     28000   292.35148      358.91442      1.409959      -61911.949      45437.287    
     28500   298.28977      139.06735      1.4169772     -61929.529      45212.238    
     29000   301.63928      334.60092      1.4152046     -61862.951      45268.868    
     29500   299.09274      206.12133      1.4158286     -61824.017      45248.918    
     30000   296.68214      271.51275      1.4224824     -61876.648      45037.26     
     30500   299.92562      403.00693      1.4168836     -61965.286      45215.225    
     31000   293.57018      460.70252      1.4144569     -61884.583      45292.797    
     31500   309.2156      -106.0226       1.414244      -61758.555      45299.615    
     32000   301.10806      187.44688      1.4199956     -61902.715      45116.132    
     32500   293.98634      335.79066      1.415957      -61861.865      45244.813    
     33000   299.06674     -604.25121      1.4132366     -61798.748      45331.906    
     33500   299.9352       685.61468      1.4184843     -61893.216      45164.201    
     34000   295.0176       170.07379      1.4120183     -61750.82       45371.02     
     34500   288.77776     -533.64362      1.4074733     -61925.645      45517.531    
     35000   295.24607      330.44029      1.4134744     -61817.45       45324.279    
     35500   299.60352     -605.83729      1.4128576     -61936.472      45344.068    
     36000   289.39497     -542.18453      1.4111691     -61800.401      45398.323    
     36500   295.01419     -635.91144      1.4119627     -61858.259      45372.805    
     37000   306.49607     -274.48954      1.4163973     -61719.912      45230.748    
     37500   297.53058      205.41641      1.4149392     -61896.267      45277.361    
     38000   300.53758     -88.728649      1.4140159     -61831.722      45306.924    
     38500   301.81543      269.11961      1.4130243     -61831.122      45338.719    
     39000   296.6899       1055.9163      1.4174547     -61770.809      45197.007    
     39500   295.35073     -1661.4579      1.4044278     -61817.179      45616.235    
     40000   307.84776     -236.90166      1.41194       -61846.971      45373.534    
     40500   300.83652      402.62952      1.4169775     -61939.856      45212.228    
     41000   295.00434      472.38527      1.4192812     -61830.326      45138.843    
     41500   295.12498      13.665859      1.4138048     -61796.158      45313.687    
     42000   301.45902      57.871126      1.4182586     -61865.666      45171.39     
     42500   293.41418     -1308.5496      1.4086415     -61768.645      45479.782    
     43000   302.28336      17.570291      1.4170471     -61845.867      45210.008    
     43500   295.13959      326.38486      1.4172419     -61865.568      45203.793    
     44000   303.08076     -531.77265      1.408593      -61892.176      45481.351    
     44500   298.09283      403.25895      1.4172794     -61817.064      45202.597    
     45000   300.98469      635.15782      1.4220521     -61826.733      45050.888    
     45500   303.10905     -211.56849      1.4154026     -61858.539      45262.536    
     46000   309.44658     -280.31337      1.4151066     -61890.951      45272.002    
     46500   304.56196     -486.57156      1.4151766     -62012.188      45269.764    
     47000   297.81719      481.84732      1.4179641     -61839.258      45180.77     
     47500   298.81966     -1056.3487      1.4095898     -61817.615      45449.187    
     48000   296.81478      68.365599      1.4142607     -61901.352      45299.081    
     48500   297.3413      -363.97684      1.4087545     -61740.2        45476.134    
     49000   297.75874     -192.2612       1.410351      -61891.25       45424.657    
     49500   295.77857     -228.26139      1.4081673     -61912.671      45495.098    
     50000   299.3329      -372.15487      1.4149269     -61930.622      45277.752    
Loop time of 3022.91 on 1 procs for 50000 steps with 4912 atoms

Performance: 1.429 ns/day, 16.794 hours/ns, 16.540 timesteps/s, 81.246 katom-step/s
100.0% CPU use with 1 MPI tasks x 1 OpenMP threads

MPI task timing breakdown:
Section |  min time  |  avg time  |  max time  |%varavg| %total
---------------------------------------------------------------
Pair    | 2003       | 2003       | 2003       |   0.0 | 66.26
Bond    | 0.32436    | 0.32436    | 0.32436    |   0.0 |  0.01
Kspace  | 451.9      | 451.9      | 451.9      |   0.0 | 14.95
Neigh   | 147.86     | 147.86     | 147.86     |   0.0 |  4.89
Comm    | 27.886     | 27.886     | 27.886     |   0.0 |  0.92
Output  | 0.0086266  | 0.0086266  | 0.0086266  |   0.0 |  0.00
Modify  | 377.14     | 377.14     | 377.14     |   0.0 | 12.48
Other   |            | 14.79      |            |       |  0.49

Nlocal:           4912 ave        4912 max        4912 min
Histogram: 1 0 0 0 0 0 0 0 0 0
Nghost:          18227 ave       18227 max       18227 min
Histogram: 1 0 0 0 0 0 0 0 0 0
Neighs:    1.92751e+06 ave 1.92751e+06 max 1.92751e+06 min
Histogram: 1 0 0 0 0 0 0 0 0 0

Total # of neighbors = 1927506
Ave neighs/atom = 392.40757
Ave special neighs/atom = 1.8322476
Neighbor list builds = 2288
Dangerous builds = 0
RESULT density_g_cm3 1.41462656907112
PPPM initialization ...
  using 12-bit tables for long-range coulomb
  G vector (1/distance) = 0.30734483
  grid = 32 32 32
  stencil order = 5
  estimated absolute RMS force accuracy = 0.0031899378
  estimated relative force accuracy = 9.6064029e-06
  using double precision FFTW3
  3d grid and FFT values/proc = 59319 32768
Generated 6 of 6 mixed pair_coeff terms from arithmetic mixing rule
Setting up Verlet run ...
  Unit style    : real
  Current step  : 0
  Time step     : 1
Per MPI rank memory allocation (min/avg/max) = 30.68 | 30.68 | 30.68 Mbytes
   Step          Temp          Press         Density         PotEng         Volume    
         0   299.3329      -308.55997      1.4149269     -61930.622      45277.752    
      5000   294.36527     -811.09998      1.4149269     -61781.651      45277.752    
     10000   293.68069     -535.10799      1.4149269     -61914.917      45277.752    
     15000   289.45136     -120.32377      1.4149269     -61957.587      45277.752    
     20000   305.14962      378.90402      1.4149269     -61917.693      45277.752    
     25000   305.17251      676.36066      1.4149269     -61876.777      45277.752    
     30000   299.85717      171.16826      1.4149269     -61845.579      45277.752    
     35000   297.96617     -655.06033      1.4149269     -61989.113      45277.752    
     40000   297.97118     -173.70576      1.4149269     -62060.896      45277.752    
     45000   293.9588       263.88684      1.4149269     -61994.839      45277.752    
     50000   298.00306     -274.17461      1.4149269     -62014.352      45277.752    
     55000   299.43353      79.092124      1.4149269     -61957.252      45277.752    
     60000   299.31811      550.64129      1.4149269     -61819.039      45277.752    
     65000   302.90596     -695.26084      1.4149269     -61935.854      45277.752    
     70000   304.46366     -230.02301      1.4149269     -62042.496      45277.752    
     75000   296.91864     -123.27189      1.4149269     -61816.828      45277.752    
     80000   295.26356      626.49106      1.4149269     -61942.686      45277.752    
     85000   299.10829     -333.22055      1.4149269     -62042.656      45277.