LAMMPS (22 Jul 2025 - Update 5)
  using 1 OpenMP thread(s) per MPI task
Reading data file ...
  orthogonal box = (0 0 0) to (37.095719 37.095719 37.095719)
  1 by 1 by 1 MPI processor grid
  reading atoms ...
  4912 atoms
  scanning bonds ...
  2 = max bonds/atom
  scanning angles ...
  1 = max angles/atom
  orthogonal box = (0 0 0) to (37.095719 37.095719 37.095719)
  1 by 1 by 1 MPI processor grid
  reading bonds ...
  3000 bonds
  reading angles ...
  1500 angles
Finding 1-2 1-3 1-4 neighbors ...
  special bond factors lj:    0        0        0       
  special bond factors coul:  0        0        0       
     2 = max # of 1-2 neighbors
     1 = max # of 1-3 neighbors
     1 = max # of 1-4 neighbors
     2 = max # of special neighbors
  special bonds CPU = 0.001 seconds
  read_data CPU = 0.030 seconds
4500 atoms in group watr
206 atoms in group kion
206 atoms in group ohion
412 atoms in group ions
Finding SHAKE clusters ...
       0 = # of size 2 clusters
       0 = # of size 3 clusters
       0 = # of size 4 clusters
    1500 = # of frozen angles
  find clusters CPU = 0.002 seconds
PPPM initialization ...
  using 12-bit tables for long-range coulomb
  G vector (1/distance) = 0.30441929
  grid = 32 32 32
  stencil order = 5
  estimated absolute RMS force accuracy = 0.0035943975
  estimated relative force accuracy = 1.0824421e-05
  using double precision FFTW3
  3d grid and FFT values/proc = 59319 32768
Generated 6 of 6 mixed pair_coeff terms from arithmetic mixing rule
WARNING: Should not use fix nve/limit with fix shake or fix rattle (src/lammps/src/fix_nve_limit.cpp:76)
Neighbor list info ...
  update: every = 1 steps, delay = 0 steps, check = yes
  max neighbors/atom: 2000, page size: 100000
  master list distance cutoff = 12
  ghost atom cutoff = 12
  binsize = 6, bins = 7 7 7
  1 neighbor lists, perpetual/occasional/extra = 1 0 0
  (1) pair lj/cut/coul/long, perpetual
      attributes: half, newton on
      pair build: half/bin/newton
      stencil: half/bin/3d
      bin: standard
Setting up Verlet run ...
  Unit style    : real
  Current step  : 0
  Time step     : 0.2
Per MPI rank memory allocation (min/avg/max) = 27.67 | 27.67 | 27.67 Mbytes
   Step          Temp          Press         Density         PotEng         Volume    
         0   298            46536.691      1.2550109     -5626.0101      51047.136    
       500   729.42112      4569.5421      1.2550109     -51474.811      51047.136    
      1000   392.36728     -1247.8412      1.2550109     -56519.934      51047.136    
      1500   331.36712     -5200.9371      1.2550109     -58122.115      51047.136    
      2000   312.17059     -5011.5493      1.2550109     -58713.727      51047.136    
      2500   308.95797     -3878.631       1.2550109     -59028.133      51047.136    
      3000   296.89496     -2880.3602      1.2550109     -59231.748      51047.136    
      3500   304.77637     -3672.5219      1.2550109     -59385.343      51047.136    
      4000   296.4105      -4758.3242      1.2550109     -59540.034      51047.136    
      4500   303.4005      -5645.0995      1.2550109     -59648.774      51047.136    
      5000   295.59896     -4420.9991      1.2550109     -59723.542      51047.136    
      5500   298.11385     -3112.8441      1.2550109     -59742.875      51047.136    
      6000   303.44953     -4014.977       1.2550109     -59846.541      51047.136    
      6500   290.49193     -4107.4575      1.2550109     -59778.076      51047.136    
      7000   290.28136     -4153.1387      1.2550109     -59885.543      51047.136    
      7500   301.56207     -2548.9307      1.2550109     -59936.517      51047.136    
      8000   303.89286     -3273.7522      1.2550109     -60009.998      51047.136    
      8500   309.8608      -2847.036       1.2550109     -60052.657      51047.136    
      9000   303.61465     -3788.6062      1.2550109     -60107.835      51047.136    
      9500   299.02081     -3970.8795      1.2550109     -60117.426      51047.136    
     10000   305.73501     -3417.3447      1.2550109     -60074.301      51047.136    
     10500   294.8626      -3745.1988      1.2550109     -60140.033      51047.136    
     11000   301.73552     -4359.8999      1.2550109     -60139.568      51047.136    
     11500   293.15253     -2218.969       1.2550109     -60160.22       51047.136    
     12000   296.92772     -2377.6565      1.2550109     -60237.167      51047.136    
     12500   297.84687     -1325.8328      1.2550109     -60236.099      51047.136    
     13000   301.41841     -2850.6807      1.2550109     -60156.428      51047.136    
     13500   302.67113     -5459.0094      1.2550109     -60304.94       51047.136    
     14000   300.27855     -5910.1252      1.2550109     -60270.47       51047.136    
     14500   299.451       -4243.0988      1.2550109     -60254.621      51047.136    
     15000   300.26541     -4034.2368      1.2550109     -60356.25       51047.136    
     15500   300.47618     -1844.7802      1.2550109     -60364.135      51047.136    
     16000   298.24529     -2294.7047      1.2550109     -60353.042      51047.136    
     16500   297.79386     -4746.4059      1.2550109     -60315.59       51047.136    
     17000   299.28857     -4306.8651      1.2550109     -60312.571      51047.136    
     17500   298.78443     -3756.7688      1.2550109     -60387.628      51047.136    
     18000   293.46617     -4205.5714      1.2550109     -60433.946      51047.136    
     18500   300.89117     -4090.0846      1.2550109     -60411.217      51047.136    
     19000   296.83112     -2782.7771      1.2550109     -60403.139      51047.136    
     19500   299.65497     -4889.63        1.2550109     -60465.68       51047.136    
     20000   296.36738     -3650.5338      1.2550109     -60422.23       51047.136    
Loop time of 925.82 on 1 procs for 20000 steps with 4912 atoms

Performance: 0.373 ns/day, 64.293 hours/ns, 21.602 timesteps/s, 106.111 katom-step/s
100.0% CPU use with 1 MPI tasks x 1 OpenMP threads

MPI task timing breakdown:
Section |  min time  |  avg time  |  max time  |%varavg| %total
---------------------------------------------------------------
Pair    | 695.72     | 695.72     | 695.72     |   0.0 | 75.15
Bond    | 0.073194   | 0.073194   | 0.073194   |   0.0 |  0.01
Kspace  | 183.49     | 183.49     | 183.49     |   0.0 | 19.82
Neigh   | 8.9224     | 8.9224     | 8.9224     |   0.0 |  0.96
Comm    | 10.43      | 10.43      | 10.43      |   0.0 |  1.13
Output  | 0.0043709  | 0.0043709  | 0.0043709  |   0.0 |  0.00
Modify  | 23.908     | 23.908     | 23.908     |   0.0 |  2.58
Other   |            | 3.267      |            |       |  0.35

Nlocal:           4912 ave        4912 max        4912 min
Histogram: 1 0 0 0 0 0 0 0 0 0
Nghost:          17131 ave       17131 max       17131 min
Histogram: 1 0 0 0 0 0 0 0 0 0
Neighs:    1.70807e+06 ave 1.70807e+06 max 1.70807e+06 min
Histogram: 1 0 0 0 0 0 0 0 0 0

Total # of neighbors = 1708074
Ave neighs/atom = 347.73493
Ave special neighs/atom = 1.8322476
Neighbor list builds = 184
Dangerous builds = 0
PPPM initialization ...
  using 12-bit tables for long-range coulomb
  G vector (1/distance) = 0.30441929
  grid = 32 32 32
  stencil order = 5
  estimated absolute RMS force accuracy = 0.0035943975
  estimated relative force accuracy = 1.0824421e-05
  using double precision FFTW3
  3d grid and FFT values/proc = 59319 32768
Generated 6 of 6 mixed pair_coeff terms from arithmetic mixing rule
Setting up Verlet run ...
  Unit style    : real
  Current step  : 20000
  Time step     : 0.5
Per MPI rank memory allocation (min/avg/max) = 27.67 | 27.67 | 27.67 Mbytes
   Step          Temp          Press         Density         PotEng         Volume    
     20000   296.36738     -3407.7252      1.2550109     -60422.23       51047.136    
     20500   303.68473     -3055.8871      1.2550109     -60519.456      51047.136    
     21000   304.52982     -3849.718       1.2550109     -60511.165      51047.136    
     21500   292.43663     -3249.4222      1.2550109     -60503.379      51047.136    
     22000   296.94448     -3565.6271      1.2550109     -60494.447      51047.136    
     22500   311.40296     -3847.305       1.2550109     -60431.289      51047.136    
     23000   303.83354     -3827.6612      1.2550109     -60558.047      51047.136    
     23500   299.9819      -3357.6737      1.2550109     -60568.689      51047.136    
     24000   297.15249     -3512.832       1.2550109     -60522.033      51047.136    
     24500   299.52759     -4155.3374      1.2550109     -60575.397      51047.136    
     25000   306.80207     -3459.7475      1.2550109     -60555.004      51047.136    
     25500   298.26745     -3068.4738      1.2550109     -60568.872      51047.136    
     26000   298.19698     -3509.7393      1.2550109     -60605.621      51047.136    
     26500   302.51566     -3783.8799      1.2550109     -60567.283      51047.136    
     27000   294.81226     -4742.6843      1.2550109     -60601.797      51047.136    
     27500   302.91439     -4311.4546      1.2550109     -60694.499      51047.136    
     28000   305.04662     -3758.3763      1.2550109     -60717.782      51047.136    
     28500   302.68685     -3704.9049      1.2550109     -60672.956      51047.136    
     29000   300.13113     -3902.3054      1.2550109     -60667.997      51047.136    
     29500   291.44912     -2675.1866      1.2550109     -60663.64       51047.136    
     30000   302.05716     -3291.5822      1.2550109     -60731.468      51047.136    
     30500   298.43268     -3704.3893      1.2550109     -60703.637      51047.136    
     31000   303.39502     -3990.6551      1.2550109     -60793.968      51047.136    
     31500   299.71834     -3887.4745      1.2550109     -60834.913      51047.136    
     32000   299.43899     -3487.9314      1.2550109     -60862.067      51047.136    
     32500   301.04883     -3345.7766      1.2550109     -60739.943      51047.136    
     33000   297.41015     -3577.0379      1.2550109     -60751.321      51047.136    
     33500   291.53089     -3337.9992      1.2550109     -60654.25       51047.136    
     34000   299.99558     -3848.9962      1.2550109     -60740.028      51047.136    
     34500   295.43008     -4247.9462      1.2550109     -60738.144      51047.136    
     35000   301.96403     -4166.7157      1.2550109     -60758.342      51047.136    
     35500   298.83657     -3632.076       1.2550109     -60766.664      51047.136    
     36000   294.23893     -3188.8342      1.2550109     -60834.085      51047.136    
     36500   309.7082      -2786.355       1.2550109     -60821.7        51047.136    
     37000   299.49723     -2892.3183      1.2550109     -60798.584      51047.136    
     37500   306.20902     -3595.7916      1.2550109     -60812.788      51047.136    
     38000   305.14348     -2613.5742      1.2550109     -60821.696      51047.136    
     38500   293.02403     -3809.6314      1.2550109     -60874.272      51047.136    
     39000   294.77157     -2825.2428      1.2550109     -60808.624      51047.136    
     39500   295.5328      -2773.6121      1.2550109     -60824.87       51047.136    
     40000   298.12009     -2452.1996      1.2550109     -60902.021      51047.136    
Loop time of 798.828 on 1 procs for 20000 steps with 4912 atoms

Performance: 1.082 ns/day, 22.190 hours/ns, 25.037 timesteps/s, 122.980 katom-step/s
100.0% CPU use with 1 MPI tasks x 1 OpenMP threads

MPI task timing breakdown:
Section |  min time  |  avg time  |  max time  |%varavg| %total
---------------------------------------------------------------
Pair    | 599.04     | 599.04     | 599.04     |   0.0 | 74.99
Bond    | 0.053699   | 0.053699   | 0.053699   |   0.0 |  0.01
Kspace  | 150.66     | 150.66     | 150.66     |   0.0 | 18.86
Neigh   | 19.709     | 19.709     | 19.709     |   0.0 |  2.47
Comm    | 7.573      | 7.573      | 7.573      |   0.0 |  0.95
Output  | 0.0037982  | 0.0037982  | 0.0037982  |   0.0 |  0.00
Modify  | 19.416     | 19.416     | 19.416     |   0.0 |  2.43
Other   |            | 2.373      |            |       |  0.30

Nlocal:           4912 ave        4912 max        4912 min
Histogram: 1 0 0 0 0 0 0 0 0 0
Nghost:          17064 ave       17064 max       17064 min
Histogram: 1 0 0 0 0 0 0 0 0 0
Neighs:    1.70892e+06 ave 1.70892e+06 max 1.70892e+06 min
Histogram: 1 0 0 0 0 0 0 0 0 0

Total # of neighbors = 1708918
Ave neighs/atom = 347.90676
Ave special neighs/atom = 1.8322476
Neighbor list builds = 450
Dangerous builds = 0
PPPM initialization ...
  using 12-bit tables for long-range coulomb
  G vector (1/distance) = 0.30441929
  grid = 32 32 32
  stencil order = 5
  estimated absolute RMS force accuracy = 0.0035943975
  estimated relative force accuracy = 1.0824421e-05
  using double precision FFTW3
  3d grid and FFT values/proc = 59319 32768
Generated 6 of 6 mixed pair_coeff terms from arithmetic mixing rule
Setting up Verlet run ...
  Unit style    : real
  Current step  : 40000
  Time step     : 1
Per MPI rank memory allocation (min/avg/max) = 27.67 | 27.67 | 27.67 Mbytes
   Step          Temp          Press         Density         PotEng         Volume    
     40000   298.12009     -3170.2029      1.2550109     -60902.021      51047.136    
     40500   299.62692      65.934866      1.3162519     -61146.192      48672.075    
     41000   292.9666       325.25663      1.3280844     -61173.789      48238.435    
     41500   295.20248     -320.61092      1.3426017     -61161.134      47716.841    
     42000   294.64448      196.49637      1.358237      -61262.017      47167.55     
     42500   303.74896     -1197.4636      1.3568849     -61267.472      47214.551    
     43000   299.48625     -155.70212      1.3660953     -61282.307      46896.222    
     43500   290.78549     -163.52841      1.3768098     -61419.292      46531.272    
     44000   297.76488     -537.21481      1.3729405     -61261.248      46662.409    
     44500   296.23032      453.22821      1.3920885     -61508.06       46020.571    
     45000   300.64388      213.21124      1.3794864     -61415.199      46440.986    
     45500   297.25083     -15.023813      1.3900579     -61456.02       46087.8      
     46000   304.37471     -548.86515      1.3813556     -61378.24       46378.145    
     46500   299.20629      632.48953      1.3912387     -61413.052      46048.684    
     47000   293.81876     -661.91342      1.3907606     -61525.994      46064.512    
     47500   297.87661     -663.42773      1.3882614     -61427.031      46147.441    
     48000   300.64701      577.88174      1.3946225     -61550.303      45936.954    
     48500   304.78289     -514.54715      1.3856142     -61564.495      46235.605    
     49000   296.9576      -30.856953      1.3987389     -61566.775      45801.765    
     49500   292.30747      210.93651      1.4070774     -61556.163      45530.337    
     50000   301.29606     -361.2521       1.3888264     -61626.329      46128.668    
     50500   293.13852      96.985717      1.3979882     -61460.594      45826.359    
     51000   297.13608     -582.25108      1.3949531     -61598.929      45926.066    
     51500   297.41469     -780.44257      1.3884295     -61646.192      46141.854    
     52000   305.1341       445.90755      1.3965752     -61522.33       45872.725    
     52500   303.9931       793.29453      1.3977912     -61678.352      45832.818    
     53000   300.59188      947.97752      1.4085152     -61640.598      45483.86     
     53500   292.27865      244.04132      1.3974427     -61620.016      45844.248    
     54000   299.99296     -526.60432      1.3870326     -61598.132      46188.323    
     54500   302.75626     -158.52041      1.3914571     -61476.264      46041.455    
     55000   302.81592      22.683936      1.3910988     -61512.333      46053.314    
     55500   297.16933      1284.6873      1.3944724     -61539.194      45941.897    
     56000   297.41678     -106.55706      1.3917092     -61560.579      46033.117    
     56500   296.03804      566.28541      1.4017292     -61675.643      45704.055    
     57000   303.05394     -130.21964      1.3859415     -61630.282      46224.684    
     57500   303.90042      29.800401      1.4016885     -61586.64       45705.384    
     58000   299.82878     -1177.6708      1.3914718     -61599.273      46040.969    
     58500   301.20249     -168.36376      1.3939198     -61593.648      45960.111    
     59000   293.27351      266.35069      1.3962571     -61643.06       45883.177    
     59500   294.46507      239.76868      1.3945832     -61507.188      45938.25     
     60000   303.05935      313.11671      1.39804       -61636.138      45824.663    
     60500   297.57261     -68.46697       1.3961201     -61655.17       45887.678    
     61000   291.76812     -386.11075      1.3972495     -61582.666      45850.587    
     61500   299.89553      495.91688      1.3991259     -61641.218      45789.095    
     62000   298.05775      1674.32        1.4052603     -61581.556      45589.213    
     62500   303.56584      378.8363       1.4044621     -61660.331      45615.121    
     63000   292.9411      -681.91377      1.4011282     -61724.149      45723.661    
     63500   299.85676     -238.50691      1.3990591     -61661.337      45791.283    
     64000   301.06432     -2.0505606      1.4023432     -61736.865      45684.044    
     64500   302.44195      557.76242      1.4054836     -61688.892      45581.968    
     65000   300.31272      415.38101      1.4094769     -61630.997      45452.827    
     65500   299.25341     -273.45882      1.4053705     -61661.895      45585.637    
     66000   294.24162     -146.11943      1.4080131     -61692.952      45500.081    
     66500   307.22409      702.12967      1.4013825     -61651.915      45715.362    
     67000   301.61346      575.03969      1.4006438     -61667.084      45739.474    
     67500   301.19776     -596.84687      1.3956207     -61736.154      45904.099    
     68000   303.82849     -1287.6314      1.3867369     -61636.645      46198.173    
     68500   294.52592     -319.52791      1.4013755     -61760.898      45715.591    
     69000   298.38233     -578.92183      1.3958735     -61688.219      45895.786    
     69500   292.17093     -291.16049      1.3977487     -61698.778      45834.211    
     70000   296.24078      166.89832      1.3988458     -61672.317      45798.266    
Loop time of 1824.74 on 1 procs for 30000 steps with 4912 atoms

Performance: 1.420 ns/day, 16.896 hours/ns, 16.441 timesteps/s, 80.757 katom-step/s
100.0% CPU use with 1 MPI tasks x 1 OpenMP threads

MPI task timing breakdown:
Section |  min time  |  avg time  |  max time  |%varavg| %total
---------------------------------------------------------------
Pair    | 1193.2     | 1193.2     | 1193.2     |   0.0 | 65.39
Bond    | 0.19236    | 0.19236    | 0.19236    |   0.0 |  0.01
Kspace  | 290.08     | 290.08     | 290.08     |   0.0 | 15.90
Neigh   | 91.348     | 91.348     | 91.348     |   0.0 |  5.01
Comm    | 19.29      | 19.29      | 19.29      |   0.0 |  1.06
Output  | 0.0072843  | 0.0072843  | 0.0072843  |   0.0 |  0.00
Modify  | 220.42     | 220.42     | 220.42     |   0.0 | 12.08
Other   |            | 10.16      |            |       |  0.56

Nlocal:           4912 ave        4912 max        4912 min
Histogram: 1 0 0 0 0 0 0 0 0 0
Nghost:          17960 ave       17960 max       17960 min
Histogram: 1 0 0 0 0 0 0 0 0 0
Neighs:    1.90508e+06 ave 1.90508e+06 max 1.90508e+06 min
Histogram: 1 0 0 0 0 0 0 0 0 0

Total # of neighbors = 1905076
Ave neighs/atom = 387.84121
Ave special neighs/atom = 1.8322476
Neighbor list builds = 1382
Dangerous builds = 0
PPPM initialization ...
  using 12-bit tables for long-range coulomb
  G vector (1/distance) = 0.30706785
  grid = 32 32 32
  stencil order = 5
  estimated absolute RMS force accuracy = 0.0032263729
  estimated relative force accuracy = 9.7161263e-06
  using double precision FFTW3
  3d grid and FFT values/proc = 59319 32768
Generated 6 of 6 mixed pair_coeff terms from arithmetic mixing rule
Setting up Verlet run ...
  Unit style    : real
  Current step  : 0
  Time step     : 1
Per MPI rank memory allocation (min/avg/max) = 28.43 | 28.43 | 28.43 Mbytes
   Step          Temp          Press         Density         PotEng         Volume    
         0   296.24078      139.86997      1.3988458     -61672.329      45798.266    
       500   296.39627     -279.75347      1.3973225     -61649.994      45848.191    
      1000   296.81797      284.25531      1.4011574     -61645.342      45722.708    
      1500   304.92678      203.90433      1.398481      -61710.784      45810.211    
      2000   306.6298      -582.12988      1.3982516     -61658.822      45817.726    
      2500   301.4902       689.71818      1.4063202     -61727.822      45554.852    
      3000   300.21125     -185.92297      1.3974878     -61599.336      45842.769    
      3500   304.703        93.340934      1.4020168     -61709.874      45694.682    
      4000   299.91033     -339.23681      1.4019393     -61670.743      45697.206    
      4500   297.94593      231.74898      1.4067385     -61729.591      45541.307    
      5000   301.20058      118.72085      1.4086326     -61701.763      45480.071    
      5500   303.68575     -230.06705      1.4016182     -61643.63       45707.676    
      6000   300.19405     -96.636755      1.4018906     -61809.685      45698.795    
      6500   300.05207     -198.89196      1.4028406     -61778.215      45667.848    
      7000   294.16331     -789.78243      1.3957783     -61687.675      45898.914    
      7500   299.96586     -474.93665      1.4003279     -61791.058      45749.791    
      8000   293.34229     -415.33389      1.3936215     -61701.056      45969.95     
      8500   293.60638      551.26882      1.406918      -61676.047      45535.496    
      9000   302.47287      589.18697      1.4077991     -61663.419      45506.997    
      9500   301.78214     -283.29958      1.3999962     -61727.618      45760.633    
     10000   294.75322      38.18231       1.3987533     -61833.871      45801.292    
     10500   293.64519      774.87025      1.4040225     -61668.148      45629.403    
     11000   293.62359      401.71124      1.4000828     -61597.979      45757.802    
     11500   292.96832     -317.94878      1.4008264     -61745.435      45733.512    
     12000   296.40339     -1312.2633      1.3945766     -61752.545      45938.468    
     12500   295.38537     -234.65896      1.3901851     -61793.85       46083.582    
     13000   302.61346      342.19427      1.4027737     -61832.901      45670.025    
     13500   300.12543     -278.77685      1.3950226     -61719.461      45923.78     
     14000   298.6509      -190.58559      1.3944522     -61758.839      45942.565    
     14500   295.31687     -566.29971      1.3992375     -61738.085      45785.445    
     15000   296.73633     -703.64514      1.3929735     -61839.434      45991.336    
     15500   299.10893      392.59052      1.4009502     -61809.616      45729.471    
     16000   306.30024      511.84099      1.3991852     -61657.943      45787.155    
     16500   295.04694      1045.1923      1.4021784     -61729.127      45689.413    
     17000   297.05448     -373.15782      1.3970411     -61780.139      45857.426    
     17500   297.37338     -688.82078      1.3966646     -61821.887      45869.788    
     18000   296.15742      218.64517      1.3955402     -61844.279      45906.748    
     18500   300.29123     -26.495253      1.3889621     -61721.272      46124.161    
     19000   299.75039      231.43044      1.398067      -61802.818      45823.778    
     19500   298.72593      671.61611      1.4009662     -61797.81       45728.948    
     20000   298.01311      444.32785      1.4006131     -61844.893      45740.476    
     20500   299.28503     -187.91336      1.3950315     -61725.548      45923.485    
     21000   294.57158      652.0953       1.4093134     -61834.668      45458.101    
     21500   296.40185      219.33946      1.4034161     -61793.743      45649.12     
     22000   298.57841      189.41006      1.4073675     -61799.131      45520.955    
     22500   294.4705      -92.830628      1.4123351     -61684.132      45360.844    
     23000   294.24331     -882.08701      1.4005837     -61735.991      45741.435    
     23500   299.76989      117.51656      1.4096444     -61889.542      45447.427    
     24000   296.90931     -212.86342      1.4087827     -61786.198      45475.225    
     24500   303.0119      -164.05509      1.4072658     -61830.376      45524.244    
     25000   293.47149      959.0478       1.4184728     -61886.857      45164.566    
     25500   306.04551      6.0940836      1.405171      -61779.987      45592.111    
     26000   297.95198     -736.14188      1.4117377     -61800.393      45380.038    
     26500   299.10419     -304.69334      1.4150181     -61919.489      45274.834    
     27000   296.62149     -99.117608      1.4134516     -61843.083      45325.013    
     27500   297.47733     -390.07846      1.4096804     -61798.091      45446.267    
     28000   295.0495      -194.12589      1.4050184     -61897.739      45597.06     
     28500   294.57245      205.7688       1.4151499     -61931.574      45270.618    
     29000   305.03662      397.16339      1.4130919     -61896.159      45336.549    
     29500   298.5046       349.06082      1.4130761     -61840.564      45337.056    
     30000   299.30964     -370.5112       1.4111376     -61835.041      45399.335    
     30500   299.09696     -226.61029      1.4055989     -61816.172      45578.23     
     31000   301.92374      321.87278      1.4126182     -61777.747      45351.751    
     31500   292.34151     -415.20468      1.3998227     -61732.148      45766.302    
     32000   299.48437     -799.46184      1.3988758     -61840.224      45797.283    
     32500   297.37839     -656.81559      1.4046061     -61815.53       45610.447    
     33000   295.28235      810.79081      1.4069427     -61758.825      45534.698    
     33500   304.24343      233.55785      1.3965179     -61773.007      45874.607    
     34000   299.63689     -771.22551      1.3950641     -61699.294      45922.412    
     34500   296.35477      140.88965      1.3982952     -61683.344      45816.299    
     35000   291.14334     -576.10146      1.3951723     -61675.767      45918.851    
     35500   292.39559      215.76278      1.3931718     -61793.399      45984.789    
     36000   298.38854     -839.11803      1.3987645     -61821.552      45800.927    
     36500   302.0597      -391.47373      1.4043986     -61903.719      45617.185    
     37000   295.44311      369.55856      1.3987276     -61748.958      45802.135    
     37500   299.37189      136.35977      1.4039003     -61806.089      45633.374    
     38000   294.01351     -20.806948      1.3936037     -61825.068      45970.537    
     38500   297.13533     -375.22795      1.4018253     -61779.864      45700.921    
     39000   298.73489     -3.3242762      1.3971778     -61799.091      45852.939    
     39500   294.409       -282.0533       1.3958328     -61727.144      45897.125    
     40000   295.71944     -478.37606      1.397459      -61704.518      45843.714    
     40500   303.35811     -51.019456      1.3952368     -61663.517      45916.728    
     41000   302.39229      150.4588       1.3986454     -61719.208      45804.826    
     41500   291.92726      990.37234      1.3999281     -61685.286      45762.858    
     42000   298.06954     -58.046688      1.3964734     -61684.469      45876.068    
     42500   304.5764       241.17785      1.3984897     -61830.895      45809.927    
     43000   290.80793     -270.91278      1.3962088     -61789.881      45884.763    
     43500   295.99492      13.738591      1.3929557     -61669.999      45991.922    
     44000   302.02496     -638.64901      1.3915968     -61735.298      46036.835    
     44500   299.2423      -319.22097      1.391717      -61646.95       46032.856    
     45000   300.60938      1083.9464      1.4020535     -61646.696      45693.484    
     45500   301.36162      538.06394      1.4038323     -61698.467      45635.586    
     46000   291.0592       664.16135      1.4004295     -61633.959      45746.474    
     46500   297.4231       237.96219      1.3963904     -61711.675      45878.794    
     47000   300.96954      24.917941      1.4010423     -61821.847      45726.465    
     47500   297.99974     -100.32743      1.3996726     -61650.412      45771.212    
     48000   293.6504      -405.08653      1.4003017     -61730.435      45750.65     
     48500   294.90527      149.65234      1.402972      -61811.848      45663.57     
     49000   312.13854      366.38958      1.4033081     -61699.504      45652.634    
     49500   308.03261      741.60248      1.4058776     -61807.751      45569.195    
     50000   300.08508     -264.23947      1.4008431     -61758.024      45732.965    
Loop time of 2981.35 on 1 procs for 50000 steps with 4912 atoms

Performance: 1.449 ns/day, 16.563 hours/ns, 16.771 timesteps/s, 82.379 katom-step/s
100.0% CPU use with 1 MPI tasks x 1 OpenMP threads

MPI task timing breakdown:
Section |  min time  |  avg time  |  max time  |%varavg| %total
---------------------------------------------------------------
Pair    | 1967.8     | 1967.8     | 1967.8     |   0.0 | 66.00
Bond    | 0.28534    | 0.28534    | 0.28534    |   0.0 |  0.01
Kspace  | 448.9      | 448.9      | 448.9      |   0.0 | 15.06
Neigh   | 148.27     | 148.27     | 148.27     |   0.0 |  4.97
Comm    | 28.311     | 28.311     | 28.311     |   0.0 |  0.95
Output  | 0.007983   | 0.007983   | 0.007983   |   0.0 |  0.00
Modify  | 373.09     | 373.09     | 373.09     |   0.0 | 12.51
Other   |            | 14.71      |            |       |  0.49

Nlocal:           4912 ave        4912 max        4912 min
Histogram: 1 0 0 0 0 0 0 0 0 0
Nghost:          17944 ave       17944 max       17944 min
Histogram: 1 0 0 0 0 0 0 0 0 0
Neighs:     1.9068e+06 ave  1.9068e+06 max  1.9068e+06 min
Histogram: 1 0 0 0 0 0 0 0 0 0

Total # of neighbors = 1906802
Ave neighs/atom = 388.19259
Ave special neighs/atom = 1.8322476
Neighbor list builds = 2299
Dangerous builds = 0
RESULT density_g_cm3 1.39789330681157
PPPM initialization ...
  using 12-bit tables for long-range coulomb
  G vector (1/distance) = 0.30710245
  grid = 32 32 32
  stencil order = 5
  estimated absolute RMS force accuracy = 0.0032218013
  estimated relative force accuracy = 9.7023588e-06
  using double precision FFTW3
  3d grid and FFT values/proc = 59319 32768
Generated 6 of 6 mixed pair_coeff terms from arithmetic mixing rule
Setting up Verlet run ...
  Unit style    : real
  Current step  : 0
  Time step     : 1
Per MPI rank memory allocation (min/avg/max) = 30.68 | 30.68 | 30.68 Mbytes
   Step          Temp          Press         Density         PotEng         Volume    
         0   300.08508     -269.95451      1.4008431     -61758.024      45732.965    
      5000   303.71153     -286.01787      1.4008431     -61742.822      45732.965    
     10000   300.04967     -286.78943      1.4008431     -61790.985      45732.965    
     15000   297.17957     -474.78201      1.4008431     -61758.048      45732.965    
     20000   291.89125     -768.86856      1.4008431     -61880.186      45732.965    
     25000   302.15677      746.89229      1.4008431     -61801.329      45732.965    
     30000   292.89452      118.01947      1.4008431     -61787.101      45732.965    
     35000   295.52359     -267.14522      1.4008431     -61845.407      45732.965    
     40000   290.46765     -553.11379      1.4008431     -61861.335      45732.965    
     45000   295.75173     -1177.7351      1.4008431     -61821.717      45732.965    
     50000   294.637       -1178.3577      1.4008431     -61805.648      45732.965    
     55000   302.48451      122.54102      1.4008431     -61782.261      45732.965    
     60000   290.13027      158.13623      1.4008431     -61784.314      45732.965    
     65000   301.04316     -465.50329      1.4008431     -61784.243      45732.965    
     70000   299.18325     -11.576837      1.4008431     -61833.047      45732.965    
     75000   296.7285      -707.01131      1.4008431     -61849.23       45732.965    
     80000   290.27391      105.58083      1.4008431     -61825.415      45732.965    
     85000   298.11112     -108.10021      1.4008431     -61824.859      45732.965    
     90000   293.31095     -558.39021      1.4008431     -61941.713      45732.965    
     95000   298.44395      248.45668      1.4008431     -61951.286      45732.965    
    100000   303.17717     -143.8211       1.4008431     -61934.105      45732.965    
    105000   300.7175      -1.4222229      1.4008431     -61878.612      45732.965    
    110000   294.37982     -1026.4388      1.4008431     -61962.657      45732.965    
    115000   292.9348       316.86394      1.4008431     -61858.902      45732.965    
    120000   299.26948      194.00092      1.4008431     -61889.662      45732.965    
    125000   302.44513     -115.35867      1.4008431     -61892.746      45732.965    
    130000   304.82884     -687.53391      1.4008431     -61954.621      45732.965    
    135000   288.75939     -20.079224      1.4008431     -61858.057      45732.965    
    140000   298.36503      185.7874       1.4008431     -61883.03       45732.965    
    145000   304.03913     -127.60018      1.4008431     -61971.355      45732.965    
    150000   300.08203     -361.52383      1.4008431     -61979.451      45732.965    
    155000   302.95851     -1061.8339      1.4008431     -61901.438      45732.965    
    160000   289.38127     -1525.8562      1.4008431     -61946.401      45732.965    
    165000   303.0622       226.48004      1.4008431     -62022.699      45732.965    
    170000   298.40623     -335.76379      1.4008431     -62021.096      45732.965    
    175000   295.95862     -365.0485       1.4008431     -61990.882      45732.965    
    180000   297.89682     -867.78226      1.4008431     -61867.324      45732.965    
    185000   290.52142     -1034.607       1.4008431     -61921.773      45732.965    
    190000   296.82473     -228.69791      1.4008431     -61939.338      45732.965    
    195000   295.9942      -321.65207      1.4008431     -61858.616      45732.965    
    200000   299.13412     -175.28562      1.4008431     -61855.996      45732.965    
Loop time of 12597.2 on 1 procs for 200000 steps with 4912 atoms

Performance: 1.372 ns/day, 17.496 hours/ns, 15.877 timesteps/s, 77.986 katom-step/s
99.8% CPU use with 1 MPI tasks x 1 OpenMP threads

MPI task timing breakdown:
Section |  min time  |  avg time  |  max time  |%varavg| %total
---------------------------------------------------------------
Pair    | 10121      | 10121      | 10121      |   0.0 | 80.35
Bond    | 0.98661    | 0.98661    | 0.98661    |   0.0 |  0.01
Kspace  | 1606.7     | 1606.7     | 1606.7     |   0.0 | 12.75
Neigh   | 547.86     | 547.86     | 547.86     |   0.0 |  4.35
Comm    | 80.695     | 80.695     | 80.695     |   0.0 |  0.64
Output  | 0.0022387  | 0.0022387  | 0.0022387  |   0.0 |  0.00
Modify  | 216.05     | 216.05     | 216.05     |   0.0 |  1.72
Other   |            | 23.44      |            |       |  0.19

Nlocal:           4912 ave        4912 max        4912 min
Histogram: 1 0 0 0 0 0 0 0 0 0
Nghost:          18003 ave       18003 max       18003 min
Histogram: 1 0 0 0 0 0 0 0 0 0
Neighs:    1.90656e+06 ave 1.90656e+06 max 1.90656e+06 min
Histogram: 1 0 0 0 0 0 0 0 0 0

Total # of neighbors = 1906562
Ave neighs/atom = 388.14373
Ave special neighs/atom = 1.8322476
Neighbor list builds = 9075
Dangerous builds = 0
DONE koh30_s1_298
Total wall time: 5:18:48
