ITEM: TIMESTEP
0
ITEM: NUMBER OF ATOMS
30595
ITEM: BOX BOUNDS pp pp ff
0.0000000000000000e+00 1.2000000000000000e+02
0.0000000000000000e+00 3.0000000000000000e+01
0.0000000000000000e+00 1.1647665900000000e+02
ITEM: ATOMS id type x y z
1 5 0 0 0
2 5 1.24592 2.158 0
3 5 0 4.316 0
4 5 1.24592 6.474 0
5 5 0 8.632 0
6 5 1.24592 10.79 0
7 5 0 12.948 0
8 5 1.24592 15.106 0
9 5 0 17.264 0
10 5 1.24592 19.422 0
11 5 0 21.58 0
12 5 1.24592 23.738 0
13 5 2.49184 0 0
14 5 3.73777 2.158 0
15 5 2.49184 4.316 0
16 5 3.73777 6.474 0
17 5 2.49184 8.632 0
18 5 3.73777 10.79 0
19 5 2.49184 12.948 0
20 5 3.73777 15.106 0
21 5 2.49184 17.264 0
22 5 3.73777 19.422 0
23 5 2.49184 21.58 0
24 5 3.73777 23.738 0
25 5 4.98369 0 0
26 5 6.22961 2.158 0
27 5 4.98369 4.316 0
28 5 6.22961 6.474 0
29 5 4.98369 8.632 0
30 5 6.22961 10.79 0
31 5 4.98369 12.948 0
32 5 6.22961 15.106 0
33 5 4.98369 17.264 0
34 5 6.22961 19.422 0
35 5 4.98369 21.58 0
36 5 6.22961 23.738 0
37 5 7.47553 0 0
38 5 8.72146 2.158 0
39 5 7.47553 4.316 0
40 5 8.72146 6.474 0
41 5 7.47553 8.632 0
42 5 8.72146 10.79 0
43 5 7.47553 12.948 0
44 5 8.72146 15.106 0
45 5 7.47553 17.264 0
46 5 8.72146 19.422 0
47 5 7.47553 21.58 0
48 5 8.72146 23.738 0
49 5 9.96738 0 0
50 5 11.2133 2.158 0
51 5 9.96738 4.316 0
52 5 11.2133 6.474 0
53 5 9.96738 8.632 0
54 5 11.2133 10.79 0
55 5 9.96738 12.948 0
56 5 11.2133 15.106 0
57 5 9.96738 17.264 0
58 5 11.2133 19.422 0
59 5 9.96738 21.58 0
60 5 11.2133 23.738 0
61 5 12.4592 0 0
62 5 13.7051 2.158 0
63 5 12.4592 4.316 0
64 5 13.7051 6.474 0
65 5 12.4592 8.632 0
66 5 13.7051 10.79 0
67 5 12.4592 12.948 0
68 5 13.7051 15.106 0
69 5 12.4592 17.264 0
70 5 13.7051 19.422 0
71 5 12.4592 21.58 0
72 5 13.7051 23.738 0
73 5 14.9511 0 0
74 5 16.197 2.158 0
75 5 14.9511 4.316 0
76 5 16.197 6.474 0
77 5 14.9511 8.632 0
78 5 16.197 10.79 0
79 5 14.9511 12.948 0
80 5 16.197 15.106 0
81 5 14.9511 17.264 0
82 5 16.197 19.422 0
83 5 14.9511 21.58 0
84 5 16.197 23.738 0
85 5 17.4429 0 0
86 5 18.6888 2.158 0
87 5 17.4429 4.316 0
88 5 18.6888 6.474 0
89 5 17.4429 8.632 0
90 5 18.6888 10.79 0
91 5 17.4429 12.948 0
92 5 18.6888 15.106 0
93 5 17.4429 17.264 0
94 5 18.6888 19.422 0
95 5 17.4429 21.58 0
96 5 18.6888 23.738 0
97 5 19.9348 0 0
98 5 21.1807 2.158 0
99 5 19.9348 4.316 0
100 5 21.1807 6.474 0
101 5 19.9348 8.632 0
102 5 21.1807 10.79 0
103 5 19.9348 12.948 0
104 5 21.1807 15.106 0
105 5 19.9348 17.264 0
106 5 21.1807 19.422 0
107 5 19.9348 21.58 0
108 5 21.1807 23.738 0
109 5 22.4266 0 0
110 5 23.6725 2.158 0
111 5 22.4266 4.316 0
112 5 23.6725 6.474 0
113 5 22.4266 8.632 0
114 5 23.6725 10.79 0
115 5 22.4266 12.948 0
116 5 23.6725 15.106 0
117 5 22.4266 17.264 0
118 5 23.6725 19.422 0
119 5 22.4266 21.58 0
120 5 23.6725 23.738 0
121 5 24.9184 0 0
122 5 26.1644 2.158 0
123 5 24.9184 4.316 0
124 5 26.1644 6.474 0
125 5 24.9184 8.632 0
126 5 26.1644 10.79 0
127 5 24.9184 12.948 0
128 5 26.1644 15.106 0
129 5 24.9184 17.264 0
130 5 26.1644 19.422 0
131 5 24.9184 21.58 0
132 5 26.1644 23.738 0
133 5 27.4103 0 0
134 5 28.6562 2.158 0
135 5 27.4103 4.316 0
136 5 28.6562 6.474 0
137 5 27.4103 8.632 0
138 5 28.6562 10.79 0
139 5 27.4103 12.948 0
140 5 28.6562 15.106 0
141 5 27.4103 17.264 0
142 5 28.6562 19.422 0
143 5 27.4103 21.58 0
144 5 28.6562 23.738 0
145 5 29.9021 0 0
146 5 31.1481 2.158 0
147 5 29.9021 4.316 0
148 5 31.1481 6.474 0
149 5 29.9021 8.632 0
150 5 31.1481 10.79 0
151 5 29.9021 12.948 0
152 5 31.1481 15.106 0
153 5 29.9021 17.264 0
154 5 31.1481 19.422 0
155 5 29.9021 21.58 0
156 5 31.1481 23.738 0
157 5 32.394 0 0
158 5 33.6399 2.158 0
159 5 32.394 4.316 0
160 5 33.6399 6.474 0
161 5 32.394 8.632 0
162 5 33.6399 10.79 0
163 5 32.394 12.948 0
164 5 33.6399 15.106 0
165 5 32.394 17.264 0
166 5 33.6399 19.422 0
167 5 32.394 21.58 0
168 5 33.6399 23.738 0
169 5 34.8858 0 0
170 5 36.1317 2.158 0
171 5 34.8858 4.316 0
172 5 36.1317 6.474 0
173 5 34.8858 8.632 0
174 5 36.1317 10.79 0
175 5 34.8858 12.948 0
176 5 36.1317 15.106 0
177 5 34.8858 17.264 0
178 5 36.1317 19.422 0
179 5 34.8858 21.58 0
180 5 36.1317 23.738 0
181 5 37.3777 0 0
182 5 38.6236 2.158 0
183 5 37.3777 4.316 0
184 5 38.6236 6.474 0
185 5 37.3777 8.632 0
186 5 38.6236 10.79 0
187 5 37.3777 12.948 0
188 5 38.6236 15.106 0
189 5 37.3777 17.264 0
190 5 38.6236 19.422 0
191 5 37.3777 21.58 0
192 5 38.6236 23.738 0
193 5 39.8695 0 0
194 5 41.1154 2.158 0
195 5 39.8695 4.316 0
196 5 41.1154 6.474 0
197 5 39.8695 8.632 0
198 5 41.1154 10.79 0
199 5 39.8695 12.948 0
200 5 41.1154 15.106 0
201 5 39.8695 17.264 0
202 5 41.1154 19.422 0
203 5 39.8695 21.58 0
204 5 41.1154 23.738 0
205 5 42.3614 0 0
206 5 43.6073 2.158 0
207 5 42.3614 4.316 0
208 5 43.6073 6.474 0
209 5 42.3614 8.632 0
210 5 43.6073 10.79 0
211 5 42.3614 12.948 0
212 5 43.6073 15.106 0
213 5 42.3614 17.264 0
214 5 43.6073 19.422 0
215 5 42.3614 21.58 0
216 5 43.6073 23.738 0
217 5 44.8532 0 0
218 5 46.0991 2.158 0
219 5 44.8532 4.316 0
220 5 46.0991 6.474 0
221 5 44.8532 8.632 0
222 5 46.0991 10.79 0
223 5 44.8532 12.948 0
224 5 46.0991 15.106 0
225 5 44.8532 17.264 0
226 5 46.0991 19.422 0
227 5 44.8532 21.58 0
228 5 46.0991 23.738 0
229 5 47.345 0 0
230 5 48.591 2.158 0
231 5 47.345 4.316 0
232 5 48.591 6.474 0
233 5 47.345 8.632 0
234 5 48.591 10.79 0
235 5 47.345 12.948 0
236 5 48.591 15.106 0
237 5 47.345 17.264 0
238 5 48.591 19.422 0
239 5 47.345 21.58 0
240 5 48.591 23.738 0
241 5 49.8369 0 0
242 5 51.0828 2.158 0
243 5 49.8369 4.316 0
244 5 51.0828 6.474 0
245 5 49.8369 8.632 0
246 5 51.0828 10.79 0
247 5 49.8369 12.948 0
248 5 51.0828 15.106 0
249 5 49.8369 17.264 0
250 5 51.0828 19.422 0
251 5 49.8369 21.58 0
252 5 51.0828 23.738 0
253 5 52.3287 0 0
254 5 53.5746 2.158 0
255 5 52.3287 4.316 0
256 5 53.5746 6.474 0
257 5 52.3287 8.632 0
258 5 53.5746 10.79 0
259 5 52.3287 12.948 0
260 5 53.5746 15.106 0
261 5 52.3287 17.264 0
262 5 53.5746 19.422 0
263 5 52.3287 21.58 0
264 5 53.5746 23.738 0
265 5 54.8206 0 0
266 5 56.0665 2.158 0
267 5 54.8206 4.316 0
268 5 56.0665 6.474 0
269 5 54.8206 8.632 0
270 5 56.0665 10.79 0
271 5 54.8206 12.948 0
272 5 56.0665 15.106 0
273 5 54.8206 17.264 0
274 5 56.0665 19.422 0
275 5 54.8206 21.58 0
276 5 56.0665 23.738 0
277 5 57.3124 0 0
278 5 58.5583 2.158 0
279 5 57.3124 4.316 0
280 5 58.5583 6.474 0
281 5 57.3124 8.632 0
282 5 58.5583 10.79 0
283 5 57.3124 12.948 0
284 5 58.5583 15.106 0
285 5 57.3124 17.264 0
286 5 58.5583 19.422 0
287 5 57.3124 21.58 0
288 5 58.5583 23.738 0
289 5 59.8043 0 0
290 5 61.0502 2.158 0
291 5 59.8043 4.316 0
292 5 61.0502 6.474 0
293 5 59.8043 8.632 0
294 5 61.0502 10.79 0
295 5 59.8043 12.948 0
296 5 61.0502 15.106 0
297 5 59.8043 17.264 0
298 5 61.0502 19.422 0
299 5 59.8043 21.58 0
300 5 61.0502 23.738 0
301 5 62.2961 0 0
302 5 63.542 2.158 0
303 5 62.2961 4.316 0
304 5 63.542 6.474 0
305 5 62.2961 8.632 0
306 5 63.542 10.79 0
307 5 62.2961 12.948 0
308 5 63.542 15.106 0
309 5 62.2961 17.264 0
310 5 63.542 19.422 0
311 5 62.2961 21.58 0
312 5 63.542 23.738 0
313 5 64.7879 0 0
314 5 66.0339 2.158 0
315 5 64.7879 4.316 0
316 5 66.0339 6.474 0
317 5 64.7879 8.632 0
318 5 66.0339 10.79 0
319 5 64.7879 12.948 0
320 5 66.0339 15.106 0
321 5 64.7879 17.264 0
322 5 66.0339 19.422 0
323 5 64.7879 21.58 0
324 5 66.0339 23.738 0
325 5 67.2798 0 0
326 5 68.5257 2.158 0
327 5 67.2798 4.316 0
328 5 68.5257 6.474 0
329 5 67.2798 8.632 0
330 5 68.5257 10.79 0
331 5 67.2798 12.948 0
332 5 68.5257 15.106 0
333 5 67.2798 17.264 0
334 5 68.5257 19.422 0
335 5 67.2798 21.58 0
336 5 68.5257 23.738 0
337 5 69.7716 0 0
338 5 71.0176 2.158 0
339 5 69.7716 4.316 0
340 5 71.0176 6.474 0
341 5 69.7716 8.632 0
342 5 71.0176 10.79 0
343 5 69.7716 12.948 0
344 5 71.0176 15.106 0
345 5 69.7716 17.264 0
346 5 71.0176 19.422 0
347 5 69.7716 21.58 0
348 5 71.0176 23.738 0
349 5 72.2635 0 0
350 5 73.5094 2.158 0
351 5 72.2635 4.316 0
352 5 73.5094 6.474 0
353 5 72.2635 8.632 0
354 5 73.5094 10.79 0
355 5 72.2635 12.948 0
356 5 73.5094 15.106 0
357 5 72.2635 17.264 0
358 5 73.5094 19.422 0
359 5 72.2635 21.58 0
360 5 73.5094 23.738 0
361 5 74.7553 0 0
362 5 76.0012 2.158 0
363 5 74.7553 4.316 0
364 5 76.0012 6.474 0
365 5 74.7553 8.632 0
366 5 76.0012 10.79 0
367 5 74.7553 12.948 0
368 5 76.0012 15.106 0
369 5 74.7553 17.264 0
370 5 76.0012 19.422 0
371 5 74.7553 21.58 0
372 5 76.0012 23.738 0
373 5 77.2472 0 0
374 5 78.4931 2.158 0
375 5 77.2472 4.316 0
376 5 78.4931 6.474 0
377 5 77.2472 8.632 0
378 5 78.4931 10.79 0
379 5 77.2472 12.948 0
380 5 78.4931 15.106 0
381 5 77.2472 17.264 0
382 5 78.4931 19.422 0
383 5 77.2472 21.58 0
384 5 78.4931 23.738 0
385 5 79.739 0 0
386 5 80.9849 2.158 0
387 5 79.739 4.316 0
388 5 80.9849 6.474 0
389 5 79.739 8.632 0
390 5 80.9849 10.79 0
391 5 79.739 12.948 0
392 5 80.9849 15.106 0
393 5 79.739 17.264 0
394 5 80.9849 19.422 0
395 5 79.739 21.58 0
396 5 80.9849 23.738 0
397 5 82.2309 0 0
398 5 83.4768 2.158 0
399 5 82.2309 4.316 0
400 5 83.4768 6.474 0
401 5 82.2309 8.632 0
402 5 83.4768 10.79 0
403 5 82.2309 12.948 0
404 5 83.4768 15.106 0
405 5 82.2309 17.264 0
406 5 83.4768 19.422 0
407 5 82.2309 21.58 0
408 5 83.4768 23.738 0
409 5 84.7227 0 0
410 5 85.9686 2.158 0
411 5 84.7227 4.316 0
412 5 85.9686 6.474 0
413 5 84.7227 8.632 0
414 5 85.9686 10.79 0
415 5 84.7227 12.948 0
416 5 85.9686 15.106 0
417 5 84.7227 17.264 0
418 5 85.9686 19.422 0
419 5 84.7227 21.58 0
420 5 85.9686 23.738 0
421 5 87.2146 0 0
422 5 88.4605 2.158 0
423 5 87.2146 4.316 0
424 5 88.4605 6.474 0
425 5 87.2146 8.632 0
426 5 88.4605 10.79 0
427 5 87.2146 12.948 0
428 5 88.4605 15.106 0
429 5 87.2146 17.264 0
430 5 88.4605 19.422 0
431 5 87.2146 21.58 0
432 5 88.4605 23.738 0
433 5 89.7064 0 0
434 5 90.9523 2.158 0
435 5 89.7064 4.316 0
436 5 90.9523 6.474 0
437 5 89.7064 8.632 0
438 5 90.9523 10.79 0
439 5 89.7064 12.948 0
440 5 90.9523 15.106 0
441 5 89.7064 17.264 0
442 5 90.9523 19.422 0
443 5 89.7064 21.58 0
444 5 90.9523 23.738 0
445 5 92.1982 0 0
446 5 93.4442 2.158 0
447 5 92.1982 4.316 0
448 5 93.4442 6.474 0
449 5 92.1982 8.632 0
450 5 93.4442 10.79 0
451 5 92.1982 12.948 0
452 5 93.4442 15.106 0
453 5 92.1982 17.264 0
454 5 93.4442 19.422 0
455 5 92.1982 21.58 0
456 5 93.4442 23.738 0
457 5 94.6901 0 0
458 5 95.936 2.158 0
459 5 94.6901 4.316 0
460 5 95.936 6.474 0
461 5 94.6901 8.632 0
462 5 95.936 10.79 0
463 5 94.6901 12.948 0
464 5 95.936 15.106 0
465 5 94.6901 17.264 0
466 5 95.936 19.422 0
467 5 94.6901 21.58 0
468 5 95.936 23.738 0
469 5 97.1819 0 0
470 5 98.4279 2.158 0
471 5 97.1819 4.316 0
472 5 98.4279 6.474 0
473 5 97.1819 8.632 0
474 5 98.4279 10.79 0
475 5 97.1819 12.948 0
476 5 98.4279 15.106 0
477 5 97.1819 17.264 0
478 5 98.4279 19.422 0
479 5 97.1819 21.58 0
480 5 98.4279 23.738 0
481 5 99.6738 0 0
482 5 100.92 2.158 0
483 5 99.6738 4.316 0
484 5 100.92 6.474 0
485 5 99.6738 8.632 0
486 5 100.92 10.79 0
487 5 99.6738 12.948 0
488 5 100.92 15.106 0
489 5 99.6738 17.264 0
490 5 100.92 19.422 0
491 5 99.6738 21.58 0
492 5 100.92 23.738 0
493 5 102.166 0 0
494 5 103.412 2.158 0
495 5 102.166 4.316 0
496 5 103.412 6.474 0
497 5 102.166 8.632 0
498 5 103.412 10.79 0
499 5 102.166 12.948 0
500 5 103.412 15.106 0
501 5 102.166 17.264 0
502 5 103.412 19.422 0
503 5 102.166 21.58 0
504 5 103.412 23.738 0
505 5 104.657 0 0
506 5 105.903 2.158 0
507 5 104.657 4.316 0
508 5 105.903 6.474 0
509 5 104.657 8.632 0
510 5 105.903 10.79 0
511 5 104.657 12.948 0
512 5 105.903 15.106 0
513 5 104.657 17.264 0
514 5 105.903 19.422 0
515 5 104.657 21.58 0
516 5 105.903 23.738 0
517 5 107.149 0 0
518 5 108.395 2.158 0
519 5 107.149 4.316 0
520 5 108.395 6.474 0
521 5 107.149 8.632 0
522 5 108.395 10.79 0
523 5 107.149 12.948 0
524 5 108.395 15.106 0
525 5 107.149 17.264 0
526 5 108.395 19.422 0
527 5 107.149 21.58 0
528 5 108.395 23.738 0
529 5 109.641 0 0
530 5 110.887 2.158 0
531 5 109.641 4.316 0
532 5 110.887 6.474 0
533 5 109.641 8.632 0
534 5 110.887 10.79 0
535 5 109.641 12.948 0
536 5 110.887 15.106 0
537 5 109.641 17.264 0
538 5 110.887 19.422 0
539 5 109.641 21.58 0
540 5 110.887 23.738 0
541 5 112.133 0 0
542 5 113.379 2.158 0
543 5 112.133 4.316 0
544 5 113.379 6.474 0
545 5 112.133 8.632 0
546 5 113.379 10.79 0
547 5 112.133 12.948 0
548 5 113.379 15.106 0
549 5 112.133 17.264 0
550 5 113.379 19.422 0
551 5 112.133 21.58 0
552 5 113.379 23.738 0
553 5 114.625 0 0
554 5 115.871 2.158 0
555 5 114.625 4.316 0
556 5 115.871 6.474 0
557 5 114.625 8.632 0
558 5 115.871 10.79 0
559 5 114.625 12.948 0
560 5 115.871 15.106 0
561 5 114.625 17.264 0
562 5 115.871 19.422 0
563 5 114.625 21.58 0
564 5 115.871 23.738 0
565 5 117.117 0 0
566 5 118.363 2.158 0
567 5 117.117 4.316 0
568 5 118.363 6.474 0
569 5 117.117 8.632 0
570 5 118.363 10.79 0
571 5 117.117 12.948 0
572 5 118.363 15.106 0
573 5 117.117 17.264 0
574 5 118.363 19.422 0
575 5 117.117 21.58 0
576 5 118.363 23.738 0
577 5 0.83061 1.43867 2.03458
578 5 2.07654 3.59667 2.03458
579 5 0.83061 5.75467 2.03458
580 5 2.07654 7.91267 2.03458
581 5 0.83061 10.0707 2.03458
582 5 2.07654 12.2287 2.03458
583 5 0.83061 14.3867 2.03458
584 5 2.07654 16.5447 2.03458
585 5 0.83061 18.7027 2.03458
586 5 2.07654 20.8607 2.03458
587 5 0.83061 23.0187 2.03458
588 5 2.07654 25.1767 2.03458
589 5 3.32246 1.43867 2.03458
590 5 4.56838 3.59667 2.03458
591 5 3.32246 5.75467 2.03458
592 5 4.56838 7.91267 2.03458
593 5 3.32246 10.0707 2.03458
594 5 4.56838 12.2287 2.03458
595 5 3.32246 14.3867 2.03458
596 5 4.56838 16.5447 2.03458
597 5 3.32246 18.7027 2.03458
598 5 4.56838 20.8607 2.03458
599 5 3.32246 23.0187 2.03458
600 5 4.56838 25.1767 2.03458
601 5 5.8143 1.43867 2.03458
602 5 7.06023 3.59667 2.03458
603 5 5.8143 5.75467 2.03458
604 5 7.06023 7.91267 2.03458
605 5 5.8143 10.0707 2.03458
606 5 7.06023 12.2287 2.03458
607 5 5.8143 14.3867 2.03458
608 5 7.06023 16.5447 2.03458
609 5 5.8143 18.7027 2.03458
610 5 7.06023 20.8607 2.03458
611 5 5.8143 23.0187 2.03458
612 5 7.06023 25.1767 2.03458
613 5 8.30615 1.43867 2.03458
614 5 9.55207 3.59667 2.03458
615 5 8.30615 5.75467 2.03458
616 5 9.55207 7.91267 2.03458
617 5 8.30615 10.0707 2.03458
618 5 9.55207 12.2287 2.03458
619 5 8.30615 14.3867 2.03458
620 5 9.55207 16.5447 2.03458
621 5 8.30615 18.7027 2.03458
622 5 9.55207 20.8607 2.03458
623 5 8.30615 23.0187 2.03458
624 5 9.55207 25.1767 2.03458
625 5 10.798 1.43867 2.03458
626 5 12.0439 3.59667 2.03458
627 5 10.798 5.75467 2.03458
628 5 12.0439 7.91267 2.03458
629 5 10.798 10.0707 2.03458
630 5 12.0439 12.2287 2.03458
631 5 10.798 14.3867 2.03458
632 5 12.0439 16.5447 2.03458
633 5 10.798 18.7027 2.03458
634 5 12.0439 20.8607 2.03458
635 5 10.798 23.0187 2.03458
636 5 12.0439 25.1767 2.03458
637 5 13.2898 1.43867 2.03458
638 5 14.5358 3.59667 2.03458
639 5 13.2898 5.75467 2.03458
640 5 14.5358 7.91267 2.03458
641 5 13.2898 10.0707 2.03458
642 5 14.5358 12.2287 2.03458
643 5 13.2898 14.3867 2.03458
644 5 14.5358 16.5447 2.03458
645 5 13.2898 18.7027 2.03458
646 5 14.5358 20.8607 2.03458
647 5 13.2898 23.0187 2.03458
648 5 14.5358 25.1767 2.03458
649 5 15.7817 1.43867 2.03458
650 5 17.0276 3.59667 2.03458
651 5 15.7817 5.75467 2.03458
652 5 17.0276 7.91267 2.03458
653 5 15.7817 10.0707 2.03458
654 5 17.0276 12.2287 2.03458
655 5 15.7817 14.3867 2.03458
656 5 17.0276 16.5447 2.03458
657 5 15.7817 18.7027 2.03458
658 5 17.0276 20.8607 2.03458
659 5 15.7817 23.0187 2.03458
660 5 17.0276 25.1767 2.03458
661 5 18.2735 1.43867 2.03458
662 5 19.5194 3.59667 2.03458
663 5 18.2735 5.75467 2.03458
664 5 19.5194 7.91267 2.03458
665 5 18.2735 10.0707 2.03458
666 5 19.5194 12.2287 2.03458
667 5 18.2735 14.3867 2.03458
668 5 19.5194 16.5447 2.03458
669 5 18.2735 18.7027 2.03458
670 5 19.5194 20.8607 2.03458
671 5 18.2735 23.0187 2.03458
672 5 19.5194 25.1767 2.03458
673 5 20.7654 1.43867 2.03458
674 5 22.0113 3.59667 2.03458
675 5 20.7654 5.75467 2.03458
676 5 22.0113 7.91267 2.03458
677 5 20.7654 10.0707 2.03458
678 5 22.0113 12.2287 2.03458
679 5 20.7654 14.3867 2.03458
680 5 22.0113 16.5447 2.03458
681 5 20.7654 18.7027 2.03458
682 5 22.0113 20.8607 2.03458
683 5 20.7654 23.0187 2.03458
684 5 22.0113 25.1767 2.03458
685 5 23.2572 1.43867 2.03458
686 5 24.5031 3.59667 2.03458
687 5 23.2572 5.75467 2.03458
688 5 24.5031 7.91267 2.03458
689 5 23.2572 10.0707 2.03458
690 5 24.5031 12.2287 2.03458
691 5 23.2572 14.3867 2.03458
692 5 24.5031 16.5447 2.03458
693 5 23.2572 18.7027 2.03458
694 5 24.5031 20.8607 2.03458
695 5 23.2572 23.0187 2.03458
696 5 24.5031 25.1767 2.03458
697 5 25.7491 1.43867 2.03458
698 5 26.995 3.59667 2.03458
699 5 25.7491 5.75467 2.03458
700 5 26.995 7.91267 2.03458
701 5 25.7491 10.0707 2.03458
702 5 26.995 12.2287 2.03458
703 5 25.7491 14.3867 2.03458
704 5 26.995 16.5447 2.03458
705 5 25.7491 18.7027 2.03458
706 5 26.995 20.8607 2.03458
707 5 25.7491 23.0187 2.03458
708 5 26.995 25.1767 2.03458
709 5 28.2409 1.43867 2.03458
710 5 29.4868 3.59667 2.03458
711 5 28.2409 5.75467 2.03458
712 5 29.4868 7.91267 2.03458
713 5 28.2409 10.0707 2.03458
714 5 29.4868 12.2287 2.03458
715 5 28.2409 14.3867 2.03458
716 5 29.4868 16.5447 2.03458
717 5 28.2409 18.7027 2.03458
718 5 29.4868 20.8607 2.03458
719 5 28.2409 23.0187 2.03458
720 5 29.4868 25.1767 2.03458
721 5 30.7327 1.43867 2.03458
722 5 31.9787 3.59667 2.03458
723 5 30.7327 5.75467 2.03458
724 5 31.9787 7.91267 2.03458
725 5 30.7327 10.0707 2.03458
726 5 31.9787 12.2287 2.03458
727 5 30.7327 14.3867 2.03458
728 5 31.9787 16.5447 2.03458
729 5 30.7327 18.7027 2.03458
730 5 31.9787 20.8607 2.03458
731 5 30.7327 23.0187 2.03458
732 5 31.9787 25.1767 2.03458
733 5 33.2246 1.43867 2.03458
734 5 34.4705 3.59667 2.03458
735 5 33.2246 5.75467 2.03458
736 5 34.4705 7.91267 2.03458
737 5 33.2246 10.0707 2.03458
738 5 34.4705 12.2287 2.03458
739 5 33.2246 14.3867 2.03458
740 5 34.4705 16.5447 2.03458
741 5 33.2246 18.7027 2.03458
742 5 34.4705 20.8607 2.03458
743 5 33.2246 23.0187 2.03458
744 5 34.4705 25.1767 2.03458
745 5 35.7164 1.43867 2.03458
746 5 36.9624 3.59667 2.03458
747 5 35.7164 5.75467 2.03458
748 5 36.9624 7.91267 2.03458
749 5 35.7164 10.0707 2.03458
750 5 36.9624 12.2287 2.03458
751 5 35.7164 14.3867 2.03458
752 5 36.9624 16.5447 2.03458
753 5 35.7164 18.7027 2.03458
754 5 36.9624 20.8607 2.03458
755 5 35.7164 23.0187 2.03458
756 5 36.9624 25.1767 2.03458
757 5 38.2083 1.43867 2.03458
758 5 39.4542 3.59667 2.03458
759 5 38.2083 5.75467 2.03458
760 5 39.4542 7.91267 2.03458
761 5 38.2083 10.0707 2.03458
762 5 39.4542 12.2287 2.03458
763 5 38.2083 14.3867 2.03458
764 5 39.4542 16.5447 2.03458
765 5 38.2083 18.7027 2.03458
766 5 39.4542 20.8607 2.03458
767 5 38.2083 23.0187 2.03458
768 5 39.4542 25.1767 2.03458
769 5 40.7001 1.43867 2.03458
770 5 41.946 3.59667 2.03458
771 5 40.7001 5.75467 2.03458
772 5 41.946 7.91267 2.03458
773 5 40.7001 10.0707 2.03458
774 5 41.946 12.2287 2.03458
775 5 40.7001 14.3867 2.03458
776 5 41.946 16.5447 2.03458
777 5 40.7001 18.7027 2.03458
778 5 41.946 20.8607 2.03458
779 5 40.7001 23.0187 2.03458
780 5 41.946 25.1767 2.03458
781 5 43.192 1.43867 2.03458
782 5 44.4379 3.59667 2.03458
783 5 43.192 5.75467 2.03458
784 5 44.4379 7.91267 2.03458
785 5 43.192 10.0707 2.03458
786 5 44.4379 12.2287 2.03458
787 5 43.192 14.3867 2.03458
788 5 44.4379 16.5447 2.03458
789 5 43.192 18.7027 2.03458
790 5 44.4379 20.8607 2.03458
791 5 43.192 23.0187 2.03458
792 5 44.4379 25.1767 2.03458
793 5 45.6838 1.43867 2.03458
794 5 46.9297 3.59667 2.03458
795 5 45.6838 5.75467 2.03458
796 5 46.9297 7.91267 2.03458
797 5 45.6838 10.0707 2.03458
798 5 46.9297 12.2287 2.03458
799 5 45.6838 14.3867 2.03458
800 5 46.9297 16.5447 2.03458
801 5 45.6838 18.7027 2.03458
802 5 46.9297 20.8607 2.03458
803 5 45.6838 23.0187 2.03458
804 5 46.9297 25.1767 2.03458
805 5 48.1757 1.43867 2.03458
806 5 49.4216 3.59667 2.03458
807 5 48.1757 5.75467 2.03458
808 5 49.4216 7.91267 2.03458
809 5 48.1757 10.0707 2.03458
810 5 49.4216 12.2287 2.03458
811 5 48.1757 14.3867 2.03458
812 5 49.4216 16.5447 2.03458
813 5 48.1757 18.7027 2.03458
814 5 49.4216 20.8607 2.03458
815 5 48.1757 23.0187 2.03458
816 5 49.4216 25.1767 2.03458
817 5 50.6675 1.43867 2.03458
818 5 51.9134 3.59667 2.03458
819 5 50.6675 5.75467 2.03458
820 5 51.9134 7.91267 2.03458
821 5 50.6675 10.0707 2.03458
822 5 51.9134 12.2287 2.03458
823 5 50.6675 14.3867 2.03458
824 5 51.9134 16.5447 2.03458
825 5 50.6675 18.7027 2.03458
826 5 51.9134 20.8607 2.03458
827 5 50.6675 23.0187 2.03458
828 5 51.9134 25.1767 2.03458
829 5 53.1594 1.43867 2.03458
830 5 54.4053 3.59667 2.03458
831 5 53.1594 5.75467 2.03458
832 5 54.4053 7.91267 2.03458
833 5 53.1594 10.0707 2.03458
834 5 54.4053 12.2287 2.03458
835 5 53.1594 14.3867 2.03458
836 5 54.4053 16.5447 2.03458
837 5 53.1594 18.7027 2.03458
838 5 54.4053 20.8607 2.03458
839 5 53.1594 23.0187 2.03458
840 5 54.4053 25.1767 2.03458
841 5 55.6512 1.43867 2.03458
842 5 56.8971 3.59667 2.03458
843 5 55.6512 5.75467 2.03458
844 5 56.8971 7.91267 2.03458
845 5 55.6512 10.0707 2.03458
846 5 56.8971 12.2287 2.03458
847 5 55.6512 14.3867 2.03458
848 5 56.8971 16.5447 2.03458
849 5 55.6512 18.7027 2.03458
850 5 56.8971 20.8607 2.03458
851 5 55.6512 23.0187 2.03458
852 5 56.8971 25.1767 2.03458
853 5 58.143 1.43867 2.03458
854 5 59.389 3.59667 2.03458
855 5 58.143 5.75467 2.03458
856 5 59.389 7.91267 2.03458
857 5 58.143 10.0707 2.03458
858 5 59.389 12.2287 2.03458
859 5 58.143 14.3867 2.03458
860 5 59.389 16.5447 2.03458
861 5 58.143 18.7027 2.03458
862 5 59.389 20.8607 2.03458
863 5 58.143 23.0187 2.03458
864 5 59.389 25.1767 2.03458
865 5 60.6349 1.43867 2.03458
866 5 61.8808 3.59667 2.03458
867 5 60.6349 5.75467 2.03458
868 5 61.8808 7.91267 2.03458
869 5 60.6349 10.0707 2.03458
870 5 61.8808 12.2287 2.03458
871 5 60.6349 14.3867 2.03458
872 5 61.8808 16.5447 2.03458
873 5 60.6349 18.7027 2.03458
874 5 61.8808 20.8607 2.03458
875 5 60.6349 23.0187 2.03458
876 5 61.8808 25.1767 2.03458
877 5 63.1267 1.43867 2.03458
878 5 64.3726 3.59667 2.03458
879 5 63.1267 5.75467 2.03458
880 5 64.3726 7.91267 2.03458
881 5 63.1267 10.0707 2.03458
882 5 64.3726 12.2287 2.03458
883 5 63.1267 14.3867 2.03458
884 5 64.3726 16.5447 2.03458
885 5 63.1267 18.7027 2.03458
886 5 64.3726 20.8607 2.03458
887 5 63.1267 23.0187 2.03458
888 5 64.3726 25.1767 2.03458
889 5 65.6186 1.43867 2.03458
890 5 66.8645 3.59667 2.03458
891 5 65.6186 5.75467 2.03458
892 5 66.8645 7.91267 2.03458
893 5 65.6186 10.0707 2.03458
894 5 66.8645 12.2287 2.03458
895 5 65.6186 14.3867 2.03458
896 5 66.8645 16.5447 2.03458
897 5 65.6186 18.7027 2.03458
898 5 66.8645 20.8607 2.03458
899 5 65.6186 23.0187 2.03458
900 5 66.8645 25.1767 2.03458
901 5 68.1104 1.43867 2.03458
902 5 69.3563 3.59667 2.03458
903 5 68.1104 5.75467 2.03458
904 5 69.3563 7.91267 2.03458
905 5 68.1104 10.0707 2.03458
906 5 69.3563 12.2287 2.03458
907 5 68.1104 14.3867 2.03458
908 5 69.3563 16.5447 2.03458
909 5 68.1104 18.7027 2.03458
910 5 69.3563 20.8607 2.03458
911 5 68.1104 23.0187 2.03458
912 5 69.3563 25.1767 2.03458
913 5 70.6023 1.43867 2.03458
914 5 71.8482 3.59667 2.03458
915 5 70.6023 5.75467 2.03458
916 5 71.8482 7.91267 2.03458
917 5 70.6023 10.0707 2.03458
918 5 71.8482 12.2287 2.03458
919 5 70.6023 14.3867 2.03458
920 5 71.8482 16.5447 2.03458
921 5 70.6023 18.7027 2.03458
922 5 71.8482 20.8607 2.03458
923 5 70.6023 23.0187 2.03458
924 5 71.8482 25.1767 2.03458
925 5 73.0941 1.43867 2.03458
926 5 74.34 3.59667 2.03458
927 5 73.0941 5.75467 2.03458
928 5 74.34 7.91267 2.03458
929 5 73.0941 10.0707 2.03458
930 5 74.34 12.2287 2.03458
931 5 73.0941 14.3867 2.03458
932 5 74.34 16.5447 2.03458
933 5 73.0941 18.7027 2.03458
934 5 74.34 20.8607 2.03458
935 5 73.0941 23.0187 2.03458
936 5 74.34 25.1767 2.03458
937 5 75.5859 1.43867 2.03458
938 5 76.8319 3.59667 2.03458
939 5 75.5859 5.75467 2.03458
940 5 76.8319 7.91267 2.03458
941 5 75.5859 10.0707 2.03458
942 5 76.8319 12.2287 2.03458
943 5 75.5859 14.3867 2.03458
944 5 76.8319 16.5447 2.03458
945 5 75.5859 18.7027 2.03458
946 5 76.8319 20.8607 2.03458
947 5 75.5859 23.0187 2.03458
948 5 76.8319 25.1767 2.03458
949 5 78.0778 1.43867 2.03458
950 5 79.3237 3.59667 2.03458
951 5 78.0778 5.75467 2.03458
952 5 79.3237 7.91267 2.03458
953 5 78.0778 10.0707 2.03458
954 5 79.3237 12.2287 2.03458
955 5 78.0778 14.3867 2.03458
956 5 79.3237 16.5447 2.03458
957 5 78.0778 18.7027 2.03458
958 5 79.3237 20.8607 2.03458
959 5 78.0778 23.0187 2.03458
960 5 79.3237 25.1767 2.03458
961 5 80.5696 1.43867 2.03458
962 5 81.8156 3.59667 2.03458
963 5 80.5696 5.75467 2.03458
964 5 81.8156 7.91267 2.03458
965 5 80.5696 10.0707 2.03458
966 5 81.8156 12.2287 2.03458
967 5 80.5696 14.3867 2.03458
968 5 81.8156 16.5447 2.03458
969 5 80.5696 18.7027 2.03458
970 5 81.8156 20.8607 2.03458
971 5 80.5696 23.0187 2.03458
972 5 81.8156 25.1767 2.03458
973 5 83.0615 1.43867 2.03458
974 5 84.3074 3.59667 2.03458
975 5 83.0615 5.75467 2.03458
976 5 84.3074 7.91267 2.03458
977 5 83.0615 10.0707 2.03458
978 5 84.3074 12.2287 2.03458
979 5 83.0615 14.3867 2.03458
980 5 84.3074 16.5447 2.03458
981 5 83.0615 18.7027 2.03458
982 5 84.3074 20.8607 2.03458
983 5 83.0615 23.0187 2.03458
984 5 84.3074 25.1767 2.03458
985 5 85.5533 1.43867 2.03458
986 5 86.7992 3.59667 2.03458
987 5 85.5533 5.75467 2.03458
988 5 86.7992 7.91267 2.03458
989 5 85.5533 10.0707 2.03458
990 5 86.7992 12.2287 2.03458
991 5 85.5533 14.3867 2.03458
992 5 86.7992 16.5447 2.03458
993 5 85.5533 18.7027 2.03458
994 5 86.7992 20.8607 2.03458
995 5 85.5533 23.0187 2.03458
996 5 86.7992 25.1767 2.03458
997 5 88.0452 1.43867 2.03458
998 5 89.2911 3.59667 2.03458
999 5 88.0452 5.75467 2.03458
1000 5 89.2911 7.91267 2.03458
1001 5 88.0452 10.0707 2.03458
1002 5 89.2911 12.2287 2.03458
1003 5 88.0452 14.3867 2.03458
1004 5 89.2911 16.5447 2.03458
1005 5 88.0452 18.7027 2.03458
1006 5 89.2911 20.8607 2.03458
1007 5 88.0452 23.0187 2.03458
1008 5 89.2911 25.1767 2.03458
1009 5 90.537 1.43867 2.03458
1010 5 91.7829 3.59667 2.03458
1011 5 90.537 5.75467 2.03458
1012 5 91.7829 7.91267 2.03458
1013 5 90.537 10.0707 2.03458
1014 5 91.7829 12.2287 2.03458
1015 5 90.537 14.3867 2.03458
1016 5 91.7829 16.5447 2.03458
1017 5 90.537 18.7027 2.03458
1018 5 91.7829 20.8607 2.03458
1019 5 90.537 23.0187 2.03458
1020 5 91.7829 25.1767 2.03458
1021 5 93.0289 1.43867 2.03458
1022 5 94.2748 3.59667 2.03458
1023 5 93.0289 5.75467 2.03458
1024 5 94.2748 7.91267 2.03458
1025 5 93.0289 10.0707 2.03458
1026 5 94.2748 12.2287 2.03458
1027 5 93.0289 14.3867 2.03458
1028 5 94.2748 16.5447 2.03458
1029 5 93.0289 18.7027 2.03458
1030 5 94.2748 20.8607 2.03458
1031 5 93.0289 23.0187 2.03458
1032 5 94.2748 25.1767 2.03458
1033 5 95.5207 1.43867 2.03458
1034 5 96.7666 3.59667 2.03458
1035 5 95.5207 5.75467 2.03458
1036 5 96.7666 7.91267 2.03458
1037 5 95.5207 10.0707 2.03458
1038 5 96.7666 12.2287 2.03458
1039 5 95.5207 14.3867 2.03458
1040 5 96.7666 16.5447 2.03458
1041 5 95.5207 18.7027 2.03458
1042 5 96.7666 20.8607 2.03458
1043 5 95.5207 23.0187 2.03458
1044 5 96.7666 25.1767 2.03458
1045 5 98.0125 1.43867 2.03458
1046 5 99.2585 3.59667 2.03458
1047 5 98.0125 5.75467 2.03458
1048 5 99.2585 7.91267 2.03458
1049 5 98.0125 10.0707 2.03458
1050 5 99.2585 12.2287 2.03458
1051 5 98.0125 14.3867 2.03458
1052 5 99.2585 16.5447 2.03458
1053 5 98.0125 18.7027 2.03458
1054 5 99.2585 20.8607 2.03458
1055 5 98.0125 23.0187 2.03458
1056 5 99.2585 25.1767 2.03458
1057 5 100.504 1.43867 2.03458
1058 5 101.75 3.59667 2.03458
1059 5 100.504 5.75467 2.03458
1060 5 101.75 7.91267 2.03458
1061 5 100.504 10.0707 2.03458
1062 5 101.75 12.2287 2.03458
1063 5 100.504 14.3867 2.03458
1064 5 101.75 16.5447 2.03458
1065 5 100.504 18.7027 2.03458
1066 5 101.75 20.8607 2.03458
1067 5 100.504 23.0187 2.03458
1068 5 101.75 25.1767 2.03458
1069 5 102.996 1.43867 2.03458
1070 5 104.242 3.59667 2.03458
1071 5 102.996 5.75467 2.03458
1072 5 104.242 7.91267 2.03458
1073 5 102.996 10.0707 2.03458
1074 5 104.242 12.2287 2.03458
1075 5 102.996 14.3867 2.03458
1076 5 104.242 16.5447 2.03458
1077 5 102.996 18.7027 2.03458
1078 5 104.242 20.8607 2.03458
1079 5 102.996 23.0187 2.03458
1080 5 104.242 25.1767 2.03458
1081 5 105.488 1.43867 2.03458
1082 5 106.734 3.59667 2.03458
1083 5 105.488 5.75467 2.03458
1084 5 106.734 7.91267 2.03458
1085 5 105.488 10.0707 2.03458
1086 5 106.734 12.2287 2.03458
1087 5 105.488 14.3867 2.03458
1088 5 106.734 16.5447 2.03458
1089 5 105.488 18.7027 2.03458
1090 5 106.734 20.8607 2.03458
1091 5 105.488 23.0187 2.03458
1092 5 106.734 25.1767 2.03458
1093 5 107.98 1.43867 2.03458
1094 5 109.226 3.59667 2.03458
1095 5 107.98 5.75467 2.03458
1096 5 109.226 7.91267 2.03458
1097 5 107.98 10.0707 2.03458
1098 5 109.226 12.2287 2.03458
1099 5 107.98 14.3867 2.03458
1100 5 109.226 16.5447 2.03458
1101 5 107.98 18.7027 2.03458
1102 5 109.226 20.8607 2.03458
1103 5 107.98 23.0187 2.03458
1104 5 109.226 25.1767 2.03458
1105 5 110.472 1.43867 2.03458
1106 5 111.718 3.59667 2.03458
1107 5 110.472 5.75467 2.03458
1108 5 111.718 7.91267 2.03458
1109 5 110.472 10.0707 2.03458
1110 5 111.718 12.2287 2.03458
1111 5 110.472 14.3867 2.03458
1112 5 111.718 16.5447 2.03458
1113 5 110.472 18.7027 2.03458
1114 5 111.718 20.8607 2.03458
1115 5 110.472 23.0187 2.03458
1116 5 111.718 25.1767 2.03458
1117 5 112.964 1.43867 2.03458
1118 5 114.21 3.59667 2.03458
1119 5 112.964 5.75467 2.03458
1120 5 114.21 7.91267 2.03458
1121 5 112.964 10.0707 2.03458
1122 5 114.21 12.2287 2.03458
1123 5 112.964 14.3867 2.03458
1124 5 114.21 16.5447 2.03458
1125 5 112.964 18.7027 2.03458
1126 5 114.21 20.8607 2.03458
1127 5 112.964 23.0187 2.03458
1128 5 114.21 25.1767 2.03458
1129 5 115.455 1.43867 2.03458
1130 5 116.701 3.59667 2.03458
1131 5 115.455 5.75467 2.03458
1132 5 116.701 7.91267 2.03458
1133 5 115.455 10.0707 2.03458
1134 5 116.701 12.2287 2.03458
1135 5 115.455 14.3867 2.03458
1136 5 116.701 16.5447 2.03458
1137 5 115.455 18.7027 2.03458
1138 5 116.701 20.8607 2.03458
1139 5 115.455 23.0187 2.03458
1140 5 116.701 25.1767 2.03458
1141 5 117.947 1.43867 2.03458
1142 5 119.193 3.59667 2.03458
1143 5 117.947 5.75467 2.03458
1144 5 119.193 7.91267 2.03458
1145 5 117.947 10.0707 2.03458
1146 5 119.193 12.2287 2.03458
1147 5 117.947 14.3867 2.03458
1148 5 119.193 16.5447 2.03458
1149 5 117.947 18.7027 2.03458
1150 5 119.193 20.8607 2.03458
1151 5 117.947 23.0187 2.03458
1152 5 119.193 25.1767 2.03458
1153 5 1.66123 2.87733 4.06916
1154 5 2.90715 5.03533 4.06916
1155 5 1.66123 7.19333 4.06916
1156 5 2.90715 9.35134 4.06916
1157 5 1.66123 11.5093 4.06916
1158 5 2.90715 13.6673 4.06916
1159 5 1.66123 15.8253 4.06916
1160 5 2.90715 17.9833 4.06916
1161 5 1.66123 20.1413 4.06916
1162 5 2.90715 22.2993 4.06916
1163 5 1.66123 24.4573 4.06916
1164 5 2.90715 26.6153 4.06916
1165 5 4.15307 2.87733 4.06916
1166 5 5.399 5.03533 4.06916
1167 5 4.15307 7.19333 4.06916
1168 5 5.399 9.35134 4.06916
1169 5 4.15307 11.5093 4.06916
1170 5 5.399 13.6673 4.06916
1171 5 4.15307 15.8253 4.06916
1172 5 5.399 17.9833 4.06916
1173 5 4.15307 20.1413 4.06916
1174 5 5.399 22.2993 4.06916
1175 5 4.15307 24.4573 4.06916
1176 5 5.399 26.6153 4.06916
1177 5 6.64492 2.87733 4.06916
1178 5 7.89084 5.03533 4.06916
1179 5 6.64492 7.19333 4.06916
1180 5 7.89084 9.35134 4.06916
1181 5 6.64492 11.5093 4.06916
1182 5 7.89084 13.6673 4.06916
1183 5 6.64492 15.8253 4.06916
1184 5 7.89084 17.9833 4.06916
1185 5 6.64492 20.1413 4.06916
1186 5 7.89084 22.2993 4.06916
1187 5 6.64492 24.4573 4.06916
1188 5 7.89084 26.6153 4.06916
1189 5 9.13676 2.87733 4.06916
1190 5 10.3827 5.03533 4.06916
1191 5 9.13676 7.19333 4.06916
1192 5 10.3827 9.35134 4.06916
1193 5 9.13676 11.5093 4.06916
1194 5 10.3827 13.6673 4.06916
1195 5 9.13676 15.8253 4.06916
1196 5 10.3827 17.9833 4.06916
1197 5 9.13676 20.1413 4.06916
1198 5 10.3827 22.2993 4.06916
1199 5 9.13676 24.4573 4.06916
1200 5 10.3827 26.6153 4.06916
1201 5 11.6286 2.87733 4.06916
1202 5 12.8745 5.03533 4.06916
1203 5 11.6286 7.19333 4.06916
1204 5 12.8745 9.35134 4.06916
1205 5 11.6286 11.5093 4.06916
1206 5 12.8745 13.6673 4.06916
1207 5 11.6286 15.8253 4.06916
1208 5 12.8745 17.9833 4.06916
1209 5 11.6286 20.1413 4.06916
1210 5 12.8745 22.2993 4.06916
1211 5 11.6286 24.4573 4.06916
1212 5 12.8745 26.6153 4.06916
1213 5 14.1204 2.87733 4.06916
1214 5 15.3664 5.03533 4.06916
1215 5 14.1204 7.19333 4.06916
1216 5 15.3664 9.35134 4.06916
1217 5 14.1204 11.5093 4.06916
1218 5 15.3664 13.6673 4.06916
1219 5 14.1204 15.8253 4.06916
1220 5 15.3664 17.9833 4.06916
1221 5 14.1204 20.1413 4.06916
1222 5 15.3664 22.2993 4.06916
1223 5 14.1204 24.4573 4.06916
1224 5 15.3664 26.6153 4.06916
1225 5 16.6123 2.87733 4.06916
1226 5 17.8582 5.03533 4.06916
1227 5 16.6123 7.19333 4.06916
1228 5 17.8582 9.35134 4.06916
1229 5 16.6123 11.5093 4.06916
1230 5 17.8582 13.6673 4.06916
1231 5 16.6123 15.8253 4.06916
1232 5 17.8582 17.9833 4.06916
1233 5 16.6123 20.1413 4.06916
1234 5 17.8582 22.2993 4.06916
1235 5 16.6123 24.4573 4.06916
1236 5 17.8582 26.6153 4.06916
1237 5 19.1041 2.87733 4.06916
1238 5 20.3501 5.03533 4.06916
1239 5 19.1041 7.19333 4.06916
1240 5 20.3501 9.35134 4.06916
1241 5 19.1041 11.5093 4.06916
1242 5 20.3501 13.6673 4.06916
1243 5 19.1041 15.8253 4.06916
1244 5 20.3501 17.9833 4.06916
1245 5 19.1041 20.1413 4.06916
1246 5 20.3501 22.2993 4.06916
1247 5 19.1041 24.4573 4.06916
1248 5 20.3501 26.6153 4.06916
1249 5 21.596 2.87733 4.06916
1250 5 22.8419 5.03533 4.06916
1251 5 21.596 7.19333 4.06916
1252 5 22.8419 9.35134 4.06916
1253 5 21.596 11.5093 4.06916
1254 5 22.8419 13.6673 4.06916
1255 5 21.596 15.8253 4.06916
1256 5 22.8419 17.9833 4.06916
1257 5 21.596 20.1413 4.06916
1258 5 22.8419 22.2993 4.06916
1259 5 21.596 24.4573 4.06916
1260 5 22.8419 26.6153 4.06916
1261 5 24.0878 2.87733 4.06916
1262 5 25.3337 5.03533 4.06916
1263 5 24.0878 7.19333 4.06916
1264 5 25.3337 9.35134 4.06916
1265 5 24.0878 11.5093 4.06916
1266 5 25.3337 13.6673 4.06916
1267 5 24.0878 15.8253 4.06916
1268 5 25.3337 17.9833 4.06916
1269 5 24.0878 20.1413 4.06916
1270 5 25.3337 22.2993 4.06916
1271 5 24.0878 24.4573 4.06916
1272 5 25.3337 26.6153 4.06916
1273 5 26.5797 2.87733 4.06916
1274 5 27.8256 5.03533 4.06916
1275 5 26.5797 7.19333 4.06916
1276 5 27.8256 9.35134 4.06916
1277 5 26.5797 11.5093 4.06916
1278 5 27.8256 13.6673 4.06916
1279 5 26.5797 15.8253 4.06916
1280 5 27.8256 17.9833 4.06916
1281 5 26.5797 20.1413 4.06916
1282 5 27.8256 22.2993 4.06916
1283 5 26.5797 24.4573 4.06916
1284 5 27.8256 26.6153 4.06916
1285 5 29.0715 2.87733 4.06916
1286 5 30.3174 5.03533 4.06916
1287 5 29.0715 7.19333 4.06916
1288 5 30.3174 9.35134 4.06916
1289 5 29.0715 11.5093 4.06916
1290 5 30.3174 13.6673 4.06916
1291 5 29.0715 15.8253 4.06916
1292 5 30.3174 17.9833 4.06916
1293 5 29.0715 20.1413 4.06916
1294 5 30.3174 22.2993 4.06916
1295 5 29.0715 24.4573 4.06916
1296 5 30.3174 26.6153 4.06916
1297 5 31.5634 2.87733 4.06916
1298 5 32.8093 5.03533 4.06916
1299 5 31.5634 7.19333 4.06916
1300 5 32.8093 9.35134 4.06916
1301 5 31.5634 11.5093 4.06916
1302 5 32.8093 13.6673 4.06916
1303 5 31.5634 15.8253 4.06916
1304 5 32.8093 17.9833 4.06916
1305 5 31.5634 20.1413 4.06916
1306 5 32.8093 22.2993 4.06916
1307 5 31.5634 24.4573 4.06916
1308 5 32.8093 26.6153 4.06916
1309 5 34.0552 2.87733 4.06916
1310 5 35.3011 5.03533 4.06916
1311 5 34.0552 7.19333 4.06916
1312 5 35.3011 9.35134 4.06916
1313 5 34.0552 11.5093 4.06916
1314 5 35.3011 13.6673 4.06916
1315 5 34.0552 15.8253 4.06916
1316 5 35.3011 17.9833 4.06916
1317 5 34.0552 20.1413 4.06916
1318 5 35.3011 22.2993 4.06916
1319 5 34.0552 24.4573 4.06916
1320 5 35.3011 26.6153 4.06916
1321 5 36.547 2.87733 4.06916
1322 5 37.793 5.03533 4.06916
1323 5 36.547 7.19333 4.06916
1324 5 37.793 9.35134 4.06916
1325 5 36.547 11.5093 4.06916
1326 5 37.793 13.6673 4.06916
1327 5 36.547 15.8253 4.06916
1328 5 37.793 17.9833 4.06916
1329 5 36.547 20.1413 4.06916
1330 5 37.793 22.2993 4.06916
1331 5 36.547 24.4573 4.06916
1332 5 37.793 26.6153 4.06916
1333 5 39.0389 2.87733 4.06916
1334 5 40.2848 5.03533 4.06916
1335 5 39.0389 7.19333 4.06916
1336 5 40.2848 9.35134 4.06916
1337 5 39.0389 11.5093 4.06916
1338 5 40.2848 13.6673 4.06916
1339 5 39.0389 15.8253 4.06916
1340 5 40.2848 17.9833 4.06916
1341 5 39.0389 20.1413 4.06916
1342 5 40.2848 22.2993 4.06916
1343 5 39.0389 24.4573 4.06916
1344 5 40.2848 26.6153 4.06916
1345 5 41.5307 2.87733 4.06916
1346 5 42.7767 5.03533 4.06916
1347 5 41.5307 7.19333 4.06916
1348 5 42.7767 9.35134 4.06916
1349 5 41.5307 11.5093 4.06916
1350 5 42.7767 13.6673 4.06916
1351 5 41.5307 15.8253 4.06916
1352 5 42.7767 17.9833 4.06916
1353 5 41.5307 20.1413 4.06916
1354 5 42.7767 22.2993 4.06916
1355 5 41.5307 24.4573 4.06916
1356 5 42.7767 26.6153 4.06916
1357 5 44.0226 2.87733 4.06916
1358 5 45.2685 5.03533 4.06916
1359 5 44.0226 7.19333 4.06916
1360 5 45.2685 9.35134 4.06916
1361 5 44.0226 11.5093 4.06916
1362 5 45.2685 13.6673 4.06916
1363 5 44.0226 15.8253 4.06916
1364 5 45.2685 17.9833 4.06916
1365 5 44.0226 20.1413 4.06916
1366 5 45.2685 22.2993 4.06916
1367 5 44.0226 24.4573 4.06916
1368 5 45.2685 26.6153 4.06916
1369 5 46.5144 2.87733 4.06916
1370 5 47.7604 5.03533 4.06916
1371 5 46.5144 7.19333 4.06916
1372 5 47.7604 9.35134 4.06916
1373 5 46.5144 11.5093 4.06916
1374 5 47.7604 13.6673 4.06916
1375 5 46.5144 15.8253 4.06916
1376 5 47.7604 17.9833 4.06916
1377 5 46.5144 20.1413 4.06916
1378 5 47.7604 22.2993 4.06916
1379 5 46.5144 24.4573 4.06916
1380 5 47.7604 26.6153 4.06916
1381 5 49.0063 2.87733 4.06916
1382 5 50.2522 5.03533 4.06916
1383 5 49.0063 7.19333 4.06916
1384 5 50.2522 9.35134 4.06916
1385 5 49.0063 11.5093 4.06916
1386 5 50.2522 13.6673 4.06916
1387 5 49.0063 15.8253 4.06916
1388 5 50.2522 17.9833 4.06916
1389 5 49.0063 20.1413 4.06916
1390 5 50.2522 22.2993 4.06916
1391 5 49.0063 24.4573 4.06916
1392 5 50.2522 26.6153 4.06916
1393 5 51.4981 2.87733 4.06916
1394 5 52.744 5.03533 4.06916
1395 5 51.4981 7.19333 4.06916
1396 5 52.744 9.35134 4.06916
1397 5 51.4981 11.5093 4.06916
1398 5 52.744 13.6673 4.06916
1399 5 51.4981 15.8253 4.06916
1400 5 52.744 17.9833 4.06916
1401 5 51.4981 20.1413 4.06916
1402 5 52.744 22.2993 4.06916
1403 5 51.4981 24.4573 4.06916
1404 5 52.744 26.6153 4.06916
1405 5 53.99 2.87733 4.06916
1406 5 55.2359 5.03533 4.06916
1407 5 53.99 7.19333 4.06916
1408 5 55.2359 9.35134 4.06916
1409 5 53.99 11.5093 4.06916
1410 5 55.2359 13.6673 4.06916
1411 5 53.99 15.8253 4.06916
1412 5 55.2359 17.9833 4.06916
1413 5 53.99 20.1413 4.06916
1414 5 55.2359 22.2993 4.06916
1415 5 53.99 24.4573 4.06916
1416 5 55.2359 26.6153 4.06916
1417 5 56.4818 2.87733 4.06916
1418 5 57.7277 5.03533 4.06916
1419 5 56.4818 7.19333 4.06916
1420 5 57.7277 9.35134 4.06916
1421 5 56.4818 11.5093 4.06916
1422 5 57.7277 13.6673 4.06916
1423 5 56.4818 15.8253 4.06916
1424 5 57.7277 17.9833 4.06916
1425 5 56.4818 20.1413 4.06916
1426 5 57.7277 22.2993 4.06916
1427 5 56.4818 24.4573 4.06916
1428 5 57.7277 26.6153 4.06916
1429 5 58.9736 2.87733 4.06916
1430 5 60.2196 5.03533 4.06916
1431 5 58.9736 7.19333 4.06916
1432 5 60.2196 9.35134 4.06916
1433 5 58.9736 11.5093 4.06916
1434 5 60.2196 13.6673 4.06916
1435 5 58.9736 15.8253 4.06916
1436 5 60.2196 17.9833 4.06916
1437 5 58.9736 20.1413 4.06916
1438 5 60.2196 22.2993 4.06916
1439 5 58.9736 24.4573 4.06916
1440 5 60.2196 26.6153 4.06916
1441 5 61.4655 2.87733 4.06916
1442 5 62.7114 5.03533 4.06916
1443 5 61.4655 7.19333 4.06916
1444 5 62.7114 9.35134 4.06916
1445 5 61.4655 11.5093 4.06916
1446 5 62.7114 13.6673 4.06916
1447 5 61.4655 15.8253 4.06916
1448 5 62.7114 17.9833 4.06916
1449 5 61.4655 20.1413 4.06916
1450 5 62.7114 22.2993 4.06916
1451 5 61.4655 24.4573 4.06916
1452 5 62.7114 26.6153 4.06916
1453 5 63.9573 2.87733 4.06916
1454 5 65.2033 5.03533 4.06916
1455 5 63.9573 7.19333 4.06916
1456 5 65.2033 9.35134 4.06916
1457 5 63.9573 11.5093 4.06916
1458 5 65.2033 13.6673 4.06916
1459 5 63.9573 15.8253 4.06916
1460 5 65.2033 17.9833 4.06916
1461 5 63.9573 20.1413 4.06916
1462 5 65.2033 22.2993 4.06916
1463 5 63.9573 24.4573 4.06916
1464 5 65.2033 26.6153 4.06916
1465 5 66.4492 2.87733 4.06916
1466 5 67.6951 5.03533 4.06916
1467 5 66.4492 7.19333 4.06916
1468 5 67.6951 9.35134 4.06916
1469 5 66.4492 11.5093 4.06916
1470 5 67.6951 13.6673 4.06916
1471 5 66.4492 15.8253 4.06916
1472 5 67.6951 17.9833 4.06916
1473 5 66.4492 20.1413 4.06916
1474 5 67.6951 22.2993 4.06916
1475 5 66.4492 24.4573 4.06916
1476 5 67.6951 26.6153 4.06916
1477 5 68.941 2.87733 4.06916
1478 5 70.1869 5.03533 4.06916
1479 5 68.941 7.19333 4.06916
1480 5 70.1869 9.35134 4.06916
1481 5 68.941 11.5093 4.06916
1482 5 70.1869 13.6673 4.06916
1483 5 68.941 15.8253 4.06916
1484 5 70.1869 17.9833 4.06916
1485 5 68.941 20.1413 4.06916
1486 5 70.1869 22.2993 4.06916
1487 5 68.941 24.4573 4.06916
1488 5 70.1869 26.6153 4.06916
1489 5 71.4329 2.87733 4.06916
1490 5 72.6788 5.03533 4.06916
1491 5 71.4329 7.19333 4.06916
1492 5 72.6788 9.35134 4.06916
1493 5 71.4329 11.5093 4.06916
1494 5 72.6788 13.6673 4.06916
1495 5 71.4329 15.8253 4.06916
1496 5 72.6788 17.9833 4.06916
1497 5 71.4329 20.1413 4.06916
1498 5 72.6788 22.2993 4.06916
1499 5 71.4329 24.4573 4.06916
1500 5 72.6788 26.6153 4.06916
1501 5 73.9247 2.87733 4.06916
1502 5 75.1706 5.03533 4.06916
1503 5 73.9247 7.19333 4.06916
1504 5 75.1706 9.35134 4.06916
1505 5 73.9247 11.5093 4.06916
1506 5 75.1706 13.6673 4.06916
1507 5 73.9247 15.8253 4.06916
1508 5 75.1706 17.9833 4.06916
1509 5 73.9247 20.1413 4.06916
1510 5 75.1706 22.2993 4.06916
1511 5 73.9247 24.4573 4.06916
1512 5 75.1706 26.6153 4.06916
1513 5 76.4166 2.87733 4.06916
1514 5 77.6625 5.03533 4.06916
1515 5 76.4166 7.19333 4.06916
1516 5 77.6625 9.35134 4.06916
1517 5 76.4166 11.5093 4.06916
1518 5 77.6625 13.6673 4.06916
1519 5 76.4166 15.8253 4.06916
1520 5 77.6625 17.9833 4.06916
1521 5 76.4166 20.1413 4.06916
1522 5 77.6625 22.2993 4.06916
1523 5 76.4166 24.4573 4.06916
1524 5 77.6625 26.6153 4.06916
1525 5 78.9084 2.87733 4.06916
1526 5 80.1543 5.03533 4.06916
1527 5 78.9084 7.19333 4.06916
1528 5 80.1543 9.35134 4.06916
1529 5 78.9084 11.5093 4.06916
1530 5 80.1543 13.6673 4.06916
1531 5 78.9084 15.8253 4.06916
1532 5 80.1543 17.9833 4.06916
1533 5 78.9084 20.1413 4.06916
1534 5 80.1543 22.2993 4.06916
1535 5 78.9084 24.4573 4.06916
1536 5 80.1543 26.6153 4.06916
1537 5 81.4002 2.87733 4.06916
1538 5 82.6462 5.03533 4.06916
1539 5 81.4002 7.19333 4.06916
1540 5 82.6462 9.35134 4.06916
1541 5 81.4002 11.5093 4.06916
1542 5 82.6462 13.6673 4.06916
1543 5 81.4002 15.8253 4.06916
1544 5 82.6462 17.9833 4.06916
1545 5 81.4002 20.1413 4.06916
1546 5 82.6462 22.2993 4.06916
1547 5 81.4002 24.4573 4.06916
1548 5 82.6462 26.6153 4.06916
1549 5 83.8921 2.87733 4.06916
1550 5 85.138 5.03533 4.06916
1551 5 83.8921 7.19333 4.06916
1552 5 85.138 9.35134 4.06916
1553 5 83.8921 11.5093 4.06916
1554 5 85.138 13.6673 4.06916
1555 5 83.8921 15.8253 4.06916
1556 5 85.138 17.9833 4.06916
1557 5 83.8921 20.1413 4.06916
1558 5 85.138 22.2993 4.06916
1559 5 83.8921 24.4573 4.06916
1560 5 85.138 26.6153 4.06916
1561 5 86.3839 2.87733 4.06916
1562 5 87.6299 5.03533 4.06916
1563 5 86.3839 7.19333 4.06916
1564 5 87.6299 9.35134 4.06916
1565 5 86.3839 11.5093 4.06916
1566 5 87.6299 13.6673 4.06916
1567 5 86.3839 15.8253 4.06916
1568 5 87.6299 17.9833 4.06916
1569 5 86.3839 20.1413 4.06916
1570 5 87.6299 22.2993 4.06916
1571 5 86.3839 24.4573 4.06916
1572 5 87.6299 26.6153 4.06916
1573 5 88.8758 2.87733 4.06916
1574 5 90.1217 5.03533 4.06916
1575 5 88.8758 7.19333 4.06916
1576 5 90.1217 9.35134 4.06916
1577 5 88.8758 11.5093 4.06916
1578 5 90.1217 13.6673 4.06916
1579 5 88.8758 15.8253 4.06916
1580 5 90.1217 17.9833 4.06916
1581 5 88.8758 20.1413 4.06916
1582 5 90.1217 22.2993 4.06916
1583 5 88.8758 24.4573 4.06916
1584 5 90.1217 26.6153 4.06916
1585 5 91.3676 2.87733 4.06916
1586 5 92.6136 5.03533 4.06916
1587 5 91.3676 7.19333 4.06916
1588 5 92.6136 9.35134 4.06916
1589 5 91.3676 11.5093 4.06916
1590 5 92.6136 13.6673 4.06916
1591 5 91.3676 15.8253 4.06916
1592 5 92.6136 17.9833 4.06916
1593 5 91.3676 20.1413 4.06916
1594 5 92.6136 22.2993 4.06916
1595 5 91.3676 24.4573 4.06916
1596 5 92.6136 26.6153 4.06916
1597 5 93.8595 2.87733 4.06916
1598 5 95.1054 5.03533 4.06916
1599 5 93.8595 7.19333 4.06916
1600 5 95.1054 9.35134 4.06916
1601 5 93.8595 11.5093 4.06916
1602 5 95.1054 13.6673 4.06916
1603 5 93.8595 15.8253 4.06916
1604 5 95.1054 17.9833 4.06916
1605 5 93.8595 20.1413 4.06916
1606 5 95.1054 22.2993 4.06916
1607 5 93.8595 24.4573 4.06916
1608 5 95.1054 26.6153 4.06916
1609 5 96.3513 2.87733 4.06916
1610 5 97.5972 5.03533 4.06916
1611 5 96.3513 7.19333 4.06916
1612 5 97.5972 9.35134 4.06916
1613 5 96.3513 11.5093 4.06916
1614 5 97.5972 13.6673 4.06916
1615 5 96.3513 15.8253 4.06916
1616 5 97.5972 17.9833 4.06916
1617 5 96.3513 20.1413 4.06916
1618 5 97.5972 22.2993 4.06916
1619 5 96.3513 24.4573 4.06916
1620 5 97.5972 26.6153 4.06916
1621 5 98.8432 2.87733 4.06916
1622 5 100.089 5.03533 4.06916
1623 5 98.8432 7.19333 4.06916
1624 5 100.089 9.35134 4.06916
1625 5 98.8432 11.5093 4.06916
1626 5 100.089 13.6673 4.06916
1627 5 98.8432 15.8253 4.06916
1628 5 100.089 17.9833 4.06916
1629 5 98.8432 20.1413 4.06916
1630 5 100.089 22.2993 4.06916
1631 5 98.8432 24.4573 4.06916
1632 5 100.089 26.6153 4.06916
1633 5 101.335 2.87733 4.06916
1634 5 102.581 5.03533 4.06916
1635 5 101.335 7.19333 4.06916
1636 5 102.581 9.35134 4.06916
1637 5 101.335 11.5093 4.06916
1638 5 102.581 13.6673 4.06916
1639 5 101.335 15.8253 4.06916
1640 5 102.581 17.9833 4.06916
1641 5 101.335 20.1413 4.06916
1642 5 102.581 22.2993 4.06916
1643 5 101.335 24.4573 4.06916
1644 5 102.581 26.6153 4.06916
1645 5 103.827 2.87733 4.06916
1646 5 105.073 5.03533 4.06916
1647 5 103.827 7.19333 4.06916
1648 5 105.073 9.35134 4.06916
1649 5 103.827 11.5093 4.06916
1650 5 105.073 13.6673 4.06916
1651 5 103.827 15.8253 4.06916
1652 5 105.073 17.9833 4.06916
1653 5 103.827 20.1413 4.06916
1654 5 105.073 22.2993 4.06916
1655 5 103.827 24.4573 4.06916
1656 5 105.073 26.6153 4.06916
1657 5 106.319 2.87733 4.06916
1658 5 107.565 5.03533 4.06916
1659 5 106.319 7.19333 4.06916
1660 5 107.565 9.35134 4.06916
1661 5 106.319 11.5093 4.06916
1662 5 107.565 13.6673 4.06916
1663 5 106.319 15.8253 4.06916
1664 5 107.565 17.9833 4.06916
1665 5 106.319 20.1413 4.06916
1666 5 107.565 22.2993 4.06916
1667 5 106.319 24.4573 4.06916
1668 5 107.565 26.6153 4.06916
1669 5 108.811 2.87733 4.06916
1670 5 110.056 5.03533 4.06916
1671 5 108.811 7.19333 4.06916
1672 5 110.056 9.35134 4.06916
1673 5 108.811 11.5093 4.06916
1674 5 110.056 13.6673 4.06916
1675 5 108.811 15.8253 4.06916
1676 5 110.056 17.9833 4.06916
1677 5 108.811 20.1413 4.06916
1678 5 110.056 22.2993 4.06916
1679 5 108.811 24.4573 4.06916
1680 5 110.056 26.6153 4.06916
1681 5 111.302 2.87733 4.06916
1682 5 112.548 5.03533 4.06916
1683 5 111.302 7.19333 4.06916
1684 5 112.548 9.35134 4.06916
1685 5 111.302 11.5093 4.06916
1686 5 112.548 13.6673 4.06916
1687 5 111.302 15.8253 4.06916
1688 5 112.548 17.9833 4.06916
1689 5 111.302 20.1413 4.06916
1690 5 112.548 22.2993 4.06916
1691 5 111.302 24.4573 4.06916
1692 5 112.548 26.6153 4.06916
1693 5 113.794 2.87733 4.06916
1694 5 115.04 5.03533 4.06916
1695 5 113.794 7.19333 4.06916
1696 5 115.04 9.35134 4.06916
1697 5 113.794 11.5093 4.06916
1698 5 115.04 13.6673 4.06916
1699 5 113.794 15.8253 4.06916
1700 5 115.04 17.9833 4.06916
1701 5 113.794 20.1413 4.06916
1702 5 115.04 22.2993 4.06916
1703 5 113.794 24.4573 4.06916
1704 5 115.04 26.6153 4.06916
1705 5 116.286 2.87733 4.06916
1706 5 117.532 5.03533 4.06916
1707 5 116.286 7.19333 4.06916
1708 5 117.532 9.35134 4.06916
1709 5 116.286 11.5093 4.06916
1710 5 117.532 13.6673 4.06916
1711 5 116.286 15.8253 4.06916
1712 5 117.532 17.9833 4.06916
1713 5 116.286 20.1413 4.06916
1714 5 117.532 22.2993 4.06916
1715 5 116.286 24.4573 4.06916
1716 5 117.532 26.6153 4.06916
1717 5 118.778 2.87733 4.06916
1718 5 0.02383 5.03533 4.06916
1719 5 118.778 7.19333 4.06916
1720 5 0.02383 9.35134 4.06916
1721 5 118.778 11.5093 4.06916
1722 5 0.02383 13.6673 4.06916
1723 5 118.778 15.8253 4.06916
1724 5 0.02383 17.9833 4.06916
1725 5 118.778 20.1413 4.06916
1726 5 0.02383 22.2993 4.06916
1727 5 118.778 24.4573 4.06916
1728 5 0.02383 26.6153 4.06916
1729 5 0 0 6.10375
1730 5 1.24592 2.158 6.10375
1731 5 0 4.316 6.10375
1732 5 1.24592 6.474 6.10375
1733 5 0 8.632 6.10375
1734 5 1.24592 10.79 6.10375
1735 5 0 12.948 6.10375
1736 5 1.24592 15.106 6.10375
1737 5 0 17.264 6.10375
1738 5 1.24592 19.422 6.10375
1739 5 0 21.58 6.10375
1740 5 1.24592 23.738 6.10375
1741 5 2.49184 0 6.10375
1742 5 3.73777 2.158 6.10375
1743 5 2.49184 4.316 6.10375
1744 5 3.73777 6.474 6.10375
1745 5 2.49184 8.632 6.10375
1746 5 3.73777 10.79 6.10375
1747 5 2.49184 12.948 6.10375
1748 5 3.73777 15.106 6.10375
1749 5 2.49184 17.264 6.10375
1750 5 3.73777 19.422 6.10375
1751 5 2.49184 21.58 6.10375
1752 5 3.73777 23.738 6.10375
1753 5 4.98369 0 6.10375
1754 5 6.22961 2.158 6.10375
1755 5 4.98369 4.316 6.10375
1756 5 6.22961 6.474 6.10375
1757 5 4.98369 8.632 6.10375
1758 5 6.22961 10.79 6.10375
1759 5 4.98369 12.948 6.10375
1760 5 6.22961 15.106 6.10375
1761 5 4.98369 17.264 6.10375
1762 5 6.22961 19.422 6.10375
1763 5 4.98369 21.58 6.10375
1764 5 6.22961 23.738 6.10375
1765 5 7.47553 0 6.10375
1766 5 8.72146 2.158 6.10375
1767 5 7.47553 4.316 6.10375
1768 5 8.72146 6.474 6.10375
1769 5 7.47553 8.632 6.10375
1770 5 8.72146 10.79 6.10375
1771 5 7.47553 12.948 6.10375
1772 5 8.72146 15.106 6.10375
1773 5 7.47553 17.264 6.10375
1774 5 8.72146 19.422 6.10375
1775 5 7.47553 21.58 6.10375
1776 5 8.72146 23.738 6.10375
1777 5 9.96738 0 6.10375
1778 5 11.2133 2.158 6.10375
1779 5 9.96738 4.316 6.10375
1780 5 11.2133 6.474 6.10375
1781 5 9.96738 8.632 6.10375
1782 5 11.2133 10.79 6.10375
1783 5 9.96738 12.948 6.10375
1784 5 11.2133 15.106 6.10375
1785 5 9.96738 17.264 6.10375
1786 5 11.2133 19.422 6.10375
1787 5 9.96738 21.58 6.10375
1788 5 11.2133 23.738 6.10375
1789 5 12.4592 0 6.10375
1790 5 13.7051 2.158 6.10375
1791 5 12.4592 4.316 6.10375
1792 5 13.7051 6.474 6.10375
1793 5 12.4592 8.632 6.10375
1794 5 13.7051 10.79 6.10375
1795 5 12.4592 12.948 6.10375
1796 5 13.7051 15.106 6.10375
1797 5 12.4592 17.264 6.10375
1798 5 13.7051 19.422 6.10375
1799 5 12.4592 21.58 6.10375
1800 5 13.7051 23.738 6.10375
1801 5 14.9511 0 6.10375
1802 5 16.197 2.158 6.10375
1803 5 14.9511 4.316 6.10375
1804 5 16.197 6.474 6.10375
1805 5 14.9511 8.632 6.10375
1806 5 16.197 10.79 6.10375
1807 5 14.9511 12.948 6.10375
1808 5 16.197 15.106 6.10375
1809 5 14.9511 17.264 6.10375
1810 5 16.197 19.422 6.10375
1811 5 14.9511 21.58 6.10375
1812 5 16.197 23.738 6.10375
1813 5 17.4429 0 6.10375
1814 5 18.6888 2.158 6.10375
1815 5 17.4429 4.316 6.10375
1816 5 18.6888 6.474 6.10375
1817 5 17.4429 8.632 6.10375
1818 5 18.6888 10.79 6.10375
1819 5 17.4429 12.948 6.10375
1820 5 18.6888 15.106 6.10375
1821 5 17.4429 17.264 6.10375
1822 5 18.6888 19.422 6.10375
1823 5 17.4429 21.58 6.10375
1824 5 18.6888 23.738 6.10375
1825 5 19.9348 0 6.10375
1826 5 21.1807 2.158 6.10375
1827 5 19.9348 4.316 6.10375
1828 5 21.1807 6.474 6.10375
1829 5 19.9348 8.632 6.10375
1830 5 21.1807 10.79 6.10375
1831 5 19.9348 12.948 6.10375
1832 5 21.1807 15.106 6.10375
1833 5 19.9348 17.264 6.10375
1834 5 21.1807 19.422 6.10375
1835 5 19.9348 21.58 6.10375
1836 5 21.1807 23.738 6.10375
1837 5 22.4266 0 6.10375
1838 5 23.6725 2.158 6.10375
1839 5 22.4266 4.316 6.10375
1840 5 23.6725 6.474 6.10375
1841 5 22.4266 8.632 6.10375
1842 5 23.6725 10.79 6.10375
1843 5 22.4266 12.948 6.10375
1844 5 23.6725 15.106 6.10375
1845 5 22.4266 17.264 6.10375
1846 5 23.6725 19.422 6.10375
1847 5 22.4266 21.58 6.10375
1848 5 23.6725 23.738 6.10375
1849 5 24.9184 0 6.10375
1850 5 26.1644 2.158 6.10375
1851 5 24.9184 4.316 6.10375
1852 5 26.1644 6.474 6.10375
1853 5 24.9184 8.632 6.10375
1854 5 26.1644 10.79 6.10375
1855 5 24.9184 12.948 6.10375
1856 5 26.1644 15.106 6.10375
1857 5 24.9184 17.264 6.10375
1858 5 26.1644 19.422 6.10375
1859 5 24.9184 21.58 6.10375
1860 5 26.1644 23.738 6.10375
1861 5 27.4103 0 6.10375
1862 5 28.6562 2.158 6.10375
1863 5 27.4103 4.316 6.10375
1864 5 28.6562 6.474 6.10375
1865 5 27.4103 8.632 6.10375
1866 5 28.6562 10.79 6.10375
1867 5 27.4103 12.948 6.10375
1868 5 28.6562 15.106 6.10375
1869 5 27.4103 17.264 6.10375
1870 5 28.6562 19.422 6.10375
1871 5 27.4103 21.58 6.10375
1872 5 28.6562 23.738 6.10375
1873 5 29.9021 0 6.10375
1874 5 31.1481 2.158 6.10375
1875 5 29.9021 4.316 6.10375
1876 5 31.1481 6.474 6.10375
1877 5 29.9021 8.632 6.10375
1878 5 31.1481 10.79 6.10375
1879 5 29.9021 12.948 6.10375
1880 5 31.1481 15.106 6.10375
1881 5 29.9021 17.264 6.10375
1882 5 31.1481 19.422 6.10375
1883 5 29.9021 21.58 6.10375
1884 5 31.1481 23.738 6.10375
1885 5 32.394 0 6.10375
1886 5 33.6399 2.158 6.10375
1887 5 32.394 4.316 6.10375
1888 5 33.6399 6.474 6.10375
1889 5 32.394 8.632 6.10375
1890 5 33.6399 10.79 6.10375
1891 5 32.394 12.948 6.10375
1892 5 33.6399 15.106 6.10375
1893 5 32.394 17.264 6.10375
1894 5 33.6399 19.422 6.10375
1895 5 32.394 21.58 6.10375
1896 5 33.6399 23.738 6.10375
1897 5 34.8858 0 6.10375
1898 5 36.1317 2.158 6.10375
1899 5 34.8858 4.316 6.10375
1900 5 36.1317 6.474 6.10375
1901 5 34.8858 8.632 6.10375
1902 5 36.1317 10.79 6.10375
1903 5 34.8858 12.948 6.10375
1904 5 36.1317 15.106 6.10375
1905 5 34.8858 17.264 6.10375
1906 5 36.1317 19.422 6.10375
1907 5 34.8858 21.58 6.10375
1908 5 36.1317 23.738 6.10375
1909 5 37.3777 0 6.10375
1910 5 38.6236 2.158 6.10375
1911 5 37.3777 4.316 6.10375
1912 5 38.6236 6.474 6.10375
1913 5 37.3777 8.632 6.10375
1914 5 38.6236 10.79 6.10375
1915 5 37.3777 12.948 6.10375
1916 5 38.6236 15.106 6.10375
1917 5 37.3777 17.264 6.10375
1918 5 38.6236 19.422 6.10375
1919 5 37.3777 21.58 6.10375
1920 5 38.6236 23.738 6.10375
1921 5 39.8695 0 6.10375
1922 5 41.1154 2.158 6.10375
1923 5 39.8695 4.316 6.10375
1924 5 41.1154 6.474 6.10375
1925 5 39.8695 8.632 6.10375
1926 5 41.1154 10.79 6.10375
1927 5 39.8695 12.948 6.10375
1928 5 41.1154 15.106 6.10375
1929 5 39.8695 17.264 6.10375
1930 5 41.1154 19.422 6.10375
1931 5 39.8695 21.58 6.10375
1932 5 41.1154 23.738 6.10375
1933 5 42.3614 0 6.10375
1934 5 43.6073 2.158 6.10375
1935 5 42.3614 4.316 6.10375
1936 5 43.6073 6.474 6.10375
1937 5 42.3614 8.632 6.10375
1938 5 43.6073 10.79 6.10375
1939 5 42.3614 12.948 6.10375
1940 5 43.6073 15.106 6.10375
1941 5 42.3614 17.264 6.10375
1942 5 43.6073 19.422 6.10375
1943 5 42.3614 21.58 6.10375
1944 5 43.6073 23.738 6.10375
1945 5 44.8532 0 6.10375
1946 5 46.0991 2.158 6.10375
1947 5 44.8532 4.316 6.10375
1948 5 46.0991 6.474 6.10375
1949 5 44.8532 8.632 6.10375
1950 5 46.0991 10.79 6.10375
1951 5 44.8532 12.948 6.10375
1952 5 46.0991 15.106 6.10375
1953 5 44.8532 17.264 6.10375
1954 5 46.0991 19.422 6.10375
1955 5 44.8532 21.58 6.10375
1956 5 46.0991 23.738 6.10375
1957 5 47.345 0 6.10375
1958 5 48.591 2.158 6.10375
1959 5 47.345 4.316 6.10375
1960 5 48.591 6.474 6.10375
1961 5 47.345 8.632 6.10375
1962 5 48.591 10.79 6.10375
1963 5 47.345 12.948 6.10375
1964 5 48.591 15.106 6.10375
1965 5 47.345 17.264 6.10375
1966 5 48.591 19.422 6.10375
1967 5 47.345 21.58 6.10375
1968 5 48.591 23.738 6.10375
1969 5 49.8369 0 6.10375
1970 5 51.0828 2.158 6.10375
1971 5 49.8369 4.316 6.10375
1972 5 51.0828 6.474 6.10375
1973 5 49.8369 8.632 6.10375
1974 5 51.0828 10.79 6.10375
1975 5 49.8369 12.948 6.10375
1976 5 51.0828 15.106 6.10375
1977 5 49.8369 17.264 6.10375
1978 5 51.0828 19.422 6.10375
1979 5 49.8369 21.58 6.10375
1980 5 51.0828 23.738 6.10375
1981 5 52.3287 0 6.10375
1982 5 53.5746 2.158 6.10375
1983 5 52.3287 4.316 6.10375
1984 5 53.5746 6.474 6.10375
1985 5 52.3287 8.632 6.10375
1986 5 53.5746 10.79 6.10375
1987 5 52.3287 12.948 6.10375
1988 5 53.5746 15.106 6.10375
1989 5 52.3287 17.264 6.10375
1990 5 53.5746 19.422 6.10375
1991 5 52.3287 21.58 6.10375
1992 5 53.5746 23.738 6.10375
1993 5 54.8206 0 6.10375
1994 5 56.0665 2.158 6.10375
1995 5 54.8206 4.316 6.10375
1996 5 56.0665 6.474 6.10375
1997 5 54.8206 8.632 6.10375
1998 5 56.0665 10.79 6.10375
1999 5 54.8206 12.948 6.10375
2000 5 56.0665 15.106 6.10375
2001 5 54.8206 17.264 6.10375
2002 5 56.0665 19.422 6.10375
2003 5 54.8206 21.58 6.10375
2004 5 56.0665 23.738 6.10375
2005 5 57.3124 0 6.10375
2006 5 58.5583 2.158 6.10375
2007 5 57.3124 4.316 6.10375
2008 5 58.5583 6.474 6.10375
2009 5 57.3124 8.632 6.10375
2010 5 58.5583 10.79 6.10375
2011 5 57.3124 12.948 6.10375
2012 5 58.5583 15.106 6.10375
2013 5 57.3124 17.264 6.10375
2014 5 58.5583 19.422 6.10375
2015 5 57.3124 21.58 6.10375
2016 5 58.5583 23.738 6.10375
2017 5 59.8043 0 6.10375
2018 5 61.0502 2.158 6.10375
2019 5 59.8043 4.316 6.10375
2020 5 61.0502 6.474 6.10375
2021 5 59.8043 8.632 6.10375
2022 5 61.0502 10.79 6.10375
2023 5 59.8043 12.948 6.10375
2024 5 61.0502 15.106 6.10375
2025 5 59.8043 17.264 6.10375
2026 5 61.0502 19.422 6.10375
2027 5 59.8043 21.58 6.10375
2028 5 61.0502 23.738 6.10375
2029 5 62.2961 0 6.10375
2030 5 63.542 2.158 6.10375
2031 5 62.2961 4.316 6.10375
2032 5 63.542 6.474 6.10375
2033 5 62.2961 8.632 6.10375
2034 5 63.542 10.79 6.10375
2035 5 62.2961 12.948 6.10375
2036 5 63.542 15.106 6.10375
2037 5 62.2961 17.264 6.10375
2038 5 63.542 19.422 6.10375
2039 5 62.2961 21.58 6.10375
2040 5 63.542 23.738 6.10375
2041 5 64.7879 0 6.10375
2042 5 66.0339 2.158 6.10375
2043 5 64.7879 4.316 6.10375
2044 5 66.0339 6.474 6.10375
2045 5 64.7879 8.632 6.10375
2046 5 66.0339 10.79 6.10375
2047 5 64.7879 12.948 6.10375
2048 5 66.0339 15.106 6.10375
2049 5 64.7879 17.264 6.10375
2050 5 66.0339 19.422 6.10375
2051 5 64.7879 21.58 6.10375
2052 5 66.0339 23.738 6.10375
2053 5 67.2798 0 6.10375
2054 5 68.5257 2.158 6.10375
2055 5 67.2798 4.316 6.10375
2056 5 68.5257 6.474 6.10375
2057 5 67.2798 8.632 6.10375
2058 5 68.5257 10.79 6.10375
2059 5 67.2798 12.948 6.10375
2060 5 68.5257 15.106 6.10375
2061 5 67.2798 17.264 6.10375
2062 5 68.5257 19.422 6.10375
2063 5 67.2798 21.58 6.10375
2064 5 68.5257 23.738 6.10375
2065 5 69.7716 0 6.10375
2066 5 71.0176 2.158 6.10375
2067 5 69.7716 4.316 6.10375
2068 5 71.0176 6.474 6.10375
2069 5 69.7716 8.632 6.10375
2070 5 71.0176 10.79 6.10375
2071 5 69.7716 12.948 6.10375
2072 5 71.0176 15.106 6.10375
2073 5 69.7716 17.264 6.10375
2074 5 71.0176 19.422 6.10375
2075 5 69.7716 21.58 6.10375
2076 5 71.0176 23.738 6.10375
2077 5 72.2635 0 6.10375
2078 5 73.5094 2.158 6.10375
2079 5 72.2635 4.316 6.10375
2080 5 73.5094 6.474 6.10375
2081 5 72.2635 8.632 6.10375
2082 5 73.5094 10.79 6.10375
2083 5 72.2635 12.948 6.10375
2084 5 73.5094 15.106 6.10375
2085 5 72.2635 17.264 6.10375
2086 5 73.5094 19.422 6.10375
2087 5 72.2635 21.58 6.10375
2088 5 73.5094 23.738 6.10375
2089 5 74.7553 0 6.10375
2090 5 76.0012 2.158 6.10375
2091 5 74.7553 4.316 6.10375
2092 5 76.0012 6.474 6.10375
2093 5 74.7553 8.632 6.10375
2094 5 76.0012 10.79 6.10375
2095 5 74.7553 12.948 6.10375
2096 5 76.0012 15.106 6.10375
2097 5 74.7553 17.264 6.10375
2098 5 76.0012 19.422 6.10375
2099 5 74.7553 21.58 6.10375
2100 5 76.0012 23.738 6.10375
2101 5 77.2472 0 6.10375
2102 5 78.4931 2.158 6.10375
2103 5 77.2472 4.316 6.10375
2104 5 78.4931 6.474 6.10375
2105 5 77.2472 8.632 6.10375
2106 5 78.4931 10.79 6.10375
2107 5 77.2472 12.948 6.10375
2108 5 78.4931 15.106 6.10375
2109 5 77.2472 17.264 6.10375
2110 5 78.4931 19.422 6.10375
2111 5 77.2472 21.58 6.10375
2112 5 78.4931 23.738 6.10375
2113 5 79.739 0 6.10375
2114 5 80.9849 2.158 6.10375
2115 5 79.739 4.316 6.10375
2116 5 80.9849 6.474 6.10375
2117 5 79.739 8.632 6.10375
2118 5 80.9849 10.79 6.10375
2119 5 79.739 12.948 6.10375
2120 5 80.9849 15.106 6.10375
2121 5 79.739 17.264 6.10375
2122 5 80.9849 19.422 6.10375
2123 5 79.739 21.58 6.10375
2124 5 80.9849 23.738 6.10375
2125 5 82.2309 0 6.10375
2126 5 83.4768 2.158 6.10375
2127 5 82.2309 4.316 6.10375
2128 5 83.4768 6.474 6.10375
2129 5 82.2309 8.632 6.10375
2130 5 83.4768 10.79 6.10375
2131 5 82.2309 12.948 6.10375
2132 5 83.4768 15.106 6.10375
2133 5 82.2309 17.264 6.10375
2134 5 83.4768 19.422 6.10375
2135 5 82.2309 21.58 6.10375
2136 5 83.4768 23.738 6.10375
2137 5 84.7227 0 6.10375
2138 5 85.9686 2.158 6.10375
2139 5 84.7227 4.316 6.10375
2140 5 85.9686 6.474 6.10375
2141 5 84.7227 8.632 6.10375
2142 5 85.9686 10.79 6.10375
2143 5 84.7227 12.948 6.10375
2144 5 85.9686 15.106 6.10375
2145 5 84.7227 17.264 6.10375
2146 5 85.9686 19.422 6.10375
2147 5 84.7227 21.58 6.10375
2148 5 85.9686 23.738 6.10375
2149 5 87.2146 0 6.10375
2150 5 88.4605 2.158 6.10375
2151 5 87.2146 4.316 6.10375
2152 5 88.4605 6.474 6.10375
2153 5 87.2146 8.632 6.10375
2154 5 88.4605 10.79 6.10375
2155 5 87.2146 12.948 6.10375
2156 5 88.4605 15.106 6.10375
2157 5 87.2146 17.264 6.10375
2158 5 88.4605 19.422 6.10375
2159 5 87.2146 21.58 6.10375
2160 5 88.4605 23.738 6.10375
2161 5 89.7064 0 6.10375
2162 5 90.9523 2.158 6.10375
2163 5 89.7064 4.316 6.10375
2164 5 90.9523 6.474 6.10375
2165 5 89.7064 8.632 6.10375
2166 5 90.9523 10.79 6.10375
2167 5 89.7064 12.948 6.10375
2168 5 90.9523 15.106 6.10375
2169 5 89.7064 17.264 6.10375
2170 5 90.9523 19.422 6.10375
2171 5 89.7064 21.58 6.10375
2172 5 90.9523 23.738 6.10375
2173 5 92.1982 0 6.10375
2174 5 93.4442 2.158 6.10375
2175 5 92.1982 4.316 6.10375
2176 5 93.4442 6.474 6.10375
2177 5 92.1982 8.632 6.10375
2178 5 93.4442 10.79 6.10375
2179 5 92.1982 12.948 6.10375
2180 5 93.4442 15.106 6.10375
2181 5 92.1982 17.264 6.10375
2182 5 93.4442 19.422 6.10375
2183 5 92.1982 21.58 6.10375
2184 5 93.4442 23.738 6.10375
2185 5 94.6901 0 6.10375
2186 5 95.936 2.158 6.10375
2187 5 94.6901 4.316 6.10375
2188 5 95.936 6.474 6.10375
2189 5 94.6901 8.632 6.10375
2190 5 95.936 10.79 6.10375
2191 5 94.6901 12.948 6.10375
2192 5 95.936 15.106 6.10375
2193 5 94.6901 17.264 6.10375
2194 5 95.936 19.422 6.10375
2195 5 94.6901 21.58 6.10375
2196 5 95.936 23.738 6.10375
2197 5 97.1819 0 6.10375
2198 5 98.4279 2.158 6.10375
2199 5 97.1819 4.316 6.10375
2200 5 98.4279 6.474 6.10375
2201 5 97.1819 8.632 6.10375
2202 5 98.4279 10.79 6.10375
2203 5 97.1819 12.948 6.10375
2204 5 98.4279 15.106 6.10375
2205 5 97.1819 17.264 6.10375
2206 5 98.4279 19.422 6.10375
2207 5 97.1819 21.58 6.10375
2208 5 98.4279 23.738 6.10375
2209 5 99.6738 0 6.10375
2210 5 100.92 2.158 6.10375
2211 5 99.6738 4.316 6.10375
2212 5 100.92 6.474 6.10375
2213 5 99.6738 8.632 6.10375
2214 5 100.92 10.79 6.10375
2215 5 99.6738 12.948 6.10375
2216 5 100.92 15.106 6.10375
2217 5 99.6738 17.264 6.10375
2218 5 100.92 19.422 6.10375
2219 5 99.6738 21.58 6.10375
2220 5 100.92 23.738 6.10375
2221 5 102.166 0 6.10375
2222 5 103.412 2.158 6.10375
2223 5 102.166 4.316 6.10375
2224 5 103.412 6.474 6.10375
2225 5 102.166 8.632 6.10375
2226 5 103.412 10.79 6.10375
2227 5 102.166 12.948 6.10375
2228 5 103.412 15.106 6.10375
2229 5 102.166 17.264 6.10375
2230 5 103.412 19.422 6.10375
2231 5 102.166 21.58 6.10375
2232 5 103.412 23.738 6.10375
2233 5 104.657 0 6.10375
2234 5 105.903 2.158 6.10375
2235 5 104.657 4.316 6.10375
2236 5 105.903 6.474 6.10375
2237 5 104.657 8.632 6.10375
2238 5 105.903 10.79 6.10375
2239 5 104.657 12.948 6.10375
2240 5 105.903 15.106 6.10375
2241 5 104.657 17.264 6.10375
2242 5 105.903 19.422 6.10375
2243 5 104.657 21.58 6.10375
2244 5 105.903 23.738 6.10375
2245 5 107.149 0 6.10375
2246 5 108.395 2.158 6.10375
2247 5 107.149 4.316 6.10375
2248 5 108.395 6.474 6.10375
2249 5 107.149 8.632 6.10375
2250 5 108.395 10.79 6.10375
2251 5 107.149 12.948 6.10375
2252 5 108.395 15.106 6.10375
2253 5 107.149 17.264 6.10375
2254 5 108.395 19.422 6.10375
2255 5 107.149 21.58 6.10375
2256 5 108.395 23.738 6.10375
2257 5 109.641 0 6.10375
2258 5 110.887 2.158 6.10375
2259 5 109.641 4.316 6.10375
2260 5 110.887 6.474 6.10375
2261 5 109.641 8.632 6.10375
2262 5 110.887 10.79 6.10375
2263 5 109.641 12.948 6.10375
2264 5 110.887 15.106 6.10375
2265 5 109.641 17.264 6.10375
2266 5 110.887 19.422 6.10375
2267 5 109.641 21.58 6.10375
2268 5 110.887 23.738 6.10375
2269 5 112.133 0 6.10375
2270 5 113.379 2.158 6.10375
2271 5 112.133 4.316 6.10375
2272 5 113.379 6.474 6.10375
2273 5 112.133 8.632 6.10375
2274 5 113.379 10.79 6.10375
2275 5 112.133 12.948 6.10375
2276 5 113.379 15.106 6.10375
2277 5 112.133 17.264 6.10375
2278 5 113.379 19.422 6.10375
2279 5 112.133 21.58 6.10375
2280 5 113.379 23.738 6.10375
2281 5 114.625 0 6.10375
2282 5 115.871 2.158 6.10375
2283 5 114.625 4.316 6.10375
2284 5 115.871 6.474 6.10375
2285 5 114.625 8.632 6.10375
2286 5 115.871 10.79 6.10375
2287 5 114.625 12.948 6.10375
2288 5 115.871 15.106 6.10375
2289 5 114.625 17.264 6.10375
2290 5 115.871 19.422 6.10375
2291 5 114.625 21.58 6.10375
2292 5 115.871 23.738 6.10375
2293 5 117.117 0 6.10375
2294 5 118.363 2.158 6.10375
2295 5 117.117 4.316 6.10375
2296 5 118.363 6.474 6.10375
2297 5 117.117 8.632 6.10375
2298 5 118.363 10.79 6.10375
2299 5 117.117 12.948 6.10375
2300 5 118.363 15.106 6.10375
2301 5 117.117 17.264 6.10375
2302 5 118.363 19.422 6.10375
2303 5 117.117 21.58 6.10375
2304 5 118.363 23.738 6.10375
2305 5 0.83061 1.43867 8.13833
2306 5 2.07654 3.59667 8.13833
2307 5 0.83061 5.75467 8.13833
2308 5 2.07654 7.91267 8.13833
2309 5 0.83061 10.0707 8.13833
2310 5 2.07654 12.2287 8.13833
2311 5 0.83061 14.3867 8.13833
2312 5 2.07654 16.5447 8.13833
2313 5 0.83061 18.7027 8.13833
2314 5 2.07654 20.8607 8.13833
2315 5 0.83061 23.0187 8.13833
2316 5 2.07654 25.1767 8.13833
2317 5 3.32246 1.43867 8.13833
2318 5 4.56838 3.59667 8.13833
2319 5 3.32246 5.75467 8.13833
2320 5 4.56838 7.91267 8.13833
2321 5 3.32246 10.0707 8.13833
2322 5 4.56838 12.2287 8.13833
2323 5 3.32246 14.3867 8.13833
2324 5 4.56838 16.5447 8.13833
2325 5 3.32246 18.7027 8.13833
2326 5 4.56838 20.8607 8.13833
2327 5 3.32246 23.0187 8.13833
2328 5 4.56838 25.1767 8.13833
2329 5 5.8143 1.43867 8.13833
2330 5 7.06023 3.59667 8.13833
2331 5 5.8143 5.75467 8.13833
2332 5 7.06023 7.91267 8.13833
2333 5 5.8143 10.0707 8.13833
2334 5 7.06023 12.2287 8.13833
2335 5 5.8143 14.3867 8.13833
2336 5 7.06023 16.5447 8.13833
2337 5 5.8143 18.7027 8.13833
2338 5 7.06023 20.8607 8.13833
2339 5 5.8143 23.0187 8.13833
2340 5 7.06023 25.1767 8.13833
2341 5 8.30615 1.43867 8.13833
2342 5 9.55207 3.59667 8.13833
2343 5 8.30615 5.75467 8.13833
2344 5 9.55207 7.91267 8.13833
2345 5 8.30615 10.0707 8.13833
2346 5 9.55207 12.2287 8.13833
2347 5 8.30615 14.3867 8.13833
2348 5 9.55207 16.5447 8.13833
2349 5 8.30615 18.7027 8.13833
2350 5 9.55207 20.8607 8.13833
2351 5 8.30615 23.0187 8.13833
2352 5 9.55207 25.1767 8.13833
2353 5 10.798 1.43867 8.13833
2354 5 12.0439 3.59667 8.13833
2355 5 10.798 5.75467 8.13833
2356 5 12.0439 7.91267 8.13833
2357 5 10.798 10.0707 8.13833
2358 5 12.0439 12.2287 8.13833
2359 5 10.798 14.3867 8.13833
2360 5 12.0439 16.5447 8.13833
2361 5 10.798 18.7027 8.13833
2362 5 12.0439 20.8607 8.13833
2363 5 10.798 23.0187 8.13833
2364 5 12.0439 25.1767 8.13833
2365 5 13.2898 1.43867 8.13833
2366 5 14.5358 3.59667 8.13833
2367 5 13.2898 5.75467 8.13833
2368 5 14.5358 7.91267 8.13833
2369 5 13.2898 10.0707 8.13833
2370 5 14.5358 12.2287 8.13833
2371 5 13.2898 14.3867 8.13833
2372 5 14.5358 16.5447 8.13833
2373 5 13.2898 18.7027 8.13833
2374 5 14.5358 20.8607 8.13833
2375 5 13.2898 23.0187 8.13833
2376 5 14.5358 25.1767 8.13833
2377 5 15.7817 1.43867 8.13833
2378 5 17.0276 3.59667 8.13833
2379 5 15.7817 5.75467 8.13833
2380 5 17.0276 7.91267 8.13833
2381 5 15.7817 10.0707 8.13833
2382 5 17.0276 12.2287 8.13833
2383 5 15.7817 14.3867 8.13833
2384 5 17.0276 16.5447 8.13833
2385 5 15.7817 18.7027 8.13833
2386 5 17.0276 20.8607 8.13833
2387 5 15.7817 23.0187 8.13833
2388 5 17.0276 25.1767 8.13833
2389 5 18.2735 1.43867 8.13833
2390 5 19.5194 3.59667 8.13833
2391 5 18.2735 5.75467 8.13833
2392 5 19.5194 7.91267 8.13833
2393 5 18.2735 10.0707 8.13833
2394 5 19.5194 12.2287 8.13833
2395 5 18.2735 14.3867 8.13833
2396 5 19.5194 16.5447 8.13833
2397 5 18.2735 18.7027 8.13833
2398 5 19.5194 20.8607 8.13833
2399 5 18.2735 23.0187 8.13833
2400 5 19.5194 25.1767 8.13833
2401 5 20.7654 1.43867 8.13833
2402 5 22.0113 3.59667 8.13833
2403 5 20.7654 5.75467 8.13833
2404 5 22.0113 7.91267 8.13833
2405 5 20.7654 10.0707 8.13833
2406 5 22.0113 12.2287 8.13833
2407 5 20.7654 14.3867 8.13833
2408 5 22.0113 16.5447 8.13833
2409 5 20.7654 18.7027 8.13833
2410 5 22.0113 20.8607 8.13833
2411 5 20.7654 23.0187 8.13833
2412 5 22.0113 25.1767 8.13833
2413 5 23.2572 1.43867 8.13833
2414 5 24.5031 3.59667 8.13833
2415 5 23.2572 5.75467 8.13833
2416 5 24.5031 7.91267 8.13833
2417 5 23.2572 10.0707 8.13833
2418 5 24.5031 12.2287 8.13833
2419 5 23.2572 14.3867 8.13833
2420 5 24.5031 16.5447 8.13833
2421 5 23.2572 18.7027 8.13833
2422 5 24.5031 20.8607 8.13833
2423 5 23.2572 23.0187 8.13833
2424 5 24.5031 25.1767 8.13833
2425 5 25.7491 1.43867 8.13833
2426 5 26.995 3.59667 8.13833
2427 5 25.7491 5.75467 8.13833
2428 5 26.995 7.91267 8.13833
2429 5 25.7491 10.0707 8.13833
2430 5 26.995 12.2287 8.13833
2431 5 25.7491 14.3867 8.13833
2432 5 26.995 16.5447 8.13833
2433 5 25.7491 18.7027 8.13833
2434 5 26.995 20.8607 8.13833
2435 5 25.7491 23.0187 8.13833
2436 5 26.995 25.1767 8.13833
2437 5 28.2409 1.43867 8.13833
2438 5 29.4868 3.59667 8.13833
2439 5 28.2409 5.75467 8.13833
2440 5 29.4868 7.91267 8.13833
2441 5 28.2409 10.0707 8.13833
2442 5 29.4868 12.2287 8.13833
2443 5 28.2409 14.3867 8.13833
2444 5 29.4868 16.5447 8.13833
2445 5 28.2409 18.7027 8.13833
2446 5 29.4868 20.8607 8.13833
2447 5 28.2409 23.0187 8.13833
2448 5 29.4868 25.1767 8.13833
2449 5 30.7327 1.43867 8.13833
2450 5 31.9787 3.59667 8.13833
2451 5 30.7327 5.75467 8.13833
2452 5 31.9787 7.91267 8.13833
2453 5 30.7327 10.0707 8.13833
2454 5 31.9787 12.2287 8.13833
2455 5 30.7327 14.3867 8.13833
2456 5 31.9787 16.5447 8.13833
2457 5 30.7327 18.7027 8.13833
2458 5 31.9787 20.8607 8.13833
2459 5 30.7327 23.0187 8.13833
2460 5 31.9787 25.1767 8.13833
2461 5 33.2246 1.43867 8.13833
2462 5 34.4705 3.59667 8.13833
2463 5 33.2246 5.75467 8.13833
2464 5 34.4705 7.91267 8.13833
2465 5 33.2246 10.0707 8.13833
2466 5 34.4705 12.2287 8.13833
2467 5 33.2246 14.3867 8.13833
2468 5 34.4705 16.5447 8.13833
2469 5 33.2246 18.7027 8.13833
2470 5 34.4705 20.8607 8.13833
2471 5 33.2246 23.0187 8.13833
2472 5 34.4705 25.1767 8.13833
2473 5 35.7164 1.43867 8.13833
2474 5 36.9624 3.59667 8.13833
2475 5 35.7164 5.75467 8.13833
2476 5 36.9624 7.91267 8.13833
2477 5 35.7164 10.0707 8.13833
2478 5 36.9624 12.2287 8.13833
2479 5 35.7164 14.3867 8.13833
2480 5 36.9624 16.5447 8.13833
2481 5 35.7164 18.7027 8.13833
2482 5 36.9624 20.8607 8.13833
2483 5 35.7164 23.0187 8.13833
2484 5 36.9624 25.1767 8.13833
2485 5 38.2083 1.43867 8.13833
2486 5 39.4542 3.59667 8.13833
2487 5 38.2083 5.75467 8.13833
2488 5 39.4542 7.91267 8.13833
2489 5 38.2083 10.0707 8.13833
2490 5 39.4542 12.2287 8.13833
2491 5 38.2083 14.3867 8.13833
2492 5 39.4542 16.5447 8.13833
2493 5 38.2083 18.7027 8.13833
2494 5 39.4542 20.8607 8.13833
2495 5 38.2083 23.0187 8.13833
2496 5 39.4542 25.1767 8.13833
2497 5 40.7001 1.43867 8.13833
2498 5 41.946 3.59667 8.13833
2499 5 40.7001 5.75467 8.13833
2500 5 41.946 7.91267 8.13833
2501 5 40.7001 10.0707 8.13833
2502 5 41.946 12.2287 8.13833
2503 5 40.7001 14.3867 8.13833
2504 5 41.946 16.5447 8.13833
2505 5 40.7001 18.7027 8.13833
2506 5 41.946 20.8607 8.13833
2507 5 40.7001 23.0187 8.13833
2508 5 41.946 25.1767 8.13833
2509 5 43.192 1.43867 8.13833
2510 5 44.4379 3.59667 8.13833
2511 5 43.192 5.75467 8.13833
2512 5 44.4379 7.91267 8.13833
2513 5 43.192 10.0707 8.13833
2514 5 44.4379 12.2287 8.13833
2515 5 43.192 14.3867 8.13833
2516 5 44.4379 16.5447 8.13833
2517 5 43.192 18.7027 8.13833
2518 5 44.4379 20.8607 8.13833
2519 5 43.192 23.0187 8.13833
2520 5 44.4379 25.1767 8.13833
2521 5 45.6838 1.43867 8.13833
2522 5 46.9297 3.59667 8.13833
2523 5 45.6838 5.75467 8.13833
2524 5 46.9297 7.91267 8.13833
2525 5 45.6838 10.0707 8.13833
2526 5 46.9297 12.2287 8.13833
2527 5 45.6838 14.3867 8.13833
2528 5 46.9297 16.5447 8.13833
2529 5 45.6838 18.7027 8.13833
2530 5 46.9297 20.8607 8.13833
2531 5 45.6838 23.0187 8.13833
2532 5 46.9297 25.1767 8.13833
2533 5 48.1757 1.43867 8.13833
2534 5 49.4216 3.59667 8.13833
2535 5 48.1757 5.75467 8.13833
2536 5 49.4216 7.91267 8.13833
2537 5 48.1757 10.0707 8.13833
2538 5 49.4216 12.2287 8.13833
2539 5 48.1757 14.3867 8.13833
2540 5 49.4216 16.5447 8.13833
2541 5 48.1757 18.7027 8.13833
2542 5 49.4216 20.8607 8.13833
2543 5 48.1757 23.0187 8.13833
2544 5 49.4216 25.1767 8.13833
2545 5 50.6675 1.43867 8.13833
2546 5 51.9134 3.59667 8.13833
2547 5 50.6675 5.75467 8.13833
2548 5 51.9134 7.91267 8.13833
2549 5 50.6675 10.0707 8.13833
2550 5 51.9134 12.2287 8.13833
2551 5 50.6675 14.3867 8.13833
2552 5 51.9134 16.5447 8.13833
2553 5 50.6675 18.7027 8.13833
2554 5 51.9134 20.8607 8.13833
2555 5 50.6675 23.0187 8.13833
2556 5 51.9134 25.1767 8.13833
2557 5 53.1594 1.43867 8.13833
2558 5 54.4053 3.59667 8.13833
2559 5 53.1594 5.75467 8.13833
2560 5 54.4053 7.91267 8.13833
2561 5 53.1594 10.0707 8.13833
2562 5 54.4053 12.2287 8.13833
2563 5 53.1594 14.3867 8.13833
2564 5 54.4053 16.5447 8.13833
2565 5 53.1594 18.7027 8.13833
2566 5 54.4053 20.8607 8.13833
2567 5 53.1594 23.0187 8.13833
2568 5 54.4053 25.1767 8.13833
2569 5 55.6512 1.43867 8.13833
2570 5 56.8971 3.59667 8.13833
2571 5 55.6512 5.75467 8.13833
2572 5 56.8971 7.91267 8.13833
2573 5 55.6512 10.0707 8.13833
2574 5 56.8971 12.2287 8.13833
2575 5 55.6512 14.3867 8.13833
2576 5 56.8971 16.5447 8.13833
2577 5 55.6512 18.7027 8.13833
2578 5 56.8971 20.8607 8.13833
2579 5 55.6512 23.0187 8.13833
2580 5 56.8971 25.1767 8.13833
2581 5 58.143 1.43867 8.13833
2582 5 59.389 3.59667 8.13833
2583 5 58.143 5.75467 8.13833
2584 5 59.389 7.91267 8.13833
2585 5 58.143 10.0707 8.13833
2586 5 59.389 12.2287 8.13833
2587 5 58.143 14.3867 8.13833
2588 5 59.389 16.5447 8.13833
2589 5 58.143 18.7027 8.13833
2590 5 59.389 20.8607 8.13833
2591 5 58.143 23.0187 8.13833
2592 5 59.389 25.1767 8.13833
2593 5 60.6349 1.43867 8.13833
2594 5 61.8808 3.59667 8.13833
2595 5 60.6349 5.75467 8.13833
2596 5 61.8808 7.91267 8.13833
2597 5 60.6349 10.0707 8.13833
2598 5 61.8808 12.2287 8.13833
2599 5 60.6349 14.3867 8.13833
2600 5 61.8808 16.5447 8.13833
2601 5 60.6349 18.7027 8.13833
2602 5 61.8808 20.8607 8.13833
2603 5 60.6349 23.0187 8.13833
2604 5 61.8808 25.1767 8.13833
2605 5 63.1267 1.43867 8.13833
2606 5 64.3726 3.59667 8.13833
2607 5 63.1267 5.75467 8.13833
2608 5 64.3726 7.91267 8.13833
2609 5 63.1267 10.0707 8.13833
2610 5 64.3726 12.2287 8.13833
2611 5 63.1267 14.3867 8.13833
2612 5 64.3726 16.5447 8.13833
2613 5 63.1267 18.7027 8.13833
2614 5 64.3726 20.8607 8.13833
2615 5 63.1267 23.0187 8.13833
2616 5 64.3726 25.1767 8.13833
2617 5 65.6186 1.43867 8.13833
2618 5 66.8645 3.59667 8.13833
2619 5 65.6186 5.75467 8.13833
2620 5 66.8645 7.91267 8.13833
2621 5 65.6186 10.0707 8.13833
2622 5 66.8645 12.2287 8.13833
2623 5 65.6186 14.3867 8.13833
2624 5 66.8645 16.5447 8.13833
2625 5 65.6186 18.7027 8.13833
2626 5 66.8645 20.8607 8.13833
2627 5 65.6186 23.0187 8.13833
2628 5 66.8645 25.1767 8.13833
2629 5 68.1104 1.43867 8.13833
2630 5 69.3563 3.59667 8.13833
2631 5 68.1104 5.75467 8.13833
2632 5 69.3563 7.91267 8.13833
2633 5 68.1104 10.0707 8.13833
2634 5 69.3563 12.2287 8.13833
2635 5 68.1104 14.3867 8.13833
2636 5 69.3563 16.5447 8.13833
2637 5 68.1104 18.7027 8.13833
2638 5 69.3563 20.8607 8.13833
2639 5 68.1104 23.0187 8.13833
2640 5 69.3563 25.1767 8.13833
2641 5 70.6023 1.43867 8.13833
2642 5 71.8482 3.59667 8.13833
2643 5 70.6023 5.75467 8.13833
2644 5 71.8482 7.91267 8.13833
2645 5 70.6023 10.0707 8.13833
2646 5 71.8482 12.2287 8.13833
2647 5 70.6023 14.3867 8.13833
2648 5 71.8482 16.5447 8.13833
2649 5 70.6023 18.7027 8.13833
2650 5 71.8482 20.8607 8.13833
2651 5 70.6023 23.0187 8.13833
2652 5 71.8482 25.1767 8.13833
2653 5 73.0941 1.43867 8.13833
2654 5 74.34 3.59667 8.13833
2655 5 73.0941 5.75467 8.13833
2656 5 74.34 7.91267 8.13833
2657 5 73.0941 10.0707 8.13833
2658 5 74.34 12.2287 8.13833
2659 5 73.0941 14.3867 8.13833
2660 5 74.34 16.5447 8.13833
2661 5 73.0941 18.7027 8.13833
2662 5 74.34 20.8607 8.13833
2663 5 73.0941 23.0187 8.13833
2664 5 74.34 25.1767 8.13833
2665 5 75.5859 1.43867 8.13833
2666 5 76.8319 3.59667 8.13833
2667 5 75.5859 5.75467 8.13833
2668 5 76.8319 7.91267 8.13833
2669 5 75.5859 10.0707 8.13833
2670 5 76.8319 12.2287 8.13833
2671 5 75.5859 14.3867 8.13833
2672 5 76.8319 16.5447 8.13833
2673 5 75.5859 18.7027 8.13833
2674 5 76.8319 20.8607 8.13833
2675 5 75.5859 23.0187 8.13833
2676 5 76.8319 25.1767 8.13833
2677 5 78.0778 1.43867 8.13833
2678 5 79.3237 3.59667 8.13833
2679 5 78.0778 5.75467 8.13833
2680 5 79.3237 7.91267 8.13833
2681 5 78.0778 10.0707 8.13833
2682 5 79.3237 12.2287 8.13833
2683 5 78.0778 14.3867 8.13833
2684 5 79.3237 16.5447 8.13833
2685 5 78.0778 18.7027 8.13833
2686 5 79.3237 20.8607 8.13833
2687 5 78.0778 23.0187 8.13833
2688 5 79.3237 25.1767 8.13833
2689 5 80.5696 1.43867 8.13833
2690 5 81.8156 3.59667 8.13833
2691 5 80.5696 5.75467 8.13833
2692 5 81.8156 7.91267 8.13833
2693 5 80.5696 10.0707 8.13833
2694 5 81.8156 12.2287 8.13833
2695 5 80.5696 14.3867 8.13833
2696 5 81.8156 16.5447 8.13833
2697 5 80.5696 18.7027 8.13833
2698 5 81.8156 20.8607 8.13833
2699 5 80.5696 23.0187 8.13833
2700 5 81.8156 25.1767 8.13833
2701 5 83.0615 1.43867 8.13833
2702 5 84.3074 3.59667 8.13833
2703 5 83.0615 5.75467 8.13833
2704 5 84.3074 7.91267 8.13833
2705 5 83.0615 10.0707 8.13833
2706 5 84.3074 12.2287 8.13833
2707 5 83.0615 14.3867 8.13833
2708 5 84.3074 16.5447 8.13833
2709 5 83.0615 18.7027 8.13833
2710 5 84.3074 20.8607 8.13833
2711 5 83.0615 23.0187 8.13833
2712 5 84.3074 25.1767 8.13833
2713 5 85.5533 1.43867 8.13833
2714 5 86.7992 3.59667 8.13833
2715 5 85.5533 5.75467 8.13833
2716 5 86.7992 7.91267 8.13833
2717 5 85.5533 10.0707 8.13833
2718 5 86.7992 12.2287 8.13833
2719 5 85.5533 14.3867 8.13833
2720 5 86.7992 16.5447 8.13833
2721 5 85.5533 18.7027 8.13833
2722 5 86.7992 20.8607 8.13833
2723 5 85.5533 23.0187 8.13833
2724 5 86.7992 25.1767 8.13833
2725 5 88.0452 1.43867 8.13833
2726 5 89.2911 3.59667 8.13833
2727 5 88.0452 5.75467 8.13833
2728 5 89.2911 7.91267 8.13833
2729 5 88.0452 10.0707 8.13833
2730 5 89.2911 12.2287 8.13833
2731 5 88.0452 14.3867 8.13833
2732 5 89.2911 16.5447 8.13833
2733 5 88.0452 18.7027 8.13833
2734 5 89.2911 20.8607 8.13833
2735 5 88.0452 23.0187 8.13833
2736 5 89.2911 25.1767 8.13833
2737 5 90.537 1.43867 8.13833
2738 5 91.7829 3.59667 8.13833
2739 5 90.537 5.75467 8.13833
2740 5 91.7829 7.91267 8.13833
2741 5 90.537 10.0707 8.13833
2742 5 91.7829 12.2287 8.13833
2743 5 90.537 14.3867 8.13833
2744 5 91.7829 16.5447 8.13833
2745 5 90.537 18.7027 8.13833
2746 5 91.7829 20.8607 8.13833
2747 5 90.537 23.0187 8.13833
2748 5 91.7829 25.1767 8.13833
2749 5 93.0289 1.43867 8.13833
2750 5 94.2748 3.59667 8.13833
2751 5 93.0289 5.75467 8.13833
2752 5 94.2748 7.91267 8.13833
2753 5 93.0289 10.0707 8.13833
2754 5 94.2748 12.2287 8.13833
2755 5 93.0289 14.3867 8.13833
2756 5 94.2748 16.5447 8.13833
2757 5 93.0289 18.7027 8.13833
2758 5 94.2748 20.8607 8.13833
2759 5 93.0289 23.0187 8.13833
2760 5 94.2748 25.1767 8.13833
2761 5 95.5207 1.43867 8.13833
2762 5 96.7666 3.59667 8.13833
2763 5 95.5207 5.75467 8.13833
2764 5 96.7666 7.91267 8.13833
2765 5 95.5207 10.0707 8.13833
2766 5 96.7666 12.2287 8.13833
2767 5 95.5207 14.3867 8.13833
2768 5 96.7666 16.5447 8.13833
2769 5 95.5207 18.7027 8.13833
2770 5 96.7666 20.8607 8.13833
2771 5 95.5207 23.0187 8.13833
2772 5 96.7666 25.1767 8.13833
2773 5 98.0125 1.43867 8.13833
2774 5 99.2585 3.59667 8.13833
2775 5 98.0125 5.75467 8.13833
2776 5 99.2585 7.91267 8.13833
2777 5 98.0125 10.0707 8.13833
2778 5 99.2585 12.2287 8.13833
2779 5 98.0125 14.3867 8.13833
2780 5 99.2585 16.5447 8.13833
2781 5 98.0125 18.7027 8.13833
2782 5 99.2585 20.8607 8.13833
2783 5 98.0125 23.0187 8.13833
2784 5 99.2585 25.1767 8.13833
2785 5 100.504 1.43867 8.13833
2786 5 101.75 3.59667 8.13833
2787 5 100.504 5.75467 8.13833
2788 5 101.75 7.91267 8.13833
2789 5 100.504 10.0707 8.13833
2790 5 101.75 12.2287 8.13833
2791 5 100.504 14.3867 8.13833
2792 5 101.75 16.5447 8.13833
2793 5 100.504 18.7027 8.13833
2794 5 101.75 20.8607 8.13833
2795 5 100.504 23.0187 8.13833
2796 5 101.75 25.1767 8.13833
2797 5 102.996 1.43867 8.13833
2798 5 104.242 3.59667 8.13833
2799 5 102.996 5.75467 8.13833
2800 5 104.242 7.91267 8.13833
2801 5 102.996 10.0707 8.13833
2802 5 104.242 12.2287 8.13833
2803 5 102.996 14.3867 8.13833
2804 5 104.242 16.5447 8.13833
2805 5 102.996 18.7027 8.13833
2806 5 104.242 20.8607 8.13833
2807 5 102.996 23.0187 8.13833
2808 5 104.242 25.1767 8.13833
2809 5 105.488 1.43867 8.13833
2810 5 106.734 3.59667 8.13833
2811 5 105.488 5.75467 8.13833
2812 5 106.734 7.91267 8.13833
2813 5 105.488 10.0707 8.13833
2814 5 106.734 12.2287 8.13833
2815 5 105.488 14.3867 8.13833
2816 5 106.734 16.5447 8.13833
2817 5 105.488 18.7027 8.13833
2818 5 106.734 20.8607 8.13833
2819 5 105.488 23.0187 8.13833
2820 5 106.734 25.1767 8.13833
2821 5 107.98 1.43867 8.13833
2822 5 109.226 3.59667 8.13833
2823 5 107.98 5.75467 8.13833
2824 5 109.226 7.91267 8.13833
2825 5 107.98 10.0707 8.13833
2826 5 109.226 12.2287 8.13833
2827 5 107.98 14.3867 8.13833
2828 5 109.226 16.5447 8.13833
2829 5 107.98 18.7027 8.13833
2830 5 109.226 20.8607 8.13833
2831 5 107.98 23.0187 8.13833
2832 5 109.226 25.1767 8.13833
2833 5 110.472 1.43867 8.13833
2834 5 111.718 3.59667 8.13833
2835 5 110.472 5.75467 8.13833
2836 5 111.718 7.91267 8.13833
2837 5 110.472 10.0707 8.13833
2838 5 111.718 12.2287 8.13833
2839 5 110.472 14.3867 8.13833
2840 5 111.718 16.5447 8.13833
2841 5 110.472 18.7027 8.13833
2842 5 111.718 20.8607 8.13833
2843 5 110.472 23.0187 8.13833
2844 5 111.718 25.1767 8.13833
2845 5 112.964 1.43867 8.13833
2846 5 114.21 3.59667 8.13833
2847 5 112.964 5.75467 8.13833
2848 5 114.21 7.91267 8.13833
2849 5 112.964 10.0707 8.13833
2850 5 114.21 12.2287 8.13833
2851 5 112.964 14.3867 8.13833
2852 5 114.21 16.5447 8.13833
2853 5 112.964 18.7027 8.13833
2854 5 114.21 20.8607 8.13833
2855 5 112.964 23.0187 8.13833
2856 5 114.21 25.1767 8.13833
2857 5 115.455 1.43867 8.13833
2858 5 116.701 3.59667 8.13833
2859 5 115.455 5.75467 8.13833
2860 5 116.701 7.91267 8.13833
2861 5 115.455 10.0707 8.13833
2862 5 116.701 12.2287 8.13833
2863 5 115.455 14.3867 8.13833
2864 5 116.701 16.5447 8.13833
2865 5 115.455 18.7027 8.13833
2866 5 116.701 20.8607 8.13833
2867 5 115.455 23.0187 8.13833
2868 5 116.701 25.1767 8.13833
2869 5 117.947 1.43867 8.13833
2870 5 119.193 3.59667 8.13833
2871 5 117.947 5.75467 8.13833
2872 5 119.193 7.91267 8.13833
2873 5 117.947 10.0707 8.13833
2874 5 119.193 12.2287 8.13833
2875 5 117.947 14.3867 8.13833
2876 5 119.193 16.5447 8.13833
2877 5 117.947 18.7027 8.13833
2878 5 119.193 20.8607 8.13833
2879 5 117.947 23.0187 8.13833
2880 5 119.193 25.1767 8.13833
2881 6 0 0 93.3383
2882 6 1.24592 2.158 93.3383
2883 6 0 4.316 93.3383
2884 6 1.24592 6.474 93.3383
2885 6 0 8.632 93.3383
2886 6 1.24592 10.79 93.3383
2887 6 0 12.948 93.3383
2888 6 1.24592 15.106 93.3383
2889 6 0 17.264 93.3383
2890 6 1.24592 19.422 93.3383
2891 6 0 21.58 93.3383
2892 6 1.24592 23.738 93.3383
2893 6 2.49184 0 93.3383
2894 6 3.73777 2.158 93.3383
2895 6 2.49184 4.316 93.3383
2896 6 3.73777 6.474 93.3383
2897 6 2.49184 8.632 93.3383
2898 6 3.73777 10.79 93.3383
2899 6 2.49184 12.948 93.3383
2900 6 3.73777 15.106 93.3383
2901 6 2.49184 17.264 93.3383
2902 6 3.73777 19.422 93.3383
2903 6 2.49184 21.58 93.3383
2904 6 3.73777 23.738 93.3383
2905 6 4.98369 0 93.3383
2906 6 6.22961 2.158 93.3383
2907 6 4.98369 4.316 93.3383
2908 6 6.22961 6.474 93.3383
2909 6 4.98369 8.632 93.3383
2910 6 6.22961 10.79 93.3383
2911 6 4.98369 12.948 93.3383
2912 6 6.22961 15.106 93.3383
2913 6 4.98369 17.264 93.3383
2914 6 6.22961 19.422 93.3383
2915 6 4.98369 21.58 93.3383
2916 6 6.22961 23.738 93.3383
2917 6 7.47553 0 93.3383
2918 6 8.72146 2.158 93.3383
2919 6 7.47553 4.316 93.3383
2920 6 8.72146 6.474 93.3383
2921 6 7.47553 8.632 93.3383
2922 6 8.72146 10.79 93.3383
2923 6 7.47553 12.948 93.3383
2924 6 8.72146 15.106 93.3383
2925 6 7.47553 17.264 93.3383
2926 6 8.72146 19.422 93.3383
2927 6 7.47553 21.58 93.3383
2928 6 8.72146 23.738 93.3383
2929 6 9.96738 0 93.3383
2930 6 11.2133 2.158 93.3383
2931 6 9.96738 4.316 93.3383
2932 6 11.2133 6.474 93.3383
2933 6 9.96738 8.632 93.3383
2934 6 11.2133 10.79 93.3383
2935 6 9.96738 12.948 93.3383
2936 6 11.2133 15.106 93.3383
2937 6 9.96738 17.264 93.3383
2938 6 11.2133 19.422 93.3383
2939 6 9.96738 21.58 93.3383
2940 6 11.2133 23.738 93.3383
2941 6 12.4592 0 93.3383
2942 6 13.7051 2.158 93.3383
2943 6 12.4592 4.316 93.3383
2944 6 13.7051 6.474 93.3383
2945 6 12.4592 8.632 93.3383
2946 6 13.7051 10.79 93.3383
2947 6 12.4592 12.948 93.3383
2948 6 13.7051 15.106 93.3383
2949 6 12.4592 17.264 93.3383
2950 6 13.7051 19.422 93.3383
2951 6 12.4592 21.58 93.3383
2952 6 13.7051 23.738 93.3383
2953 6 14.9511 0 93.3383
2954 6 16.197 2.158 93.3383
2955 6 14.9511 4.316 93.3383
2956 6 16.197 6.474 93.3383
2957 6 14.9511 8.632 93.3383
2958 6 16.197 10.79 93.3383
2959 6 14.9511 12.948 93.3383
2960 6 16.197 15.106 93.3383
2961 6 14.9511 17.264 93.3383
2962 6 16.197 19.422 93.3383
2963 6 14.9511 21.58 93.3383
2964 6 16.197 23.738 93.3383
2965 6 17.4429 0 93.3383
2966 6 18.6888 2.158 93.3383
2967 6 17.4429 4.316 93.3383
2968 6 18.6888 6.474 93.3383
2969 6 17.4429 8.632 93.3383
2970 6 18.6888 10.79 93.3383
2971 6 17.4429 12.948 93.3383
2972 6 18.6888 15.106 93.3383
2973 6 17.4429 17.264 93.3383
2974 6 18.6888 19.422 93.3383
2975 6 17.4429 21.58 93.3383
2976 6 18.6888 23.738 93.3383
2977 6 19.9348 0 93.3383
2978 6 21.1807 2.158 93.3383
2979 6 19.9348 4.316 93.3383
2980 6 21.1807 6.474 93.3383
2981 6 19.9348 8.632 93.3383
2982 6 21.1807 10.79 93.3383
2983 6 19.9348 12.948 93.3383
2984 6 21.1807 15.106 93.3383
2985 6 19.9348 17.264 93.3383
2986 6 21.1807 19.422 93.3383
2987 6 19.9348 21.58 93.3383
2988 6 21.1807 23.738 93.3383
2989 6 22.4266 0 93.3383
2990 6 23.6725 2.158 93.3383
2991 6 22.4266 4.316 93.3383
2992 6 23.6725 6.474 93.3383
2993 6 22.4266 8.632 93.3383
2994 6 23.6725 10.79 93.3383
2995 6 22.4266 12.948 93.3383
2996 6 23.6725 15.106 93.3383
2997 6 22.4266 17.264 93.3383
2998 6 23.6725 19.422 93.3383
2999 6 22.4266 21.58 93.3383
3000 6 23.6725 23.738 93.3383
3001 6 24.9184 0 93.3383
3002 6 26.1644 2.158 93.3383
3003 6 24.9184 4.316 93.3383
3004 6 26.1644 6.474 93.3383
3005 6 24.9184 8.632 93.3383
3006 6 26.1644 10.79 93.3383
3007 6 24.9184 12.948 93.3383
3008 6 26.1644 15.106 93.3383
3009 6 24.9184 17.264 93.3383
3010 6 26.1644 19.422 93.3383
3011 6 24.9184 21.58 93.3383
3012 6 26.1644 23.738 93.3383
3013 6 27.4103 0 93.3383
3014 6 28.6562 2.158 93.3383
3015 6 27.4103 4.316 93.3383
3016 6 28.6562 6.474 93.3383
3017 6 27.4103 8.632 93.3383
3018 6 28.6562 10.79 93.3383
3019 6 27.4103 12.948 93.3383
3020 6 28.6562 15.106 93.3383
3021 6 27.4103 17.264 93.3383
3022 6 28.6562 19.422 93.3383
3023 6 27.4103 21.58 93.3383
3024 6 28.6562 23.738 93.3383
3025 6 29.9021 0 93.3383
3026 6 31.1481 2.158 93.3383
3027 6 29.9021 4.316 93.3383
3028 6 31.1481 6.474 93.3383
3029 6 29.9021 8.632 93.3383
3030 6 31.1481 10.79 93.3383
3031 6 29.9021 12.948 93.3383
3032 6 31.1481 15.106 93.3383
3033 6 29.9021 17.264 93.3383
3034 6 31.1481 19.422 93.3383
3035 6 29.9021 21.58 93.3383
3036 6 31.1481 23.738 93.3383
3037 6 32.394 0 93.3383
3038 6 33.6399 2.158 93.3383
3039 6 32.394 4.316 93.3383
3040 6 33.6399 6.474 93.3383
3041 6 32.394 8.632 93.3383
3042 6 33.6399 10.79 93.3383
3043 6 32.394 12.948 93.3383
3044 6 33.6399 15.106 93.3383
3045 6 32.394 17.264 93.3383
3046 6 33.6399 19.422 93.3383
3047 6 32.394 21.58 93.3383
3048 6 33.6399 23.738 93.3383
3049 6 34.8858 0 93.3383
3050 6 36.1317 2.158 93.3383
3051 6 34.8858 4.316 93.3383
3052 6 36.1317 6.474 93.3383
3053 6 34.8858 8.632 93.3383
3054 6 36.1317 10.79 93.3383
3055 6 34.8858 12.948 93.3383
3056 6 36.1317 15.106 93.3383
3057 6 34.8858 17.264 93.3383
3058 6 36.1317 19.422 93.3383
3059 6 34.8858 21.58 93.3383
3060 6 36.1317 23.738 93.3383
3061 6 37.3777 0 93.3383
3062 6 38.6236 2.158 93.3383
3063 6 37.3777 4.316 93.3383
3064 6 38.6236 6.474 93.3383
3065 6 37.3777 8.632 93.3383
3066 6 38.6236 10.79 93.3383
3067 6 37.3777 12.948 93.3383
3068 6 38.6236 15.106 93.3383
3069 6 37.3777 17.264 93.3383
3070 6 38.6236 19.422 93.3383
3071 6 37.3777 21.58 93.3383
3072 6 38.6236 23.738 93.3383
3073 6 39.8695 0 93.3383
3074 6 41.1154 2.158 93.3383
3075 6 39.8695 4.316 93.3383
3076 6 41.1154 6.474 93.3383
3077 6 39.8695 8.632 93.3383
3078 6 41.1154 10.79 93.3383
3079 6 39.8695 12.948 93.3383
3080 6 41.1154 15.106 93.3383
3081 6 39.8695 17.264 93.3383
3082 6 41.1154 19.422 93.3383
3083 6 39.8695 21.58 93.3383
3084 6 41.1154 23.738 93.3383
3085 6 42.3614 0 93.3383
3086 6 43.6073 2.158 93.3383
3087 6 42.3614 4.316 93.3383
3088 6 43.6073 6.474 93.3383
3089 6 42.3614 8.632 93.3383
3090 6 43.6073 10.79 93.3383
3091 6 42.3614 12.948 93.3383
3092 6 43.6073 15.106 93.3383
3093 6 42.3614 17.264 93.3383
3094 6 43.6073 19.422 93.3383
3095 6 42.3614 21.58 93.3383
3096 6 43.6073 23.738 93.3383
3097 6 44.8532 0 93.3383
3098 6 46.0991 2.158 93.3383
3099 6 44.8532 4.316 93.3383
3100 6 46.0991 6.474 93.3383
3101 6 44.8532 8.632 93.3383
3102 6 46.0991 10.79 93.3383
3103 6 44.8532 12.948 93.3383
3104 6 46.0991 15.106 93.3383
3105 6 44.8532 17.264 93.3383
3106 6 46.0991 19.422 93.3383
3107 6 44.8532 21.58 93.3383
3108 6 46.0991 23.738 93.3383
3109 6 47.345 0 93.3383
3110 6 48.591 2.158 93.3383
3111 6 47.345 4.316 93.3383
3112 6 48.591 6.474 93.3383
3113 6 47.345 8.632 93.3383
3114 6 48.591 10.79 93.3383
3115 6 47.345 12.948 93.3383
3116 6 48.591 15.106 93.3383
3117 6 47.345 17.264 93.3383
3118 6 48.591 19.422 93.3383
3119 6 47.345 21.58 93.3383
3120 6 48.591 23.738 93.3383
3121 6 49.8369 0 93.3383
3122 6 51.0828 2.158 93.3383
3123 6 49.8369 4.316 93.3383
3124 6 51.0828 6.474 93.3383
3125 6 49.8369 8.632 93.3383
3126 6 51.0828 10.79 93.3383
3127 6 49.8369 12.948 93.3383
3128 6 51.0828 15.106 93.3383
3129 6 49.8369 17.264 93.3383
3130 6 51.0828 19.422 93.3383
3131 6 49.8369 21.58 93.3383
3132 6 51.0828 23.738 93.3383
3133 6 52.3287 0 93.3383
3134 6 53.5746 2.158 93.3383
3135 6 52.3287 4.316 93.3383
3136 6 53.5746 6.474 93.3383
3137 6 52.3287 8.632 93.3383
3138 6 53.5746 10.79 93.3383
3139 6 52.3287 12.948 93.3383
3140 6 53.5746 15.106 93.3383
3141 6 52.3287 17.264 93.3383
3142 6 53.5746 19.422 93.3383
3143 6 52.3287 21.58 93.3383
3144 6 53.5746 23.738 93.3383
3145 6 54.8206 0 93.3383
3146 6 56.0665 2.158 93.3383
3147 6 54.8206 4.316 93.3383
3148 6 56.0665 6.474 93.3383
3149 6 54.8206 8.632 93.3383
3150 6 56.0665 10.79 93.3383
3151 6 54.8206 12.948 93.3383
3152 6 56.0665 15.106 93.3383
3153 6 54.8206 17.264 93.3383
3154 6 56.0665 19.422 93.3383
3155 6 54.8206 21.58 93.3383
3156 6 56.0665 23.738 93.3383
3157 6 57.3124 0 93.3383
3158 6 58.5583 2.158 93.3383
3159 6 57.3124 4.316 93.3383
3160 6 58.5583 6.474 93.3383
3161 6 57.3124 8.632 93.3383
3162 6 58.5583 10.79 93.3383
3163 6 57.3124 12.948 93.3383
3164 6 58.5583 15.106 93.3383
3165 6 57.3124 17.264 93.3383
3166 6 58.5583 19.422 93.3383
3167 6 57.3124 21.58 93.3383
3168 6 58.5583 23.738 93.3383
3169 6 59.8043 0 93.3383
3170 6 61.0502 2.158 93.3383
3171 6 59.8043 4.316 93.3383
3172 6 61.0502 6.474 93.3383
3173 6 59.8043 8.632 93.3383
3174 6 61.0502 10.79 93.3383
3175 6 59.8043 12.948 93.3383
3176 6 61.0502 15.106 93.3383
3177 6 59.8043 17.264 93.3383
3178 6 61.0502 19.422 93.3383
3179 6 59.8043 21.58 93.3383
3180 6 61.0502 23.738 93.3383
3181 6 62.2961 0 93.3383
3182 6 63.542 2.158 93.3383
3183 6 62.2961 4.316 93.3383
3184 6 63.542 6.474 93.3383
3185 6 62.2961 8.632 93.3383
3186 6 63.542 10.79 93.3383
3187 6 62.2961 12.948 93.3383
3188 6 63.542 15.106 93.3383
3189 6 62.2961 17.264 93.3383
3190 6 63.542 19.422 93.3383
3191 6 62.2961 21.58 93.3383
3192 6 63.542 23.738 93.3383
3193 6 64.7879 0 93.3383
3194 6 66.0339 2.158 93.3383
3195 6 64.7879 4.316 93.3383
3196 6 66.0339 6.474 93.3383
3197 6 64.7879 8.632 93.3383
3198 6 66.0339 10.79 93.3383
3199 6 64.7879 12.948 93.3383
3200 6 66.0339 15.106 93.3383
3201 6 64.7879 17.264 93.3383
3202 6 66.0339 19.422 93.3383
3203 6 64.7879 21.58 93.3383
3204 6 66.0339 23.738 93.3383
3205 6 67.2798 0 93.3383
3206 6 68.5257 2.158 93.3383
3207 6 67.2798 4.316 93.3383
3208 6 68.5257 6.474 93.3383
3209 6 67.2798 8.632 93.3383
3210 6 68.5257 10.79 93.3383
3211 6 67.2798 12.948 93.3383
3212 6 68.5257 15.106 93.3383
3213 6 67.2798 17.264 93.3383
3214 6 68.5257 19.422 93.3383
3215 6 67.2798 21.58 93.3383
3216 6 68.5257 23.738 93.3383
3217 6 69.7716 0 93.3383
3218 6 71.0176 2.158 93.3383
3219 6 69.7716 4.316 93.3383
3220 6 71.0176 6.474 93.3383
3221 6 69.7716 8.632 93.3383
3222 6 71.0176 10.79 93.3383
3223 6 69.7716 12.948 93.3383
3224 6 71.0176 15.106 93.3383
3225 6 69.7716 17.264 93.3383
3226 6 71.0176 19.422 93.3383
3227 6 69.7716 21.58 93.3383
3228 6 71.0176 23.738 93.3383
3229 6 72.2635 0 93.3383
3230 6 73.5094 2.158 93.3383
3231 6 72.2635 4.316 93.3383
3232 6 73.5094 6.474 93.3383
3233 6 72.2635 8.632 93.3383
3234 6 73.5094 10.79 93.3383
3235 6 72.2635 12.948 93.3383
3236 6 73.5094 15.106 93.3383
3237 6 72.2635 17.264 93.3383
3238 6 73.5094 19.422 93.3383
3239 6 72.2635 21.58 93.3383
3240 6 73.5094 23.738 93.3383
3241 6 74.7553 0 93.3383
3242 6 76.0012 2.158 93.3383
3243 6 74.7553 4.316 93.3383
3244 6 76.0012 6.474 93.3383
3245 6 74.7553 8.632 93.3383
3246 6 76.0012 10.79 93.3383
3247 6 74.7553 12.948 93.3383
3248 6 76.0012 15.106 93.3383
3249 6 74.7553 17.264 93.3383
3250 6 76.0012 19.422 93.3383
3251 6 74.7553 21.58 93.3383
3252 6 76.0012 23.738 93.3383
3253 6 77.2472 0 93.3383
3254 6 78.4931 2.158 93.3383
3255 6 77.2472 4.316 93.3383
3256 6 78.4931 6.474 93.3383
3257 6 77.2472 8.632 93.3383
3258 6 78.4931 10.79 93.3383
3259 6 77.2472 12.948 93.3383
3260 6 78.4931 15.106 93.3383
3261 6 77.2472 17.264 93.3383
3262 6 78.4931 19.422 93.3383
3263 6 77.2472 21.58 93.3383
3264 6 78.4931 23.738 93.3383
3265 6 79.739 0 93.3383
3266 6 80.9849 2.158 93.3383
3267 6 79.739 4.316 93.3383
3268 6 80.9849 6.474 93.3383
3269 6 79.739 8.632 93.3383
3270 6 80.9849 10.79 93.3383
3271 6 79.739 12.948 93.3383
3272 6 80.9849 15.106 93.3383
3273 6 79.739 17.264 93.3383
3274 6 80.9849 19.422 93.3383
3275 6 79.739 21.58 93.3383
3276 6 80.9849 23.738 93.3383
3277 6 82.2309 0 93.3383
3278 6 83.4768 2.158 93.3383
3279 6 82.2309 4.316 93.3383
3280 6 83.4768 6.474 93.3383
3281 6 82.2309 8.632 93.3383
3282 6 83.4768 10.79 93.3383
3283 6 82.2309 12.948 93.3383
3284 6 83.4768 15.106 93.3383
3285 6 82.2309 17.264 93.3383
3286 6 83.4768 19.422 93.3383
3287 6 82.2309 21.58 93.3383
3288 6 83.4768 23.738 93.3383
3289 6 84.7227 0 93.3383
3290 6 85.9686 2.158 93.3383
3291 6 84.7227 4.316 93.3383
3292 6 85.9686 6.474 93.3383
3293 6 84.7227 8.632 93.3383
3294 6 85.9686 10.79 93.3383
3295 6 84.7227 12.948 93.3383
3296 6 85.9686 15.106 93.3383
3297 6 84.7227 17.264 93.3383
3298 6 85.9686 19.422 93.3383
3299 6 84.7227 21.58 93.3383
3300 6 85.9686 23.738 93.3383
3301 6 87.2146 0 93.3383
3302 6 88.4605 2.158 93.3383
3303 6 87.2146 4.316 93.3383
3304 6 88.4605 6.474 93.3383
3305 6 87.2146 8.632 93.3383
3306 6 88.4605 10.79 93.3383
3307 6 87.2146 12.948 93.3383
3308 6 88.4605 15.106 93.3383
3309 6 87.2146 17.264 93.3383
3310 6 88.4605 19.422 93.3383
3311 6 87.2146 21.58 93.3383
3312 6 88.4605 23.738 93.3383
3313 6 89.7064 0 93.3383
3314 6 90.9523 2.158 93.3383
3315 6 89.7064 4.316 93.3383
3316 6 90.9523 6.474 93.3383
3317 6 89.7064 8.632 93.3383
3318 6 90.9523 10.79 93.3383
3319 6 89.7064 12.948 93.3383
3320 6 90.9523 15.106 93.3383
3321 6 89.7064 17.264 93.3383
3322 6 90.9523 19.422 93.3383
3323 6 89.7064 21.58 93.3383
3324 6 90.9523 23.738 93.3383
3325 6 92.1982 0 93.3383
3326 6 93.4442 2.158 93.3383
3327 6 92.1982 4.316 93.3383
3328 6 93.4442 6.474 93.3383
3329 6 92.1982 8.632 93.3383
3330 6 93.4442 10.79 93.3383
3331 6 92.1982 12.948 93.3383
3332 6 93.4442 15.106 93.3383
3333 6 92.1982 17.264 93.3383
3334 6 93.4442 19.422 93.3383
3335 6 92.1982 21.58 93.3383
3336 6 93.4442 23.738 93.3383
3337 6 94.6901 0 93.3383
3338 6 95.936 2.158 93.3383
3339 6 94.6901 4.316 93.3383
3340 6 95.936 6.474 93.3383
3341 6 94.6901 8.632 93.3383
3342 6 95.936 10.79 93.3383
3343 6 94.6901 12.948 93.3383
3344 6 95.936 15.106 93.3383
3345 6 94.6901 17.264 93.3383
3346 6 95.936 19.422 93.3383
3347 6 94.6901 21.58 93.3383
3348 6 95.936 23.738 93.3383
3349 6 97.1819 0 93.3383
3350 6 98.4279 2.158 93.3383
3351 6 97.1819 4.316 93.3383
3352 6 98.4279 6.474 93.3383
3353 6 97.1819 8.632 93.3383
3354 6 98.4279 10.79 93.3383
3355 6 97.1819 12.948 93.3383
3356 6 98.4279 15.106 93.3383
3357 6 97.1819 17.264 93.3383
3358 6 98.4279 19.422 93.3383
3359 6 97.1819 21.58 93.3383
3360 6 98.4279 23.738 93.3383
3361 6 99.6738 0 93.3383
3362 6 100.92 2.158 93.3383
3363 6 99.6738 4.316 93.3383
3364 6 100.92 6.474 93.3383
3365 6 99.6738 8.632 93.3383
3366 6 100.92 10.79 93.3383
3367 6 99.6738 12.948 93.3383
3368 6 100.92 15.106 93.3383
3369 6 99.6738 17.264 93.3383
3370 6 100.92 19.422 93.3383
3371 6 99.6738 21.58 93.3383
3372 6 100.92 23.738 93.3383
3373 6 102.166 0 93.3383
3374 6 103.412 2.158 93.3383
3375 6 102.166 4.316 93.3383
3376 6 103.412 6.474 93.3383
3377 6 102.166 8.632 93.3383
3378 6 103.412 10.79 93.3383
3379 6 102.166 12.948 93.3383
3380 6 103.412 15.106 93.3383
3381 6 102.166 17.264 93.3383
3382 6 103.412 19.422 93.3383
3383 6 102.166 21.58 93.3383
3384 6 103.412 23.738 93.3383
3385 6 104.657 0 93.3383
3386 6 105.903 2.158 93.3383
3387 6 104.657 4.316 93.3383
3388 6 105.903 6.474 93.3383
3389 6 104.657 8.632 93.3383
3390 6 105.903 10.79 93.3383
3391 6 104.657 12.948 93.3383
3392 6 105.903 15.106 93.3383
3393 6 104.657 17.264 93.3383
3394 6 105.903 19.422 93.3383
3395 6 104.657 21.58 93.3383
3396 6 105.903 23.738 93.3383
3397 6 107.149 0 93.3383
3398 6 108.395 2.158 93.3383
3399 6 107.149 4.316 93.3383
3400 6 108.395 6.474 93.3383
3401 6 107.149 8.632 93.3383
3402 6 108.395 10.79 93.3383
3403 6 107.149 12.948 93.3383
3404 6 108.395 15.106 93.3383
3405 6 107.149 17.264 93.3383
3406 6 108.395 19.422 93.3383
3407 6 107.149 21.58 93.3383
3408 6 108.395 23.738 93.3383
3409 6 109.641 0 93.3383
3410 6 110.887 2.158 93.3383
3411 6 109.641 4.316 93.3383
3412 6 110.887 6.474 93.3383
3413 6 109.641 8.632 93.3383
3414 6 110.887 10.79 93.3383
3415 6 109.641 12.948 93.3383
3416 6 110.887 15.106 93.3383
3417 6 109.641 17.264 93.3383
3418 6 110.887 19.422 93.3383
3419 6 109.641 21.58 93.3383
3420 6 110.887 23.738 93.3383
3421 6 112.133 0 93.3383
3422 6 113.379 2.158 93.3383
3423 6 112.133 4.316 93.3383
3424 6 113.379 6.474 93.3383
3425 6 112.133 8.632 93.3383
3426 6 113.379 10.79 93.3383
3427 6 112.133 12.948 93.3383
3428 6 113.379 15.106 93.3383
3429 6 112.133 17.264 93.3383
3430 6 113.379 19.422 93.3383
3431 6 112.133 21.58 93.3383
3432 6 113.379 23.738 93.3383
3433 6 114.625 0 93.3383
3434 6 115.871 2.158 93.3383
3435 6 114.625 4.316 93.3383
3436 6 115.871 6.474 93.3383
3437 6 114.625 8.632 93.3383
3438 6 115.871 10.79 93.3383
3439 6 114.625 12.948 93.3383
3440 6 115.871 15.106 93.3383
3441 6 114.625 17.264 93.3383
3442 6 115.871 19.422 93.3383
3443 6 114.625 21.58 93.3383
3444 6 115.871 23.738 93.3383
3445 6 117.117 0 93.3383
3446 6 118.363 2.158 93.3383
3447 6 117.117 4.316 93.3383
3448 6 118.363 6.474 93.3383
3449 6 117.117 8.632 93.3383
3450 6 118.363 10.79 93.3383
3451 6 117.117 12.948 93.3383
3452 6 118.363 15.106 93.3383
3453 6 117.117 17.264 93.3383
3454 6 118.363 19.422 93.3383
3455 6 117.117 21.58 93.3383
3456 6 118.363 23.738 93.3383
3457 6 0.83061 1.43867 95.3729
3458 6 2.07654 3.59667 95.3729
3459 6 0.83061 5.75467 95.3729
3460 6 2.07654 7.91267 95.3729
3461 6 0.83061 10.0707 95.3729
3462 6 2.07654 12.2287 95.3729
3463 6 0.83061 14.3867 95.3729
3464 6 2.07654 16.5447 95.3729
3465 6 0.83061 18.7027 95.3729
3466 6 2.07654 20.8607 95.3729
3467 6 0.83061 23.0187 95.3729
3468 6 2.07654 25.1767 95.3729
3469 6 3.32246 1.43867 95.3729
3470 6 4.56838 3.59667 95.3729
3471 6 3.32246 5.75467 95.3729
3472 6 4.56838 7.91267 95.3729
3473 6 3.32246 10.0707 95.3729
3474 6 4.56838 12.2287 95.3729
3475 6 3.32246 14.3867 95.3729
3476 6 4.56838 16.5447 95.3729
3477 6 3.32246 18.7027 95.3729
3478 6 4.56838 20.8607 95.3729
3479 6 3.32246 23.0187 95.3729
3480 6 4.56838 25.1767 95.3729
3481 6 5.8143 1.43867 95.3729
3482 6 7.06023 3.59667 95.3729
3483 6 5.8143 5.75467 95.3729
3484 6 7.06023 7.91267 95.3729
3485 6 5.8143 10.0707 95.3729
3486 6 7.06023 12.2287 95.3729
3487 6 5.8143 14.3867 95.3729
3488 6 7.06023 16.5447 95.3729
3489 6 5.8143 18.7027 95.3729
3490 6 7.06023 20.8607 95.3729
3491 6 5.8143 23.0187 95.3729
3492 6 7.06023 25.1767 95.3729
3493 6 8.30615 1.43867 95.3729
3494 6 9.55207 3.59667 95.3729
3495 6 8.30615 5.75467 95.3729
3496 6 9.55207 7.91267 95.3729
3497 6 8.30615 10.0707 95.3729
3498 6 9.55207 12.2287 95.3729
3499 6 8.30615 14.3867 95.3729
3500 6 9.55207 16.5447 95.3729
3501 6 8.30615 18.7027 95.3729
3502 6 9.55207 20.8607 95.3729
3503 6 8.30615 23.0187 95.3729
3504 6 9.55207 25.1767 95.3729
3505 6 10.798 1.43867 95.3729
3506 6 12.0439 3.59667 95.3729
3507 6 10.798 5.75467 95.3729
3508 6 12.0439 7.91267 95.3729
3509 6 10.798 10.0707 95.3729
3510 6 12.0439 12.2287 95.3729
3511 6 10.798 14.3867 95.3729
3512 6 12.0439 16.5447 95.3729
3513 6 10.798 18.7027 95.3729
3514 6 12.0439 20.8607 95.3729
3515 6 10.798 23.0187 95.3729
3516 6 12.0439 25.1767 95.3729
3517 6 13.2898 1.43867 95.3729
3518 6 14.5358 3.59667 95.3729
3519 6 13.2898 5.75467 95.3729
3520 6 14.5358 7.91267 95.3729
3521 6 13.2898 10.0707 95.3729
3522 6 14.5358 12.2287 95.3729
3523 6 13.2898 14.3867 95.3729
3524 6 14.5358 16.5447 95.3729
3525 6 13.2898 18.7027 95.3729
3526 6 14.5358 20.8607 95.3729
3527 6 13.2898 23.0187 95.3729
3528 6 14.5358 25.1767 95.3729
3529 6 15.7817 1.43867 95.3729
3530 6 17.0276 3.59667 95.3729
3531 6 15.7817 5.75467 95.3729
3532 6 17.0276 7.91267 95.3729
3533 6 15.7817 10.0707 95.3729
3534 6 17.0276 12.2287 95.3729
3535 6 15.7817 14.3867 95.3729
3536 6 17.0276 16.5447 95.3729
3537 6 15.7817 18.7027 95.3729
3538 6 17.0276 20.8607 95.3729
3539 6 15.7817 23.0187 95.3729
3540 6 17.0276 25.1767 95.3729
3541 6 18.2735 1.43867 95.3729
3542 6 19.5194 3.59667 95.3729
3543 6 18.2735 5.75467 95.3729
3544 6 19.5194 7.91267 95.3729
3545 6 18.2735 10.0707 95.3729
3546 6 19.5194 12.2287 95.3729
3547 6 18.2735 14.3867 95.3729
3548 6 19.5194 16.5447 95.3729
3549 6 18.2735 18.7027 95.3729
3550 6 19.5194 20.8607 95.3729
3551 6 18.2735 23.0187 95.3729
3552 6 19.5194 25.1767 95.3729
3553 6 20.7654 1.43867 95.3729
3554 6 22.0113 3.59667 95.3729
3555 6 20.7654 5.75467 95.3729
3556 6 22.0113 7.91267 95.3729
3557 6 20.7654 10.0707 95.3729
3558 6 22.0113 12.2287 95.3729
3559 6 20.7654 14.3867 95.3729
3560 6 22.0113 16.5447 95.3729
3561 6 20.7654 18.7027 95.3729
3562 6 22.0113 20.8607 95.3729
3563 6 20.7654 23.0187 95.3729
3564 6 22.0113 25.1767 95.3729
3565 6 23.2572 1.43867 95.3729
3566 6 24.5031 3.59667 95.3729
3567 6 23.2572 5.75467 95.3729
3568 6 24.5031 7.91267 95.3729
3569 6 23.2572 10.0707 95.3729
3570 6 24.5031 12.2287 95.3729
3571 6 23.2572 14.3867 95.3729
3572 6 24.5031 16.5447 95.3729
3573 6 23.2572 18.7027 95.3729
3574 6 24.5031 20.8607 95.3729
3575 6 23.2572 23.0187 95.3729
3576 6 24.5031 25.1767 95.3729
3577 6 25.7491 1.43867 95.3729
3578 6 26.995 3.59667 95.3729
3579 6 25.7491 5.75467 95.3729
3580 6 26.995 7.91267 95.3729
3581 6 25.7491 10.0707 95.3729
3582 6 26.995 12.2287 95.3729
3583 6 25.7491 14.3867 95.3729
3584 6 26.995 16.5447 95.3729
3585 6 25.7491 18.7027 95.3729
3586 6 26.995 20.8607 95.3729
3587 6 25.7491 23.0187 95.3729
3588 6 26.995 25.1767 95.3729
3589 6 28.2409 1.43867 95.3729
3590 6 29.4868 3.59667 95.3729
3591 6 28.2409 5.75467 95.3729
3592 6 29.4868 7.91267 95.3729
3593 6 28.2409 10.0707 95.3729
3594 6 29.4868 12.2287 95.3729
3595 6 28.2409 14.3867 95.3729
3596 6 29.4868 16.5447 95.3729
3597 6 28.2409 18.7027 95.3729
3598 6 29.4868 20.8607 95.3729
3599 6 28.2409 23.0187 95.3729
3600 6 29.4868 25.1767 95.3729
3601 6 30.7327 1.43867 95.3729
3602 6 31.9787 3.59667 95.3729
3603 6 30.7327 5.75467 95.3729
3604 6 31.9787 7.91267 95.3729
3605 6 30.7327 10.0707 95.3729
3606 6 31.9787 12.2287 95.3729
3607 6 30.7327 14.3867 95.3729
3608 6 31.9787 16.5447 95.3729
3609 6 30.7327 18.7027 95.3729
3610 6 31.9787 20.8607 95.3729
3611 6 30.7327 23.0187 95.3729
3612 6 31.9787 25.1767 95.3729
3613 6 33.2246 1.43867 95.3729
3614 6 34.4705 3.59667 95.3729
3615 6 33.2246 5.75467 95.3729
3616 6 34.4705 7.91267 95.3729
3617 6 33.2246 10.0707 95.3729
3618 6 34.4705 12.2287 95.3729
3619 6 33.2246 14.3867 95.3729
3620 6 34.4705 16.5447 95.3729
3621 6 33.2246 18.7027 95.3729
3622 6 34.4705 20.8607 95.3729
3623 6 33.2246 23.0187 95.3729
3624 6 34.4705 25.1767 95.3729
3625 6 35.7164 1.43867 95.3729
3626 6 36.9624 3.59667 95.3729
3627 6 35.7164 5.75467 95.3729
3628 6 36.9624 7.91267 95.3729
3629 6 35.7164 10.0707 95.3729
3630 6 36.9624 12.2287 95.3729
3631 6 35.7164 14.3867 95.3729
3632 6 36.9624 16.5447 95.3729
3633 6 35.7164 18.7027 95.3729
3634 6 36.9624 20.8607 95.3729
3635 6 35.7164 23.0187 95.3729
3636 6 36.9624 25.1767 95.3729
3637 6 38.2083 1.43867 95.3729
3638 6 39.4542 3.59667 95.3729
3639 6 38.2083 5.75467 95.3729
3640 6 39.4542 7.91267 95.3729
3641 6 38.2083 10.0707 95.3729
3642 6 39.4542 12.2287 95.3729
3643 6 38.2083 14.3867 95.3729
3644 6 39.4542 16.5447 95.3729
3645 6 38.2083 18.7027 95.3729
3646 6 39.4542 20.8607 95.3729
3647 6 38.2083 23.0187 95.3729
3648 6 39.4542 25.1767 95.3729
3649 6 40.7001 1.43867 95.3729
3650 6 41.946 3.59667 95.3729
3651 6 40.7001 5.75467 95.3729
3652 6 41.946 7.91267 95.3729
3653 6 40.7001 10.0707 95.3729
3654 6 41.946 12.2287 95.3729
3655 6 40.7001 14.3867 95.3729
3656 6 41.946 16.5447 95.3729
3657 6 40.7001 18.7027 95.3729
3658 6 41.946 20.8607 95.3729
3659 6 40.7001 23.0187 95.3729
3660 6 41.946 25.1767 95.3729
3661 6 43.192 1.43867 95.3729
3662 6 44.4379 3.59667 95.3729
3663 6 43.192 5.75467 95.3729
3664 6 44.4379 7.91267 95.3729
3665 6 43.192 10.0707 95.3729
3666 6 44.4379 12.2287 95.3729
3667 6 43.192 14.3867 95.3729
3668 6 44.4379 16.5447 95.3729
3669 6 43.192 18.7027 95.3729
3670 6 44.4379 20.8607 95.3729
3671 6 43.192 23.0187 95.3729
3672 6 44.4379 25.1767 95.3729
3673 6 45.6838 1.43867 95.3729
3674 6 46.9297 3.59667 95.3729
3675 6 45.6838 5.75467 95.3729
3676 6 46.9297 7.91267 95.3729
3677 6 45.6838 10.0707 95.3729
3678 6 46.9297 12.2287 95.3729
3679 6 45.6838 14.3867 95.3729
3680 6 46.9297 16.5447 95.3729
3681 6 45.6838 18.7027 95.3729
3682 6 46.9297 20.8607 95.3729
3683 6 45.6838 23.0187 95.3729
3684 6 46.9297 25.1767 95.3729
3685 6 48.1757 1.43867 95.3729
3686 6 49.4216 3.59667 95.3729
3687 6 48.1757 5.75467 95.3729
3688 6 49.4216 7.91267 95.3729
3689 6 48.1757 10.0707 95.3729
3690 6 49.4216 12.2287 95.3729
3691 6 48.1757 14.3867 95.3729
3692 6 49.4216 16.5447 95.3729
3693 6 48.1757 18.7027 95.3729
3694 6 49.4216 20.8607 95.3729
3695 6 48.1757 23.0187 95.3729
3696 6 49.4216 25.1767 95.3729
3697 6 50.6675 1.43867 95.3729
3698 6 51.9134 3.59667 95.3729
3699 6 50.6675 5.75467 95.3729
3700 6 51.9134 7.91267 95.3729
3701 6 50.6675 10.0707 95.3729
3702 6 51.9134 12.2287 95.3729
3703 6 50.6675 14.3867 95.3729
3704 6 51.9134 16.5447 95.3729
3705 6 50.6675 18.7027 95.3729
3706 6 51.9134 20.8607 95.3729
3707 6 50.6675 23.0187 95.3729
3708 6 51.9134 25.1767 95.3729
3709 6 53.1594 1.43867 95.3729
3710 6 54.4053 3.59667 95.3729
3711 6 53.1594 5.75467 95.3729
3712 6 54.4053 7.91267 95.3729
3713 6 53.1594 10.0707 95.3729
3714 6 54.4053 12.2287 95.3729
3715 6 53.1594 14.3867 95.3729
3716 6 54.4053 16.5447 95.3729
3717 6 53.1594 18.7027 95.3729
3718 6 54.4053 20.8607 95.3729
3719 6 53.1594 23.0187 95.3729
3720 6 54.4053 25.1767 95.3729
3721 6 55.6512 1.43867 95.3729
3722 6 56.8971 3.59667 95.3729
3723 6 55.6512 5.75467 95.3729
3724 6 56.8971 7.91267 95.3729
3725 6 55.6512 10.0707 95.3729
3726 6 56.8971 12.2287 95.3729
3727 6 55.6512 14.3867 95.3729
3728 6 56.8971 16.5447 95.3729
3729 6 55.6512 18.7027 95.3729
3730 6 56.8971 20.8607 95.3729
3731 6 55.6512 23.0187 95.3729
3732 6 56.8971 25.1767 95.3729
3733 6 58.143 1.43867 95.3729
3734 6 59.389 3.59667 95.3729
3735 6 58.143 5.75467 95.3729
3736 6 59.389 7.91267 95.3729
3737 6 58.143 10.0707 95.3729
3738 6 59.389 12.2287 95.3729
3739 6 58.143 14.3867 95.3729
3740 6 59.389 16.5447 95.3729
3741 6 58.143 18.7027 95.3729
3742 6 59.389 20.8607 95.3729
3743 6 58.143 23.0187 95.3729
3744 6 59.389 25.1767 95.3729
3745 6 60.6349 1.43867 95.3729
3746 6 61.8808 3.59667 95.3729
3747 6 60.6349 5.75467 95.3729
3748 6 61.8808 7.91267 95.3729
3749 6 60.6349 10.0707 95.3729
3750 6 61.8808 12.2287 95.3729
3751 6 60.6349 14.3867 95.3729
3752 6 61.8808 16.5447 95.3729
3753 6 60.6349 18.7027 95.3729
3754 6 61.8808 20.8607 95.3729
3755 6 60.6349 23.0187 95.3729
3756 6 61.8808 25.1767 95.3729
3757 6 63.1267 1.43867 95.3729
3758 6 64.3726 3.59667 95.3729
3759 6 63.1267 5.75467 95.3729
3760 6 64.3726 7.91267 95.3729
3761 6 63.1267 10.0707 95.3729
3762 6 64.3726 12.2287 95.3729
3763 6 63.1267 14.3867 95.3729
3764 6 64.3726 16.5447 95.3729
3765 6 63.1267 18.7027 95.3729
3766 6 64.3726 20.8607 95.3729
3767 6 63.1267 23.0187 95.3729
3768 6 64.3726 25.1767 95.3729
3769 6 65.6186 1.43867 95.3729
3770 6 66.8645 3.59667 95.3729
3771 6 65.6186 5.75467 95.3729
3772 6 66.8645 7.91267 95.3729
3773 6 65.6186 10.0707 95.3729
3774 6 66.8645 12.2287 95.3729
3775 6 65.6186 14.3867 95.3729
3776 6 66.8645 16.5447 95.3729
3777 6 65.6186 18.7027 95.3729
3778 6 66.8645 20.8607 95.3729
3779 6 65.6186 23.0187 95.3729
3780 6 66.8645 25.1767 95.3729
3781 6 68.1104 1.43867 95.3729
3782 6 69.3563 3.59667 95.3729
3783 6 68.1104 5.75467 95.3729
3784 6 69.3563 7.91267 95.3729
3785 6 68.1104 10.0707 95.3729
3786 6 69.3563 12.2287 95.3729
3787 6 68.1104 14.3867 95.3729
3788 6 69.3563 16.5447 95.3729
3789 6 68.1104 18.7027 95.3729
3790 6 69.3563 20.8607 95.3729
3791 6 68.1104 23.0187 95.3729
3792 6 69.3563 25.1767 95.3729
3793 6 70.6023 1.43867 95.3729
3794 6 71.8482 3.59667 95.3729
3795 6 70.6023 5.75467 95.3729
3796 6 71.8482 7.91267 95.3729
3797 6 70.6023 10.0707 95.3729
3798 6 71.8482 12.2287 95.3729
3799 6 70.6023 14.3867 95.3729
3800 6 71.8482 16.5447 95.3729
3801 6 70.6023 18.7027 95.3729
3802 6 71.8482 20.8607 95.3729
3803 6 70.6023 23.0187 95.3729
3804 6 71.8482 25.1767 95.3729
3805 6 73.0941 1.43867 95.3729
3806 6 74.34 3.59667 95.3729
3807 6 73.0941 5.75467 95.3729
3808 6 74.34 7.91267 95.3729
3809 6 73.0941 10.0707 95.3729
3810 6 74.34 12.2287 95.3729
3811 6 73.0941 14.3867 95.3729
3812 6 74.34 16.5447 95.3729
3813 6 73.0941 18.7027 95.3729
3814 6 74.34 20.8607 95.3729
3815 6 73.0941 23.0187 95.3729
3816 6 74.34 25.1767 95.3729
3817 6 75.5859 1.43867 95.3729
3818 6 76.8319 3.59667 95.3729
3819 6 75.5859 5.75467 95.3729
3820 6 76.8319 7.91267 95.3729
3821 6 75.5859 10.0707 95.3729
3822 6 76.8319 12.2287 95.3729
3823 6 75.5859 14.3867 95.3729
3824 6 76.8319 16.5447 95.3729
3825 6 75.5859 18.7027 95.3729
3826 6 76.8319 20.8607 95.3729
3827 6 75.5859 23.0187 95.3729
3828 6 76.8319 25.1767 95.3729
3829 6 78.0778 1.43867 95.3729
3830 6 79.3237 3.59667 95.3729
3831 6 78.0778 5.75467 95.3729
3832 6 79.3237 7.91267 95.3729
3833 6 78.0778 10.0707 95.3729
3834 6 79.3237 12.2287 95.3729
3835 6 78.0778 14.3867 95.3729
3836 6 79.3237 16.5447 95.3729
3837 6 78.0778 18.7027 95.3729
3838 6 79.3237 20.8607 95.3729
3839 6 78.0778 23.0187 95.3729
3840 6 79.3237 25.1767 95.3729
3841 6 80.5696 1.43867 95.3729
3842 6 81.8156 3.59667 95.3729
3843 6 80.5696 5.75467 95.3729
3844 6 81.8156 7.91267 95.3729
3845 6 80.5696 10.0707 95.3729
3846 6 81.8156 12.2287 95.3729
3847 6 80.5696 14.3867 95.3729
3848 6 81.8156 16.5447 95.3729
3849 6 80.5696 18.7027 95.3729
3850 6 81.8156 20.8607 95.3729
3851 6 80.5696 23.0187 95.3729
3852 6 81.8156 25.1767 95.3729
3853 6 83.0615 1.43867 95.3729
3854 6 84.3074 3.59667 95.3729
3855 6 83.0615 5.75467 95.3729
3856 6 84.3074 7.91267 95.3729
3857 6 83.0615 10.0707 95.3729
3858 6 84.3074 12.2287 95.3729
3859 6 83.0615 14.3867 95.3729
3860 6 84.3074 16.5447 95.3729
3861 6 83.0615 18.7027 95.3729
3862 6 84.3074 20.8607 95.3729
3863 6 83.0615 23.0187 95.3729
3864 6 84.3074 25.1767 95.3729
3865 6 85.5533 1.43867 95.3729
3866 6 86.7992 3.59667 95.3729
3867 6 85.5533 5.75467 95.3729
3868 6 86.7992 7.91267 95.3729
3869 6 85.5533 10.0707 95.3729
3870 6 86.7992 12.2287 95.3729
3871 6 85.5533 14.3867 95.3729
3872 6 86.7992 16.5447 95.3729
3873 6 85.5533 18.7027 95.3729
3874 6 86.7992 20.8607 95.3729
3875 6 85.5533 23.0187 95.3729
3876 6 86.7992 25.1767 95.3729
3877 6 88.0452 1.43867 95.3729
3878 6 89.2911 3.59667 95.3729
3879 6 88.0452 5.75467 95.3729
3880 6 89.2911 7.91267 95.3729
3881 6 88.0452 10.0707 95.3729
3882 6 89.2911 12.2287 95.3729
3883 6 88.0452 14.3867 95.3729
3884 6 89.2911 16.5447 95.3729
3885 6 88.0452 18.7027 95.3729
3886 6 89.2911 20.8607 95.3729
3887 6 88.0452 23.0187 95.3729
3888 6 89.2911 25.1767 95.3729
3889 6 90.537 1.43867 95.3729
3890 6 91.7829 3.59667 95.3729
3891 6 90.537 5.75467 95.3729
3892 6 91.7829 7.91267 95.3729
3893 6 90.537 10.0707 95.3729
3894 6 91.7829 12.2287 95.3729
3895 6 90.537 14.3867 95.3729
3896 6 91.7829 16.5447 95.3729
3897 6 90.537 18.7027 95.3729
3898 6 91.7829 20.8607 95.3729
3899 6 90.537 23.0187 95.3729
3900 6 91.7829 25.1767 95.3729
3901 6 93.0289 1.43867 95.3729
3902 6 94.2748 3.59667 95.3729
3903 6 93.0289 5.75467 95.3729
3904 6 94.2748 7.91267 95.3729
3905 6 93.0289 10.0707 95.3729
3906 6 94.2748 12.2287 95.3729
3907 6 93.0289 14.3867 95.3729
3908 6 94.2748 16.5447 95.3729
3909 6 93.0289 18.7027 95.3729
3910 6 94.2748 20.8607 95.3729
3911 6 93.0289 23.0187 95.3729
3912 6 94.2748 25.1767 95.3729
3913 6 95.5207 1.43867 95.3729
3914 6 96.7666 3.59667 95.3729
3915 6 95.5207 5.75467 95.3729
3916 6 96.7666 7.91267 95.3729
3917 6 95.5207 10.0707 95.3729
3918 6 96.7666 12.2287 95.3729
3919 6 95.5207 14.3867 95.3729
3920 6 96.7666 16.5447 95.3729
3921 6 95.5207 18.7027 95.3729
3922 6 96.7666 20.8607 95.3729
3923 6 95.5207 23.0187 95.3729
3924 6 96.7666 25.1767 95.3729
3925 6 98.0125 1.43867 95.3729
3926 6 99.2585 3.59667 95.3729
3927 6 98.0125 5.75467 95.3729
3928 6 99.2585 7.91267 95.3729
3929 6 98.0125 10.0707 95.3729
3930 6 99.2585 12.2287 95.3729
3931 6 98.0125 14.3867 95.3729
3932 6 99.2585 16.5447 95.3729
3933 6 98.0125 18.7027 95.3729
3934 6 99.2585 20.8607 95.3729
3935 6 98.0125 23.0187 95.3729
3936 6 99.2585 25.1767 95.3729
3937 6 100.504 1.43867 95.3729
3938 6 101.75 3.59667 95.3729
3939 6 100.504 5.75467 95.3729
3940 6 101.75 7.91267 95.3729
3941 6 100.504 10.0707 95.3729
3942 6 101.75 12.2287 95.3729
3943 6 100.504 14.3867 95.3729
3944 6 101.75 16.5447 95.3729
3945 6 100.504 18.7027 95.3729
3946 6 101.75 20.8607 95.3729
3947 6 100.504 23.0187 95.3729
3948 6 101.75 25.1767 95.3729
3949 6 102.996 1.43867 95.3729
3950 6 104.242 3.59667 95.3729
3951 6 102.996 5.75467 95.3729
3952 6 104.242 7.91267 95.3729
3953 6 102.996 10.0707 95.3729
3954 6 104.242 12.2287 95.3729
3955 6 102.996 14.3867 95.3729
3956 6 104.242 16.5447 95.3729
3957 6 102.996 18.7027 95.3729
3958 6 104.242 20.8607 95.3729
3959 6 102.996 23.0187 95.3729
3960 6 104.242 25.1767 95.3729
3961 6 105.488 1.43867 95.3729
3962 6 106.734 3.59667 95.3729
3963 6 105.488 5.75467 95.3729
3964 6 106.734 7.91267 95.3729
3965 6 105.488 10.0707 95.3729
3966 6 106.734 12.2287 95.3729
3967 6 105.488 14.3867 95.3729
3968 6 106.734 16.5447 95.3729
3969 6 105.488 18.7027 95.3729
3970 6 106.734 20.8607 95.3729
3971 6 105.488 23.0187 95.3729
3972 6 106.734 25.1767 95.3729
3973 6 107.98 1.43867 95.3729
3974 6 109.226 3.59667 95.3729
3975 6 107.98 5.75467 95.3729
3976 6 109.226 7.91267 95.3729
3977 6 107.98 10.0707 95.3729
3978 6 109.226 12.2287 95.3729
3979 6 107.98 14.3867 95.3729
3980 6 109.226 16.5447 95.3729
3981 6 107.98 18.7027 95.3729
3982 6 109.226 20.8607 95.3729
3983 6 107.98 23.0187 95.3729
3984 6 109.226 25.1767 95.3729
3985 6 110.472 1.43867 95.3729
3986 6 111.718 3.59667 95.3729
3987 6 110.472 5.75467 95.3729
3988 6 111.718 7.91267 95.3729
3989 6 110.472 10.0707 95.3729
3990 6 111.718 12.2287 95.3729
3991 6 110.472 14.3867 95.3729
3992 6 111.718 16.5447 95.3729
3993 6 110.472 18.7027 95.3729
3994 6 111.718 20.8607 95.3729
3995 6 110.472 23.0187 95.3729
3996 6 111.718 25.1767 95.3729
3997 6 112.964 1.43867 95.3729
3998 6 114.21 3.59667 95.3729
3999 6 112.964 5.75467 95.3729
4000 6 114.21 7.91267 95.3729
4001 6 112.964 10.0707 95.3729
4002 6 114.21 12.2287 95.3729
4003 6 112.964 14.3867 95.3729
4004 6 114.21 16.5447 95.3729
4005 6 112.964 18.7027 95.3729
4006 6 114.21 20.8607 95.3729
4007 6 112.964 23.0187 95.3729
4008 6 114.21 25.1767 95.3729
4009 6 115.455 1.43867 95.3729
4010 6 116.701 3.59667 95.3729
4011 6 115.455 5.75467 95.3729
4012 6 116.701 7.91267 95.3729
4013 6 115.455 10.0707 95.3729
4014 6 116.701 12.2287 95.3729
4015 6 115.455 14.3867 95.3729
4016 6 116.701 16.5447 95.3729
4017 6 115.455 18.7027 95.3729
4018 6 116.701 20.8607 95.3729
4019 6 115.455 23.0187 95.3729
4020 6 116.701 25.1767 95.3729
4021 6 117.947 1.43867 95.3729
4022 6 119.193 3.59667 95.3729
4023 6 117.947 5.75467 95.3729
4024 6 119.193 7.91267 95.3729
4025 6 117.947 10.0707 95.3729
4026 6 119.193 12.2287 95.3729
4027 6 117.947 14.3867 95.3729
4028 6 119.193 16.5447 95.3729
4029 6 117.947 18.7027 95.3729
4030 6 119.193 20.8607 95.3729
4031 6 117.947 23.0187 95.3729
4032 6 119.193 25.1767 95.3729
4033 6 1.66123 2.87733 97.4075
4034 6 2.90715 5.03533 97.4075
4035 6 1.66123 7.19333 97.4075
4036 6 2.90715 9.35134 97.4075
4037 6 1.66123 11.5093 97.4075
4038 6 2.90715 13.6673 97.4075
4039 6 1.66123 15.8253 97.4075
4040 6 2.90715 17.9833 97.4075
4041 6 1.66123 20.1413 97.4075
4042 6 2.90715 22.2993 97.4075
4043 6 1.66123 24.4573 97.4075
4044 6 2.90715 26.6153 97.4075
4045 6 4.15307 2.87733 97.4075
4046 6 5.399 5.03533 97.4075
4047 6 4.15307 7.19333 97.4075
4048 6 5.399 9.35134 97.4075
4049 6 4.15307 11.5093 97.4075
4050 6 5.399 13.6673 97.4075
4051 6 4.15307 15.8253 97.4075
4052 6 5.399 17.9833 97.4075
4053 6 4.15307 20.1413 97.4075
4054 6 5.399 22.2993 97.4075
4055 6 4.15307 24.4573 97.4075
4056 6 5.399 26.6153 97.4075
4057 6 6.64492 2.87733 97.4075
4058 6 7.89084 5.03533 97.4075
4059 6 6.64492 7.19333 97.4075
4060 6 7.89084 9.35134 97.4075
4061 6 6.64492 11.5093 97.4075
4062 6 7.89084 13.6673 97.4075
4063 6 6.64492 15.8253 97.4075
4064 6 7.89084 17.9833 97.4075
4065 6 6.64492 20.1413 97.4075
4066 6 7.89084 22.2993 97.4075
4067 6 6.64492 24.4573 97.4075
4068 6 7.89084 26.6153 97.4075
4069 6 9.13676 2.87733 97.4075
4070 6 10.3827 5.03533 97.4075
4071 6 9.13676 7.19333 97.4075
4072 6 10.3827 9.35134 97.4075
4073 6 9.13676 11.5093 97.4075
4074 6 10.3827 13.6673 97.4075
4075 6 9.13676 15.8253 97.4075
4076 6 10.3827 17.9833 97.4075
4077 6 9.13676 20.1413 97.4075
4078 6 10.3827 22.2993 97.4075
4079 6 9.13676 24.4573 97.4075
4080 6 10.3827 26.6153 97.4075
4081 6 11.6286 2.87733 97.4075
4082 6 12.8745 5.03533 97.4075
4083 6 11.6286 7.19333 97.4075
4084 6 12.8745 9.35134 97.4075
4085 6 11.6286 11.5093 97.4075
4086 6 12.8745 13.6673 97.4075
4087 6 11.6286 15.8253 97.4075
4088 6 12.8745 17.9833 97.4075
4089 6 11.6286 20.1413 97.4075
4090 6 12.8745 22.2993 97.4075
4091 6 11.6286 24.4573 97.4075
4092 6 12.8745 26.6153 97.4075
4093 6 14.1204 2.87733 97.4075
4094 6 15.3664 5.03533 97.4075
4095 6 14.1204 7.19333 97.4075
4096 6 15.3664 9.35134 97.4075
4097 6 14.1204 11.5093 97.4075
4098 6 15.3664 13.6673 97.4075
4099 6 14.1204 15.8253 97.4075
4100 6 15.3664 17.9833 97.4075
4101 6 14.1204 20.1413 97.4075
4102 6 15.3664 22.2993 97.4075
4103 6 14.1204 24.4573 97.4075
4104 6 15.3664 26.6153 97.4075
4105 6 16.6123 2.87733 97.4075
4106 6 17.8582 5.03533 97.4075
4107 6 16.6123 7.19333 97.4075
4108 6 17.8582 9.35134 97.4075
4109 6 16.6123 11.5093 97.4075
4110 6 17.8582 13.6673 97.4075
4111 6 16.6123 15.8253 97.4075
4112 6 17.8582 17.9833 97.4075
4113 6 16.6123 20.1413 97.4075
4114 6 17.8582 22.2993 97.4075
4115 6 16.6123 24.4573 97.4075
4116 6 17.8582 26.6153 97.4075
4117 6 19.1041 2.87733 97.4075
4118 6 20.3501 5.03533 97.4075
4119 6 19.1041 7.19333 97.4075
4120 6 20.3501 9.35134 97.4075
4121 6 19.1041 11.5093 97.4075
4122 6 20.3501 13.6673 97.4075
4123 6 19.1041 15.8253 97.4075
4124 6 20.3501 17.9833 97.4075
4125 6 19.1041 20.1413 97.4075
4126 6 20.3501 22.2993 97.4075
4127 6 19.1041 24.4573 97.4075
4128 6 20.3501 26.6153 97.4075
4129 6 21.596 2.87733 97.4075
4130 6 22.8419 5.03533 97.4075
4131 6 21.596 7.19333 97.4075
4132 6 22.8419 9.35134 97.4075
4133 6 21.596 11.5093 97.4075
4134 6 22.8419 13.6673 97.4075
4135 6 21.596 15.8253 97.4075
4136 6 22.8419 17.9833 97.4075
4137 6 21.596 20.1413 97.4075
4138 6 22.8419 22.2993 97.4075
4139 6 21.596 24.4573 97.4075
4140 6 22.8419 26.6153 97.4075
4141 6 24.0878 2.87733 97.4075
4142 6 25.3337 5.03533 97.4075
4143 6 24.0878 7.19333 97.4075
4144 6 25.3337 9.35134 97.4075
4145 6 24.0878 11.5093 97.4075
4146 6 25.3337 13.6673 97.4075
4147 6 24.0878 15.8253 97.4075
4148 6 25.3337 17.9833 97.4075
4149 6 24.0878 20.1413 97.4075
4150 6 25.3337 22.2993 97.4075
4151 6 24.0878 24.4573 97.4075
4152 6 25.3337 26.6153 97.4075
4153 6 26.5797 2.87733 97.4075
4154 6 27.8256 5.03533 97.4075
4155 6 26.5797 7.19333 97.4075
4156 6 27.8256 9.35134 97.4075
4157 6 26.5797 11.5093 97.4075
4158 6 27.8256 13.6673 97.4075
4159 6 26.5797 15.8253 97.4075
4160 6 27.8256 17.9833 97.4075
4161 6 26.5797 20.1413 97.4075
4162 6 27.8256 22.2993 97.4075
4163 6 26.5797 24.4573 97.4075
4164 6 27.8256 26.6153 97.4075
4165 6 29.0715 2.87733 97.4075
4166 6 30.3174 5.03533 97.4075
4167 6 29.0715 7.19333 97.4075
4168 6 30.3174 9.35134 97.4075
4169 6 29.0715 11.5093 97.4075
4170 6 30.3174 13.6673 97.4075
4171 6 29.0715 15.8253 97.4075
4172 6 30.3174 17.9833 97.4075
4173 6 29.0715 20.1413 97.4075
4174 6 30.3174 22.2993 97.4075
4175 6 29.0715 24.4573 97.4075
4176 6 30.3174 26.6153 97.4075
4177 6 31.5634 2.87733 97.4075
4178 6 32.8093 5.03533 97.4075
4179 6 31.5634 7.19333 97.4075
4180 6 32.8093 9.35134 97.4075
4181 6 31.5634 11.5093 97.4075
4182 6 32.8093 13.6673 97.4075
4183 6 31.5634 15.8253 97.4075
4184 6 32.8093 17.9833 97.4075
4185 6 31.5634 20.1413 97.4075
4186 6 32.8093 22.2993 97.4075
4187 6 31.5634 24.4573 97.4075
4188 6 32.8093 26.6153 97.4075
4189 6 34.0552 2.87733 97.4075
4190 6 35.3011 5.03533 97.4075
4191 6 34.0552 7.19333 97.4075
4192 6 35.3011 9.35134 97.4075
4193 6 34.0552 11.5093 97.4075
4194 6 35.3011 13.6673 97.4075
4195 6 34.0552 15.8253 97.4075
4196 6 35.3011 17.9833 97.4075
4197 6 34.0552 20.1413 97.4075
4198 6 35.3011 22.2993 97.4075
4199 6 34.0552 24.4573 97.4075
4200 6 35.3011 26.6153 97.4075
4201 6 36.547 2.87733 97.4075
4202 6 37.793 5.03533 97.4075
4203 6 36.547 7.19333 97.4075
4204 6 37.793 9.35134 97.4075
4205 6 36.547 11.5093 97.4075
4206 6 37.793 13.6673 97.4075
4207 6 36.547 15.8253 97.4075
4208 6 37.793 17.9833 97.4075
4209 6 36.547 20.1413 97.4075
4210 6 37.793 22.2993 97.4075
4211 6 36.547 24.4573 97.4075
4212 6 37.793 26.6153 97.4075
4213 6 39.0389 2.87733 97.4075
4214 6 40.2848 5.03533 97.4075
4215 6 39.0389 7.19333 97.4075
4216 6 40.2848 9.35134 97.4075
4217 6 39.0389 11.5093 97.4075
4218 6 40.2848 13.6673 97.4075
4219 6 39.0389 15.8253 97.4075
4220 6 40.2848 17.9833 97.4075
4221 6 39.0389 20.1413 97.4075
4222 6 40.2848 22.2993 97.4075
4223 6 39.0389 24.4573 97.4075
4224 6 40.2848 26.6153 97.4075
4225 6 41.5307 2.87733 97.4075
4226 6 42.7767 5.03533 97.4075
4227 6 41.5307 7.19333 97.4075
4228 6 42.7767 9.35134 97.4075
4229 6 41.5307 11.5093 97.4075
4230 6 42.7767 13.6673 97.4075
4231 6 41.5307 15.8253 97.4075
4232 6 42.7767 17.9833 97.4075
4233 6 41.5307 20.1413 97.4075
4234 6 42.7767 22.2993 97.4075
4235 6 41.5307 24.4573 97.4075
4236 6 42.7767 26.6153 97.4075
4237 6 44.0226 2.87733 97.4075
4238 6 45.2685 5.03533 97.4075
4239 6 44.0226 7.19333 97.4075
4240 6 45.2685 9.35134 97.4075
4241 6 44.0226 11.5093 97.4075
4242 6 45.2685 13.6673 97.4075
4243 6 44.0226 15.8253 97.4075
4244 6 45.2685 17.9833 97.4075
4245 6 44.0226 20.1413 97.4075
4246 6 45.2685 22.2993 97.4075
4247 6 44.0226 24.4573 97.4075
4248 6 45.2685 26.6153 97.4075
4249 6 46.5144 2.87733 97.4075
4250 6 47.7604 5.03533 97.4075
4251 6 46.5144 7.19333 97.4075
4252 6 47.7604 9.35134 97.4075
4253 6 46.5144 11.5093 97.4075
4254 6 47.7604 13.6673 97.4075
4255 6 46.5144 15.8253 97.4075
4256 6 47.7604 17.9833 97.4075
4257 6 46.5144 20.1413 97.4075
4258 6 47.7604 22.2993 97.4075
4259 6 46.5144 24.4573 97.4075
4260 6 47.7604 26.6153 97.4075
4261 6 49.0063 2.87733 97.4075
4262 6 50.2522 5.03533 97.4075
4263 6 49.0063 7.19333 97.4075
4264 6 50.2522 9.35134 97.4075
4265 6 49.0063 11.5093 97.4075
4266 6 50.2522 13.6673 97.4075
4267 6 49.0063 15.8253 97.4075
4268 6 50.2522 17.9833 97.4075
4269 6 49.0063 20.1413 97.4075
4270 6 50.2522 22.2993 97.4075
4271 6 49.0063 24.4573 97.4075
4272 6 50.2522 26.6153 97.4075
4273 6 51.4981 2.87733 97.4075
4274 6 52.744 5.03533 97.4075
4275 6 51.4981 7.19333 97.4075
4276 6 52.744 9.35134 97.4075
4277 6 51.4981 11.5093 97.4075
4278 6 52.744 13.6673 97.4075
4279 6 51.4981 15.8253 97.4075
4280 6 52.744 17.9833 97.4075
4281 6 51.4981 20.1413 97.4075
4282 6 52.744 22.2993 97.4075
4283 6 51.4981 24.4573 97.4075
4284 6 52.744 26.6153 97.4075
4285 6 53.99 2.87733 97.4075
4286 6 55.2359 5.03533 97.4075
4287 6 53.99 7.19333 97.4075
4288 6 55.2359 9.35134 97.4075
4289 6 53.99 11.5093 97.4075
4290 6 55.2359 13.6673 97.4075
4291 6 53.99 15.8253 97.4075
4292 6 55.2359 17.9833 97.4075
4293 6 53.99 20.1413 97.4075
4294 6 55.2359 22.2993 97.4075
4295 6 53.99 24.4573 97.4075
4296 6 55.2359 26.6153 97.4075
4297 6 56.4818 2.87733 97.4075
4298 6 57.7277 5.03533 97.4075
4299 6 56.4818 7.19333 97.4075
4300 6 57.7277 9.35134 97.4075
4301 6 56.4818 11.5093 97.4075
4302 6 57.7277 13.6673 97.4075
4303 6 56.4818 15.8253 97.4075
4304 6 57.7277 17.9833 97.4075
4305 6 56.4818 20.1413 97.4075
4306 6 57.7277 22.2993 97.4075
4307 6 56.4818 24.4573 97.4075
4308 6 57.7277 26.6153 97.4075
4309 6 58.9736 2.87733 97.4075
4310 6 60.2196 5.03533 97.4075
4311 6 58.9736 7.19333 97.4075
4312 6 60.2196 9.35134 97.4075
4313 6 58.9736 11.5093 97.4075
4314 6 60.2196 13.6673 97.4075
4315 6 58.9736 15.8253 97.4075
4316 6 60.2196 17.9833 97.4075
4317 6 58.9736 20.1413 97.4075
4318 6 60.2196 22.2993 97.4075
4319 6 58.9736 24.4573 97.4075
4320 6 60.2196 26.6153 97.4075
4321 6 61.4655 2.87733 97.4075
4322 6 62.7114 5.03533 97.4075
4323 6 61.4655 7.19333 97.4075
4324 6 62.7114 9.35134 97.4075
4325 6 61.4655 11.5093 97.4075
4326 6 62.7114 13.6673 97.4075
4327 6 61.4655 15.8253 97.4075
4328 6 62.7114 17.9833 97.4075
4329 6 61.4655 20.1413 97.4075
4330 6 62.7114 22.2993 97.4075
4331 6 61.4655 24.4573 97.4075
4332 6 62.7114 26.6153 97.4075
4333 6 63.9573 2.87733 97.4075
4334 6 65.2033 5.03533 97.4075
4335 6 63.9573 7.19333 97.4075
4336 6 65.2033 9.35134 97.4075
4337 6 63.9573 11.5093 97.4075
4338 6 65.2033 13.6673 97.4075
4339 6 63.9573 15.8253 97.4075
4340 6 65.2033 17.9833 97.4075
4341 6 63.9573 20.1413 97.4075
4342 6 65.2033 22.2993 97.4075
4343 6 63.9573 24.4573 97.4075
4344 6 65.2033 26.6153 97.4075
4345 6 66.4492 2.87733 97.4075
4346 6 67.6951 5.03533 97.4075
4347 6 66.4492 7.19333 97.4075
4348 6 67.6951 9.35134 97.4075
4349 6 66.4492 11.5093 97.4075
4350 6 67.6951 13.6673 97.4075
4351 6 66.4492 15.8253 97.4075
4352 6 67.6951 17.9833 97.4075
4353 6 66.4492 20.1413 97.4075
4354 6 67.6951 22.2993 97.4075
4355 6 66.4492 24.4573 97.4075
4356 6 67.6951 26.6153 97.4075
4357 6 68.941 2.87733 97.4075
4358 6 70.1869 5.03533 97.4075
4359 6 68.941 7.19333 97.4075
4360 6 70.1869 9.35134 97.4075
4361 6 68.941 11.5093 97.4075
4362 6 70.1869 13.6673 97.4075
4363 6 68.941 15.8253 97.4075
4364 6 70.1869 17.9833 97.4075
4365 6 68.941 20.1413 97.4075
4366 6 70.1869 22.2993 97.4075
4367 6 68.941 24.4573 97.4075
4368 6 70.1869 26.6153 97.4075
4369 6 71.4329 2.87733 97.4075
4370 6 72.6788 5.03533 97.4075
4371 6 71.4329 7.19333 97.4075
4372 6 72.6788 9.35134 97.4075
4373 6 71.4329 11.5093 97.4075
4374 6 72.6788 13.6673 97.4075
4375 6 71.4329 15.8253 97.4075
4376 6 72.6788 17.9833 97.4075
4377 6 71.4329 20.1413 97.4075
4378 6 72.6788 22.2993 97.4075
4379 6 71.4329 24.4573 97.4075
4380 6 72.6788 26.6153 97.4075
4381 6 73.9247 2.87733 97.4075
4382 6 75.1706 5.03533 97.4075
4383 6 73.9247 7.19333 97.4075
4384 6 75.1706 9.35134 97.4075
4385 6 73.9247 11.5093 97.4075
4386 6 75.1706 13.6673 97.4075
4387 6 73.9247 15.8253 97.4075
4388 6 75.1706 17.9833 97.4075
4389 6 73.9247 20.1413 97.4075
4390 6 75.1706 22.2993 97.4075
4391 6 73.9247 24.4573 97.4075
4392 6 75.1706 26.6153 97.4075
4393 6 76.4166 2.87733 97.4075
4394 6 77.6625 5.03533 97.4075
4395 6 76.4166 7.19333 97.4075
4396 6 77.6625 9.35134 97.4075
4397 6 76.4166 11.5093 97.4075
4398 6 77.6625 13.6673 97.4075
4399 6 76.4166 15.8253 97.4075
4400 6 77.6625 17.9833 97.4075
4401 6 76.4166 20.1413 97.4075
4402 6 77.6625 22.2993 97.4075
4403 6 76.4166 24.4573 97.4075
4404 6 77.6625 26.6153 97.4075
4405 6 78.9084 2.87733 97.4075
4406 6 80.1543 5.03533 97.4075
4407 6 78.9084 7.19333 97.4075
4408 6 80.1543 9.35134 97.4075
4409 6 78.9084 11.5093 97.4075
4410 6 80.1543 13.6673 97.4075
4411 6 78.9084 15.8253 97.4075
4412 6 80.1543 17.9833 97.4075
4413 6 78.9084 20.1413 97.4075
4414 6 80.1543 22.2993 97.4075
4415 6 78.9084 24.4573 97.4075
4416 6 80.1543 26.6153 97.4075
4417 6 81.4002 2.87733 97.4075
4418 6 82.6462 5.03533 97.4075
4419 6 81.4002 7.19333 97.4075
4420 6 82.6462 9.35134 97.4075
4421 6 81.4002 11.5093 97.4075
4422 6 82.6462 13.6673 97.4075
4423 6 81.4002 15.8253 97.4075
4424 6 82.6462 17.9833 97.4075
4425 6 81.4002 20.1413 97.4075
4426 6 82.6462 22.2993 97.4075
4427 6 81.4002 24.4573 97.4075
4428 6 82.6462 26.6153 97.4075
4429 6 83.8921 2.87733 97.4075
4430 6 85.138 5.03533 97.4075
4431 6 83.8921 7.19333 97.4075
4432 6 85.138 9.35134 97.4075
4433 6 83.8921 11.5093 97.4075
4434 6 85.138 13.6673 97.4075
4435 6 83.8921 15.8253 97.4075
4436 6 85.138 17.9833 97.4075
4437 6 83.8921 20.1413 97.4075
4438 6 85.138 22.2993 97.4075
4439 6 83.8921 24.4573 97.4075
4440 6 85.138 26.6153 97.4075
4441 6 86.3839 2.87733 97.4075
4442 6 87.6299 5.03533 97.4075
4443 6 86.3839 7.19333 97.4075
4444 6 87.6299 9.35134 97.4075
4445 6 86.3839 11.5093 97.4075
4446 6 87.6299 13.6673 97.4075
4447 6 86.3839 15.8253 97.4075
4448 6 87.6299 17.9833 97.4075
4449 6 86.3839 20.1413 97.4075
4450 6 87.6299 22.2993 97.4075
4451 6 86.3839 24.4573 97.4075
4452 6 87.6299 26.6153 97.4075
4453 6 88.8758 2.87733 97.4075
4454 6 90.1217 5.03533 97.4075
4455 6 88.8758 7.19333 97.4075
4456 6 90.1217 9.35134 97.4075
4457 6 88.8758 11.5093 97.4075
4458 6 90.1217 13.6673 97.4075
4459 6 88.8758 15.8253 97.4075
4460 6 90.1217 17.9833 97.4075
4461 6 88.8758 20.1413 97.4075
4462 6 90.1217 22.2993 97.4075
4463 6 88.8758 24.4573 97.4075
4464 6 90.1217 26.6153 97.4075
4465 6 91.3676 2.87733 97.4075
4466 6 92.6136 5.03533 97.4075
4467 6 91.3676 7.19333 97.4075
4468 6 92.6136 9.35134 97.4075
4469 6 91.3676 11.5093 97.4075
4470 6 92.6136 13.6673 97.4075
4471 6 91.3676 15.8253 97.4075
4472 6 92.6136 17.9833 97.4075
4473 6 91.3676 20.1413 97.4075
4474 6 92.6136 22.2993 97.4075
4475 6 91.3676 24.4573 97.4075
4476 6 92.6136 26.6153 97.4075
4477 6 93.8595 2.87733 97.4075
4478 6 95.1054 5.03533 97.4075
4479 6 93.8595 7.19333 97.4075
4480 6 95.1054 9.35134 97.4075
4481 6 93.8595 11.5093 97.4075
4482 6 95.1054 13.6673 97.4075
4483 6 93.8595 15.8253 97.4075
4484 6 95.1054 17.9833 97.4075
4485 6 93.8595 20.1413 97.4075
4486 6 95.1054 22.2993 97.4075
4487 6 93.8595 24.4573 97.4075
4488 6 95.1054 26.6153 97.4075
4489 6 96.3513 2.87733 97.4075
4490 6 97.5972 5.03533 97.4075
4491 6 96.3513 7.19333 97.4075
4492 6 97.5972 9.35134 97.4075
4493 6 96.3513 11.5093 97.4075
4494 6 97.5972 13.6673 97.4075
4495 6 96.3513 15.8253 97.4075
4496 6 97.5972 17.9833 97.4075
4497 6 96.3513 20.1413 97.4075
4498 6 97.5972 22.2993 97.4075
4499 6 96.3513 24.4573 97.4075
4500 6 97.5972 26.6153 97.4075
4501 6 98.8432 2.87733 97.4075
4502 6 100.089 5.03533 97.4075
4503 6 98.8432 7.19333 97.4075
4504 6 100.089 9.35134 97.4075
4505 6 98.8432 11.5093 97.4075
4506 6 100.089 13.6673 97.4075
4507 6 98.8432 15.8253 97.4075
4508 6 100.089 17.9833 97.4075
4509 6 98.8432 20.1413 97.4075
4510 6 100.089 22.2993 97.4075
4511 6 98.8432 24.4573 97.4075
4512 6 100.089 26.6153 97.4075
4513 6 101.335 2.87733 97.4075
4514 6 102.581 5.03533 97.4075
4515 6 101.335 7.19333 97.4075
4516 6 102.581 9.35134 97.4075
4517 6 101.335 11.5093 97.4075
4518 6 102.581 13.6673 97.4075
4519 6 101.335 15.8253 97.4075
4520 6 102.581 17.9833 97.4075
4521 6 101.335 20.1413 97.4075
4522 6 102.581 22.2993 97.4075
4523 6 101.335 24.4573 97.4075
4524 6 102.581 26.6153 97.4075
4525 6 103.827 2.87733 97.4075
4526 6 105.073 5.03533 97.4075
4527 6 103.827 7.19333 97.4075
4528 6 105.073 9.35134 97.4075
4529 6 103.827 11.5093 97.4075
4530 6 105.073 13.6673 97.4075
4531 6 103.827 15.8253 97.4075
4532 6 105.073 17.9833 97.4075
4533 6 103.827 20.1413 97.4075
4534 6 105.073 22.2993 97.4075
4535 6 103.827 24.4573 97.4075
4536 6 105.073 26.6153 97.4075
4537 6 106.319 2.87733 97.4075
4538 6 107.565 5.03533 97.4075
4539 6 106.319 7.19333 97.4075
4540 6 107.565 9.35134 97.4075
4541 6 106.319 11.5093 97.4075
4542 6 107.565 13.6673 97.4075
4543 6 106.319 15.8253 97.4075
4544 6 107.565 17.9833 97.4075
4545 6 106.319 20.1413 97.4075
4546 6 107.565 22.2993 97.4075
4547 6 106.319 24.4573 97.4075
4548 6 107.565 26.6153 97.4075
4549 6 108.811 2.87733 97.4075
4550 6 110.056 5.03533 97.4075
4551 6 108.811 7.19333 97.4075
4552 6 110.056 9.35134 97.4075
4553 6 108.811 11.5093 97.4075
4554 6 110.056 13.6673 97.4075
4555 6 108.811 15.8253 97.4075
4556 6 110.056 17.9833 97.4075
4557 6 108.811 20.1413 97.4075
4558 6 110.056 22.2993 97.4075
4559 6 108.811 24.4573 97.4075
4560 6 110.056 26.6153 97.4075
4561 6 111.302 2.87733 97.4075
4562 6 112.548 5.03533 97.4075
4563 6 111.302 7.19333 97.4075
4564 6 112.548 9.35134 97.4075
4565 6 111.302 11.5093 97.4075
4566 6 112.548 13.6673 97.4075
4567 6 111.302 15.8253 97.4075
4568 6 112.548 17.9833 97.4075
4569 6 111.302 20.1413 97.4075
4570 6 112.548 22.2993 97.4075
4571 6 111.302 24.4573 97.4075
4572 6 112.548 26.6153 97.4075
4573 6 113.794 2.87733 97.4075
4574 6 115.04 5.03533 97.4075
4575 6 113.794 7.19333 97.4075
4576 6 115.04 9.35134 97.4075
4577 6 113.794 11.5093 97.4075
4578 6 115.04 13.6673 97.4075
4579 6 113.794 15.8253 97.4075
4580 6 115.04 17.9833 97.4075
4581 6 113.794 20.1413 97.4075
4582 6 115.04 22.2993 97.4075
4583 6 113.794 24.4573 97.4075
4584 6 115.04 26.6153 97.4075
4585 6 116.286 2.87733 97.4075
4586 6 117.532 5.03533 97.4075
4587 6 116.286 7.19333 97.4075
4588 6 117.532 9.35134 97.4075
4589 6 116.286 11.5093 97.4075
4590 6 117.532 13.6673 97.4075
4591 6 116.286 15.8253 97.4075
4592 6 117.532 17.9833 97.4075
4593 6 116.286 20.1413 97.4075
4594 6 117.532 22.2993 97.4075
4595 6 116.286 24.4573 97.4075
4596 6 117.532 26.6153 97.4075
4597 6 118.778 2.87733 97.4075
4598 6 0.02383 5.03533 97.4075
4599 6 118.778 7.19333 97.4075
4600 6 0.02383 9.35134 97.4075
4601 6 118.778 11.5093 97.4075
4602 6 0.02383 13.6673 97.4075
4603 6 118.778 15.8253 97.4075
4604 6 0.02383 17.9833 97.4075
4605 6 118.778 20.1413 97.4075
4606 6 0.02383 22.2993 97.4075
4607 6 118.778 24.4573 97.4075
4608 6 0.02383 26.6153 97.4075
4609 6 0 0 99.4421
4610 6 1.24592 2.158 99.4421
4611 6 0 4.316 99.4421
4612 6 1.24592 6.474 99.4421
4613 6 0 8.632 99.4421
4614 6 1.24592 10.79 99.4421
4615 6 0 12.948 99.4421
4616 6 1.24592 15.106 99.4421
4617 6 0 17.264 99.4421
4618 6 1.24592 19.422 99.4421
4619 6 0 21.58 99.4421
4620 6 1.24592 23.738 99.4421
4621 6 2.49184 0 99.4421
4622 6 3.73777 2.158 99.4421
4623 6 2.49184 4.316 99.4421
4624 6 3.73777 6.474 99.4421
4625 6 2.49184 8.632 99.4421
4626 6 3.73777 10.79 99.4421
4627 6 2.49184 12.948 99.4421
4628 6 3.73777 15.106 99.4421
4629 6 2.49184 17.264 99.4421
4630 6 3.73777 19.422 99.4421
4631 6 2.49184 21.58 99.4421
4632 6 3.73777 23.738 99.4421
4633 6 4.98369 0 99.4421
4634 6 6.22961 2.158 99.4421
4635 6 4.98369 4.316 99.4421
4636 6 6.22961 6.474 99.4421
4637 6 4.98369 8.632 99.4421
4638 6 6.22961 10.79 99.4421
4639 6 4.98369 12.948 99.4421
4640 6 6.22961 15.106 99.4421
4641 6 4.98369 17.264 99.4421
4642 6 6.22961 19.422 99.4421
4643 6 4.98369 21.58 99.4421
4644 6 6.22961 23.738 99.4421
4645 6 7.47553 0 99.4421
4646 6 8.72146 2.158 99.4421
4647 6 7.47553 4.316 99.4421
4648 6 8.72146 6.474 99.4421
4649 6 7.47553 8.632 99.4421
4650 6 8.72146 10.79 99.4421
4651 6 7.47553 12.948 99.4421
4652 6 8.72146 15.106 99.4421
4653 6 7.47553 17.264 99.4421
4654 6 8.72146 19.422 99.4421
4655 6 7.47553 21.58 99.4421
4656 6 8.72146 23.738 99.4421
4657 6 9.96738 0 99.4421
4658 6 11.2133 2.158 99.4421
4659 6 9.96738 4.316 99.4421
4660 6 11.2133 6.474 99.4421
4661 6 9.96738 8.632 99.4421
4662 6 11.2133 10.79 99.4421
4663 6 9.96738 12.948 99.4421
4664 6 11.2133 15.106 99.4421
4665 6 9.96738 17.264 99.4421
4666 6 11.2133 19.422 99.4421
4667 6 9.96738 21.58 99.4421
4668 6 11.2133 23.738 99.4421
4669 6 12.4592 0 99.4421
4670 6 13.7051 2.158 99.4421
4671 6 12.4592 4.316 99.4421
4672 6 13.7051 6.474 99.4421
4673 6 12.4592 8.632 99.4421
4674 6 13.7051 10.79 99.4421
4675 6 12.4592 12.948 99.4421
4676 6 13.7051 15.106 99.4421
4677 6 12.4592 17.264 99.4421
4678 6 13.7051 19.422 99.4421
4679 6 12.4592 21.58 99.4421
4680 6 13.7051 23.738 99.4421
4681 6 14.9511 0 99.4421
4682 6 16.197 2.158 99.4421
4683 6 14.9511 4.316 99.4421
4684 6 16.197 6.474 99.4421
4685 6 14.9511 8.632 99.4421
4686 6 16.197 10.79 99.4421
4687 6 14.9511 12.948 99.4421
4688 6 16.197 15.106 99.4421
4689 6 14.9511 17.264 99.4421
4690 6 16.197 19.422 99.4421
4691 6 14.9511 21.58 99.4421
4692 6 16.197 23.738 99.4421
4693 6 17.4429 0 99.4421
4694 6 18.6888 2.158 99.4421
4695 6 17.4429 4.316 99.4421
4696 6 18.6888 6.474 99.4421
4697 6 17.4429 8.632 99.4421
4698 6 18.6888 10.79 99.4421
4699 6 17.4429 12.948 99.4421
4700 6 18.6888 15.106 99.4421
4701 6 17.4429 17.264 99.4421
4702 6 18.6888 19.422 99.4421
4703 6 17.4429 21.58 99.4421
4704 6 18.6888 23.738 99.4421
4705 6 19.9348 0 99.4421
4706 6 21.1807 2.158 99.4421
4707 6 19.9348 4.316 99.4421
4708 6 21.1807 6.474 99.4421
4709 6 19.9348 8.632 99.4421
4710 6 21.1807 10.79 99.4421
4711 6 19.9348 12.948 99.4421
4712 6 21.1807 15.106 99.4421
4713 6 19.9348 17.264 99.4421
4714 6 21.1807 19.422 99.4421
4715 6 19.9348 21.58 99.4421
4716 6 21.1807 23.738 99.4421
4717 6 22.4266 0 99.4421
4718 6 23.6725 2.158 99.4421
4719 6 22.4266 4.316 99.4421
4720 6 23.6725 6.474 99.4421
4721 6 22.4266 8.632 99.4421
4722 6 23.6725 10.79 99.4421
4723 6 22.4266 12.948 99.4421
4724 6 23.6725 15.106 99.4421
4725 6 22.4266 17.264 99.4421
4726 6 23.6725 19.422 99.4421
4727 6 22.4266 21.58 99.4421
4728 6 23.6725 23.738 99.4421
4729 6 24.9184 0 99.4421
4730 6 26.1644 2.158 99.4421
4731 6 24.9184 4.316 99.4421
4732 6 26.1644 6.474 99.4421
4733 6 24.9184 8.632 99.4421
4734 6 26.1644 10.79 99.4421
4735 6 24.9184 12.948 99.4421
4736 6 26.1644 15.106 99.4421
4737 6 24.9184 17.264 99.4421
4738 6 26.1644 19.422 99.4421
4739 6 24.9184 21.58 99.4421
4740 6 26.1644 23.738 99.4421
4741 6 27.4103 0 99.4421
4742 6 28.6562 2.158 99.4421
4743 6 27.4103 4.316 99.4421
4744 6 28.6562 6.474 99.4421
4745 6 27.4103 8.632 99.4421
4746 6 28.6562 10.79 99.4421
4747 6 27.4103 12.948 99.4421
4748 6 28.6562 15.106 99.4421
4749 6 27.4103 17.264 99.4421
4750 6 28.6562 19.422 99.4421
4751 6 27.4103 21.58 99.4421
4752 6 28.6562 23.738 99.4421
4753 6 29.9021 0 99.4421
4754 6 31.1481 2.158 99.4421
4755 6 29.9021 4.316 99.4421
4756 6 31.1481 6.474 99.4421
4757 6 29.9021 8.632 99.4421
4758 6 31.1481 10.79 99.4421
4759 6 29.9021 12.948 99.4421
4760 6 31.1481 15.106 99.4421
4761 6 29.9021 17.264 99.4421
4762 6 31.1481 19.422 99.4421
4763 6 29.9021 21.58 99.4421
4764 6 31.1481 23.738 99.4421
4765 6 32.394 0 99.4421
4766 6 33.6399 2.158 99.4421
4767 6 32.394 4.316 99.4421
4768 6 33.6399 6.474 99.4421
4769 6 32.394 8.632 99.4421
4770 6 33.6399 10.79 99.4421
4771 6 32.394 12.948 99.4421
4772 6 33.6399 15.106 99.4421
4773 6 32.394 17.264 99.4421
4774 6 33.6399 19.422 99.4421
4775 6 32.394 21.58 99.4421
4776 6 33.6399 23.738 99.4421
4777 6 34.8858 0 99.4421
4778 6 36.1317 2.158 99.4421
4779 6 34.8858 4.316 99.4421
4780 6 36.1317 6.474 99.4421
4781 6 34.8858 8.632 99.4421
4782 6 36.1317 10.79 99.4421
4783 6 34.8858 12.948 99.4421
4784 6 36.1317 15.106 99.4421
4785 6 34.8858 17.264 99.4421
4786 6 36.1317 19.422 99.4421
4787 6 34.8858 21.58 99.4421
4788 6 36.1317 23.738 99.4421
4789 6 37.3777 0 99.4421
4790 6 38.6236 2.158 99.4421
4791 6 37.3777 4.316 99.4421
4792 6 38.6236 6.474 99.4421
4793 6 37.3777 8.632 99.4421
4794 6 38.6236 10.79 99.4421
4795 6 37.3777 12.948 99.4421
4796 6 38.6236 15.106 99.4421
4797 6 37.3777 17.264 99.4421
4798 6 38.6236 19.422 99.4421
4799 6 37.3777 21.58 99.4421
4800 6 38.6236 23.738 99.4421
4801 6 39.8695 0 99.4421
4802 6 41.1154 2.158 99.4421
4803 6 39.8695 4.316 99.4421
4804 6 41.1154 6.474 99.4421
4805 6 39.8695 8.632 99.4421
4806 6 41.1154 10.79 99.4421
4807 6 39.8695 12.948 99.4421
4808 6 41.1154 15.106 99.4421
4809 6 39.8695 17.264 99.4421
4810 6 41.1154 19.422 99.4421
4811 6 39.8695 21.58 99.4421
4812 6 41.1154 23.738 99.4421
4813 6 42.3614 0 99.4421
4814 6 43.6073 2.158 99.4421
4815 6 42.3614 4.316 99.4421
4816 6 43.6073 6.474 99.4421
4817 6 42.3614 8.632 99.4421
4818 6 43.6073 10.79 99.4421
4819 6 42.3614 12.948 99.4421
4820 6 43.6073 15.106 99.4421
4821 6 42.3614 17.264 99.4421
4822 6 43.6073 19.422 99.4421
4823 6 42.3614 21.58 99.4421
4824 6 43.6073 23.738 99.4421
4825 6 44.8532 0 99.4421
4826 6 46.0991 2.158 99.4421
4827 6 44.8532 4.316 99.4421
4828 6 46.0991 6.474 99.4421
4829 6 44.8532 8.632 99.4421
4830 6 46.0991 10.79 99.4421
4831 6 44.8532 12.948 99.4421
4832 6 46.0991 15.106 99.4421
4833 6 44.8532 17.264 99.4421
4834 6 46.0991 19.422 99.4421
4835 6 44.8532 21.58 99.4421
4836 6 46.0991 23.738 99.4421
4837 6 47.345 0 99.4421
4838 6 48.591 2.158 99.4421
4839 6 47.345 4.316 99.4421
4840 6 48.591 6.474 99.4421
4841 6 47.345 8.632 99.4421
4842 6 48.591 10.79 99.4421
4843 6 47.345 12.948 99.4421
4844 6 48.591 15.106 99.4421
4845 6 47.345 17.264 99.4421
4846 6 48.591 19.422 99.4421
4847 6 47.345 21.58 99.4421
4848 6 48.591 23.738 99.4421
4849 6 49.8369 0 99.4421
4850 6 51.0828 2.158 99.4421
4851 6 49.8369 4.316 99.4421
4852 6 51.0828 6.474 99.4421
4853 6 49.8369 8.632 99.4421
4854 6 51.0828 10.79 99.4421
4855 6 49.8369 12.948 99.4421
4856 6 51.0828 15.106 99.4421
4857 6 49.8369 17.264 99.4421
4858 6 51.0828 19.422 99.4421
4859 6 49.8369 21.58 99.4421
4860 6 51.0828 23.738 99.4421
4861 6 52.3287 0 99.4421
4862 6 53.5746 2.158 99.4421
4863 6 52.3287 4.316 99.4421
4864 6 53.5746 6.474 99.4421
4865 6 52.3287 8.632 99.4421
4866 6 53.5746 10.79 99.4421
4867 6 52.3287 12.948 99.4421
4868 6 53.5746 15.106 99.4421
4869 6 52.3287 17.264 99.4421
4870 6 53.5746 19.422 99.4421
4871 6 52.3287 21.58 99.4421
4872 6 53.5746 23.738 99.4421
4873 6 54.8206 0 99.4421
4874 6 56.0665 2.158 99.4421
4875 6 54.8206 4.316 99.4421
4876 6 56.0665 6.474 99.4421
4877 6 54.8206 8.632 99.4421
4878 6 56.0665 10.79 99.4421
4879 6 54.8206 12.948 99.4421
4880 6 56.0665 15.106 99.4421
4881 6 54.8206 17.264 99.4421
4882 6 56.0665 19.422 99.4421
4883 6 54.8206 21.58 99.4421
4884 6 56.0665 23.738 99.4421
4885 6 57.3124 0 99.4421
4886 6 58.5583 2.158 99.4421
4887 6 57.3124 4.316 99.4421
4888 6 58.5583 6.474 99.4421
4889 6 57.3124 8.632 99.4421
4890 6 58.5583 10.79 99.4421
4891 6 57.3124 12.948 99.4421
4892 6 58.5583 15.106 99.4421
4893 6 57.3124 17.264 99.4421
4894 6 58.5583 19.422 99.4421
4895 6 57.3124 21.58 99.4421
4896 6 58.5583 23.738 99.4421
4897 6 59.8043 0 99.4421
4898 6 61.0502 2.158 99.4421
4899 6 59.8043 4.316 99.4421
4900 6 61.0502 6.474 99.4421
4901 6 59.8043 8.632 99.4421
4902 6 61.0502 10.79 99.4421
4903 6 59.8043 12.948 99.4421
4904 6 61.0502 15.106 99.4421
4905 6 59.8043 17.264 99.4421
4906 6 61.0502 19.422 99.4421
4907 6 59.8043 21.58 99.4421
4908 6 61.0502 23.738 99.4421
4909 6 62.2961 0 99.4421
4910 6 63.542 2.158 99.4421
4911 6 62.2961 4.316 99.4421
4912 6 63.542 6.474 99.4421
4913 6 62.2961 8.632 99.4421
4914 6 63.542 10.79 99.4421
4915 6 62.2961 12.948 99.4421
4916 6 63.542 15.106 99.4421
4917 6 62.2961 17.264 99.4421
4918 6 63.542 19.422 99.4421
4919 6 62.2961 21.58 99.4421
4920 6 63.542 23.738 99.4421
4921 6 64.7879 0 99.4421
4922 6 66.0339 2.158 99.4421
4923 6 64.7879 4.316 99.4421
4924 6 66.0339 6.474 99.4421
4925 6 64.7879 8.632 99.4421
4926 6 66.0339 10.79 99.4421
4927 6 64.7879 12.948 99.4421
4928 6 66.0339 15.106 99.4421
4929 6 64.7879 17.264 99.4421
4930 6 66.0339 19.422 99.4421
4931 6 64.7879 21.58 99.4421
4932 6 66.0339 23.738 99.4421
4933 6 67.2798 0 99.4421
4934 6 68.5257 2.158 99.4421
4935 6 67.2798 4.316 99.4421
4936 6 68.5257 6.474 99.4421
4937 6 67.2798 8.632 99.4421
4938 6 68.5257 10.79 99.4421
4939 6 67.2798 12.948 99.4421
4940 6 68.5257 15.106 99.4421
4941 6 67.2798 17.264 99.4421
4942 6 68.5257 19.422 99.4421
4943 6 67.2798 21.58 99.4421
4944 6 68.5257 23.738 99.4421
4945 6 69.7716 0 99.4421
4946 6 71.0176 2.158 99.4421
4947 6 69.7716 4.316 99.4421
4948 6 71.0176 6.474 99.4421
4949 6 69.7716 8.632 99.4421
4950 6 71.0176 10.79 99.4421
4951 6 69.7716 12.948 99.4421
4952 6 71.0176 15.106 99.4421
4953 6 69.7716 17.264 99.4421
4954 6 71.0176 19.422 99.4421
4955 6 69.7716 21.58 99.4421
4956 6 71.0176 23.738 99.4421
4957 6 72.2635 0 99.4421
4958 6 73.5094 2.158 99.4421
4959 6 72.2635 4.316 99.4421
4960 6 73.5094 6.474 99.4421
4961 6 72.2635 8.632 99.4421
4962 6 73.5094 10.79 99.4421
4963 6 72.2635 12.948 99.4421
4964 6 73.5094 15.106 99.4421
4965 6 72.2635 17.264 99.4421
4966 6 73.5094 19.422 99.4421
4967 6 72.2635 21.58 99.4421
4968 6 73.5094 23.738 99.4421
4969 6 74.7553 0 99.4421
4970 6 76.0012 2.158 99.4421
4971 6 74.7553 4.316 99.4421
4972 6 76.0012 6.474 99.4421
4973 6 74.7553 8.632 99.4421
4974 6 76.0012 10.79 99.4421
4975 6 74.7553 12.948 99.4421
4976 6 76.0012 15.106 99.4421
4977 6 74.7553 17.264 99.4421
4978 6 76.0012 19.422 99.4421
4979 6 74.7553 21.58 99.4421
4980 6 76.0012 23.738 99.4421
4981 6 77.2472 0 99.4421
4982 6 78.4931 2.158 99.4421
4983 6 77.2472 4.316 99.4421
4984 6 78.4931 6.474 99.4421
4985 6 77.2472 8.632 99.4421
4986 6 78.4931 10.79 99.4421
4987 6 77.2472 12.948 99.4421
4988 6 78.4931 15.106 99.4421
4989 6 77.2472 17.264 99.4421
4990 6 78.4931 19.422 99.4421
4991 6 77.2472 21.58 99.4421
4992 6 78.4931 23.738 99.4421
4993 6 79.739 0 99.4421
4994 6 80.9849 2.158 99.4421
4995 6 79.739 4.316 99.4421
4996 6 80.9849 6.474 99.4421
4997 6 79.739 8.632 99.4421
4998 6 80.9849 10.79 99.4421
4999 6 79.739 12.948 99.4421
5000 6 80.9849 15.106 99.4421
5001 6 79.739 17.264 99.4421
5002 6 80.9849 19.422 99.4421
5003 6 79.739 21.58 99.4421
5004 6 80.9849 23.738 99.4421
5005 6 82.2309 0 99.4421
5006 6 83.4768 2.158 99.4421
5007 6 82.2309 4.316 99.4421
5008 6 83.4768 6.474 99.4421
5009 6 82.2309 8.632 99.4421
5010 6 83.4768 10.79 99.4421
5011 6 82.2309 12.948 99.4421
5012 6 83.4768 15.106 99.4421
5013 6 82.2309 17.264 99.4421
5014 6 83.4768 19.422 99.4421
5015 6 82.2309 21.58 99.4421
5016 6 83.4768 23.738 99.4421
5017 6 84.7227 0 99.4421
5018 6 85.9686 2.158 99.4421
5019 6 84.7227 4.316 99.4421
5020 6 85.9686 6.474 99.4421
5021 6 84.7227 8.632 99.4421
5022 6 85.9686 10.79 99.4421
5023 6 84.7227 12.948 99.4421
5024 6 85.9686 15.106 99.4421
5025 6 84.7227 17.264 99.4421
5026 6 85.9686 19.422 99.4421
5027 6 84.7227 21.58 99.4421
5028 6 85.9686 23.738 99.4421
5029 6 87.2146 0 99.4421
5030 6 88.4605 2.158 99.4421
5031 6 87.2146 4.316 99.4421
5032 6 88.4605 6.474 99.4421
5033 6 87.2146 8.632 99.4421
5034 6 88.4605 10.79 99.4421
5035 6 87.2146 12.948 99.4421
5036 6 88.4605 15.106 99.4421
5037 6 87.2146 17.264 99.4421
5038 6 88.4605 19.422 99.4421
5039 6 87.2146 21.58 99.4421
5040 6 88.4605 23.738 99.4421
5041 6 89.7064 0 99.4421
5042 6 90.9523 2.158 99.4421
5043 6 89.7064 4.316 99.4421
5044 6 90.9523 6.474 99.4421
5045 6 89.7064 8.632 99.4421
5046 6 90.9523 10.79 99.4421
5047 6 89.7064 12.948 99.4421
5048 6 90.9523 15.106 99.4421
5049 6 89.7064 17.264 99.4421
5050 6 90.9523 19.422 99.4421
5051 6 89.7064 21.58 99.4421
5052 6 90.9523 23.738 99.4421
5053 6 92.1982 0 99.4421
5054 6 93.4442 2.158 99.4421
5055 6 92.1982 4.316 99.4421
5056 6 93.4442 6.474 99.4421
5057 6 92.1982 8.632 99.4421
5058 6 93.4442 10.79 99.4421
5059 6 92.1982 12.948 99.4421
5060 6 93.4442 15.106 99.4421
5061 6 92.1982 17.264 99.4421
5062 6 93.4442 19.422 99.4421
5063 6 92.1982 21.58 99.4421
5064 6 93.4442 23.738 99.4421
5065 6 94.6901 0 99.4421
5066 6 95.936 2.158 99.4421
5067 6 94.6901 4.316 99.4421
5068 6 95.936 6.474 99.4421
5069 6 94.6901 8.632 99.4421
5070 6 95.936 10.79 99.4421
5071 6 94.6901 12.948 99.4421
5072 6 95.936 15.106 99.4421
5073 6 94.6901 17.264 99.4421
5074 6 95.936 19.422 99.4421
5075 6 94.6901 21.58 99.4421
5076 6 95.936 23.738 99.4421
5077 6 97.1819 0 99.4421
5078 6 98.4279 2.158 99.4421
5079 6 97.1819 4.316 99.4421
5080 6 98.4279 6.474 99.4421
5081 6 97.1819 8.632 99.4421
5082 6 98.4279 10.79 99.4421
5083 6 97.1819 12.948 99.4421
5084 6 98.4279 15.106 99.4421
5085 6 97.1819 17.264 99.4421
5086 6 98.4279 19.422 99.4421
5087 6 97.1819 21.58 99.4421
5088 6 98.4279 23.738 99.4421
5089 6 99.6738 0 99.4421
5090 6 100.92 2.158 99.4421
5091 6 99.6738 4.316 99.4421
5092 6 100.92 6.474 99.4421
5093 6 99.6738 8.632 99.4421
5094 6 100.92 10.79 99.4421
5095 6 99.6738 12.948 99.4421
5096 6 100.92 15.106 99.4421
5097 6 99.6738 17.264 99.4421
5098 6 100.92 19.422 99.4421
5099 6 99.6738 21.58 99.4421
5100 6 100.92 23.738 99.4421
5101 6 102.166 0 99.4421
5102 6 103.412 2.158 99.4421
5103 6 102.166 4.316 99.4421
5104 6 103.412 6.474 99.4421
5105 6 102.166 8.632 99.4421
5106 6 103.412 10.79 99.4421
5107 6 102.166 12.948 99.4421
5108 6 103.412 15.106 99.4421
5109 6 102.166 17.264 99.4421
5110 6 103.412 19.422 99.4421
5111 6 102.166 21.58 99.4421
5112 6 103.412 23.738 99.4421
5113 6 104.657 0 99.4421
5114 6 105.903 2.158 99.4421
5115 6 104.657 4.316 99.4421
5116 6 105.903 6.474 99.4421
5117 6 104.657 8.632 99.4421
5118 6 105.903 10.79 99.4421
5119 6 104.657 12.948 99.4421
5120 6 105.903 15.106 99.4421
5121 6 104.657 17.264 99.4421
5122 6 105.903 19.422 99.4421
5123 6 104.657 21.58 99.4421
5124 6 105.903 23.738 99.4421
5125 6 107.149 0 99.4421
5126 6 108.395 2.158 99.4421
5127 6 107.149 4.316 99.4421
5128 6 108.395 6.474 99.4421
5129 6 107.149 8.632 99.4421
5130 6 108.395 10.79 99.4421
5131 6 107.149 12.948 99.4421
5132 6 108.395 15.106 99.4421
5133 6 107.149 17.264 99.4421
5134 6 108.395 19.422 99.4421
5135 6 107.149 21.58 99.4421
5136 6 108.395 23.738 99.4421
5137 6 109.641 0 99.4421
5138 6 110.887 2.158 99.4421
5139 6 109.641 4.316 99.4421
5140 6 110.887 6.474 99.4421
5141 6 109.641 8.632 99.4421
5142 6 110.887 10.79 99.4421
5143 6 109.641 12.948 99.4421
5144 6 110.887 15.106 99.4421
5145 6 109.641 17.264 99.4421
5146 6 110.887 19.422 99.4421
5147 6 109.641 21.58 99.4421
5148 6 110.887 23.738 99.4421
5149 6 112.133 0 99.4421
5150 6 113.379 2.158 99.4421
5151 6 112.133 4.316 99.4421
5152 6 113.379 6.474 99.4421
5153 6 112.133 8.632 99.4421
5154 6 113.379 10.79 99.4421
5155 6 112.133 12.948 99.4421
5156 6 113.379 15.106 99.4421
5157 6 112.133 17.264 99.4421
5158 6 113.379 19.422 99.4421
5159 6 112.133 21.58 99.4421
5160 6 113.379 23.738 99.4421
5161 6 114.625 0 99.4421
5162 6 115.871 2.158 99.4421
5163 6 114.625 4.316 99.4421
5164 6 115.871 6.474 99.4421
5165 6 114.625 8.632 99.4421
5166 6 115.871 10.79 99.4421
5167 6 114.625 12.948 99.4421
5168 6 115.871 15.106 99.4421
5169 6 114.625 17.264 99.4421
5170 6 115.871 19.422 99.4421
5171 6 114.625 21.58 99.4421
5172 6 115.871 23.738 99.4421
5173 6 117.117 0 99.4421
5174 6 118.363 2.158 99.4421
5175 6 117.117 4.316 99.4421
5176 6 118.363 6.474 99.4421
5177 6 117.117 8.632 99.4421
5178 6 118.363 10.79 99.4421
5179 6 117.117 12.948 99.4421
5180 6 118.363 15.106 99.4421
5181 6 117.117 17.264 99.4421
5182 6 118.363 19.422 99.4421
5183 6 117.117 21.58 99.4421
5184 6 118.363 23.738 99.4421
5185 6 0.83061 1.43867 101.477
5186 6 2.07654 3.59667 101.477
5187 6 0.83061 5.75467 101.477
5188 6 2.07654 7.91267 101.477
5189 6 0.83061 10.0707 101.477
5190 6 2.07654 12.2287 101.477
5191 6 0.83061 14.3867 101.477
5192 6 2.07654 16.5447 101.477
5193 6 0.83061 18.7027 101.477
5194 6 2.07654 20.8607 101.477
5195 6 0.83061 23.0187 101.477
5196 6 2.07654 25.1767 101.477
5197 6 3.32246 1.43867 101.477
5198 6 4.56838 3.59667 101.477
5199 6 3.32246 5.75467 101.477
5200 6 4.56838 7.91267 101.477
5201 6 3.32246 10.0707 101.477
5202 6 4.56838 12.2287 101.477
5203 6 3.32246 14.3867 101.477
5204 6 4.56838 16.5447 101.477
5205 6 3.32246 18.7027 101.477
5206 6 4.56838 20.8607 101.477
5207 6 3.32246 23.0187 101.477
5208 6 4.56838 25.1767 101.477
5209 6 5.8143 1.43867 101.477
5210 6 7.06023 3.59667 101.477
5211 6 5.8143 5.75467 101.477
5212 6 7.06023 7.91267 101.477
5213 6 5.8143 10.0707 101.477
5214 6 7.06023 12.2287 101.477
5215 6 5.8143 14.3867 101.477
5216 6 7.06023 16.5447 101.477
5217 6 5.8143 18.7027 101.477
5218 6 7.06023 20.8607 101.477
5219 6 5.8143 23.0187 101.477
5220 6 7.06023 25.1767 101.477
5221 6 8.30615 1.43867 101.477
5222 6 9.55207 3.59667 101.477
5223 6 8.30615 5.75467 101.477
5224 6 9.55207 7.91267 101.477
5225 6 8.30615 10.0707 101.477
5226 6 9.55207 12.2287 101.477
5227 6 8.30615 14.3867 101.477
5228 6 9.55207 16.5447 101.477
5229 6 8.30615 18.7027 101.477
5230 6 9.55207 20.8607 101.477
5231 6 8.30615 23.0187 101.477
5232 6 9.55207 25.1767 101.477
5233 6 10.798 1.43867 101.477
5234 6 12.0439 3.59667 101.477
5235 6 10.798 5.75467 101.477
5236 6 12.0439 7.91267 101.477
5237 6 10.798 10.0707 101.477
5238 6 12.0439 12.2287 101.477
5239 6 10.798 14.3867 101.477
5240 6 12.0439 16.5447 101.477
5241 6 10.798 18.7027 101.477
5242 6 12.0439 20.8607 101.477
5243 6 10.798 23.0187 101.477
5244 6 12.0439 25.1767 101.477
5245 6 13.2898 1.43867 101.477
5246 6 14.5358 3.59667 101.477
5247 6 13.2898 5.75467 101.477
5248 6 14.5358 7.91267 101.477
5249 6 13.2898 10.0707 101.477
5250 6 14.5358 12.2287 101.477
5251 6 13.2898 14.3867 101.477
5252 6 14.5358 16.5447 101.477
5253 6 13.2898 18.7027 101.477
5254 6 14.5358 20.8607 101.477
5255 6 13.2898 23.0187 101.477
5256 6 14.5358 25.1767 101.477
5257 6 15.7817 1.43867 101.477
5258 6 17.0276 3.59667 101.477
5259 6 15.7817 5.75467 101.477
5260 6 17.0276 7.91267 101.477
5261 6 15.7817 10.0707 101.477
5262 6 17.0276 12.2287 101.477
5263 6 15.7817 14.3867 101.477
5264 6 17.0276 16.5447 101.477
5265 6 15.7817 18.7027 101.477
5266 6 17.0276 20.8607 101.477
5267 6 15.7817 23.0187 101.477
5268 6 17.0276 25.1767 101.477
5269 6 18.2735 1.43867 101.477
5270 6 19.5194 3.59667 101.477
5271 6 18.2735 5.75467 101.477
5272 6 19.5194 7.91267 101.477
5273 6 18.2735 10.0707 101.477
5274 6 19.5194 12.2287 101.477
5275 6 18.2735 14.3867 101.477
5276 6 19.5194 16.5447 101.477
5277 6 18.2735 18.7027 101.477
5278 6 19.5194 20.8607 101.477
5279 6 18.2735 23.0187 101.477
5280 6 19.5194 25.1767 101.477
5281 6 20.7654 1.43867 101.477
5282 6 22.0113 3.59667 101.477
5283 6 20.7654 5.75467 101.477
5284 6 22.0113 7.91267 101.477
5285 6 20.7654 10.0707 101.477
5286 6 22.0113 12.2287 101.477
5287 6 20.7654 14.3867 101.477
5288 6 22.0113 16.5447 101.477
5289 6 20.7654 18.7027 101.477
5290 6 22.0113 20.8607 101.477
5291 6 20.7654 23.0187 101.477
5292 6 22.0113 25.1767 101.477
5293 6 23.2572 1.43867 101.477
5294 6 24.5031 3.59667 101.477
5295 6 23.2572 5.75467 101.477
5296 6 24.5031 7.91267 101.477
5297 6 23.2572 10.0707 101.477
5298 6 24.5031 12.2287 101.477
5299 6 23.2572 14.3867 101.477
5300 6 24.5031 16.5447 101.477
5301 6 23.2572 18.7027 101.477
5302 6 24.5031 20.8607 101.477
5303 6 23.2572 23.0187 101.477
5304 6 24.5031 25.1767 101.477
5305 6 25.7491 1.43867 101.477
5306 6 26.995 3.59667 101.477
5307 6 25.7491 5.75467 101.477
5308 6 26.995 7.91267 101.477
5309 6 25.7491 10.0707 101.477
5310 6 26.995 12.2287 101.477
5311 6 25.7491 14.3867 101.477
5312 6 26.995 16.5447 101.477
5313 6 25.7491 18.7027 101.477
5314 6 26.995 20.8607 101.477
5315 6 25.7491 23.0187 101.477
5316 6 26.995 25.1767 101.477
5317 6 28.2409 1.43867 101.477
5318 6 29.4868 3.59667 101.477
5319 6 28.2409 5.75467 101.477
5320 6 29.4868 7.91267 101.477
5321 6 28.2409 10.0707 101.477
5322 6 29.4868 12.2287 101.477
5323 6 28.2409 14.3867 101.477
5324 6 29.4868 16.5447 101.477
5325 6 28.2409 18.7027 101.477
5326 6 29.4868 20.8607 101.477
5327 6 28.2409 23.0187 101.477
5328 6 29.4868 25.1767 101.477
5329 6 30.7327 1.43867 101.477
5330 6 31.9787 3.59667 101.477
5331 6 30.7327 5.75467 101.477
5332 6 31.9787 7.91267 101.477
5333 6 30.7327 10.0707 101.477
5334 6 31.9787 12.2287 101.477
5335 6 30.7327 14.3867 101.477
5336 6 31.9787 16.5447 101.477
5337 6 30.7327 18.7027 101.477
5338 6 31.9787 20.8607 101.477
5339 6 30.7327 23.0187 101.477
5340 6 31.9787 25.1767 101.477
5341 6 33.2246 1.43867 101.477
5342 6 34.4705 3.59667 101.477
5343 6 33.2246 5.75467 101.477
5344 6 34.4705 7.91267 101.477
5345 6 33.2246 10.0707 101.477
5346 6 34.4705 12.2287 101.477
5347 6 33.2246 14.3867 101.477
5348 6 34.4705 16.5447 101.477
5349 6 33.2246 18.7027 101.477
5350 6 34.4705 20.8607 101.477
5351 6 33.2246 23.0187 101.477
5352 6 34.4705 25.1767 101.477
5353 6 35.7164 1.43867 101.477
5354 6 36.9624 3.59667 101.477
5355 6 35.7164 5.75467 101.477
5356 6 36.9624 7.91267 101.477
5357 6 35.7164 10.0707 101.477
5358 6 36.9624 12.2287 101.477
5359 6 35.7164 14.3867 101.477
5360 6 36.9624 16.5447 101.477
5361 6 35.7164 18.7027 101.477
5362 6 36.9624 20.8607 101.477
5363 6 35.7164 23.0187 101.477
5364 6 36.9624 25.1767 101.477
5365 6 38.2083 1.43867 101.477
5366 6 39.4542 3.59667 101.477
5367 6 38.2083 5.75467 101.477
5368 6 39.4542 7.91267 101.477
5369 6 38.2083 10.0707 101.477
5370 6 39.4542 12.2287 101.477
5371 6 38.2083 14.3867 101.477
5372 6 39.4542 16.5447 101.477
5373 6 38.2083 18.7027 101.477
5374 6 39.4542 20.8607 101.477
5375 6 38.2083 23.0187 101.477
5376 6 39.4542 25.1767 101.477
5377 6 40.7001 1.43867 101.477
5378 6 41.946 3.59667 101.477
5379 6 40.7001 5.75467 101.477
5380 6 41.946 7.91267 101.477
5381 6 40.7001 10.0707 101.477
5382 6 41.946 12.2287 101.477
5383 6 40.7001 14.3867 101.477
5384 6 41.946 16.5447 101.477
5385 6 40.7001 18.7027 101.477
5386 6 41.946 20.8607 101.477
5387 6 40.7001 23.0187 101.477
5388 6 41.946 25.1767 101.477
5389 6 43.192 1.43867 101.477
5390 6 44.4379 3.59667 101.477
5391 6 43.192 5.75467 101.477
5392 6 44.4379 7.91267 101.477
5393 6 43.192 10.0707 101.477
5394 6 44.4379 12.2287 101.477
5395 6 43.192 14.3867 101.477
5396 6 44.4379 16.5447 101.477
5397 6 43.192 18.7027 101.477
5398 6 44.4379 20.8607 101.477
5399 6 43.192 23.0187 101.477
5400 6 44.4379 25.1767 101.477
5401 6 45.6838 1.43867 101.477
5402 6 46.9297 3.59667 101.477
5403 6 45.6838 5.75467 101.477
5404 6 46.9297 7.91267 101.477
5405 6 45.6838 10.0707 101.477
5406 6 46.9297 12.2287 101.477
5407 6 45.6838 14.3867 101.477
5408 6 46.9297 16.5447 101.477
5409 6 45.6838 18.7027 101.477
5410 6 46.9297 20.8607 101.477
5411 6 45.6838 23.0187 101.477
5412 6 46.9297 25.1767 101.477
5413 6 48.1757 1.43867 101.477
5414 6 49.4216 3.59667 101.477
5415 6 48.1757 5.75467 101.477
5416 6 49.4216 7.91267 101.477
5417 6 48.1757 10.0707 101.477
5418 6 49.4216 12.2287 101.477
5419 6 48.1757 14.3867 101.477
5420 6 49.4216 16.5447 101.477
5421 6 48.1757 18.7027 101.477
5422 6 49.4216 20.8607 101.477
5423 6 48.1757 23.0187 101.477
5424 6 49.4216 25.1767 101.477
5425 6 50.6675 1.43867 101.477
5426 6 51.9134 3.59667 101.477
5427 6 50.6675 5.75467 101.477
5428 6 51.9134 7.91267 101.477
5429 6 50.6675 10.0707 101.477
5430 6 51.9134 12.2287 101.477
5431 6 50.6675 14.3867 101.477
5432 6 51.9134 16.5447 101.477
5433 6 50.6675 18.7027 101.477
5434 6 51.9134 20.8607 101.477
5435 6 50.6675 23.0187 101.477
5436 6 51.9134 25.1767 101.477
5437 6 53.1594 1.43867 101.477
5438 6 54.4053 3.59667 101.477
5439 6 53.1594 5.75467 101.477
5440 6 54.4053 7.91267 101.477
5441 6 53.1594 10.0707 101.477
5442 6 54.4053 12.2287 101.477
5443 6 53.1594 14.3867 101.477
5444 6 54.4053 16.5447 101.477
5445 6 53.1594 18.7027 101.477
5446 6 54.4053 20.8607 101.477
5447 6 53.1594 23.0187 101.477
5448 6 54.4053 25.1767 101.477
5449 6 55.6512 1.43867 101.477
5450 6 56.8971 3.59667 101.477
5451 6 55.6512 5.75467 101.477
5452 6 56.8971 7.91267 101.477
5453 6 55.6512 10.0707 101.477
5454 6 56.8971 12.2287 101.477
5455 6 55.6512 14.3867 101.477
5456 6 56.8971 16.5447 101.477
5457 6 55.6512 18.7027 101.477
5458 6 56.8971 20.8607 101.477
5459 6 55.6512 23.0187 101.477
5460 6 56.8971 25.1767 101.477
5461 6 58.143 1.43867 101.477
5462 6 59.389 3.59667 101.477
5463 6 58.143 5.75467 101.477
5464 6 59.389 7.91267 101.477
5465 6 58.143 10.0707 101.477
5466 6 59.389 12.2287 101.477
5467 6 58.143 14.3867 101.477
5468 6 59.389 16.5447 101.477
5469 6 58.143 18.7027 101.477
5470 6 59.389 20.8607 101.477
5471 6 58.143 23.0187 101.477
5472 6 59.389 25.1767 101.477
5473 6 60.6349 1.43867 101.477
5474 6 61.8808 3.59667 101.477
5475 6 60.6349 5.75467 101.477
5476 6 61.8808 7.91267 101.477
5477 6 60.6349 10.0707 101.477
5478 6 61.8808 12.2287 101.477
5479 6 60.6349 14.3867 101.477
5480 6 61.8808 16.5447 101.477
5481 6 60.6349 18.7027 101.477
5482 6 61.8808 20.8607 101.477
5483 6 60.6349 23.0187 101.477
5484 6 61.8808 25.1767 101.477
5485 6 63.1267 1.43867 101.477
5486 6 64.3726 3.59667 101.477
5487 6 63.1267 5.75467 101.477
5488 6 64.3726 7.91267 101.477
5489 6 63.1267 10.0707 101.477
5490 6 64.3726 12.2287 101.477
5491 6 63.1267 14.3867 101.477
5492 6 64.3726 16.5447 101.477
5493 6 63.1267 18.7027 101.477
5494 6 64.3726 20.8607 101.477
5495 6 63.1267 23.0187 101.477
5496 6 64.3726 25.1767 101.477
5497 6 65.6186 1.43867 101.477
5498 6 66.8645 3.59667 101.477
5499 6 65.6186 5.75467 101.477
5500 6 66.8645 7.91267 101.477
5501 6 65.6186 10.0707 101.477
5502 6 66.8645 12.2287 101.477
5503 6 65.6186 14.3867 101.477
5504 6 66.8645 16.5447 101.477
5505 6 65.6186 18.7027 101.477
5506 6 66.8645 20.8607 101.477
5507 6 65.6186 23.0187 101.477
5508 6 66.8645 25.1767 101.477
5509 6 68.1104 1.43867 101.477
5510 6 69.3563 3.59667 101.477
5511 6 68.1104 5.75467 101.477
5512 6 69.3563 7.91267 101.477
5513 6 68.1104 10.0707 101.477
5514 6 69.3563 12.2287 101.477
5515 6 68.1104 14.3867 101.477
5516 6 69.3563 16.5447 101.477
5517 6 68.1104 18.7027 101.477
5518 6 69.3563 20.8607 101.477
5519 6 68.1104 23.0187 101.477
5520 6 69.3563 25.1767 101.477
5521 6 70.6023 1.43867 101.477
5522 6 71.8482 3.59667 101.477
5523 6 70.6023 5.75467 101.477
5524 6 71.8482 7.91267 101.477
5525 6 70.6023 10.0707 101.477
5526 6 71.8482 12.2287 101.477
5527 6 70.6023 14.3867 101.477
5528 6 71.8482 16.5447 101.477
5529 6 70.6023 18.7027 101.477
5530 6 71.8482 20.8607 101.477
5531 6 70.6023 23.0187 101.477
5532 6 71.8482 25.1767 101.477
5533 6 73.0941 1.43867 101.477
5534 6 74.34 3.59667 101.477
5535 6 73.0941 5.75467 101.477
5536 6 74.34 7.91267 101.477
5537 6 73.0941 10.0707 101.477
5538 6 74.34 12.2287 101.477
5539 6 73.0941 14.3867 101.477
5540 6 74.34 16.5447 101.477
5541 6 73.0941 18.7027 101.477
5542 6 74.34 20.8607 101.477
5543 6 73.0941 23.0187 101.477
5544 6 74.34 25.1767 101.477
5545 6 75.5859 1.43867 101.477
5546 6 76.8319 3.59667 101.477
5547 6 75.5859 5.75467 101.477
5548 6 76.8319 7.91267 101.477
5549 6 75.5859 10.0707 101.477
5550 6 76.8319 12.2287 101.477
5551 6 75.5859 14.3867 101.477
5552 6 76.8319 16.5447 101.477
5553 6 75.5859 18.7027 101.477
5554 6 76.8319 20.8607 101.477
5555 6 75.5859 23.0187 101.477
5556 6 76.8319 25.1767 101.477
5557 6 78.0778 1.43867 101.477
5558 6 79.3237 3.59667 101.477
5559 6 78.0778 5.75467 101.477
5560 6 79.3237 7.91267 101.477
5561 6 78.0778 10.0707 101.477
5562 6 79.3237 12.2287 101.477
5563 6 78.0778 14.3867 101.477
5564 6 79.3237 16.5447 101.477
5565 6 78.0778 18.7027 101.477
5566 6 79.3237 20.8607 101.477
5567 6 78.0778 23.0187 101.477
5568 6 79.3237 25.1767 101.477
5569 6 80.5696 1.43867 101.477
5570 6 81.8156 3.59667 101.477
5571 6 80.5696 5.75467 101.477
5572 6 81.8156 7.91267 101.477
5573 6 80.5696 10.0707 101.477
5574 6 81.8156 12.2287 101.477
5575 6 80.5696 14.3867 101.477
5576 6 81.8156 16.5447 101.477
5577 6 80.5696 18.7027 101.477
5578 6 81.8156 20.8607 101.477
5579 6 80.5696 23.0187 101.477
5580 6 81.8156 25.1767 101.477
5581 6 83.0615 1.43867 101.477
5582 6 84.3074 3.59667 101.477
5583 6 83.0615 5.75467 101.477
5584 6 84.3074 7.91267 101.477
5585 6 83.0615 10.0707 101.477
5586 6 84.3074 12.2287 101.477
5587 6 83.0615 14.3867 101.477
5588 6 84.3074 16.5447 101.477
5589 6 83.0615 18.7027 101.477
5590 6 84.3074 20.8607 101.477
5591 6 83.0615 23.0187 101.477
5592 6 84.3074 25.1767 101.477
5593 6 85.5533 1.43867 101.477
5594 6 86.7992 3.59667 101.477
5595 6 85.5533 5.75467 101.477
5596 6 86.7992 7.91267 101.477
5597 6 85.5533 10.0707 101.477
5598 6 86.7992 12.2287 101.477
5599 6 85.5533 14.3867 101.477
5600 6 86.7992 16.5447 101.477
5601 6 85.5533 18.7027 101.477
5602 6 86.7992 20.8607 101.477
5603 6 85.5533 23.0187 101.477
5604 6 86.7992 25.1767 101.477
5605 6 88.0452 1.43867 101.477
5606 6 89.2911 3.59667 101.477
5607 6 88.0452 5.75467 101.477
5608 6 89.2911 7.91267 101.477
5609 6 88.0452 10.0707 101.477
5610 6 89.2911 12.2287 101.477
5611 6 88.0452 14.3867 101.477
5612 6 89.2911 16.5447 101.477
5613 6 88.0452 18.7027 101.477
5614 6 89.2911 20.8607 101.477
5615 6 88.0452 23.0187 101.477
5616 6 89.2911 25.1767 101.477
5617 6 90.537 1.43867 101.477
5618 6 91.7829 3.59667 101.477
5619 6 90.537 5.75467 101.477
5620 6 91.7829 7.91267 101.477
5621 6 90.537 10.0707 101.477
5622 6 91.7829 12.2287 101.477
5623 6 90.537 14.3867 101.477
5624 6 91.7829 16.5447 101.477
5625 6 90.537 18.7027 101.477
5626 6 91.7829 20.8607 101.477
5627 6 90.537 23.0187 101.477
5628 6 91.7829 25.1767 101.477
5629 6 93.0289 1.43867 101.477
5630 6 94.2748 3.59667 101.477
5631 6 93.0289 5.75467 101.477
5632 6 94.2748 7.91267 101.477
5633 6 93.0289 10.0707 101.477
5634 6 94.2748 12.2287 101.477
5635 6 93.0289 14.3867 101.477
5636 6 94.2748 16.5447 101.477
5637 6 93.0289 18.7027 101.477
5638 6 94.2748 20.8607 101.477
5639 6 93.0289 23.0187 101.477
5640 6 94.2748 25.1767 101.477
5641 6 95.5207 1.43867 101.477
5642 6 96.7666 3.59667 101.477
5643 6 95.5207 5.75467 101.477
5644 6 96.7666 7.91267 101.477
5645 6 95.5207 10.0707 101.477
5646 6 96.7666 12.2287 101.477
5647 6 95.5207 14.3867 101.477
5648 6 96.7666 16.5447 101.477
5649 6 95.5207 18.7027 101.477
5650 6 96.7666 20.8607 101.477
5651 6 95.5207 23.0187 101.477
5652 6 96.7666 25.1767 101.477
5653 6 98.0125 1.43867 101.477
5654 6 99.2585 3.59667 101.477
5655 6 98.0125 5.75467 101.477
5656 6 99.2585 7.91267 101.477
5657 6 98.0125 10.0707 101.477
5658 6 99.2585 12.2287 101.477
5659 6 98.0125 14.3867 101.477
5660 6 99.2585 16.5447 101.477
5661 6 98.0125 18.7027 101.477
5662 6 99.2585 20.8607 101.477
5663 6 98.0125 23.0187 101.477
5664 6 99.2585 25.1767 101.477
5665 6 100.504 1.43867 101.477
5666 6 101.75 3.59667 101.477
5667 6 100.504 5.75467 101.477
5668 6 101.75 7.91267 101.477
5669 6 100.504 10.0707 101.477
5670 6 101.75 12.2287 101.477
5671 6 100.504 14.3867 101.477
5672 6 101.75 16.5447 101.477
5673 6 100.504 18.7027 101.477
5674 6 101.75 20.8607 101.477
5675 6 100.504 23.0187 101.477
5676 6 101.75 25.1767 101.477
5677 6 102.996 1.43867 101.477
5678 6 104.242 3.59667 101.477
5679 6 102.996 5.75467 101.477
5680 6 104.242 7.91267 101.477
5681 6 102.996 10.0707 101.477
5682 6 104.242 12.2287 101.477
5683 6 102.996 14.3867 101.477
5684 6 104.242 16.5447 101.477
5685 6 102.996 18.7027 101.477
5686 6 104.242 20.8607 101.477
5687 6 102.996 23.0187 101.477
5688 6 104.242 25.1767 101.477
5689 6 105.488 1.43867 101.477
5690 6 106.734 3.59667 101.477
5691 6 105.488 5.75467 101.477
5692 6 106.734 7.91267 101.477
5693 6 105.488 10.0707 101.477
5694 6 106.734 12.2287 101.477
5695 6 105.488 14.3867 101.477
5696 6 106.734 16.5447 101.477
5697 6 105.488 18.7027 101.477
5698 6 106.734 20.8607 101.477
5699 6 105.488 23.0187 101.477
5700 6 106.734 25.1767 101.477
5701 6 107.98 1.43867 101.477
5702 6 109.226 3.59667 101.477
5703 6 107.98 5.75467 101.477
5704 6 109.226 7.91267 101.477
5705 6 107.98 10.0707 101.477
5706 6 109.226 12.2287 101.477
5707 6 107.98 14.3867 101.477
5708 6 109.226 16.5447 101.477
5709 6 107.98 18.7027 101.477
5710 6 109.226 20.8607 101.477
5711 6 107.98 23.0187 101.477
5712 6 109.226 25.1767 101.477
5713 6 110.472 1.43867 101.477
5714 6 111.718 3.59667 101.477
5715 6 110.472 5.75467 101.477
5716 6 111.718 7.91267 101.477
5717 6 110.472 10.0707 101.477
5718 6 111.718 12.2287 101.477
5719 6 110.472 14.3867 101.477
5720 6 111.718 16.5447 101.477
5721 6 110.472 18.7027 101.477
5722 6 111.718 20.8607 101.477
5723 6 110.472 23.0187 101.477
5724 6 111.718 25.1767 101.477
5725 6 112.964 1.43867 101.477
5726 6 114.21 3.59667 101.477
5727 6 112.964 5.75467 101.477
5728 6 114.21 7.91267 101.477
5729 6 112.964 10.0707 101.477
5730 6 114.21 12.2287 101.477
5731 6 112.964 14.3867 101.477
5732 6 114.21 16.5447 101.477
5733 6 112.964 18.7027 101.477
5734 6 114.21 20.8607 101.477
5735 6 112.964 23.0187 101.477
5736 6 114.21 25.1767 101.477
5737 6 115.455 1.43867 101.477
5738 6 116.701 3.59667 101.477
5739 6 115.455 5.75467 101.477
5740 6 116.701 7.91267 101.477
5741 6 115.455 10.0707 101.477
5742 6 116.701 12.2287 101.477
5743 6 115.455 14.3867 101.477
5744 6 116.701 16.5447 101.477
5745 6 115.455 18.7027 101.477
5746 6 116.701 20.8607 101.477
5747 6 115.455 23.0187 101.477
5748 6 116.701 25.1767 101.477
5749 6 117.947 1.43867 101.477
5750 6 119.193 3.59667 101.477
5751 6 117.947 5.75467 101.477
5752 6 119.193 7.91267 101.477
5753 6 117.947 10.0707 101.477
5754 6 119.193 12.2287 101.477
5755 6 117.947 14.3867 101.477
5756 6 119.193 16.5447 101.477
5757 6 117.947 18.7027 101.477
5758 6 119.193 20.8607 101.477
5759 6 117.947 23.0187 101.477
5760 6 119.193 25.1767 101.477
5761 7 37.691 16.4053 14.7692
5762 7 67.8006 28.9495 21.7556
5763 7 53.4661 6.18973 26.2675
5764 7 66.5366 5.42192 24.3091
5765 7 46.5137 24.143 24.2507
5766 7 59.7956 26.4719 24.8307
5767 7 85.3641 25.2033 23.6495
5768 7 62.3195 8.70577 32.0061
5769 7 48.143 20.077 19.7537
5770 7 86.3767 13.3993 11.0172
5771 7 73.3169 23.3335 22.6836
5772 7 44.0794 2.87431 16.532
5773 7 83.5639 4.97658 11.5223
5774 7 68.3855 5.44966 17.7546
5775 7 7.43611 27.8897 8.06757
5776 7 77.0951 9.99322 11.505
5777 7 90.5671 5.17262 17.0507
5778 7 93.8872 27.792 25.2124
5779 7 66.5974 22.2696 15.8277
5780 7 95.626 14.8828 12.4867
5781 7 57.5066 19.7173 26.6993
5782 7 69.7867 0.619483 27.9753
5783 7 87.4272 2.3737 26.5078
5784 7 76.8359 0.583837 25.0677
5785 7 45.5337 27.9341 19.1444
5786 7 46.4552 14.4122 12.7358
5787 7 98.2871 19.8493 16.5531
5788 7 71.9144 3.39721 21.975
5789 7 98.2501 13.3747 11.959
5790 7 46.3999 22.0142 12.2447
5791 7 75.0656 13.9802 11.9463
5792 7 67.0199 10.2294 25.2111
5793 7 83.4608 10.853 25.478
5794 7 78.7193 29.3003 10.4406
5795 7 37.2786 3.50387 17.9259
5796 7 35.3436 8.50886 11.5391
5797 7 68.8237 9.35818 16.4601
5798 7 83.5325 22.7582 23.5452
5799 7 38.4624 2.1807 20.5691
5800 7 76.8089 27.8187 29.2937
5801 7 69.128 21.4907 19.6199
5802 7 47.838 9.56785 11.6339
5803 7 84.3188 7.91295 24.0423
5804 7 59.3593 7.03792 16.9274
5805 7 84.5464 20.3065 15.8397
5806 7 55.2447 7.31516 23.0474
5807 7 70.3165 6.96514 21.3937
5808 7 50.6539 25.6791 19.7204
5809 7 32.9569 2.68264 10.8937
5810 7 61.8906 20.0597 18.4167
5811 7 64.533 16.4185 14.2288
5812 7 71.4881 19.017 11.0368
5813 7 78.3402 9.25596 18.1943
5814 7 70.7894 8.94825 31.2368
5815 7 53.8448 28.2465 10.6432
5816 7 88.0522 21.4033 19.0955
5817 7 65.346 20.5961 21.7152
5818 7 50.8997 20.6981 27.5998
5819 7 54.1841 9.78204 29.4847
5820 7 57.1692 1.15945 33.1694
5821 7 51.79 28.6717 20.8254
5822 7 95.2106 11.3144 16.8921
5823 7 35.8371 2.20069 13.2298
5824 7 52.7662 7.96398 10.759
5825 7 61.9927 28.1103 7.65221
5826 7 57.1098 17.4335 22.2139
5827 7 75.5958 22.9348 30.2019
5828 7 89.5993 17.1485 10.9557
5829 7 64.236 9.02037 11.8981
5830 7 62.6329 10.8783 15.9416
5831 7 59.3564 9.92592 21.859
5832 7 68.9669 8.22013 29.0413
5833 7 82.2336 7.41752 26.8889
5834 7 53.0867 0.0243757 23.6363
5835 7 66.2148 24.8047 23.5958
5836 7 40.6128 13.7625 10.7565
5837 7 62.1413 13.1506 30.406
5838 7 45.6156 16.299 25.1128
5839 7 39.764 4.72219 10.432
5840 7 66.152 0.810272 33.7498
5841 7 61.8429 6.19808 11.3036
5842 7 83.2774 29.3714 12.8446
5843 7 46.3128 18.7806 11.6233
5844 7 87.538 12.287 17.965
5845 7 78.0735 29.2004 20.2188
5846 7 90.7658 6.88903 19.8637
5847 7 51.0418 10.9918 27.7578
5848 7 64.7268 23.515 18.7938
5849 7 86.6187 7.58495 11.2797
5850 7 86.4748 2.33688 19.2663
5851 7 71.6231 15.8871 28.1853
5852 7 84.9112 12.9815 27.4323
5853 7 84.3166 6.24 28.3795
5854 7 41.5325 7.3602 10.7763
5855 7 55.4557 17.7907 27.5298
5856 7 31.8249 0.0596302 14.361
5857 7 90.1926 5.57644 25.042
5858 7 82.8734 2.90981 29.4971
5859 7 71.7962 16.6519 13.8515
5860 7 56.0865 29.0388 15.1402
5861 7 2.70108 27.5777 7.35047
5862 7 84.5943 27.9568 26.4211
5863 7 45.3831 10.7688 15.4074
5864 7 83.397 21.8577 10.8153
5865 7 93.7278 21.0781 10.9139
5866 7 44.769 26.9515 14.8549
5867 7 43.6396 17.5822 20.8409
5868 7 77.4189 23.4009 19.3439
5869 7 91.5768 25.2372 18.0581
5870 7 44.1181 8.27931 17.125
5871 7 78.2527 16.8335 10.5144
5872 7 41.3295 28.3893 10.483
5873 7 91.9821 10.4523 23.0077
5874 7 51.6269 11.8142 24.1649
5875 7 74.851 0.304199 21.9829
5876 7 82.6533 19.4909 27.8531
5877 7 65.6151 14.1777 31.354
5878 7 88.1848 3.89998 21.3095
5879 7 44.7237 1.50476 12.2807
5880 7 61.2133 15.2382 27.6659
5881 7 65.3416 16.5692 27.9322
5882 7 44.5605 20.3681 19.5806
5883 7 88.8058 26.0659 14.7116
5884 7 46.3876 23.2574 15.6867
5885 7 75.6456 1.55289 11.0879
5886 7 48.3316 5.2776 13.377
5887 7 72.3573 29.7939 30.7861
5888 7 68.286 13.8514 17.7599
5889 7 58.4761 27.841 16.4943
5890 7 37.0483 27.1441 18.4666
5891 7 55.086 29.8542 26.0632
5892 7 44.4736 2.52417 19.8422
5893 7 52.6314 22.454 25.8375
5894 7 46.8266 28.9281 25.9595
5895 7 91.2289 15.7528 18.6883
5896 7 58.6068 10.7106 15.4628
5897 7 75.0154 25.5742 20.5974
5898 7 56.0926 10.2783 19.4397
5899 7 63.9608 3.43284 33.5913
5900 7 104.569 26.5797 10.4032
5901 7 64.5817 16.3181 11.4897
5902 7 63.3829 4.61706 20.4581
5903 7 79.4379 1.82552 16.2258
5904 7 79.5419 2.92954 27.2047
5905 7 83.7818 3.16921 16.7744
5906 7 90.133 15.6002 15.8689
5907 7 40.5107 15.9491 16.9352
5908 7 49.7218 8.3992 23.4217
5909 7 64.8337 26.7207 17.1083
5910 7 91.117 7.35734 14.4586
5911 7 60.1258 23.8769 11.006
5912 7 54.2618 14.8259 16.3704
5913 7 48.9157 3.12762 12.2638
5914 7 43.4053 28.4921 23.0762
5915 7 46.3416 20.358 26.4353
5916 7 67.3407 0.886757 29.1434
5917 7 51.4423 1.66245 25.1334
5918 7 57.3871 25.4133 26.9584
5919 7 33.0953 2.93566 14.1099
5920 7 48.3134 10.7415 20.0597
5921 7 59.3926 5.58196 14.8701
5922 7 66.7719 11.5426 15.8882
5923 7 91.0064 0.0944559 19.1764
5924 7 56.9468 9.6237 10.3758
5925 7 70.5927 1.89566 32.3931
5926 7 80.7277 21.7709 17.2203
5927 7 73.4507 5.72335 11.4472
5928 7 51.0295 10.41 16.3063
5929 7 98.6484 9.51081 11.432
5930 7 88.0427 0.137944 11.2312
5931 7 71.1484 0.32644 21.524
5932 7 76.3961 14.9143 21.6373
5933 7 67.7459 5.84261 10.4475
5934 7 48.8604 0.390177 26.3705
5935 7 86.1785 25.0272 21.1895
5936 7 72.7749 10.0689 18.1664
5937 7 60.3699 0.307055 17.5897
5938 7 70.009 23.8701 12.4161
5939 7 69.5764 25.8722 40.3529
5940 7 71.3495 5.16921 12.7375
5941 7 45.551 5.30162 22.1285
5942 7 64.2747 1.40993 21.4462
5943 7 54.4753 9.85172 16.7767
5944 7 74.6604 15.9333 27.668
5945 7 55.6601 29.3554 20.9661
5946 7 85.8362 7.21829 17.4714
5947 7 91.042 7.20497 11.6251
5948 7 38.4177 17.5957 10.8392
5949 7 70.6894 26.558 18.907
5950 7 52.8707 0.122929 14.1015
5951 7 51.78 13.9504 10.5083
5952 7 42.3002 15.0903 19.692
5953 7 76.1754 4.20914 28.936
5954 7 60.6334 1.82195 27.1108
5955 7 57.5821 1.17858 30.5131
5956 7 76.387 16.6002 30.0763
5957 7 63.7518 28.525 24.7987
5958 7 47.5176 6.96369 19.0082
5959 7 79.4721 27.433 6.77516
5960 7 48.6938 22.1092 24.5674
5961 7 70.5699 6.82554 24.4182
5962 7 48.385 25.5154 16.6641
5963 7 87.54 11.0727 26.1285
5964 7 67.9575 1.87039 14.9463
5965 7 51.9849 13.0968 17.9471
5966 7 57.3709 25.4807 11.222
5967 7 41.7353 11.8707 17.6967
5968 7 77.6944 21.221 27.209
5969 7 96.4295 23.2583 12.1158
5970 7 19.2054 0.492128 10.0085
5971 7 84.7228 15.5727 13.5937
5972 7 63.5149 6.17539 30.8689
5973 7 48.2577 16.8782 16.4841
5974 7 83.8214 16.6424 18.3509
5975 7 91.3115 24.2141 13.9281
5976 7 71.3331 28.2214 26.0129
5977 7 99.6336 24.0663 12.3544
5978 7 64.7526 8.71334 21.0704
5979 7 59.3786 27.8761 13.2864
5980 7 62.8285 20.05 15.6114
5981 7 41.3238 11.1551 10.3291
5982 7 78.5233 12.433 12.3514
5983 7 44.5354 26.0959 21.7085
5984 7 64.6283 27.249 30.9611
5985 7 53.6155 18.637 22.3926
5986 7 48.8375 26.2558 24.8591
5987 7 73.2001 9.86201 22.3243
5988 7 63.2203 1.41417 12.9722
5989 7 44.8906 14.8298 16.4761
5990 7 45.3121 25.5847 12.5101
5991 7 70.373 12.8831 30.2614
5992 7 77.4296 17.1757 25.0757
5993 7 56.504 22.9565 30.9678
5994 7 67.5128 10.3445 18.3718
5995 7 35.8828 29.1805 16.3165
5996 7 94.3112 2.21603 10.7188
5997 7 76.5559 11.1475 28.4309
5998 7 94.9093 20.1154 17.1719
5999 7 73.6715 5.55717 22.1065
6000 7 94.2057 28.2467 19.9759
6001 7 52.214 26.4108 17.096
6002 7 61.3658 5.71941 26.3573
6003 7 55.4178 12.3461 17.4067
6004 7 51.9319 24.1562 23.5368
6005 7 90.8596 28.3954 24.8008
6006 7 30.8787 21.2123 11.3685
6007 7 102.969 16.4254 11.5151
6008 7 75.7316 16.6895 14.0265
6009 7 95.7935 23.2324 19.0345
6010 7 87.2251 28.4727 13.7031
6011 7 65.2656 20.8705 12.3979
6012 7 81.4797 10.7285 29.1815
6013 7 47.0068 0.236638 18.3217
6014 7 79.2555 6.24289 23.8052
6015 7 59.3576 28.6929 29.9321
6016 7 42.1257 29.9139 13.7342
6017 7 64.5101 29.0506 13.6156
6018 7 68.2525 5.04541 14.7516
6019 7 73.7932 20.9842 18.9419
6020 7 83.1322 16.117 27.2486
6021 7 50.7376 8.72181 20.9331
6022 7 85.3642 23.9479 15.0764
6023 7 72.7625 27.5665 8.79537
6024 7 60.1489 2.21875 11.2224
6025 7 39.9398 23.4035 12.0849
6026 7 56.2815 3.10117 18.9194
6027 7 54.4034 0.492176 29.8176
6028 7 74.0275 7.78261 20.8042
6029 7 72.4091 8.8582 12.936
6030 7 53.7934 12.9762 25.7622
6031 7 42.2693 12.5538 22.5974
6032 7 59.8997 3.9701 29.6211
6033 7 86.5914 10.3145 20.1225
6034 7 38.756 1.3005 11.6384
6035 7 25.4882 23.2231 10.9033
6036 7 66.5918 8.96979 30.5257
6037 7 58.58 27.85 7.30586
6038 7 71.1252 18.9352 28.1207
6039 7 74.1719 26.8026 14.7109
6040 7 44.9798 9.59162 19.259
6041 7 84.9118 17.4826 11.0768
6042 7 58.6673 5.55108 24.9579
6043 7 51.3364 20.4184 21.7621
6044 7 88.7022 15.0348 20.0954
6045 7 89.9688 21.5921 21.9021
6046 7 87.4575 22.6852 23.407
6047 7 55.0039 25.8397 13.9933
6048 7 77.1366 24.0505 26.1354
6049 7 51.6011 7.8405 26.4694
6050 7 30.6965 24.4387 12.7363
6051 7 81.0486 19.0145 21.7143
6052 7 76.8648 11.5818 16.6603
6053 7 90.6458 7.97789 22.72
6054 7 74.1007 13.3893 25.7357
6055 7 62.7043 27.3189 20.2295
6056 7 92.0292 1.06338 13.9403
6057 7 66.3902 4.69109 29.2937
6058 7 71.9383 16.1265 21.3184
6059 7 38.4709 27.617 15.1403
6060 7 68.8192 27.0972 27.4142
6061 7 65.4004 12.2711 26.0941
6062 7 65.3934 5.74166 34.2356
6063 7 90.269 10.0584 11.2391
6064 7 68.5208 17.4282 17.0581
6065 7 87.2851 2.451 16.1254
6066 7 49.7864 14.5203 22.083
6067 7 73.002 6.65281 16.1353
6068 7 66.0546 18.7718 30.6948
6069 7 53.8248 24.8123 26.1266
6070 7 73.8147 28.3176 11.636
6071 7 87.9318 7.75162 26.4223
6072 7 60.8637 0.393185 22.1634
6073 7 47.6478 28.0871 14.8996
6074 7 65.5582 6.44461 11.4074
6075 7 54.9256 0.556244 17.0907
6076 7 82.5263 0.301027 28.166
6077 7 73.5356 8.06166 30.5523
6078 7 87.9176 18.105 14.7111
6079 7 45.0009 19.2358 15.8741
6080 7 58.107 7.83038 14.3475
6081 7 81.4911 16.0775 20.1934
6082 7 67.9447 21.2078 10.5935
6083 7 77.7369 13.8501 28.1987
6084 7 95.2875 18.4939 10.8348
6085 7 36.1323 5.50978 13.2448
6086 7 55.9475 19.1399 14.8096
6087 7 58.0239 22.4793 28.2523
6088 7 77.9612 20.7426 29.7976
6089 7 78.3416 3.03437 11.0422
6090 7 55.1995 9.55891 13.6501
6091 7 95.321 26.9464 15.7276
6092 3 104.895 12.5761 81.3598
6093 3 104.747 5.33646 21.3495
6094 3 65.6534 24.5925 77.1557
6095 3 15.2266 17.4239 47.1218
6096 3 26.2607 24.5914 65.5956
6097 3 97.9122 0.156205 51.2585
6098 3 117.312 21.3741 46.9631
6099 3 40.443 27.9103 67.3587
6100 3 117.876 8.98801 25.149
6101 3 30.8252 1.30696 54.0347
6102 3 70.4932 12.5309 55.8984
6103 3 69.3942 23.9915 36.9011
6104 3 93.3748 27.7947 51.9302
6105 3 51.4549 16.8622 74.2773
6106 3 103.286 1.43583 40.6743
6107 3 33.9552 5.91556 50.055
6108 3 105.72 5.57939 78.9123
6109 3 10.8735 14.5407 40.3579
6110 3 56.2979 18.0106 38.8408
6111 3 88.739 24.5694 55.4135
6112 3 15.3192 22.7296 85.6536
6113 3 51.658 7.20581 75.2657
6114 3 52.208 26.9274 48.9658
6115 3 18.7582 21.3411 24.3124
6116 3 72.9842 9.74679 87.2303
6117 3 46.778 10.0605 86.9376
6118 3 41.2185 3.48016 44.3224
6119 3 39.9039 14.1925 56.9405
6120 3 57.1133 5.60688 39.685
6121 3 8.15309 21.0231 49.7684
6122 3 9.91739 27.4269 69.8641
6123 3 54.8133 23.8106 76.63
6124 3 13.452 21.3849 37.3598
6125 3 20.6077 20.5558 74.1211
6126 3 88.0056 29.3053 79.0956
6127 3 111.537 6.95362 63.1453
6128 3 47.2447 12.0938 67.1597
6129 3 32.3261 1.24918 78.2925
6130 3 69.2957 11.2372 78.0553
6131 3 78.0793 16.0184 65.5092
6132 3 64.0228 18.2209 75.1706
6133 3 53.5722 14.2117 39.5694
6134 3 49.2687 14.0763 57.9953
6135 3 89.2011 21.9832 41.5498
6136 3 55.3091 4.35318 44.0132
6137 3 47.5496 22.0978 35.8709
6138 3 52.4656 3.97511 38.0918
6139 3 115.575 15.2848 52.4316
6140 3 104.443 1.50333 26.6994
6141 3 57.6659 18.8225 63.5615
6142 3 50.5957 26.6196 40.4045
6143 3 0.221786 9.8051 57.9971
6144 3 23.1343 2.04038 33.0218
6145 3 1.23868 3.09801 47.1756
6146 3 24.8116 16.5125 82.8365
6147 3 91.8483 8.50133 32.6535
6148 3 58.2938 7.27095 71.0161
6149 3 109.387 3.36026 48.8397
6150 3 112 17.8867 53.8862
6151 3 92.6165 9.81862 65.9023
6152 3 83.4614 21.8162 72.0526
6153 3 109.945 26.5335 47.7861
6154 3 68.2717 6.96561 88.5193
6155 3 22.5687 7.26894 64.6331
6156 3 39.7968 6.5778 60.983
6157 3 72.3788 4.20115 80.397
6158 3 45.49 10.3316 79.7188
6159 3 108.334 2.08529 23.2693
6160 3 117.957 5.43294 77.1055
6161 3 111.183 10.0725 53.7992
6162 3 29.529 6.3022 20.7497
6163 3 92.5908 22.6506 38.775
6164 3 88.2735 13.3853 52.754
6165 3 63.1147 3.63544 46.8649
6166 3 66.4584 9.55408 38.0454
6167 3 70.9859 27.5312 42.4253
6168 3 29.9432 23.9756 73.465
6169 3 108.121 11.5746 77.8165
6170 3 1.17724 14.7708 15.3985
6171 3 24.7888 21.0912 36.0936
6172 3 10.9199 26.1902 44.0424
6173 3 20.9551 22.3849 57.0522
6174 3 34.6282 14.7211 64.9822
6175 3 96.0356 16.5912 28.9677
6176 3 0.197517 24.62 35.2467
6177 3 16.8544 29.8718 46.4294
6178 3 63.2951 25.7421 47.2276
6179 3 83.3764 21.959 34.9855
6180 3 2.29171 19.3886 34.8862
6181 3 53.701 25.6855 59.4494
6182 3 45.4077 21.094 61.8143
6183 3 118.648 0.789792 53.763
6184 3 119.039 19.3678 71.2506
6185 3 32.3615 4.20842 61.8538
6186 3 11.5666 5.46428 33.38
6187 3 2.26615 3.79051 36.2857
6188 3 2.88602 12.607 84.4715
6189 3 86.4698 1.37504 65.5177
6190 3 13.727 5.44928 51.6213
6191 3 9.36515 8.69622 25.1868
6192 3 43.826 29.1963 62.9095
6193 3 101.164 22.9204 60.2366
6194 3 49.865 10.7167 73.8311
6195 3 44.7232 16.9757 76.6385
6196 3 82.2159 13.0228 45.4188
6197 3 69.4257 9.7816 61.7936
6198 3 116.734 27.1865 16.7293
6199 3 76.781 3.14677 66.4846
6200 3 33.744 0.384781 26.6025
6201 3 26.5591 26.4 45.6926
6202 3 0.398602 9.45904 66.8183
6203 3 34.311 7.08157 41.35
6204 3 29.4161 27.398 19.5734
6205 3 45.8885 2.09007 67.126
6206 3 11.0018 14.193 89.1344
6207 3 56.4352 14.5133 60.608
6208 3 101.379 12.4154 79.3588
6209 3 28.5053 9.65945 88.1641
6210 3 13.1507 11.3109 30.4243
6211 3 14.7278 19.8695 60.2489
6212 3 57.2103 0.361714 44.0717
6213 3 55.1593 3.16406 68.0705
6214 3 12.1598 18.9089 19.7911
6215 3 71.1129 11.9956 51.4869
6216 3 43.2874 17.2746 36.9104
6217 3 61.7353 19.1403 69.4438
6218 3 114.952 17.0325 67.4856
6219 3 108.558 20.2863 15.9651
6220 3 21.6126 25.3266 75.9653
6221 3 30.2108 26.9234 77.4969
6222 3 0.0620569 29.5115 49.5742
6223 3 18.3596 15.7345 50.4264
6224 3 68.53 24.7868 86.0942
6225 3 104.227 5.36072 25.4762
6226 3 26.6838 12.3677 80.7412
6227 3 74.9008 1.95867 49.8992
6228 3 72.1685 27.7374 50.0008
6229 3 20.1269 1.21155 53.7583
6230 3 113.637 24.0473 42.4147
6231 3 92.9623 22.8194 65.6917
6232 3 17.9973 6.6982 52.07
6233 3 75.1155 28.1472 70.9375
6234 3 84.6015 26.3081 47.2556
6235 3 112.005 16.0793 79.8856
6236 3 105.068 0.263719 23.3636
6237 3 8.79336 23.9414 77.009
6238 3 8.47864 19.1845 33.507
6239 3 59.7892 26.7806 88.3013
6240 3 14.7582 20.0919 26.4448
6241 3 5.08228 13.2792 66.6441
6242 3 48.7006 20.5441 87.112
6243 3 95.3825 5.93116 43.1885
6244 3 105.774 12.8247 69.5035
6245 3 55.2063 3.15444 48.59
6246 3 98.259 20.5418 77.3051
6247 3 43.9663 25.6909 81.6456
6248 3 3.85717 25.6643 17.5296
6249 3 54.5879 11.7965 72.3879
6250 3 98.11 0.156878 79.7219
6251 3 35.6811 20.0628 64.9184
6252 3 4.87114 9.52623 25.6771
6253 3 22.1816 3.5274 25.7321
6254 3 82.9463 26.197 71.7703
6255 3 57.9154 26.1559 65.8262
6256 3 52.2962 12.1064 68.954
6257 3 82.9395 13.3456 64.536
6258 3 9.63035 21.5927 87.6437
6259 3 28.3672 0.76145 67.7946
6260 3 19.259 9.79817 81.2678
6261 3 24.324 0.708553 56.7644
6262 3 108.52 23.868 35.0824
6263 3 51.9817 25.7468 33.2932
6264 3 53.482 8.43915 68.0917
6265 3 38.8457 3.24043 72.6803
6266 3 44.1678 0.0710928 31.7786
6267 3 6.87577 3.28382 82.4525
6268 3 14.3743 17.6456 51.3785
6269 3 89.7921 22.0989 49.7159
6270 3 49.5425 16.3072 87.7118
6271 3 15.1759 29.8776 70.2389
6272 3 34.0158 12.9939 43.1668
6273 3 1.72185 22.8612 25.5876
6274 3 79.2919 2.15453 84.4805
6275 3 8.31412 20.2574 13.6729
6276 3 112.808 26.9713 82.584
6277 3 25.3784 16.9706 16.8697
6278 3 39.9114 9.09009 71.7419
6279 3 1.94951 8.33274 87.6368
6280 3 75.2183 19.663 62.113
6281 3 7.27215 22.3574 46.2392
6282 3 109.228 2.78428 19.1277
6283 3 35.5163 26.2863 25.647
6284 3 101.096 27.3051 14.667
6285 3 105.448 10.2276 50.6205
6286 3 110.534 2.72199 88.25
6287 3 54.2328 21.5836 42.3079
6288 3 119.842 7.24847 91.36
6289 3 91.2487 2.31662 73.978
6290 3 31.6431 16.5367 67.1161
6291 3 19.7415 20.2556 10.8137
6292 3 1.51585 9.4911 74.986
6293 3 29.3245 18.5631 19.5691
6294 3 18.811 8.09246 31.8875
6295 3 101.058 10.573 27.8376
6296 3 22.3262 4.53985 37.4679
6297 3 80.2504 19.7881 57.345
6298 3 76.9872 4.1598 56.8972
6299 3 113.041 27.2017 50.926
6300 3 51.6418 21.1973 32.0125
6301 3 77.7221 29.8672 45.9413
6302 3 118.709 17.4948 62.956
6303 3 30.3101 5.52068 28.9281
6304 3 100.917 9.88606 50.2297
6305 3 45.1547 12.7769 57.0556
6306 3 3.0426 2.30181 77.323
6307 3 6.43504 29.0296 78.7003
6308 3 100.533 0.411461 87.4884
6309 3 60.2417 16.5855 80.6485
6310 3 45.7446 15.0674 69.4426
6311 3 5.63265 5.62568 35.4952
6312 3 26.6358 27.6145 14.919
6313 3 42.5821 5.98414 48.3939
6314 3 43.4611 8.09988 53.5927
6315 3 118.873 9.49622 11.5547
6316 3 37.9609 19.1291 72.9308
6317 3 55.8319 26.4127 47.0875
6318 3 15.8278 6.43769 13.0456
6319 3 114.202 15.7361 17.2185
6320 3 32.0045 9.3569 18.1566
6321 3 16.5456 5.29157 42.805
6322 3 106.084 25.5425 72.9403
6323 3 47.6467 22.9664 80.4839
6324 3 87.7255 11.0179 40.3031
6325 3 105.243 3.44193 44.573
6326 3 54.9713 22.8145 56.7033
6327 3 30.482 16.4819 43.1827
6328 3 10.6282 29.5145 31.0154
6329 3 12.4711 4.04311 65.8955
6330 3 20.9241 17.507 24.7052
6331 3 26.2632 4.28923 48.1158
6332 3 59.1188 8.13597 59.0485
6333 3 23.0661 3.50683 66.0613
6334 3 82.5883 0.57496 48.3488
6335 3 32.9227 12.7805 19.372
6336 3 28.1158 4.96383 52.6627
6337 3 107.336 2.84188 57.2755
6338 3 71.133 15.2504 41.6098
6339 3 18.7856 10.4756 24.5148
6340 3 12.6141 28.9897 59.476
6341 3 57.2152 12.4139 42.8709
6342 3 14.5746 29.6682 16.6631
6343 3 13.7631 8.85936 26.7562
6344 3 64.8858 18.6452 45.712
6345 3 115.478 7.0237 13.6087
6346 3 105.352 4.10981 63.1156
6347 3 60.5309 15.5566 76.1254
6348 3 50.5077 24.9021 44.7269
6349 3 78.3591 21.6662 43.2732
6350 3 70.2629 1.03463 66.0805
6351 3 9.12852 2.62581 49.1445
6352 3 13.1855 19.6969 13.6528
6353 3 95.9161 3.14512 62.0393
6354 3 53.3177 26.6886 81.0178
6355 3 0.929166 11.0951 79.3362
6356 3 45.5474 6.90652 37.7122
6357 3 47.7181 18.0447 33.6503
6358 3 12.9159 21.6402 67.3858
6359 3 17.9669 0.546197 75.8941
6360 3 97.4719 25.8024 38.1288
6361 3 97.9562 15.9704 80.4336
6362 3 106.654 8.76961 69.6004
6363 3 36.0217 8.23226 78.1214
6364 3 16.9633 17.8474 22.0451
6365 3 49.0253 2.80582 86.4396
6366 3 85.2214 16.5814 81.5149
6367 3 95.4009 28.6151 65.8968
6368 3 42.318 14.7349 52.8965
6369 3 57.7576 18.452 87.2325
6370 3 39.0252 10.0387 34.4019
6371 3 36.164 23.3695 81.5762
6372 3 57.5117 6.08546 61.7847
6373 3 4.96154 21.9799 85.0076
6374 3 63.0305 21.6526 52.2215
6375 3 15.5501 11.4746 73.5386
6376 3 90.6381 24.5138 86.1447
6377 3 73.4826 7.40187 82.7712
6378 3 107.382 6.62537 38.8174
6379 3 51.2964 16.5811 59.7228
6380 3 62.9789 1.48842 52.1622
6381 3 118.847 5.62646 54.0605
6382 3 15.4175 10.6753 67.7847
6383 3 17.73 20.6768 61.8315
6384 3 27.5039 1.07048 20.103
6385 3 72.2611 19.5422 47.9341
6386 3 32.3819 10.0599 56.2095
6387 3 35.3448 12.179 32.8874
6388 3 119.829 26.6963 83.5481
6389 3 58.6652 14.1183 64.2982
6390 3 31.5982 10.4752 84.6177
6391 3 78.9161 9.94822 38.9071
6392 3 3.17133 2.56881 22.6035
6393 3 30.3523 1.21794 58.2921
6394 3 30.5923 23.4084 24.7394
6395 3 37.7449 19.206 50.9093
6396 3 17.296 5.15295 57.1467
6397 3 20.2445 13.1904 69.3157
6398 3 27.1647 13.1287 30.3526
6399 3 39.5699 6.63556 52.1277
6400 3 48.0884 12.7697 41.6867
6401 3 39.6638 26.0061 61.2189
6402 3 10.4429 15.2212 33.7977
6403 3 111.429 0.863023 32.0562
6404 3 27.1955 10.3889 22.4516
6405 3 50.1296 23.0257 64.9065
6406 3 47.3811 27.7013 59.6949
6407 3 114.3 5.99859 26.4454
6408 3 18.6517 23.1174 88.9345
6409 3 107.532 18.8088 61.9137
6410 3 116.935 9.23664 21.0478
6411 3 8.99218 28.8866 13.8838
6412 3 10.5808 9.1482 13.7074
6413 3 101.457 28.2112 79.3214
6414 3 24.0701 13.7492 55.6464
6415 3 101.928 27.876 66.9106
6416 3 80.1247 27.6706 71.7481
6417 3 107.014 29.0936 62.7745
6418 3 26.812 7.10342 44.0093
6419 3 44.0821 4.30528 31.6257
6420 3 42.3805 8.51698 65.6847
6421 3 0.0690734 17.8756 85.1946
6422 3 114.006 1.09813 27.3656
6423 3 81.2336 1.98923 40.5054
6424 3 96.3159 14.6948 46.2265
6425 3 47.5633 25.2502 38.3635
6426 3 88.698 27.2739 69.0137
6427 3 80.856 21.6755 82.0245
6428 3 15.4363 8.16481 61.4559
6429 3 39.9357 7.25737 86.9726
6430 3 72.7665 4.47245 55.7141
6431 3 56.876 27.6963 84.0974
6432 3 20.4314 24.3136 18.1961
6433 3 113.416 12.6039 38.8963
6434 3 11.3695 27.0426 75.5751
6435 3 79.1408 21.642 68.3083
6436 3 40.5607 4.91726 30.2598
6437 3 41.1968 13.9166 49.565
6438 3 4.4142 2.4388 53.9898
6439 3 52.9752 10.9784 78.5677
6440 3 78.782 4.74082 76.5159
6441 3 16.6167 10.7072 36.7519
6442 3 17.9425 4.189 26.0268
6443 3 21.1285 3.64546 77.0647
6444 3 37.109 20.1187 31.1939
6445 3 87.2164 0.489632 85.3489
6446 3 1.72063 26.2075 47.4326
6447 3 92.5103 17.578 83.8262
6448 3 50.0699 19.1745 56.1021
6449 3 73.4771 18.7913 40.882
6450 3 47.7078 29.9729 38.9992
6451 3 50.5053 3.80984 56.7419
6452 3 27.259 28.4274 40.4695
6453 3 45.2443 5.92124 59.6254
6454 3 33.6885 14.7696 30.346
6455 3 82.3087 23.3369 67.2363
6456 3 95.9746 19.2344 87.2884
6457 3 106.641 15.9588 26.6743
6458 3 96.4283 24.6304 85.5887
6459 3 60.0665 1.96099 48.4129
6460 3 67.7785 22.7779 55.2953
6461 3 0.0640623 9.63519 52.9789
6462 3 35.4761 3.25589 59.4831
6463 3 56.254 2.04753 76.1899
6464 3 110.285 17.4255 35.5638
6465 3 97.2872 28.4582 43.388
6466 3 3.00686 19.901 75.5867
6467 3 19.0383 19.7853 34.8354
6468 3 28.7684 16.9501 37.0333
6469 3 45.8859 0.549151 48.9307
6470 3 59.1976 27.1959 49.0339
6471 3 106.496 19.3344 49.5355
6472 3 74.8662 17.5727 33.6661
6473 3 113.914 22.9929 51.421
6474 3 4.10417 9.74965 62.8071
6475 3 101.936 27.0747 49.179
6476 3 11.5462 5.84136 88.2651
6477 3 56.9012 27.833 53.5843
6478 3 112.786 1.4161 47.0441
6479 3 32.4158 18.7141 31.7266
6480 3 114.019 20.5203 19.0646
6481 3 12.2835 15.8341 78.7606
6482 3 116.338 18.7147 49.5939
6483 3 67.3869 2.33904 50.9497
6484 3 16.7449 6.64903 65.0448
6485 3 96.1143 17.3389 61.4186
6486 3 25.3564 12.4475 51.2428
6487 3 40.6744 15.0055 34.2199
6488 3 76.2545 15.9442 85.0713
6489 3 9.79345 7.69831 29.4963
6490 3 96.2764 26.5253 77.7079
6491 3 54.8442 12.8591 83.1636
6492 3 55.8519 25.4397 72.4007
6493 3 100.575 18.6258 52.6598
6494 3 32.1319 21.8159 41.5077
6495 3 78.9662 29.0165 35.5541
6496 3 117.185 23.1407 19.9227
6497 3 101.665 8.53893 19.4344
6498 3 92.6554 9.86975 78.3157
6499 3 66.7825 2.89935 77.8674
6500 3 17.9219 15.1945 87.8622
6501 3 89.2285 17.9302 40.198
6502 3 65.6588 20.0505 39.7817
6503 3 53.0418 27.4237 55.621
6504 3 27.1175 20.916 50.9729
6505 3 80.3618 16.6082 72.2394
6506 3 54.155 16.8712 77.3056
6507 3 11.6003 12.1298 61.6973
6508 3 41.3858 21.8454 82.182
6509 3 87.1415 16.9497 68.1642
6510 3 35.5299 23.1897 55.3483
6511 3 9.54381 12.6466 72.1108
6512 3 29.1703 16.0896 50.9791
6513 3 80.9562 25.5366 59.0194
6514 3 37.9548 24.4209 64.4878
6515 3 53.3212 10.1291 87.7091
6516 3 26.154 17.1708 21.3809
6517 3 80.758 13.4527 41.3568
6518 3 118.917 18.4171 28.9857
6519 3 98.972 7.51676 68.788
6520 3 72.4074 17.3274 88.6311
6521 3 114.59 18.7202 32.1567
6522 3 86.1986 2.3476 59.0951
6523 3 107.941 7.30887 87.5442
6524 3 6.71011 21.5578 54.5406
6525 3 13.6133 19.1067 43.8036
6526 3 34.8889 23.1388 70.1027
6527 3 99.8935 13.3091 62.0918
6528 3 66.3117 29.3769 82.4921
6529 3 21.2086 0.611961 83.7047
6530 3 73.1157 1.02925 38.0493
6531 3 78.0249 17.7291 77.7925
6532 3 56.6443 1.04133 63.4954
6533 3 42.5101 11.1955 76.449
6534 3 5.21841 19.8396 64.9742
6535 3 32.5021 20.1654 68.0864
6536 3 90.6296 23.5498 72.8453
6537 3 28.8793 8.65035 38.4806
6538 3 91.9688 7.69222 41.2541
6539 3 13.9477 5.74749 80.0102
6540 3 96.0921 6.88615 79.3149
6541 3 112.14 14.2628 84.3012
6542 3 12.6201 10.1185 36.1661
6543 3 10.3076 17.9041 76.5271
6544 3 41.4698 26.1812 52.0459
6545 3 96.3004 14.6975 72.5852
6546 3 61.0023 0.0864153 64.3004
6547 3 73.4991 17.8883 80.2951
6548 3 21.8925 25.9272 71.1217
6549 3 65.7286 23.8214 82.9554
6550 3 32.8319 3.64623 86.3148
6551 3 80.512 17.0639 36.7415
6552 3 61.7481 9.74857 67.0617
6553 3 24.0612 23.4466 73.9761
6554 3 86.4249 14.7162 47.1092
6555 3 1.22978 23.8898 13.6593
6556 3 103.191 20.4736 17.3159
6557 3 22.1794 12.1331 42.129
6558 3 54.7953 25.6127 88.973
6559 3 57.6949 12.0313 86.9976
6560 3 9.67572 8.97039 57.311
6561 3 69.4207 1.49762 43.4636
6562 3 101.424 3.63351 61.4359
6563 3 31.4298 9.36857 67.0969
6564 3 26.3089 8.1784 50.2114
6565 3 32.4322 21.3213 21.7308
6566 3 58.4336 21.1926 67.3801
6567 3 79.8986 1.14425 68.2985
6568 3 109.279 12.4641 65.2024
6569 3 8.57337 12.5657 28.4915
6570 3 84.9289 27.9617 74.8079
6571 3 32.1404 19.9916 83.5062
6572 3 7.74675 18.1076 42.1474
6573 3 118.032 14.3554 66.3524
6574 3 30.3719 15.5862 24.6689
6575 3 10.5333 8.20733 17.5805
6576 3 44.9895 16.9867 46.4568
6577 3 75.7345 26.4101 34.3101
6578 3 26.2496 18.7486 70.9275
6579 3 3.78196 8.194 83.9415
6580 3 105.176 21.8693 42.8025
6581 3 22.3541 20.921 15.1985
6582 3 61.6464 4.5206 37.9155
6583 3 77.9482 26.3568 77.6881
6584 3 6.4698 22.4775 80.4638
6585 3 37.0482 11.2803 90.1802
6586 3 105.321 1.42468 67.195
6587 3 92.889 2.41428 59.597
6588 3 107.226 15.5018 45.0002
6589 3 92.512 4.70341 83.0391
6590 3 98.9773 23.0078 41.7695
6591 3 76.0324 27.586 88.8454
6592 3 39.3363 17.5236 77.2486
6593 3 111.927 13.4734 69.4444
6594 3 25.5236 28.4267 65.5741
6595 3 110.571 14.3815 24.9861
6596 3 43.3904 22.6352 30.1083
6597 3 74.5797 1.60758 58.9874
6598 3 29.7537 9.26433 12.3387
6599 3 44.6551 22.1976 53.3045
6600 3 72.3188 10.2641 68.2476
6601 3 62.4993 21.2414 48.258
6602 3 77.5798 24.6029 44.6892
6603 3 0.99513 18.118 59.1855
6604 3 39.5243 28.2536 80.8754
6605 3 29.267 4.93375 15.0399
6606 3 59.7127 15.5722 68.0591
6607 3 86.0835 5.14121 77.092
6608 3 31.2524 9.56973 25.3608
6609 3 15.54 3.23029 16.3102
6610 3 61.0816 8.50078 41.354
6611 3 15.7994 1.0823 26.8908
6612 3 83.3296 0.439761 81.6627
6613 3 41.0435 2.41428 69.0431
6614 3 25.5142 23.225 87.6817
6615 3 38.3239 0.845692 29.0873
6616 3 83.7066 9.87581 62.5991
6617 3 116.101 24.9853 90.3116
6618 3 57.3899 6.83244 78.7506
6619 3 113.435 22.8011 81.1827
6620 3 37.983 9.9826 46.681
6621 3 106.477 12.9151 54.5172
6622 3 104.541 6.67448 15.463
6623 3 15.2456 12.5544 57.8455
6624 3 82.5364 8.46874 45.9755
6625 3 104.705 23.5009 15.1272
6626 3 111.983 8.48047 35.7507
6627 3 0.324659 28.3004 42.1471
6628 3 5.69353 20.5178 73.5038
6629 3 97.5941 13.1513 39.3018
6630 3 86.5192 23.4765 81.6927
6631 3 39.8538 12.1797 81.1546
6632 3 94.1881 0.120973 72.2555
6633 3 46.497 19.5888 69.3333
6634 3 98.7787 5.43886 47.4518
6635 3 53.4486 13.5944 87.1471
6636 3 22.6791 29.2178 47.7612
6637 3 56.9108 6.71258 55.7019
6638 3 18.7205 26.0682 30.7293
6639 3 50.2362 3.64936 66.4126
6640 3 104.99 9.37562 30.0797
6641 3 89.077 2.27924 63.234
6642 3 2.9452 23.9788 54.1082
6643 3 57.7531 6.96941 46.3869
6644 3 113.6 3.94811 55.4731
6645 3 47.542 7.61627 76.4358
6646 3 111.127 27.7617 62.1429
6647 3 71.8639 0.551711 46.6285
6648 3 84.9594 13.1155 33.3556
6649 3 67.8294 9.52799 41.9543
6650 3 117.742 23.1462 61.0597
6651 3 28.5159 13.5557 84.8272
6652 3 25.9074 17.8841 55.4749
6653 3 80.4672 20.7814 53.1444
6654 3 112.983 23.735 69.4742
6655 3 25.2949 17.4102 30.8315
6656 3 45.0731 22.1818 57.6487
6657 3 112.759 11.6429 32.8535
6658 3 35.5092 15.7788 86.8174
6659 3 46.1187 27.7767 66.8713
6660 3 90.9589 17.3195 61.6859
6661 3 99.1131 25.4672 24.8578
6662 3 50.0974 9.54897 82.6946
6663 3 97.0082 18.943 35.5986
6664 3 61.6127 24.5537 63.1099
6665 3 25.2654 6.43128 12.3713
6666 3 107.342 23.5918 59.0175
6667 3 91.4966 4.36975 39.0282
6668 3 31.7308 12.3135 73.5983
6669 3 24.4307 8.12101 17.4538
6670 3 62.3742 12.7557 69.9559
6671 3 50.4921 12.1621 49.592
6672 3 4.31729 26.8963 38.972
6673 3 107.574 24.0842 40.6803
6674 3 14.684 8.33561 19.8376
6675 3 100.795 10.26 38.931
6676 3 6.27948 1.99849 12.0587
6677 3 64.3731 21.104 69.4689
6678 3 109.887 8.3955 42.2133
6679 3 33.7455 12.2638 60.1135
6680 3 37.068 19.7131 87.4661
6681 3 37.0519 24.7482 32.1542
6682 3 101.135 27.0409 34.2664
6683 3 56.8165 10.247 80.7144
6684 3 61.8669 21.6114 61.1355
6685 3 69.8092 27.0861 68.3992
6686 3 16.5625 20.8642 66.1796
6687 3 115.843 12.5202 72.2932
6688 3 99.2552 9.63404 23.9818
6689 3 78.574 17.4051 69.1442
6690 3 65.8095 8.21472 84.5939
6691 3 69.1771 2.61061 72.4259
6692 3 93.2846 5.59355 34.3521
6693 3 44.4123 6.41221 85.5274
6694 3 35.6287 27.1077 74.1999
6695 3 81.4137 8.49884 72.0026
6696 3 8.36522 21.5719 70.5414
6697 3 23.1883 25.7987 15.0483
6698 3 106.381 21.9121 82.0639
6699 3 33.3681 29.8782 86.1509
6700 3 35.6806 6.23082 86.9402
6701 3 96.1408 21.7249 55.4129
6702 3 66.9162 1.22137 59.2426
6703 3 101.017 22.6688 65.7527
6704 3 82.7356 9.92367 78.1299
6705 3 20.8006 22.557 65.1832
6706 3 103.691 27.5933 38.9898
6707 3 8.42304 5.96348 64.6127
6708 3 44.5111 20.4936 33.6117
6709 3 91.6955 10.9516 81.8309
6710 3 28.1625 12.1355 56.7934
6711 3 2.29538 24.0923 80.9261
6712 3 110.306 14.1491 54.7068
6713 3 94.9588 12.643 26.3775
6714 3 4.10877 27.8541 66.1566
6715 3 82.6308 13.952 35.9507
6716 3 45.3134 24.7728 34.5227
6717 3 53.5814 19.7411 69.0327
6718 3 26.8915 25.3131 23.9371
6719 3 7.97966 7.3977 46.4528
6720 3 115.744 24.008 84.2779
6721 3 75.0717 1.14412 63.6899
6722 3 71.595 4.65796 67.0026
6723 3 7.33076 9.23203 78.2727
6724 3 22.4103 10.6184 26.2697
6725 3 68.6082 13.3901 38.1256
6726 3 64.0915 4.57986 50.9324
6727 3 9.35109 28.0725 56.5964
6728 3 41.1089 3.58218 24.4795
6729 3 119.727 23.3779 30.0361
6730 3 15.2327 10.5039 80.5483
6731 3 81.1842 20.0213 88.5017
6732 3 45.4076 13.7811 85.7382
6733 3 31.0993 24.7917 59.7961
6734 3 46.3462 29.3091 78.8685
6735 3 10.7135 20.682 57.5034
6736 3 3.78946 21.8699 59.8782
6737 3 21.2129 2.16602 61.0141
6738 3 98.2189 15.1082 35.2532
6739 3 102.535 22.6873 53.2518
6740 3 110.146 13.5388 18.5689
6741 3 9.60686 20.3728 81.8694
6742 3 50.2138 25.908 69.086
6743 3 4.02102 23.6878 42.2037
6744 3 105.906 11.6352 15.2193
6745 3 34.4817 29.0996 60.7784
6746 3 37.6836 28.6173 45.417
6747 3 21.4578 5.61963 49.5811
6748 3 3.33031 6.66131 43.3139
6749 3 35.687 9.60734 85.5276
6750 3 17.1025 15.7099 36.5364
6751 3 42.8404 11.9559 31.9849
6752 3 73.0008 9.51164 63.7045
6753 3 75.0801 3.73762 74.4429
6754 3 67.1077 27.5991 36.4609
6755 3 82.9342 7.02367 36.4165
6756 3 77.0234 15.158 73.9546
6757 3 0.393031 25.7768 19.8829
6758 3 75.4965 13.8748 37.6375
6759 3 17.8289 26.1864 54.6137
6760 3 46.0605 0.776567 85.6766
6761 3 103.786 17.4298 32.9547
6762 3 98.2331 3.52819 30.4029
6763 3 13.4405 26.7933 83.7479
6764 3 74.3329 12.6215 84.4631
6765 3 5.78995 26.5312 25.9659
6766 3 22.3409 9.06656 70.5659
6767 3 35.664 11.6742 28.0821
6768 3 15.3825 20.0026 32.4467
6769 3 84.601 23.9662 50.6877
6770 3 87.5843 20.2605 61.659
6771 3 31.7382 21.182 37.7015
6772 3 19.0939 14.629 19.5001
6773 3 108.03 26.2723 88.9588
6774 3 89.2485 11.3409 60.3015
6775 3 34.0626 22.6763 75.7448
6776 3 99.7426 8.82544 85.3496
6777 3 102.086 27.7017 55.8248
6778 3 23.6839 20.5702 28.5207
6779 3 97.903 28.4235 24.318
6780 3 90.8504 16.9129 78.083
6781 3 5.36944 28.3912 55.1558
6782 3 119.278 6.93932 31.499
6783 3 85.2883 27.0679 86.2161
6784 3 46.1651 22.2499 65.0822
6785 3 111.511 10.8542 59.0877
6786 3 78.9474 25.1878 81.6123
6787 3 2.76411 12.9657 51.1499
6788 3 83.1181 3.98873 43.9227
6789 3 42.9364 0.0131543 53.5224
6790 3 44.6885 23.2153 74.441
6791 3 13.3088 14.7411 19.7774
6792 3 32.2851 25.699 36.932
6793 3 12.5457 8.7669 45.2944
6794 3 83.2428 4.97472 69.1238
6795 3 76.1515 13.9692 53.8099
6796 3 104.372 19.5024 86.8116
6797 3 65.9493 29.3811 53.1219
6798 3 59.3293 20.0631 78.6797
6799 3 116.958 0.93205 13.0601
6800 3 3.01013 6.25097 23.5428
6801 3 117.584 14.76 44.3296
6802 3 95.1697 20.4106 42.318
6803 3 64.1302 16.9033 89.5131
6804 3 7.66375 11.3628 42.1261
6805 3 21.6444 26.0207 82.6384
6806 3 3.52551 14.3735 32.9572
6807 3 104.569 19.8276 68.7009
6808 3 12.0438 27.6934 64.2863
6809 3 42.7122 29.6504 75.6537
6810 3 61.8443 9.30104 76.0105
6811 3 88.0041 9.56019 85.1041
6812 3 65.5637 7.44409 63.953
6813 3 111.774 12.211 28.9433
6814 3 9.89316 1.53941 17.5049
6815 3 52.896 14.972 46.6764
6816 3 112.021 19.7181 38.3724
6817 3 118.237 24.156 49.081
6818 3 2.14084 16.4428 29.5298
6819 3 119.661 1.07559 76.3711
6820 3 101.28 22.5812 21.3413
6821 3 113.384 22.2133 76.5087
6822 3 65.7567 14.265 83.0983
6823 3 114.599 14.4046 76.0985
6824 3 105.845 4.84284 84.7819
6825 3 50.2326 5.21709 35.4296
6826 3 71.4109 23.3172 52.5729
6827 3 83.5262 5.84224 49.5785
6828 3 24.6643 3.4717 62.6035
6829 3 47.4261 8.04282 50.032
6830 3 73.2349 24.2223 60.8831
6831 3 56.7611 27.1661 37.8968
6832 3 91.9767 20.0425 87.9155
6833 3 108.325 0.50108 26.4573
6834 3 85.2998 24.8992 57.8361
6835 3 8.06783 1.28288 65.6414
6836 3 34.8377 0.120172 51.8388
6837 3 3.87509 16.3016 17.7209
6838 3 25.8736 0.498288 77.6616
6839 3 101.61 21.2741 37.6177
6840 3 20.6852 23.6073 49.2515
6841 3 13.485 14.5598 70.2247
6842 3 6.61058 15.365 73.1479
6843 3 10.2085 8.18975 53.9432
6844 3 61.0898 15.8397 53.9577
6845 3 58.4011 21.8575 82.2259
6846 3 59.7857 5.68949 86.9692
6847 3 24.0415 12.1439 32.3224
6848 3 98.2315 6.35518 34.8738
6849 3 9.04387 15.6582 47.3545
6850 3 94.3091 20.3554 62.6654
6851 3 52.7787 7.53359 57.7582
6852 3 22.9304 27.6384 54.2228
6853 3 37.1847 11.0827 52.4491
6854 3 64.9831 10.7109 91.0715
6855 3 113.713 29.8618 64.9863
6856 3 16.9066 21.1837 15.1923
6857 3 0.286826 14.5484 19.7878
6858 3 116.163 19.7026 59.3409
6859 3 17.0555 25.7776 58.6826
6860 3 76.3696 23.0012 48.9592
6861 3 7.49496 25.1666 29.824
6862 3 114.494 4.96843 17.6688
6863 3 107.198 6.75958 57.65
6864 3 54.9528 23.974 85.4353
6865 3 7.66815 14.4275 56.5828
6866 3 50.642 2.78153 48.2512
6867 3 19.493 26.6853 41.2988
6868 3 103.045 19.5998 61.2008
6869 3 100.363 9.26253 46.5273
6870 3 112.667 19.7188 14.1323
6871 3 112.509 25.0751 57.2123
6872 3 79.6211 3.5036 88.3214
6873 3 119.899 5.05996 85.6357
6874 3 26.4806 0.0729079 61.5861
6875 3 32.2801 19.3265 78.9458
6876 3 115.861 0.321592 72.8924
6877 3 2.51029 1.64042 29.5673
6878 3 74.4763 24.0606 72.7136
6879 3 51.4352 4.53718 69.9149
6880 3 61.4407 12.4347 62.5137
6881 3 30.1149 26.1937 86.2081
6882 3 62.5987 28.6755 81.9076
6883 3 88.1604 0.749765 32.0018
6884 3 27.2631 26.4483 29.7717
6885 3 4.20826 15.3198 42.4506
6886 3 60.6676 26.4545 40.6755
6887 3 72.1329 5.00184 48.0849
6888 3 88.3812 29.1406 38.6724
6889 3 2.59732 18.7953 11.4269
6890 3 26.6039 26.5999 84.145
6891 3 113.854 14.1025 48.9155
6892 3 9.61196 0.981336 36.8761
6893 3 0.170839 0.44823 57.7454
6894 3 30.197 14.8926 47.853
6895 3 79.9151 13.8653 48.9009
6896 3 27.8922 4.9786 81.5495
6897 3 53.0478 13.5823 57.1057
6898 3 104.502 23.3882 31.9282
6899 3 22.273 14.552 17.1324
6900 3 92.1965 13.4753 56.8655
6901 3 84.4231 22.7623 41.3818
6902 3 68.3008 29.5985 39.7111
6903 3 77.2831 9.24258 55.0327
6904 3 13.0333 2.68252 57.6945
6905 3 84.2021 1.26296 54.5055
6906 3 92.2292 16.9557 56.1144
6907 3 74.6775 2.41737 84.2898
6908 3 69.3582 17.6364 53.2379
6909 3 77.8863 7.462 59.4435
6910 3 24.0169 18.6781 49.9268
6911 3 89.661 25.339 35.3568
6912 3 112.053 15.1825 59.3541
6913 3 10.1182 23.3077 36.7885
6914 3 65.1845 8.11781 46.779
6915 3 98.6252 20.5083 73.089
6916 3 44.5838 16.426 41.3818
6917 3 50.252 15.9501 43.5073
6918 3 15.7279 2.43287 90.261
6919 3 20.2585 16.7705 54.7151
6920 3 99.02 8.11711 58.162
6921 3 84.0789 22.3212 87.1449
6922 3 30.3837 27.4179 43.2121
6923 3 97.1945 4.04653 38.8958
6924 3 19.3906 2.57333 44.8534
6925 3 97.6923 15.5172 66.1926
6926 3 92.4681 1.9959 54.4109
6927 3 47.9298 12.9547 78.408
6928 3 14.4568 23.9142 77.7465
6929 3 16.2732 28.0297 64.2445
6930 3 22.5068 6.61297 84.4228
6931 3 104.49 28.5661 58.5011
6932 3 71.1102 5.12767 74.3809
6933 3 29.233 15.6189 79.5917
6934 3 9.14281 26.0633 84.966
6935 3 26.4261 11.1621 25.91
6936 3 117.098 1.24016 38.6781
6937 3 48.9005 21.6089 43.6563
6938 3 62.3629 13.0683 50.6062
6939 3 119.986 2.67663 20.3639
6940 3 39.7183 28.0869 76.3327
6941 3 25.0853 19.8361 25.4409
6942 3 14.4702 10.2608 48.6316
6943 3 104.113 22.5585 78.4237
6944 3 19.9991 16.946 32.0938
6945 3 58.5549 29.8744 60.089
6946 3 108.269 12.4596 12.066
6947 3 89.8556 29.6749 46.3199
6948 3 56.6598 13.8195 49.3528
6949 3 116.102 0.680505 83.7194
6950 3 77.2845 29.9951 78.0728
6951 3 34.4047 16.0274 24.4766
6952 3 16.5184 21.7097 20.1255
6953 3 6.54337 24.8601 61.353
6954 3 95.5843 8.38617 55.0122
6955 3 90.0045 14.482 88.1624
6956 3 78.3459 28.0149 39.9462
6957 3 91.1884 5.23874 57.4542
6958 3 25.4542 12.9359 13.4176
6959 3 10.4892 28.3438 39.924
6960 3 55.4571 16.7881 81.0685
6961 3 66.4037 2.74838 63.4186
6962 3 26.7948 10.7594 76.3745
6963 3 95.2778 22.53 34.5669
6964 3 43.9022 5.24722 63.5225
6965 3 13.7683 6.31362 30.0392
6966 3 85.4189 15.6206 58.6511
6967 3 72.5422 21.1427 37.3333
6968 3 118.82 6.03668 65.7003
6969 3 45.5193 16.4274 51.7756
6970 3 69.435 21.516 64.3355
6971 3 37.7067 14.6119 22.7022
6972 3 40.4512 24.0623 34.3062
6973 3 112.954 29.0473 41.9975
6974 3 111.805 20.0614 70.8743
6975 3 36.7262 10.662 70.0964
6976 3 93.4611 27.4102 74.9325
6977 3 113.768 14.3175 45.2637
6978 3 25.1146 22.4572 58.9616
6979 3 21.1317 13.3933 13.346
6980 3 103.083 17.3209 37.7603
6981 3 69.12 8.41677 46.7036
6982 3 98.2599 24.7169 73.1231
6983 3 20.7926 26.4776 90.1447
6984 3 87.6183 7.7571 64.4288
6985 3 20.9528 27.5452 20.636
6986 3 23.2853 4.87929 56.542
6987 3 24.9434 6.09515 35.787
6988 3 22.5718 18.193 68.5885
6989 3 1.49826 15.6481 38.4583
6990 3 112.6 28.2065 89.2182
6991 3 76.3806 20.1585 85.8072
6992 3 112.613 0.574759 13.4472
6993 3 3.37969 10.4533 31.0032
6994 3 104.087 15.4791 23.006
6995 3 4.78307 5.95147 72.983
6996 3 34.3919 17.4196 44.1618
6997 3 28.7234 20.1347 43.4374
6998 3 99.8577 2.18562 48.6123
6999 3 110.809 20.5876 31.7192
7000 3 113.02 5.91932 30.1492
7001 3 27.3979 12.8226 72.569
7002 3 25.0956 23.524 82.4289
7003 3 6.92683 4.77232 86.3384
7004 3 80.9881 15.0609 52.8656
7005 3 63.8307 26.9251 37.979
7006 3 109.902 9.58178 20.4985
7007 3 104.368 2.96239 35.5165
7008 3 25.8563 7.69653 55.9195
7009 3 24.0792 4.06289 72.9016
7010 3 97.0527 6.98018 73.8302
7011 3 35.3863 27.7379 80.8277
7012 3 31.9839 1.51956 36.174
7013 3 107.504 27.1836 38.3362
7014 3 17.8496 26.9633 71.732
7015 3 10.6217 15.3228 25.365
7016 3 0.517189 27.6785 25.5136
7017 3 27.5676 4.0124 22.5017
7018 3 117.736 8.22314 35.3643
7019 3 23.4878 27.623 39.982
7020 3 30.4095 16.5494 73.6343
7021 3 42.0703 29.8743 41.6482
7022 3 23.2476 26.4276 23.2806
7023 3 117.054 11.2847 56.4793
7024 3 102.002 12.6851 20.6687
7025 3 33.3047 10.4134 77.691
7026 3 41.5963 27.0774 57.2333
7027 3 73.5907 12.1259 60.7443
7028 3 24.9584 17.0385 65.0986
7029 3 67.6703 11.5488 48.574
7030 3 105.19 16.5344 79.8726
7031 3 42.1896 26.7192 72.703
7032 3 87.067 18.3243 55.3836
7033 3 7.44986 12.294 87.3726
7034 3 112.721 26.2032 76.6063
7035 3 48.7774 29.9232 72.0596
7036 3 39.9821 15.7528 40.1229
7037 3 1.06477 26.9018 89.2122
7038 3 101.151 17.5716 85.3731
7039 3 12.5894 5.45161 60.5106
7040 3 15.5632 7.26695 82.6593
7041 3 37.8943 19.1392 58.0173
7042 3 21.2976 13.4877 65.22
7043 3 19.8211 14.6251 59.9044
7044 3 72.4667 27.5163 85.3715
7045 3 8.33165 23.7811 57.1106
7046 3 80.438 9.83446 88.6441
7047 3 61.0209 28.8334 43.9781
7048 3 90.8537 8.12879 72.2046
7049 3 116.221 7.58288 86.0946
7050 3 117.617 21.0429 64.6493
7051 3 106.24 10.1541 59.8563
7052 3 8.56019 9.47856 70.3589
7053 3 9.41695 15.0043 52.4502
7054 3 22.9738 29.3386 30.9193
7055 3 96.5965 28.3673 32.5077
7056 3 112.64 22.7272 46.9303
7057 3 3.14901 15.2281 70.8238
7058 3 8.81916 12.8097 35.8633
7059 3 93.6565 10.6596 74.5489
7060 3 111.54 18.5074 89.5326
7061 3 63.0251 25.045 89.4891
7062 3 108.13 11.245 47.3447
7063 3 86.3132 23.5287 38.3281
7064 3 7.29566 4.35473 16.1097
7065 3 9.30565 3.83944 69.3153
7066 3 44.4023 6.44101 74.8032
7067 3 26.1855 11.4665 43.2786
7068 3 4.02646 1.15541 84.0596
7069 3 29.1797 6.91882 58.2128
7070 3 24.9289 20.0167 85.6747
7071 3 81.1262 6.616 82.2521
7072 3 34.4615 0.350271 32.8905
7073 3 107.137 10.0017 64.0864
7074 3 99.6424 26.9739 46.0088
7075 3 113.143 13.3726 21.2112
7076 3 19.2646 8.15892 87.1496
7077 3 41.1341 5.9863 80.5033
7078 3 74.4587 13.8518 70.2548
7079 3 30.6572 5.08412 65.4687
7080 3 97.1656 3.58606 83.5498
7081 3 102.299 24.6532 27.4261
7082 3 37.7412 23.5259 86.1399
7083 3 82.5259 1.17396 35.9503
7084 3 65.175 15.5205 60.4142
7085 3 23.1303 16.161 61.4359
7086 3 0.447056 16.8989 80.3037
7087 3 87.8966 1.21301 48.4455
7088 3 95.1054 9.68227 48.4631
7089 3 65.8521 16.1647 38.0563
7090 3 12.5207 3.28418 72.9155
7091 3 95.4261 17.9181 69.6938
7092 3 42.5701 0.50812 82.8279
7093 3 67.4296 10.479 81.5369
7094 3 50.6723 18.901 84.4467
7095 3 98.343 28.7561 72.3374
7096 3 59.4112 2.45378 56.0803
7097 3 116.208 24.6723 32.8929
7098 3 41.8545 20.9737 72.2184
7099 3 119.917 9.98531 40.1306
7100 3 90.1032 22.8275 76.8274
7101 3 23.7851 1.25799 17.3576
7102 3 61.1926 14.0978 42.2073
7103 3 101.223 17.8975 30.2314
7104 3 96.9006 22.9066 68.2021
7105 3 59.5259 27.7978 72.6586
7106 3 52.5356 7.40397 54.0877
7107 3 106.472 28.6124 14.7671
7108 3 53.749 16.1309 33.2559
7109 3 10.9361 23.0451 49.072
7110 3 30.7285 20.7289 51.3648
7111 3 106.401 18.8096 83.9504
7112 3 101.78 12.9946 47.7627
7113 3 53.7342 0.98572 86.4098
7114 3 74.3959 6.16706 44.0457
7115 3 24.8169 25.0264 26.705
7116 3 81.7346 22.5373 31.0903
7117 3 100.155 5.25129 72.6025
7118 3 103.748 24.9536 81.6458
7119 3 96.0297 26.9473 82.3107
7120 3 106.467 16.976 68.068
7121 3 41.7901 11.0057 68.6275
7122 3 1.6735 17.3186 49.8372
7123 3 71.1617 0.689687 87.6799
7124 3 13.3323 29.1076 88.2713
7125 3 2.14356 15.1073 46.8783
7126 3 53.607 1.94001 53.6226
7127 3 105.833 29.5018 34.127
7128 3 25.4447 15.2441 35.2457
7129 3 66.1607 3.71754 44.5809
7130 3 52.6024 4.98884 88.0128
7131 3 72.3306 8.47581 40.5049
7132 3 119.386 26.4324 62.3005
7133 3 13.9051 19.4704 83.5379
7134 3 31.2296 26.0124 30.2454
7135 3 70.487 24.7554 76.6425
7136 3 30.8324 3.26592 73.4868
7137 3 19.1742 24.3031 38.5844
7138 3 6.49096 2.91565 28.1341
7139 3 93.2363 29.2046 41.204
7140 3 105.348 11.253 75.1127
7141 3 66.7468 9.4947 55.1613
7142 3 60.3291 21.977 39.408
7143 3 111.954 28.2047 26.1348
7144 3 76.8331 3.70404 81.0655
7145 3 6.24128 25.458 73.916
7146 3 32.6863 5.94313 37.1406
7147 3 32.4541 6.51133 82.5362
7148 3 102.452 3.64933 53.6036
7149 3 90.3234 15.6609 36.9027
7150 3 109.324 12.3926 35.0542
7151 3 94.5602 15.8267 52.2103
7152 3 31.2403 10.3566 51.8662
7153 3 68.8304 13.1273 67.8033
7154 3 114.882 16.7008 40.2137
7155 3 2.40333 3.02223 70.2508
7156 3 109.845 22.3719 84.0624
7157 3 113.525 27.6983 68.8025
7158 3 53.0514 1.30222 70.8981
7159 3 115.862 10.4063 60.2196
7160 3 76.4515 12.9724 44.1108
7161 3 49.6463 23.022 53.6276
7162 3 10.2496 24.9287 23.4024
7163 3 66.0962 26.0459 70.4581
7164 3 105.059 8.5028 82.6403
7165 3 37.0299 27.9131 55.9196
7166 3 56.3206 17.2375 46.7857
7167 3 77.6702 24.1349 52.1632
7168 3 27.8874 20.6944 31.0028
7169 3 108.66 22.198 51.943
7170 3 18.4466 24.1036 44.6265
7171 3 92.6013 13.7994 34.0469
7172 3 36.8045 22.2139 26.2127
7173 3 12.0935 15.3133 73.8758
7174 3 30.8781 27.8238 64.097
7175 3 17.8121 27.4803 82.7759
7176 3 110.725 14.3514 74.3663
7177 3 89.1902 4.48373 85.421
7178 3 0.834454 20.8714 51.352
7179 3 93.3336 11.9227 39.8084
7180 3 48.2081 28.2396 88.5234
7181 3 107.624 1.87158 11.3393
7182 3 39.4342 20.975 43.1295
7183 3 73.2885 16.5922 59.796
7184 3 60.4866 17.679 38.1975
7185 3 119.969 27.009 55.6511
7186 3 107.75 19.4746 70.871
7187 3 13.9837 8.41607 89.9519
7188 3 106.408 1.41327 30.4431
7189 3 25.3654 23.9727 42.4263
7190 3 107.877 13.9052 60.7997
7191 3 45.1375 9.60842 32.5804
7192 3 24.2979 17.3683 74.6449
7193 3 14.2698 15.9116 85.8367
7194 3 76.6686 28.7679 83.8561
7195 3 75.3884 4.97525 35.6142
7196 3 93.2255 27.5272 80.4045
7197 3 63.6003 4.24604 84.6427
7198 3 117.619 2.09065 68.3671
7199 3 38.7024 14.085 87.1213
7200 3 78.4683 2.80135 35.0625
7201 3 43.6805 12.5706 38.0645
7202 3 35.0208 9.00815 34.5439
7203 3 95.9794 0.0552718 28.5275
7204 3 64.9085 19.5952 82.3544
7205 3 20.213 19.6979 79.0614
7206 3 53.8137 21.7788 72.0613
7207 3 109.513 4.28069 45.1122
7208 3 8.42933 11.476 81.0634
7209 3 62.4897 4.60733 58.5655
7210 3 90.1103 17.5945 51.9336
7211 3 16.1592 0.0754112 21.1389
7212 3 51.1969 3.40883 42.2569
7213 3 104.091 19.8896 23.335
7214 3 101.27 5.10663 44.1454
7215 3 111.119 6.95296 13.0422
7216 3 33.0245 21.3532 59.2418
7217 3 19.7467 3.87551 66.4985
7218 3 18.8327 7.46427 43.961
7219 3 33.2812 25.6886 42.3423
7220 3 71.5144 21.895 68.0271
7221 3 98.3903 3.77495 18.0697
7222 3 119.326 24.7392 69.567
7223 3 18.8218 23.1112 84.6535
7224 3 106.684 18.1241 19.4119
7225 3 20.9628 26.7329 26.9939
7226 3 100.993 10.5251 32.1993
7227 3 14.9333 24.9012 40.3286
7228 3 81.9133 13.5951 80.0289
7229 3 91.55 26.4271 65.2875
7230 3 42.3077 21.8427 25.9143
7231 3 76.8688 10.9151 72.8908
7232 3 62.2309 13.515 83.0908
7233 3 84.5891 8.31621 74.6433
7234 3 104.816 13.0674 43.012
7235 3 87.4745 25.0929 61.59
7236 3 27.3576 10.5494 65.4888
7237 3 4.63711 0.942776 63.6469
7238 3 85.8934 15.3121 38.3632
7239 3 14.3334 7.84764 74.0914
7240 3 5.47841 17.6452 55.907
7241 3 48.381 23.3957 76.2988
7242 3 29.065 6.5697 78.1821
7243 3 21.0783 7.52543 77.7049
7244 3 59.3568 24.641 54.4779
7245 3 68.6334 17.0942 45.2138
7246 3 110.962 25.3556 19.5325
7247 3 67.2889 14.8878 76.0631
7248 3 16.1476 10.035 44.2019
7249 3 1.93801 29.6704 38.5328
7250 3 69.033 17.2148 72.2041
7251 3 18.8527 0.329137 66.1815
7252 3 115.564 0.0840939 33.3634
7253 3 5.53598 12.9521 19.3191
7254 3 66.2887 20.2009 78.1375
7255 3 36.7919 4.50773 39.8415
7256 4 64.3608 15.2612 87.0839
7257 4 50.5183 25.1669 89.0696
7258 4 106.065 23.7785 20.3765
7259 4 8.57028 25.5856 71.4116
7260 4 65.548 14.808 36.0031
7261 4 115.637 10.1952 65.7499
7262 4 101.867 19.7405 79.6083
7263 4 99.4736 26.4403 48.5814
7264 4 38.859 15.2481 27.5136
7265 4 18.6427 12.5138 73.8714
7266 4 39.6729 11.2909 70.3495
7267 4 20.1037 18.0748 74.5092
7268 4 83.2624 3.1761 34.4062
7269 4 15.0927 12.3955 24.9286
7270 4 47.9288 12.1952 62.0814
7271 4 109.702 27.0374 36.7172
7272 4 92.0035 13.7752 60.2456
7273 4 34.0642 7.46373 62.6553
7274 4 16.7025 16.1414 20.079
7275 4 22.0762 13.8158 60.7349
7276 4 78.4766 9.06696 61.7074
7277 4 25.2218 10.7156 61.3555
7278 4 106.152 28.6695 43.0264
7279 4 106.805 29.3416 67.7673
7280 4 55.2841 16.2362 37.4879
7281 4 47.6568 12.8866 52.908
7282 4 25.7257 26.7537 41.5108
7283 4 78.0335 17.6361 43.0416
7284 4 41.5287 23.6997 54.6543
7285 4 110.676 21.9719 55.31
7286 4 112.497 24.2204 64.5268
7287 4 111.326 18.1536 75.0639
7288 4 77.5141 7.25178 87.7791
7289 4 99.2165 0.46767 64.2627
7290 4 110.498 28.4025 13.1555
7291 4 0.560614 13.3367 85.7826
7292 4 108.36 2.03044 76.0058
7293 4 119.832 20.167 20.1214
7294 4 88.2971 3.17149 55.589
7295 4 12.8289 27.0026 20.4726
7296 4 104.834 2.87169 58.0251
7297 4 107.516 16.4561 83.6739
7298 4 33.8142 22.3003 63.9463
7299 4 23.3413 16.3115 20.9732
7300 4 119.975 6.10289 75.2583
7301 4 20.805 29.8134 37.6873
7302 4 21.127 27.5001 13.5453
7303 4 107.507 15.1685 37.847
7304 4 55.0643 22.9515 44.452
7305 4 95.1188 14.5399 75.0139
7306 4 108.508 29.2187 28.8205
7307 4 27.7545 23.4439 25.5471
7308 4 0.904682 4.43804 25.7422
7309 4 41.6889 29.982 31.9319
7310 4 114.045 27.1559 48.5346
7311 4 114.213 9.40427 11.0696
7312 4 33.0737 24.4489 34.7527
7313 4 74.8272 11.4732 47.362
7314 4 3.25188 12.4297 35.1398
7315 4 0.8748 4.88495 39.5778
7316 4 3.00608 2.71934 51.7039
7317 4 49.7617 12.0929 68.0895
7318 4 106.492 7.18796 13.6249
7319 4 104.315 14.0711 53.9428
7320 4 72.7356 0.952146 75.8816
7321 4 31.2532 22.8135 43.6446
7322 4 70.1743 20.8069 74.9227
7323 4 45.0248 5.60898 87.8595
7324 4 95.1628 22.9904 42.1236
7325 4 100.139 12.1666 25.4164
7326 4 12.5622 17.9847 23.1329
7327 4 76.3865 0.972529 47.7537
7328 4 10.9989 18.9523 48.0424
7329 4 16.1744 19.2858 88.5358
7330 4 1.25007 1.95352 84.7617
7331 4 33.5935 13.1679 27.6016
7332 4 69.2679 16.9058 79.8437
7333 4 31.7658 14.6773 69.141
7334 4 12.0827 13.8866 32.1419
7335 4 63.9755 21.922 74.5533
7336 4 19.8131 11.7798 66.9988
7337 4 49.0576 5.29787 72.9341
7338 4 39.1734 25.1989 39.3269
7339 4 55.066 8.23725 42.5894
7340 4 27.262 0.439593 72.1979
7341 4 40.7411 16.4456 79.2269
7342 4 11.6793 19.4016 62.1537
7343 4 1.18738 26.0057 53.0327
7344 4 12.2754 2.79661 14.146
7345 4 107.058 28.6324 17.4993
7346 4 40.2186 9.14896 56.5639
7347 4 52.2907 28.587 42.2075
7348 4 116.144 8.34491 26.819
7349 4 78.8861 16.3791 48.8365
7350 4 35.2807 26.581 61.2346
7351 4 26.231 23.5245 84.7383
7352 4 9.05598 6.62815 62.1364
7353 4 40.1896 21.2489 33.2139
7354 4 62.7708 21.8006 38.5622
7355 4 36.3442 4.92989 34.7207
7356 4 92.8639 20.5537 31.7802
7357 4 40.4189 1.82832 87.146
7358 4 24.5383 21.8115 46.4561
7359 4 119.486 19.9112 87.7125
7360 4 35.9426 2.06499 63.63
7361 4 89.5233 12.2155 38.3355
7362 4 92.1936 29.2228 62.7797
7363 4 117.184 0.571283 70.5295
7364 4 81.4737 11.4213 62.9989
7365 4 114.448 9.92169 19.1551
7366 4 112.243 1.60049 29.5237
7367 4 61.7528 14.4625 63.7856
7368 4 75.464 25.4492 68.5158
7369 4 104.597 0.00399474 63.099
7370 4 0.0631949 0.649754 16.2128
7371 4 110.375 26.527 81.9016
7372 4 27.9633 29.5012 16.5804
7373 4 30.2951 14.2121 75.4073
7374 4 98.2132 9.99342 74.4593
7375 4 88.5996 27.9952 83.6745
7376 4 107.409 10.9677 52.605
7377 4 77.9782 16.1635 71.4145
7378 4 9.20552 2.53297 31.2427
7379 4 102.512 9.46386 69.4144
7380 4 115.113 20.38 23.538
7381 4 30.5177 1.02888 40.9407
7382 4 44.7116 27.6474 71.5904
7383 4 49.4547 4.50087 43.8022
7384 4 56.2212 0.573137 55.8443
7385 4 14.1857 24.3994 16.5535
7386 4 11.0674 16.5924 38.4634
7387 4 67.6218 16.6184 66.791
7388 4 56.2145 26.0633 86.5512
7389 4 77.9847 13.86 41.4583
7390 4 111.454 15.8187 16.8837
7391 4 6.00932 12.277 48.3955
7392 4 79.9199 1.24398 74.8931
7393 4 31.1561 21.8922 78.3552
7394 4 1.16422 29.3752 55.3052
7395 4 79.8247 8.69435 45.3516
7396 4 26.6638 17.4674 80.7863
7397 4 7.01886 17.5751 17.5018
7398 4 45.4524 1.17451 55.7866
7399 4 79.5782 22.9402 45.144
7400 4 92.1402 23.117 68.3469
7401 4 82.2979 2.4615 68.2079
7402 4 40.0347 10.921 52.8963
7403 4 57.1508 28.8784 47.7826
7404 4 11.7272 0.0078862 44.2269
7405 4 37.6623 4.70333 47.5764
7406 4 24.5 29.8965 68.8855
7407 4 17.6105 24.201 86.4745
7408 4 54.8895 0.0683302 35.3751
7409 4 102.178 27.7013 52.0033
7410 4 108.023 14.8532 28.505
7411 4 99.2188 12.5479 52.3392
7412 4 37.9794 1.16201 44.6075
7413 4 50.4877 21.4261 67.1705
7414 4 102.776 26.7129 71.0053
7415 4 69.141 29.4835 35.458
7416 4 7.00354 8.03825 35.286
7417 4 80.8432 20.3657 35.1098
7418 4 63.8718 7.70895 44.3961
7419 4 106.55 29.1254 60.1327
7420 4 34.8855 4.62177 27.1043
7421 4 2.70487 5.2023 31.3913
7422 4 64.5045 1.6735 54.2995
7423 4 110.083 15.8341 20.2766
7424 4 18.948 0.0226231 45.0969
7425 4 86.1366 28.4856 61.7492
7426 4 2.34392 23.322 61.7235
7427 4 22.8072 0.990219 58.8402
7428 4 112.873 18.3161 35.9323
7429 4 54.544 11.5522 53.0621
7430 4 2.83391 28.4767 22.4294
7431 4 65.0928 2.70388 49.4054
7432 4 69.2654 5.8995 45.0865
7433 4 98.7519 19.5847 86.0351
7434 4 6.35911 10.9349 63.3421
7435 4 45.306 19.9252 64.2063
7436 4 114.347 23.0063 19.1629
7437 4 61.0318 20.2215 43.7752
7438 4 74.4027 25.6172 40.523
7439 4 12.6111 17.2338 15.064
7440 4 32.3717 22.8193 73.8584
7441 4 6.87461 3.58308 64.5746
7442 4 12.8469 21.4026 87.09
7443 4 93.5675 20.9291 58.3977
7444 4 71.3367 19.9069 63.3216
7445 4 57.5879 2.14968 70.2004
7446 4 62.7065 24.3183 51.7477
7447 4 32.8104 23.8651 21.4728
7448 4 5.56239 28.8819 84.4643
7449 4 72.0533 16.1007 53.8509
7450 4 12.4059 7.61439 72.2577
7451 4 81.3221 29.8272 85.6525
7452 4 5.25015 14.2031 14.6523
7453 4 108.04 15.7094 33.2347
7454 4 28.7926 23.7391 69.4486
7455 4 98.6914 4.4101 77.7451
7456 4 93.9511 2.11461 22.9592
7457 4 40.7941 9.95533 24.6504
7458 4 74.1693 5.83702 49.5082
7459 4 118.498 4.31378 31.5161
7460 4 10.056 29.5049 65.1264
7461 4 12.8026 2.93791 83.8371
7462 4 37.722 19.7852 41.4176
7463 4 80.0381 27.292 37.3052
7464 4 75.9046 0.976894 54.0236
7465 4 37.725 8.56367 87.0644
7466 4 4.68443 21.6593 78.1713
7467 4 62.6884 14.2932 77.2253
7468 4 58.5061 10.7659 58.9251
7469 4 102.171 4.0517 63.9255
7470 4 10.9751 12.8581 74.4626
7471 4 119.551 9.68047 63.7445
7472 4 60.5993 7.79231 85.142
7473 4 38.7699 19.2751 29.545
7474 4 53.5447 14.4344 81.2486
7475 4 26.3448 20.4856 87.8701
7476 4 89.97 2.11255 77.7097
7477 4 8.83161 0.0441822 52.2425
7478 4 97.7514 27.8132 36.8506
7479 4 16.9613 19.5588 55.4459
7480 4 79.5707 25.3704 63.1162
7481 4 39.123 18.0336 87.8999
7482 4 28.3217 6.30432 32.8767
7483 4 67.1951 9.80847 45.8753
7484 4 103.081 25.1524 39.8997
7485 4 54.2386 21.1458 32.5445
7486 4 97.6869 17.9744 82.1815
7487 4 21.0508 18.7226 51.0493
7488 4 12.03 3.49657 18.4721
7489 4 10.0969 14.3787 22.8571
7490 4 54.0504 4.66149 61.0493
7491 4 16.0014 27.4545 60.5966
7492 4 11.5954 2.25876 35.4056
7493 4 70.9304 29.6229 44.2167
7494 4 117.108 20.3714 69.4038
7495 4 18.7044 23.0453 19.83
7496 4 98.6682 4.67463 61.753
7497 4 27.2664 5.37106 19.4793
7498 4 66.1366 16.9667 71.0466
7499 4 79.6226 5.41638 73.9551
7500 4 34.8093 10.4099 43.4117
7501 4 67.275 21.6897 46.9358
7502 4 41.2452 26.914 42.8203
7503 4 23.8986 10.8844 12.2638
7504 4 117.968 27.8839 30.224
7505 4 94.8722 8.96539 30.172
7506 4 68.5266 27.3336 63.0159
7507 4 32.8069 9.94083 36.8558
7508 4 40.3164 15.5275 69.0835
7509 4 113.282 11.7139 25.7648
7510 4 49.7973 5.42063 83.3003
7511 4 62.2945 16.1929 43.3215
7512 4 26.9485 29.2271 31.7394
7513 4 55.2919 19.2161 59.4564
7514 4 15.7093 15.1321 60.2772
7515 4 58.1504 11.9771 68.5303
7516 4 59.427 22.4342 90.2998
7517 4 43.3627 25.6367 27.121
7518 4 43.6277 20.6137 82.6712
7519 4 66.9317 14.5625 53.5888
7520 4 9.68024 29.9032 22.4704
7521 4 77.8737 0.816161 60.08
7522 4 15.6412 11.6781 30.1244
7523 4 11.9378 1.7446 62.1374
7524 4 106.634 14.0112 20.8714
7525 4 113.804 7.67833 85.4187
7526 4 70.2864 2.65198 85.8186
7527 4 34.5782 18.9913 83.9074
7528 4 41.2312 7.60363 89.4872
7529 4 21.8855 21.2451 88.8719
7530 4 2.54648 25.218 68.9814
7531 4 43.7365 10.884 47.4787
7532 4 34.2843 7.51242 30.3846
7533 4 59.2331 17.2062 78.2576
7534 4 46.5411 5.88925 30.6807
7535 4 27.644 28.8241 55.5676
7536 4 54.9918 2.36018 83.7966
7537 4 73.1773 15.3733 38.1026
7538 4 100.8 28.6748 83.7066
7539 4 51.198 15.1925 56.963
7540 4 114.848 11.2906 86.283
7541 4 47.3368 8.49545 63.5657
7542 4 75.5375 10.3605 56.426
7543 4 43.9529 22.6442 41.9003
7544 4 65.8147 9.19178 74.6119
7545 4 92.9008 19.8761 38.6798
7546 4 16.3299 17.1989 77.1496
7547 4 96.7581 21.0315 37.9921
7548 4 75.2414 19.537 71.1232
7549 4 23.6424 14.363 27.9682
7550 4 19.8381 7.71807 59.2311
7551 4 15.021 0.140131 53.4931
7552 4 42.8897 4.6752 65.9213
7553 4 3.17821 17.988 54.8758
7554 4 109.447 14.0498 69.828
7555 4 117.298 8.78122 15.9054
7556 4 38.8756 25.3757 76.8191
7557 4 13.0129 8.67362 30.1497
7558 4 14.3841 14.4115 36.448
7559 4 54.2757 19.1387 43.4909
7560 4 97.4032 27.5817 51.8522
7561 4 7.94836 19.2957 77.3319
7562 4 34.9793 27.6072 77.9898
7563 4 19.4362 17.0072 58.7515
7564 4 23.494 7.62892 52.1194
7565 4 21.2661 27.1741 34.2358
7566 4 47.3268 17.5031 41.9127
7567 4 53.571 26.435 51.1307
7568 4 59.063 27.9282 42.1482
7569 4 57.6125 0.181539 38.3348
7570 4 80.7414 22.6984 77.5391
7571 4 74.4361 4.08989 59.7867
7572 4 60.9195 21.8165 66.5571
7573 4 21.3404 1.41987 66.2991
7574 4 31.3284 11.533 79.8647
7575 4 50.3106 29.4072 67.5815
7576 4 54.5544 27.5904 58.1779
7577 4 81.0005 18.7811 73.5029
7578 4 59.1413 25.7521 83.509
7579 4 42.7116 28.4046 49.8518
7580 4 49.993 9.46644 79.6966
7581 4 80.8796 14.9409 55.8867
7582 4 43.6668 26.39 64.0727
7583 4 2.72064 16.3646 81.9638
7584 4 79.1119 13.9426 77.0469
7585 4 10.3597 17.8946 51.7233
7586 4 52.5682 22.5969 60.6277
7587 4 66.101 26.245 66.2411
7588 4 48.9472 14.1325 46.382
7589 4 55.6683 4.81646 57.0144
7590 4 43.4262 23.4378 79.2277
7591 4 14.7627 22.2354 47.0708
7592 4 116.322 4.46112 89.0944
7593 4 82.9293 17.8693 50.2773
7594 4 111.439 13.4241 79.461
7595 4 18.7122 10.0895 44.3919
7596 4 105.571 27.8492 37.0249
7597 4 102.942 9.2625 23.1204
7598 4 7.19531 5.47401 24.7105
7599 4 15.2462 19.1162 29.9543
7600 4 18.6372 19.157 46.3314
7601 4 78.1683 17.4921 37.363
7602 4 28.8698 24.0145 60.7324
7603 4 82.5327 19.1034 67.0105
7604 4 20.7815 25.9264 50.5288
7605 4 28.904 11.8129 23.8822
7606 4 1.13478 7.38074 57.3705
7607 4 104.685 5.78243 81.4685
7608 4 69.7199 7.14069 70.384
7609 4 87.4968 26.7885 47.9823
7610 4 29.8571 13.5888 45.2306
7611 4 100.652 15.1975 33.9485
7612 4 28.7506 0.604047 45.1289
7613 4 43.5748 18.4899 72.5295
7614 4 27.2976 6.81055 62.6788
7615 4 17.1876 27.731 89.5123
7616 4 23.2135 28.7977 43.9617
7617 4 55.9106 9.72402 64.992
7618 4 22.0205 11.527 57.3662
7619 4 74.6127 4.26211 77.0984
7620 4 25.9082 17.6595 76.7121
7621 4 56.6781 9.94478 49.7417
7622 4 111.014 5.88688 23.5015
7623 4 68.9682 9.48103 88.7853
7624 4 36.5763 18.2155 63.0868
7625 4 34.7105 17.9876 71.4509
7626 4 113.847 10.4423 43.7299
7627 4 56.6407 8.53544 76.9622
7628 4 34.126 16.9404 79.4686
7629 4 5.5072 13.2002 89.2339
7630 4 20.3362 7.43292 66.3272
7631 4 114.919 0.672233 77.3191
7632 4 106.152 21.1876 37.7796
7633 4 55.7701 14.5943 43.3922
7634 4 7.06625 16.0286 38.7344
7635 4 23.0378 22.7294 42.7523
7636 4 103.664 5.01227 46.2756
7637 4 14.7372 6.07176 88.4295
7638 4 5.23438 11.9817 32.1905
7639 4 104.538 3.21363 30.9258
7640 4 102.114 5.62836 19.9831
7641 4 105.964 5.61686 17.5923
7642 4 112.687 12.7205 74.4062
7643 4 22.2897 24.9158 25.456
7644 4 3.20858 17.9851 70.5357
7645 4 77.2941 26.5997 80.1654
7646 4 35.9205 2.36427 38.1223
7647 4 105.136 26.3199 14.8579
7648 4 18.8931 27.4416 25.284
7649 4 98.8519 16.0779 58.1608
7650 4 73.0735 3.61796 37.7815
7651 4 47.6743 20.064 49.1508
7652 4 73.6991 21.1982 57.4548
7653 4 110.445 29.1391 42.4607
7654 4 82.1346 9.24377 42.7335
7655 4 25.5401 11.0489 30.4344
7656 4 107.289 11.7115 56.6689
7657 4 114.453 16.886 65.02
7658 4 44.3892 7.86685 72.4118
7659 4 76.5896 2.92914 39.4232
7660 4 46.7616 25.7994 79.9929
7661 4 76.0073 10.1399 83.1222
7662 4 95.4739 10.4067 59.9089
7663 4 40.7799 23.0768 29.7456
7664 4 46.0623 2.41884 83.0143
7665 4 53.2572 3.83071 40.7512
7666 4 82.5725 5.18076 80.2199
7667 4 35.6416 7.14474 84.0941
7668 4 26.6104 15.2711 42.6789
7669 4 97.5057 3.78061 35.7252
7670 4 12.9994 5.8349 23.3035
7671 4 78.4443 0.856916 80.3503
7672 4 12.8625 18.5256 32.8954
7673 4 103.162 22.8606 35.6408
7674 4 72.699 4.01626 70.8021
7675 4 6.73477 6.48614 12.0007
7676 4 117.115 22.8771 66.3302
7677 4 96.9111 29.0712 84.705
7678 4 85.9865 11.8394 76.9682
7679 4 51.4688 21.144 54.7982
7680 4 18.9696 4.88588 43.6384
7681 4 22.4284 24.3562 66.4997
7682 4 20.7113 28.933 18.4996
7683 4 97.6604 24.2817 75.6975
7684 4 85.1068 9.52948 82.0947
7685 4 7.99279 2.12979 56.2099
7686 4 31.4005 18.3654 69.269
7687 4 92.4532 8.88288 58.0255
7688 4 50.5002 6.85645 88.2191
7689 4 26.3796 21.93 15.6412
7690 4 16.2706 5.31724 33.5509
7691 4 20.5194 19.6168 32.5474
7692 4 24.003 22.8826 19.461
7693 4 94.4025 8.73983 38.8002
7694 4 51.5083 3.68263 54.2537
7695 4 27.3854 16.9698 52.7172
7696 4 86.475 17.8148 60.107
7697 4 97.5674 19.7812 60.1896
7698 4 42.8872 13.8417 86.6483
7699 4 107.08 9.40533 25.0899
7700 4 71.4169 9.41621 56.7976
7701 4 111.871 6.80774 56.5374
7702 4 44.82 23.954 70.2657
7703 4 59.7169 18.0073 60.2247
7704 4 6.11616 25.1767 56.7247
7705 4 55.9599 14.1141 77.349
7706 4 30.0704 7.6486 55.9286
7707 4 10.4474 6.59925 83.7966
7708 4 9.48425 12.1239 69.5277
7709 4 33.3771 22.5272 28.2476
7710 4 11.7428 5.2723 28.636
7711 4 25.3686 29.3683 51.7525
7712 4 117.835 19.2444 35.146
7713 4 115.752 1.74968 15.4397
7714 4 90.867 5.19149 36.4095
7715 4 2.83659 15.4471 19.808
7716 4 79.3811 23.1088 58.9571
7717 4 12.7006 15.8921 87.9087
7718 4 6.68965 22.1004 28.0808
7719 4 5.93852 29.6003 19.7915
7720 4 21.7343 8.8874 28.9526
7721 4 85.4201 17.9054 89.3377
7722 4 4.00348 19.0903 85.4064
7723 4 51.3118 2.29174 87.6831
7724 4 111.044 1.94991 53.3138
7725 4 91.4415 24.8159 77.533
7726 4 72.8674 22.5197 50.5819
7727 4 106.454 2.52906 37.3845
7728 4 8.4129 23.6434 49.4078
7729 4 84.4922 23.0673 80.0774
7730 4 0.914423 5.91857 62.0652
7731 4 94.6175 25.9844 70.9246
7732 4 5.1032 26.8763 78.2507
7733 4 116.535 11.3666 70.1579
7734 4 49.9102 24.4646 57.7268
7735 4 25.2474 8.73362 21.1887
7736 4 72.1458 14.8622 71.0416
7737 4 0.649094 24.2167 73.6442
7738 4 85.2721 19.1238 83.4139
7739 4 31.2912 17.0914 84.8532
7740 4 35.3927 4.46174 51.4365
7741 4 3.12796 15.9158 58.3377
7742 4 100.589 3.68459 56.4946
7743 4 51.295 20.8959 75.2803
7744 4 89.3441 19.8887 56.5339
7745 4 11.5185 25.9265 86.4252
7746 4 49.9406 3.50905 39.8877
7747 4 40.6796 28.5248 73.9167
7748 4 22.1618 7.95226 24.2546
7749 4 22.1403 19.8374 19.077
7750 4 109.045 20.9019 80.0425
7751 4 16.3971 15.5402 81.2175
7752 4 75.2192 8.15212 36.1238
7753 4 26.3091 11.0214 40.1884
7754 4 105.391 11.9553 30.2298
7755 4 115.524 14.5396 28.94
7756 4 102.933 22.5443 23.5885
7757 4 2.34035 5.67763 68.342
7758 4 17.9824 7.09848 79.1691
7759 4 4.0573 8.95343 70.1629
7760 4 5.92177 7.38401 42.947
7761 4 6.08158 20.6689 38.445
7762 4 97.3474 23.9007 33.508
7763 4 11.9994 16.0099 55.9096
7764 4 106.256 27.5404 51.0793
7765 4 100.503 28.0396 24.625
7766 4 21.2242 18.603 66.2928
7767 4 102.619 27.3753 59.8822
7768 4 67.9402 3.38553 42.1936
7769 4 119.67 19.831 61.0708
7770 4 106.151 7.69344 85.7098
7771 4 24.7288 28.524 88.3573
7772 4 84.1615 11.1802 87.2971
7773 4 31.1773 26.333 27.3556
7774 4 96.1526 15.5396 68.2174
7775 4 5.94688 23.3806 82.9844
7776 4 64.7727 11.8133 84.1564
7777 4 35.7444 14.8864 31.9771
7778 4 61.2406 19.4458 72.1316
7779 4 93.4747 9.57595 87.2262
7780 4 94.7513 5.18743 73.0189
7781 4 55.5525 15.8401 66.8528
7782 4 117.306 9.18736 32.8987
7783 4 110.373 13.0445 59.5504
7784 4 87.3683 24.2065 43.8847
7785 4 98.6204 4.80589 51.9647
7786 4 51.9812 29.9893 50.0428
7787 4 115.424 22.2522 71.9872
7788 4 80.8084 15.3047 83.5393
7789 4 17.7538 29.3118 70.4643
7790 4 16.2598 7.40001 44.58
7791 4 20.7527 6.77582 20.6356
7792 4 81.1923 15.8878 32.3394
7793 4 72.2567 2.06673 67.0855
7794 4 86.9374 19.1203 44.5673
7795 4 99.4225 27.9468 28.7468
7796 4 35.2984 18.8145 24.1331
7797 4 37.4873 26.5359 35.9186
7798 4 7.39045 21.4176 85.9345
7799 4 83.847 3.4165 46.3506
7800 4 46.1605 3.11826 45.4145
7801 4 21.512 29.6152 62.4665
7802 4 89.9954 1.27562 58.9826
7803 4 98.6394 26.4744 69.2755
7804 4 60.1024 5.36979 69.0188
7805 4 40.0536 22.8265 71.37
7806 4 12.6286 7.63231 65.0831
7807 4 111.528 16.9775 84.1697
7808 4 59.2242 17.9359 53.3692
7809 4 32.2043 0.363075 21.3595
7810 4 73.0425 0.915844 40.7109
7811 4 47.5788 19.5169 60.776
7812 4 24.7103 27.4697 18.8519
7813 4 117.166 0.888113 46.9734
7814 4 106.235 20.1153 17.5251
7815 4 93.9589 0.839881 42.9838
7816 4 97.5344 7.75372 47.2821
7817 4 6.68755 25.8546 87.2372
7818 4 91.9452 25.2207 59.7049
7819 4 107.201 20.2085 13.5225
7820 4 25.6366 16.6758 48.7857
7821 4 88.7651 12.0501 34.0983
7822 4 47.3239 11.1389 74.2201
7823 4 85.4494 0.572407 83.4594
7824 4 87.8794 14.868 84.5399
7825 4 11.0769 22.6899 25.9183
7826 4 30.7981 1.23784 83.1935
7827 4 29.876 26.5053 66.1567
7828 4 84.507 21.7441 37.2621
7829 4 116.896 5.95723 21.7767
7830 4 38.9366 27.3332 51.1446
7831 4 46.6249 20.1214 32.1923
7832 4 35.6876 27.9049 87.1133
7833 4 97.4855 13.3636 31.3074
7834 4 26.8723 9.45813 53.9697
7835 4 60.5277 26.1351 58.5615
7836 4 107.426 18.0126 25.1775
7837 4 27.3967 26.228 76.5443
7838 4 109.766 20.4048 42.2846
7839 4 22.8844 24.4515 78.1784
7840 4 78.9592 10.4648 36.3849
7841 4 47.8535 24.3682 64.7863
7842 4 39.7354 3.24252 58.1828
7843 4 3.30548 11.2969 73.9488
7844 4 24.0708 5.2777 14.4469
7845 4 13.1177 7.75175 17.6065
7846 4 9.49107 5.98879 79.4885
7847 4 10.2724 3.86329 42.4936
7848 4 61.7193 4.8411 42.7848
7849 4 63.873 11.665 65.9081
7850 4 6.26923 9.92851 87.2898
7851 4 8.70688 15.0078 42.9693
7852 4 10.7668 9.74805 38.1492
7853 4 0.0928518 18.3841 15.2402
7854 4 117.116 27.3148 40.5583
7855 4 9.96606 17.6775 70.6169
7856 4 5.89703 29.6772 65.5047
7857 4 111.002 3.74679 85.62
7858 4 51.4025 11.7858 76.1638
7859 4 37.5281 25.421 54.9691
7860 4 16.5643 6.7163 25.8965
7861 4 26.5767 11.4313 35.3327
7862 4 22.4228 1.99482 55.0112
7863 4 4.89759 10.4165 81.0811
7864 4 91.7505 25.2325 38.0869
7865 4 105.056 15.2376 69.485
7866 4 101.412 13.9467 29.5436
7867 4 112.613 22.5909 87.9884
7868 4 87.0479 3.19273 73.7669
7869 4 72.549 27.9732 67.7661
7870 4 18.2293 3.67764 47.2322
7871 4 25.8832 21.8821 29.4714
7872 4 108.346 1.09541 87.5553
7873 4 62.1877 27.452 86.9338
7874 4 105.395 6.13253 42.8272
7875 4 114.242 8.71731 61.6631
7876 4 57.5259 21.3756 77.3876
7877 4 119.781 0.427098 80.2297
7878 4 10.1144 8.6638 49.3025
7879 4 42.8897 9.44105 61.1389
7880 4 33.8797 6.63749 57.4158
7881 4 91.6027 24.1502 63.8129
7882 4 66.2996 23.778 69.2203
7883 4 119.604 3.25573 54.8968
7884 4 96.5538 6.47262 83.6301
7885 4 55.3179 18.7499 86.5506
7886 4 74.4407 22.6796 46.6271
7887 4 33.689 22.2897 81.3627
7888 4 55.226 26.415 76.5862
7889 4 56.9838 5.16694 50.6774
7890 4 105.512 26.5362 46.7224
7891 4 66.989 20.6204 35.7244
7892 4 82.7891 11.8023 39.1959
7893 4 85.8331 27.0013 33.9994
7894 4 106.998 26.9943 32.9305
7895 4 42.8779 26.9256 84.5611
7896 4 26.6731 3.09526 34.9948
7897 4 73.8717 15.4012 63.1868
7898 4 105.79 15.0874 74.77
7899 4 100.657 27.7513 76.572
7900 4 103.969 2.20801 74.2285
7901 4 87.8099 15.2358 43.439
7902 4 15.6644 22.3903 62.0096
7903 4 91.3136 27.917 70.0848
7904 4 34.6453 18.037 75.7157
7905 4 114.521 13.1465 54.333
7906 4 106.987 8.87011 45.4186
7907 4 63.2896 10.5449 59.1538
7908 4 51.079 18.4808 37.1754
7909 4 32.0208 27.9336 55.9754
7910 4 117.301 14.4618 72.902
7911 4 54.8373 24.9664 82.2862
7912 4 23.8351 15.8796 69.3623
7913 4 67.0731 6.28531 81.2582
7914 4 62.0108 29.8973 48.3773
7915 4 11.8697 7.85449 56.4454
7916 4 82.0418 18.5977 43.6229
7917 4 23.5032 1.64533 24.5625
7918 4 27.1938 2.34909 65.9771
7919 4 76.8418 19.1077 82.2344
7920 4 6.22918 2.0024 38.7487
7921 4 10.1473 11.612 12.0638
7922 4 89.0383 11.3428 73.4298
7923 4 11.012 12.2457 56.838
7924 4 25.6015 20.4678 56.6799
7925 4 99.1027 9.92182 17.3794
7926 4 92.8769 13.9003 51.919
7927 4 29.9247 3.88646 20.9148
7928 4 112.221 16.5612 41.6414
7929 4 6.7904 14.9724 52.009
7930 4 108.043 2.28548 41.8172
7931 4 23.1647 14.4463 14.5815
7932 4 112.484 2.15912 63.611
7933 4 116.879 13.3952 41.8938
7934 4 41.6855 29.7223 80.021
7935 4 38.7447 28.4975 59.5832
7936 4 17.575 20.9031 27.1105
7937 4 112.799 4.50649 60.1387
7938 4 82.0425 7.49732 69.1375
7939 4 40.7799 9.34339 77.5835
7940 4 51.3724 10.8707 71.2349
7941 4 119.383 0.277467 38.4756
7942 4 37.9092 26.3678 27.491
7943 4 116.079 23.2766 50.3195
7944 4 116.343 17.2175 42.4975
7945 4 34.8514 8.80571 21.7949
7946 4 93.5305 18.0003 61.6544
7947 4 42.0254 10.8877 81.6296
7948 4 22.3668 20.7601 69.4067
7949 4 48.39 27.9224 35.0927
7950 4 40.6984 1.55399 76.1338
7951 4 64.2394 6.08835 56.9298
7952 4 94.6375 22.0602 72.3921
7953 4 19.4268 2.98824 81.0115
7954 4 100.906 13.0509 18.43
7955 4 50.102 25.379 37.327
7956 4 3.59713 24.5341 22.9182
7957 4 45.193 4.53761 52.7979
7958 4 112.864 5.6402 32.8676
7959 4 76.2833 17.8417 66.2762
7960 4 37.5139 22.5945 61.3865
7961 4 24.3196 10.0223 71.7788
7962 4 33.74 23.9956 52.6889
7963 4 23.9279 13.3635 65.2536
7964 4 97.4837 19.7406 33.1697
7965 4 40.4166 22.9587 84.8848
7966 4 5.02924 28.7181 69.9735
7967 4 15.3039 11.0071 53.604
7968 4 17.3128 20.5071 22.3576
7969 4 33.0236 1.40244 58.2795
7970 4 115.814 21.8239 62.2192
7971 4 13.0352 9.92615 68.7105
7972 4 25.9329 17.9193 11.9801
7973 4 110.673 11.9595 37.4102
7974 4 1.80005 13.9411 23.6909
7975 4 68.2923 20.6741 56.8183
7976 4 105.138 18.285 55.3499
7977 4 4.55177 15.9375 31.3304
7978 4 0.403354 18.2066 52.0159
7979 4 76.9112 25.5698 50.001
7980 4 6.15448 25.3488 34.4822
7981 4 70.6151 7.87081 63.3662
7982 4 108.538 17.1013 72.6864
7983 4 16.6223 24.0245 79.5027
7984 4 64.0197 24.132 80.726
7985 4 100.858 9.98211 83.2237
7986 4 36.1193 11.499 39.1241
7987 4 85.628 29.0296 54.1395
7988 4 11.4462 20.4567 79.6725
7989 4 48.4308 2.17324 70.5533
7990 4 16.6805 11.7315 49.0045
7991 4 117.605 15.6655 32.5844
7992 4 104.136 17.0632 64.874
7993 4 54.6922 12.8299 46.8312
7994 4 62.3771 17.6984 83.7126
7995 4 114.23 14.8601 60.8688
7996 4 67.1905 6.57761 48.3961
7997 4 79.4785 9.80943 78.1344
7998 4 62.8863 20.5851 54.7689
7999 4 64.543 18.9655 48.1678
8000 4 91.2184 8.57395 80.2209
8001 4 96.6426 28.9649 40.9484
8002 4 28.1552 22.6023 38.7993
8003 4 78.4477 0.644147 70.366
8004 4 18.8374 8.11635 14.0957
8005 4 90.98 1.40906 66.3003
8006 4 67.1651 25.404 56.5022
8007 4 38.8656 17.7294 36.5518
8008 4 108.262 19.8445 31.6066
8009 4 27.958 7.0428 14.5481
8010 4 23.7716 6.284 77.0786
8011 4 25.0582 27.3447 25.138
8012 4 17.5747 19.7115 64.1034
8013 4 29.3349 7.29305 75.2168
8014 4 103.658 11.2635 79.0965
8015 4 60.6037 4.67458 48.818
8016 4 83.9555 3.88267 38.4956
8017 4 99.3803 22.0385 63.781
8018 4 98.7247 22.1879 70.0389
8019 4 113.33 28.4147 80.4221
8020 4 22.9216 21.9155 54.0934
8021 4 105.433 5.98214 27.9229
8022 4 39.1722 18.6502 53.0457
8023 4 84.0563 12.6459 51.065
8024 4 91.7224 18.654 26.3212
8025 4 32.1854 7.98291 84.692
8026 4 109.929 2.4906 13.2011
8027 4 20.3413 13.3033 43.5997
8028 4 0.42229 7.81346 36.1516
8029 4 90.7607 23.6787 43.3125
8030 4 93.6716 0.188075 78.9848
8031 4 45.5959 23.1836 38.3846
8032 4 39.5349 21.1999 79.7211
8033 4 25.2368 12.4084 86.2749
8034 4 13.4039 19.6186 69.1005
8035 4 0.765867 20.5433 26.0305
8036 4 14.7273 28.2035 68.1718
8037 4 69.8701 11.9545 40.2901
8038 4 94.0724 20.9957 86.0991
8039 4 12.6999 1.12635 70.2431
8040 4 115.136 1.70315 66.9866
8041 4 3.56735 21.8763 34.6415
8042 4 45.0137 9.03178 77.1834
8043 4 64.4048 0.159249 68.1004
8044 4 116.552 10.336 50.5476
8045 4 118.789 27.1355 13.2325
8046 4 21.0783 11.8788 24.4613
8047 4 111.526 23.1983 32.3089
8048 4 95.1209 16.8296 44.8773
8049 4 47.103 24.247 31.704
8050 4 58.8218 19.7624 39.7667
8051 4 68.9842 29.1874 87.6487
8052 4 19.4203 18.0288 12.7311
8053 4 41.1722 16.7018 45.5982
8054 4 2.57056 11.5712 45.5441
8055 4 87.7614 28.7109 87.3222
8056 4 69.9841 19.1645 89.25
8057 4 86.7972 18.5764 34.8698
8058 4 99.7383 29.1036 44.0312
8059 4 0.87803 0.541826 31.954
8060 4 82.2534 20.971 60.3123
8061 4 44.3192 15.5322 35.0672
8062 4 48.9811 0.491198 84.9912
8063 4 72.9192 2.59546 48.3083
8064 4 10.8099 9.58954 33.7535
8065 4 109.282 23.8146 69.7655
8066 4 102.483 12.8788 38.3959
8067 4 77.368 15.277 57.7285
8068 4 29.9368 13.5431 58.4666
8069 4 8.3309 1.13863 13.1266
8070 4 46.0807 14.6684 49.648
8071 4 18.8947 29.8123 56.2993
8072 4 65.4438 8.33851 68.3449
8073 4 30.9831 3.71796 77.6925
8074 4 52.9168 4.74891 74.4725
8075 4 27.1355 10.3478 68.1925
8076 4 33.5641 25.9178 46.6925
8077 4 11.6938 28.2626 36.2606
8078 4 106.095 22.487 89.5601
8079 4 71.2588 1.68243 61.3274
8080 4 45.6855 27.4105 39.2423
8081 4 30.3167 7.85826 23.073
8082 4 64.2882 11.3658 38.7634
8083 4 64.2672 20.7612 86.8109
8084 4 33.5691 6.39927 71.0353
8085 4 36.7283 13.8427 85.304
8086 4 119.349 19.0449 40.561
8087 4 95.1534 23.9218 30.4022
8088 4 14.9496 29.376 83.7022
8089 4 80.3962 26.5687 75.8329
8090 4 42.7184 0.658681 64.9704
8091 4 1.48469 15.2784 72.8257
8092 4 11.1455 24.1419 55.252
8093 4 99.389 17.7917 72.7996
8094 4 50.1492 1.02337 46.0413
8095 4 49.562 12.9743 82.5803
8096 4 113.425 24.6957 44.9171
8097 4 43.9353 25.3204 57.5822
8098 4 119.479 8.84619 83.6488
8099 4 33.8799 10.4131 69.5794
8100 4 100.429 2.98497 29.2827
8101 4 79.0849 24.2403 85.1412
8102 4 30.1266 11.7519 50.1953
8103 4 99.711 6.97805 42.2885
8104 4 53.7078 2.28847 65.9776
8105 4 95.6392 11.8248 36.1848
8106 4 22.1392 27.0001 85.1546
8107 4 52.1875 16.0974 87.3252
8108 4 7.76115 18.6869 44.9726
8109 4 62.898 6.69473 81.5121
8110 4 56.3322 22.9098 71.2444
8111 4 111.025 9.35642 17.471
8112 4 3.94928 20.8651 12.0218
8113 4 56.2352 29.8774 87.6617
8114 4 96.0154 21.6181 78.2479
8115 4 73.5443 11.0773 79.254
8116 4 3.7004 26.4234 30.6776
8117 4 91.4817 0.671734 35.291
8118 4 26.7157 16.6042 57.7287
8119 4 20.758 22.239 12.5497
8120 4 93.7461 13.5842 71.3268
8121 4 7.15512 11.7077 55.1533
8122 4 31.234 17.2257 46.537
8123 4 102.402 5.92055 50.1917
8124 4 49.6941 12.7568 38.9109
8125 4 57.9444 8.59921 73.3475
8126 4 59.6605 19.2572 81.2906
8127 4 59.6727 10.8086 42.0428
8128 4 46.5084 28.0586 52.3857
8129 4 0.908307 12.5309 13.7501
8130 4 94.0916 10.0147 82.5586
8131 4 4.01311 19.8702 44.5585
8132 4 95.4938 2.35835 30.0578
8133 4 47.9104 6.29539 34.7026
8134 4 31.7264 25.7519 62.3817
8135 4 68.3419 17.3146 49.0556
8136 4 50.9685 24.5556 71.0818
8137 4 109.341 4.17379 34.8679
8138 4 110.737 4.77551 19.5665
8139 4 114.827 21.1663 53.4222
8140 4 87.8052 15.9591 54.4149
8141 4 28.9839 20.9466 46.7561
8142 4 77.8055 2.93759 86.5029
8143 4 23.1782 25.0811 30.646
8144 4 73.0681 20.9261 34.8393
8145 4 84.8224 2.94673 61.2076
8146 4 21.9303 1.68386 51.7009
8147 4 9.85572 11.4906 84.6584
8148 4 22.3118 3.35153 45.1098
8149 4 26.9247 12.4699 15.5481
8150 4 118.021 27.6505 21.9966
8151 4 55.8436 7.37372 88.6613
8152 4 94.3352 8.80279 70.691
8153 4 20.7603 21.314 84.2104
8154 4 6.37201 2.4595 84.9658
8155 4 20.4277 17.399 83.1431
8156 4 0.391324 20.1812 75.453
8157 4 83.0847 20.0537 53.9677
8158 4 58.158 15.7224 83.976
8159 4 100.002 21.605 39.7303
8160 4 61.5045 2.42806 57.498
8161 4 34.6178 8.00029 46.673
8162 4 58.2036 14.8191 71.3407
8163 4 63.2121 0.574455 38.7689
8164 4 73.2911 17.525 77.5947
8165 4 12.4392 24.1607 82.5278
8166 4 110.114 17.8784 64.2245
8167 4 65.0409 9.60128 51.018
8168 4 54.693 9.28494 85.3377
8169 4 14.3613 24.4789 65.7925
8170 4 43.9971 14.0501 42.3933
8171 4 111.993 14.862 87.0692
8172 4 110.256 0.43123 71.0316
8173 4 2.33916 27.048 58.6941
8174 4 105.163 21.8387 47.5996
8175 4 70.3685 18.1488 85.0744
8176 4 94.3199 4.93955 60.7923
8177 4 60.6781 23.8296 77.5807
8178 4 90.429 15.7332 39.7988
8179 4 87.7219 19.8943 39.3303
8180 4 39.8601 13.076 40.0089
8181 4 75.1162 13.8465 88.6213
8182 4 51.4332 9.05461 47.4544
8183 4 19.4021 27.526 79.0588
8184 4 32.653 18.6421 50.6969
8185 4 29.495 16.1819 32.5382
8186 4 84.2156 22.845 32.1653
8187 4 97.9796 14.2077 48.5163
8188 4 28.8676 26.283 33.5306
8189 4 113.677 22.3772 35.4804
8190 4 34.5801 11.688 90.8722
8191 4 114.254 17.9742 47.836
8192 4 2.43796 11.2138 58.1707
8193 4 74.3333 3.6008 82.0924
8194 4 45.7888 17.589 37.7275
8195 4 11.44 14.1309 49.9935
8196 4 12.5114 26.3257 46.0951
8197 4 80.0966 13.7061 68.8619
8198 4 58.0643 2.70479 45.6787
8199 4 71.6968 25.9314 55.4498
8200 4 110.006 29.1108 21.4965
8201 4 54.912 11.51 38.8756
8202 4 89.7098 16.2853 49.5939
8203 4 112.853 23.361 83.726
8204 4 66.7155 9.82591 61.6032
8205 4 27.5473 6.22792 68.5566
8206 4 74.6657 0.530431 35.9878
8207 4 23.0056 25.79 55.9393
8208 4 16.0846 12.1796 84.0325
8209 4 92.3106 19.7753 64.3496
8210 4 100.877 2.30142 22.6874
8211 4 112.026 24.1751 12.3894
8212 4 97.8308 22.3368 21.6761
8213 4 99.3453 8.82161 37.3381
8214 4 28.7813 26.7896 39.4663
8215 4 112.469 22.0187 49.4112
8216 4 105.083 17.1537 51.0683
8217 4 111.153 26.0287 90.727
8218 4 107.248 8.27666 36.6607
8219 4 28.4369 19.0687 40.6118
8220 4 31.1211 19.0369 22.7281
8221 4 72.033 22.8571 81.267
8222 4 0.743066 4.02889 88.2631
8223 4 48.9767 21.195 78.9255
8224 4 72.9615 27.8908 89.017
8225 4 48.4315 18.8574 72.3392
8226 4 93.6079 4.29822 80.5979
8227 4 105.07 25.483 86.5603
8228 4 2.04832 8.18448 25.3059
8229 4 33.2011 19.4175 40.8199
8230 4 102.612 7.12989 13.7119
8231 4 117.998 14.1993 51.8487
8232 4 60.585 3.13402 80.2586
8233 4 83.6329 25.0625 90.0068
8234 4 34.9221 13.0608 55.5902
8235 4 2.8966 5.63249 83.6468
8236 4 27.5362 7.36499 85.497
8237 4 8.49646 0.770865 73.5232
8238 4 15.8792 20.7872 38.2041
8239 4 31.232 11.3512 13.8049
8240 4 74.8063 29.8474 82.3523
8241 4 85.6321 28.872 42.5054
8242 4 4.44847 25.6634 49.4083
8243 4 14.0709 11.8553 40.0353
8244 4 37.34 21.962 68.5884
8245 4 12.6501 12.0206 88.8869
8246 4 7.08451 10.4799 75.7931
8247 4 27.9938 12.2716 27.6288
8248 4 31.2423 7.4662 79.0085
8249 4 92.9457 29.3248 54.1443
8250 4 37.6488 13.6529 36.0806
8251 4 86.7784 20.5288 66.6952
8252 4 106.251 22.6785 61.1884
8253 4 35.8294 14.0334 24.2092
8254 4 118.182 16.1844 47.5381
8255 4 102.012 23.6913 18.3808
8256 4 20.7397 4.81212 29.9038
8257 4 24.2361 4.64435 85.1404
8258 4 67.255 13.3402 43.6343
8259 4 103.822 16.5881 20.3988
8260 4 88.5487 22.0427 81.2215
8261 4 66.4873 4.14716 66.4847
8262 4 102.857 4.17504 39.7879
8263 4 26.5657 2.58078 39.052
8264 4 102.388 14.0263 82.2037
8265 4 16.0236 13.7412 70.5248
8266 4 102.578 7.89577 65.7383
8267 4 43.1723 16.8048 55.9609
8268 4 106.484 1.72387 25.0184
8269 4 96.4735 17.9139 52.1218
8270 4 8.12924 21.3386 56.8492
8271 4 99.2973 3.43084 45.2902
8272 4 28.931 14.4549 82.0441
8273 4 24.9823 18.4298 27.6679
8274 4 1.42869 27.3217 39.6325
8275 4 87.1142 12.1971 62.7729
8276 4 105.808 13.4946 47.8219
8277 4 102.417 10.565 47.8936
8278 4 100.83 23.2749 55.8821
8279 4 119.248 21.8809 48.8929
8280 4 118.936 28.0774 89.0434
8281 4 93.6695 27.2703 83.2711
8282 4 12.6663 25.4487 29.1756
8283 4 90.7198 25.8331 52.3729
8284 4 41.8661 4.98718 73.9552
8285 4 32.0929 0.263771 62.0892
8286 4 71.2297 9.36352 52.2391
8287 4 116.535 14.585 18.1099
8288 4 81.6822 4.81651 57.5738
8289 4 67.3655 5.73164 86.1304
8290 4 13.758 7.09329 48.4975
8291 4 71.1537 18.0004 40.8723
8292 4 98.4753 27.1214 90.4627
8293 4 77.764 4.17874 51.8597
8294 4 68.6576 25.1653 47.137
8295 4 119.19 27.1884 48.4799
8296 4 116.278 10.6079 79.9121
8297 4 109.215 7.45865 62.003
8298 4 106.067 23.9786 80.5191
8299 4 17.2766 12.5781 88.6665
8300 4 65.4981 0.20823 84.6784
8301 4 48.8396 9.63658 55.2948
8302 4 8.18381 6.26137 19.0753
8303 4 76.221 9.33347 66.043
8304 4 16.1306 1.86169 64.0153
8305 4 93.9689 14.9938 82.7018
8306 4 29.9949 14.9894 16.5271
8307 4 63.7954 25.9982 40.8694
8308 4 49.3728 11.107 86.8243
8309 4 104.597 14.195 86.0202
8310 4 116.791 26.1345 80.748
8311 4 86.8536 8.6785 41.8007
8312 4 68.2481 0.114224 49.3305
8313 4 30.8529 0.681573 67.2814
8314 4 2.62889 2.61616 74.6702
8315 4 73.516 8.42759 72.4728
8316 4 12.086 23.8728 59.578
8317 4 43.7464 8.99238 36.8812
8318 4 63.1348 7.40526 87.9884
8319 4 118.511 28.074 60.6069
8320 4 45.5568 15.6188 78.7461
8321 4 18.9585 21.4951 71.2216
8322 4 82.4898 24.3604 69.8425
8323 4 29.2933 11.4154 86.2074
8324 4 6.97635 24.4485 40.1912
8325 4 99.6524 24.8924 82.1311
8326 4 11.0178 24.1388 42.3615
8327 4 63.9055 14.4459 81.1211
8328 4 4.62076 21.161 51.6238
8329 4 50.9735 26.9551 74.9426
8330 4 40.3486 0.574443 26.5145
8331 4 26.981 3.21241 55.7521
8332 4 105.272 2.65392 50.2111
8333 4 54.2033 27.3635 66.0343
8334 4 107.325 11.6465 62.2273
8335 4 6.54711 10.1312 28.0388
8336 4 25.8814 4.03847 60.0966
8337 4 74.2058 5.08976 87.5792
8338 4 93.1242 15.6073 36.1282
8339 4 52.1356 22.635 40.5433
8340 4 46.698 1.16956 63.3497
8341 4 90.8982 27.8285 74.7086
8342 4 29.4808 29.2244 24.5418
8343 4 75.9813 29.1644 74.0425
8344 4 69.4078 6.51706 59.5687
8345 4 16.3534 23.7464 74.3196
8346 4 38.9871 15.2371 50.345
8347 4 44.7878 1.30758 74.7414
8348 4 38.5079 8.86672 30.3611
8349 4 22.9872 14.1056 34.772
8350 4 57.5057 14.6997 34.3613
8351 4 2.43252 22.442 57.047
8352 4 38.4812 12.6093 58.4324
8353 4 85.3934 4.71997 42.6223
8354 4 116.571 5.95153 52.4994
8355 4 79.4491 1.26141 36.8532
8356 4 58.9497 4.0241 61.0528
8357 4 51.1566 25.447 80.4323
8358 4 18.0242 25.7164 16.6495
8359 4 25.676 6.05184 81.4078
8360 4 82.3742 10.6726 72.5479
8361 4 63.0582 25.2648 44.7669
8362 4 109.107 19.9375 68.4858
8363 4 57.4361 21.74 51.1547
8364 4 59.9696 24.5813 69.0508
8365 4 18.2717 4.57317 85.9072
8366 4 9.66345 16.5126 74.3122
8367 4 45.7238 11.4615 84.7821
8368 4 87.5803 5.34201 82.1525
8369 4 60.693 29.6321 52.6523
8370 4 90.4311 16.1715 65.5854
8371 4 24.1589 21.0798 61.03
8372 4 22.4823 0.680546 74.0447
8373 4 28.2603 22.1014 21.4691
8374 4 31.0895 11.6449 33.0813
8375 4 116.899 4.37107 41.9362
8376 4 41.7512 13.2239 65.0579
8377 4 13.9235 8.57297 78.0504
8378 4 57.0884 24.7458 61.5876
8379 4 116.395 15.7553 57.4144
8380 4 15.4729 27.6268 39.9598
8381 4 112.943 20.2824 16.5915
8382 4 54.0977 11.4649 61.7332
8383 4 37.1913 28.6663 82.5184
8384 4 16.6307 22.131 83.2935
8385 4 54.1681 9.04507 55.7607
8386 4 79.0115 23.0242 54.2099
8387 4 109.4 11.109 42.4583
8388 4 77.1832 28.0312 86.3638
8389 4 55.5264 6.68777 71.2753
8390 4 113.446 19.3721 27.4537
8391 4 50.3938 15.2608 70.7004
8392 4 74.8149 12.8442 51.5891
8393 4 20.3102 8.6055 38.5645
8394 4 2.15291 19.1083 65.5376
8395 4 97.7899 25.9083 44.5393
8396 4 70.9949 8.47346 38.1227
8397 4 36.6172 4.59412 72.8342
8398 4 19.4487 5.87308 73.4199
8399 4 79.7185 27.5579 46.7311
8400 4 83.2116 28.7154 79.298
8401 4 102.978 16.0749 41.7267
8402 4 113.353 15.7916 51.1485
8403 4 84.5958 3.70169 50.6509
8404 4 6.78432 18.7741 66.5319
8405 4 18.7851 22.3101 40.6073
8406 4 29.8166 6.49411 51.56
8407 4 1.54735 1.92928 66.7326
8408 4 47.4571 24.4385 54.291
8409 4 16.1476 5.29051 70.6603
8410 4 5.49981 5.64441 77.4139
8411 4 82.5185 17.2532 77.769
8412 4 32.4087 27.5423 81.3498
8413 4 95.3526 9.05702 43.4427
8414 4 6.13239 26.8339 45.0557
8415 4 11.6969 0.548829 78.5897
8416 4 17.9093 5.58896 62.4573
8417 4 93.5114 9.03833 50.7862
8418 4 115.45 24.3903 29.7362
8419 4 96.883 0.24116 76.3657
8420 1 18.6574 12.3567 30.6644
8421 2 18.5378 12.1546 29.6924
8422 2 18.2767 11.6098 31.2095
8423 1 80.6793 22.304 56.7038
8424 2 80.0146 22.5129 55.9865
8425 2 80.2879 22.5279 57.5964
8426 1 31.5831 11.1629 87.2487
8427 2 30.6905 11.414 86.8744
8428 2 31.525 11.1155 88.2459
8429 1 32.905 18.3278 34.3646
8430 2 33.2074 17.3824 34.2423
8431 2 33.0506 18.6041 35.3145
8432 1 101.319 15.1062 57.7521
8433 2 100.438 15.5788 57.7599
8434 2 101.676 15.0811 56.8181
8435 1 13.9306 22.2762 71.2483
8436 2 13.901 21.2892 71.0901
8437 2 13.1467 22.7087 70.8028
8438 1 27.4995 29.9865 64.4053
8439 2 27.2412 0.770376 64.9699
8440 2 28.3442 0.194686 63.9123
8441 1 13.3558 0.241917 10.7287
8442 2 14.309 0.327306 11.0189
8443 2 12.847 1.05465 11.0125
8444 1 116.493 6.47526 68.2798
8445 2 117.266 6.84853 68.7933
8446 2 116.349 5.52101 68.5416
8447 1 12.8678 11.3944 33.3096
8448 2 12.0063 10.9323 33.5203
8449 2 12.681 12.2246 32.7844
8450 1 11.4294 12.1748 38.7666
8451 2 11.1047 11.2388 38.6305
8452 2 12.4042 12.1604 38.9891
8453 1 105.316 5.65905 87.3934
8454 2 105.547 6.43113 86.8012
8455 2 105.03 5.99973 88.2889
8456 1 0.995802 25.3291 37.6414
8457 2 0.83118 25.9652 38.3953
8458 2 1.48522 24.5268 37.9831
8459 1 50.3283 22.8396 36.4653
8460 2 50.2506 23.8081 36.7018
8461 2 51.2047 22.486 36.7922
8462 1 1.08233 2.35511 38.232
8463 2 0.370911 1.66296 38.1103
8464 2 0.766795 3.04675 38.8816
8465 1 86.6382 13.9262 31.3353
8466 2 86.8019 14.6323 32.0241
8467 2 87.5022 13.685 30.8933
8468 1 105.918 2.98588 76.1653
8469 2 106.794 2.55437 76.381
8470 2 105.429 2.42907 75.4942
8471 1 69.4672 22.8173 69.9455
8472 2 68.5686 22.8434 70.3835
8473 2 69.9869 22.0386 70.2971
8474 1 52.2686 6.69521 65.8989
8475 2 52.8091 7.37068 65.3973
8476 2 51.3627 7.07124 66.0936
8477 1 91.0307 11.4758 62.3356
8478 2 91.6526 11.3977 61.5564
8479 2 91.3807 12.1612 62.9741
8480 1 80.2963 3.55507 55.3757
8481 2 80.153 2.59542 55.6177
8482 2 81.0227 3.93785 55.9465
8483 1 96.9007 5.94131 64.764
8484 2 97.0854 5.01996 65.106
8485 2 97.1458 6.61208 65.464
8486 1 22.2342 16.7923 15.3151
8487 2 22.2164 17.4273 14.5428
8488 2 22.5834 15.9062 15.0101
8489 1 55.4502 1.05578 50.5555
8490 2 56.1326 0.368163 50.8036
8491 2 55.5444 1.85035 51.1553
8492 1 78.2341 21.4077 32.617
8493 2 78.9649 20.7281 32.5524
8494 2 77.3489 20.9571 32.5015
8495 1 29.9788 7.0019 68.2078
8496 2 30.4987 6.84351 69.0472
8497 2 29.0147 6.79 68.3679
8498 1 56.3547 21.409 86.3235
8499 2 55.8112 20.5714 86.3774
8500 2 57.1319 21.2633 85.7114
8501 1 99.704 6.66354 19.9604
8502 2 99.5579 6.84018 20.9338
8503 2 100.472 6.03326 19.8476
8504 1 21.44 2.62871 57.3094
8505 2 21.8303 1.98844 57.971
8506 2 21.8462 2.46752 56.41
8507 1 47.7651 12.6359 55.8874
8508 2 47.7287 12.4957 54.8979
8509 2 48.4429 12.0185 56.2867
8510 1 91.011 18.4725 43.7417
8511 2 91.5451 19.0527 43.1268
8512 2 90.7036 17.6586 43.2487
8513 1 87.1142 13.5927 58.3997
8514 2 87.2279 12.6228 58.1844
8515 2 87.8961 13.9087 58.9372
8516 1 96.0224 22.6515 27.2354
8517 2 95.238 22.5593 27.8487
8518 2 96.6111 23.3934 27.5565
8519 1 115.04 13.2552 57.048
8520 2 115.499 14.1379 57.1502
8521 2 114.79 13.1186 56.0895
8522 1 0.797515 16.6005 17.0223
8523 2 0.461615 17.304 16.396
8524 2 0.438439 16.772 17.9397
8525 1 55.8196 16.3444 55.3682
8526 2 56.234 16.4528 54.4646
8527 2 55.6115 17.2451 55.7497
8528 1 105.085 0.369865 36.588
8529 2 105.736 1.08476 36.8441
8530 2 105.479 29.4731 36.7902
8531 1 75.6412 20.2989 79.778
8532 2 75.3488 21.2513 79.8644
8533 2 75.8551 19.9325 80.6836
8534 1 6.15668 3.43797 57.3168
8535 2 6.8207 2.98244 56.7239
8536 2 5.80426 4.25348 56.8578
8537 1 64.3011 12.2993 77.5334
8538 2 63.9101 13.2018 77.3526
8539 2 64.2031 12.0821 78.5046
8540 1 8.70853 16.9786 80.815
8541 2 7.74331 17.1896 80.9694
8542 2 9.03074 16.353 81.5255
8543 1 28.8183 17.8287 22.2131
8544 2 29.6355 18.405 22.2097
8545 2 28.6016 17.5631 23.1525
8546 1 45.425 1.72185 25.4206
8547 2 44.7478 1.0438 25.1348
8548 2 46.1406 1.79167 24.7257
8549 1 52.3378 7.9306 43.1021
8550 2 51.9505 8.73696 42.6551
8551 2 53.3347 7.95478 43.0276
8552 1 88.6741 7.73418 45.3345
8553 2 87.9675 8.4066 45.5549
8554 2 88.368 7.16752 44.5695
8555 1 32.8153 23.5965 79.3793
8556 2 32.3068 22.966 78.7928
8557 2 33.2269 23.0889 80.1362
8558 1 20.1613 23.5637 42.2721
8559 2 19.6248 23.2402 41.4927
8560 2 21.1233 23.3272 42.1358
8561 1 40.6896 6.72469 43.1071
8562 2 40.4057 6.97662 42.1819
8563 2 40.0099 7.04995 43.7645
8564 1 24.587 22.8828 67.192
8565 2 24.1126 22.0568 66.8875
8566 2 23.9777 23.6703 67.0994
8567 1 3.15649 7.52253 46.1061
8568 2 4.06697 7.85886 46.3467
8569 2 2.89077 6.79681 46.7407
8570 1 21.282 26.9516 31.4269
8571 2 21.2961 27.1311 32.4105
8572 2 22.0153 26.3128 31.1941
8573 1 68.0271 1.51865 53.4602
8574 2 68.0113 1.27452 54.4298
8575 2 68.9501 1.38766 53.0985
8576 1 21.3126 2.02675 72.2045
8577 2 21.9467 2.098 71.4346
8578 2 21.6676 1.36916 72.869
8579 1 68.8629 9.74414 39.1659
8580 2 69.2081 10.5447 39.6558
8581 2 69.6179 9.29393 38.6891
8582 1 1.19912 18.7429 38.7834
8583 2 0.575834 18.8646 39.5559
8584 2 0.730076 18.9877 37.9349
8585 1 37.882 23.8103 44.3381
8586 2 38.7431 23.4767 44.7217
8587 2 38.0599 24.6114 43.7667
8588 1 33.2517 18.5616 37.1403
8589 2 32.6396 18.3565 37.9041
8590 2 34.195 18.6 37.4702
8591 1 111.237 27.099 79.5254
8592 2 111.998 27.6879 79.7973
8593 2 110.669 26.8991 80.3235
8594 1 99.0866 18.6357 75.3985
8595 2 99.9848 18.7887 75.8106
8596 2 99.1943 18.1285 74.5434
8597 1 46.6866 3.24237 75.2988
8598 2 46.0393 2.4889 75.1836
8599 2 47.4183 3.15956 74.6223
8600 1 7.74067 1.81875 15.7072
8601 2 7.88302 1.73628 14.7208
8602 2 7.04631 1.16133 15.9999
8603 1 116.706 28.0443 82.6307
8604 2 116.642 27.3206 81.9436
8605 2 117.271 28.7903 82.277
8606 1 115.171 25.6834 18.7072
8607 2 114.906 24.7775 19.0371
8608 2 114.351 26.2225 18.5166
8609 1 43.2008 24.9445 46.4476
8610 2 42.2947 25.1629 46.0852
8611 2 43.4551 25.6206 47.139
8612 1 12.1912 24.659 64.3049
8613 2 12.9808 24.6345 64.9181
8614 2 12.4493 24.2852 63.4141
8615 1 102.292 1.18274 76.0829
8616 2 102.957 1.35831 75.3571
8617 2 102.775 0.986421 76.9366
8618 1 37.5394 18.2477 45.6089
8619 2 36.7832 18.8954 45.516
8620 2 38.399 18.75 45.702
8621 1 76.5916 13.5456 83.584
8622 2 77.1242 13.7927 82.7745
8623 2 77.1304 12.9342 84.1636
8624 1 41.522 26.671 65.4112
8625 2 41.5528 25.9256 66.0772
8626 2 42.2756 26.569 64.7618
8627 1 118.609 8.91551 48.8865
8628 2 119.555 9.17409 49.0822
8629 2 118.004 9.31996 49.5725
8630 1 43.1487 4.73216 61.0593
8631 2 42.5021 4.13644 60.5828
8632 2 42.8462 5.68213 60.9816
8633 1 100.958 21.2816 18.4776
8634 2 101.332 22.2084 18.515
8635 2 99.969 21.3149 18.6222
8636 1 16.6237 1.58472 39.9256
8637 2 15.9454 2.03271 40.508
8638 2 17.0694 2.26779 39.3471
8639 1 103.46 23.0201 83.9927
8640 2 102.57 22.8219 83.5837
8641 2 103.343 23.2232 84.9648
8642 1 46.7539 19.3393 66.33
8643 2 47.1616 20.1212 66.8016
8644 2 46.3342 19.6469 65.4761
8645 1 5.87874 6.18726 38.243
8646 2 5.61888 7.08122 38.6081
8647 2 6.84497 6.01648 38.436
8648 1 71.3433 9.30189 76.6509
8649 2 72.216 9.7887 76.615
8650 2 71.2624 8.70343 75.8538
8651 1 74.6388 23.0985 35.7524
8652 2 74.5386 22.1962 35.333
8653 2 75.5778 23.2128 36.0768
8654 1 72.5949 16.0269 33.8344
8655 2 72.4874 16.7995 34.4601
8656 2 71.9153 16.0927 33.1037
8657 1 29.0677 10.6928 35.0602
8658 2 29.5189 11.2436 34.3579
8659 2 28.1579 11.0656 35.2427
8660 1 2.29963 22.8798 38.8514
8661 2 2.16225 22.1041 39.4673
8662 2 3.03007 22.6653 38.2029
8663 1 55.949 28.0759 68.0583
8664 2 55.271 27.8861 67.3481
8665 2 56.8499 27.7715 67.7489
8666 1 111.905 4.19693 47.3138
8667 2 112.731 4.50505 46.8403
8668 2 111.26 4.95739 47.3885
8669 1 99.4802 3.65578 90.3135
8670 2 100.359 3.18055 90.2616
8671 2 98.7439 2.98588 90.4089
8672 1 107.559 26.3725 86.0009
8673 2 106.568 26.2915 85.8982
8674 2 107.946 26.7936 85.1804
8675 1 85.7038 2.51658 76.1158
8676 2 85.6137 1.52977 75.9814
8677 2 85.8181 2.96471 75.2292
8678 1 19.9426 8.23141 25.7806
8679 2 20.1029 7.62774 26.5615
8680 2 20.7698 8.27893 25.2207
8681 1 66.5169 19.1667 85.6297
8682 2 67.2314 19.2145 86.3277
8683 2 65.6296 19.3627 86.047
8684 1 31.1428 24.0749 85.4917
8685 2 31.5291 23.7126 86.34
8686 2 30.5955 23.3668 85.0456
8687 1 21.3023 13.0732 27.0643
8688 2 22.2097 13.2479 27.4465
8689 2 21.0587 13.81 26.4336
8690 1 91.8131 21.3502 56.2851
8691 2 90.8853 20.9864 56.3683
8692 2 92.3747 21.0063 57.0376
8693 1 90.5723 5.16868 90.5946
8694 2 90.9147 6.10816 90.605
8695 2 91.3197 4.5391 90.8066
8696 1 22.0078 14.6258 70.6605
8697 2 21.2244 15.2364 70.5439
8698 2 22.7863 14.9799 70.1423
8699 1 52.24 17.6309 50.2521
8700 2 52.0521 17.2927 51.1743
8701 2 51.4016 17.599 49.7081
8702 1 0.0451939 28.5343 75.2414
8703 2 119.876 28.0212 76.0829
8704 2 0.789534 28.1025 74.732
8705 1 31.8308 2.7748 22.7501
8706 2 32.3763 2.20553 22.135
8707 2 31.052 3.15394 22.2503
8708 1 7.37005 4.44269 33.8652
8709 2 7.1697 4.55037 32.8914
8710 2 8.28308 4.05021 33.9762
8711 1 20.4475 14.8805 34.6719
8712 2 21.3266 14.4136 34.7678
8713 2 19.7743 14.4506 35.2735
8714 1 15.115 19.5139 16.8088
8715 2 14.3025 19.1216 17.2399
8716 2 15.8373 19.6189 17.4923
8717 1 3.80029 10.7753 23.4806
8718 2 3.80368 11.6698 23.9277
8719 2 2.86227 10.4329 23.4272
8720 1 71.2009 28.2921 80.9221
8721 2 71.9092 28.0724 80.2512
8722 2 70.7645 29.1572 80.6748
8723 1 28.3861 5.54371 12.2928
8724 2 27.9945 6.09955 13.0261
8725 2 29.1045 6.0621 11.8289
8726 1 33.8686 7.86665 17.0366
8727 2 34.1148 6.97992 17.4279
8728 2 34.4897 8.08263 16.2833
8729 1 23.9961 0.720254 82.9835
8730 2 23.9345 1.68987 82.7468
8731 2 24.9353 0.500694 83.2477
8732 1 75.1836 15.4636 55.9197
8733 2 76.0294 15.8375 56.3001
8734 2 74.5848 15.1689 56.6644
8735 1 15.8251 0.737989 12.0571
8736 2 16.4825 29.9907 12.1538
8737 2 16.2758 1.60694 12.2615
8738 1 114.775 17.6447 58.3496
8739 2 115.286 16.869 57.9783
8740 2 114.218 17.3384 59.1212
8741 1 7.7903 13.8331 30.6135
8742 2 7.77804 14.7923 30.8959
8743 2 7.56084 13.2526 31.3948
8744 1 57.6227 9.33437 34.3919
8745 2 56.888 8.73991 34.0651
8746 2 57.8906 9.05674 35.3145
8747 1 42.2054 26.1232 61.8312
8748 2 42.8182 25.6271 61.2161
8749 2 42.6429 26.2283 62.7242
8750 1 106.119 8.80189 53.4952
8751 2 106.724 8.01323 53.3853
8752 2 106.654 9.64409 53.4312
8753 1 15.5849 28.4034 33.2205
8754 2 15.1772 28.0186 34.0486
8755 2 15.033 29.1753 32.9049
8756 1 91.2279 8.38466 76.503
8757 2 91.7932 7.56219 76.5659
8758 2 90.4589 8.30991 77.1378
8759 1 19.9812 8.95734 11.7151
8760 2 20.6092 8.25507 11.3797
8761 2 19.571 8.65439 12.5753
8762 1 32.4112 25.9305 65.5253
8763 2 31.4697 25.8897 65.8599
8764 2 32.8879 26.6927 65.9632
8765 1 48.5247 21.9437 50.9483
8766 2 48.1224 21.4262 51.7035
8767 2 48.3542 21.4642 50.0875
8768 1 117.458 22.2556 87.8749
8769 2 117.789 21.3231 87.7302
8770 2 117.276 22.3976 88.8479
8771 1 12.7818 25.6786 71.6796
8772 2 12.566 24.9447 71.0356
8773 2 13.773 25.7376 71.798
8774 1 38.3241 11.7544 67.9444
8775 2 38.6941 11.6585 68.8684
8776 2 38.4405 12.6981 67.635
8777 1 103.567 20.3606 29.4391
8778 2 103.838 19.4189 29.2405
8779 2 104.125 20.7175 30.188
8780 1 31.3303 25.838 89.5315
8781 2 30.4387 25.4662 89.2731
8782 2 31.2219 26.4501 90.3148
8783 1 58.8863 15.857 36.6127
8784 2 58.1586 15.2135 36.3754
8785 2 59.7448 15.5577 36.1963
8786 1 103.63 28.0734 77.8414
8787 2 103.129 27.8823 76.9971
8788 2 104.045 28.9813 77.7845
8789 1 27.824 15.0728 40.3136
8790 2 27.4542 15.0139 41.2408
8791 2 27.2223 14.5823 39.6831
8792 1 43.2421 2.50381 76.4936
8793 2 42.2775 2.24046 76.4826
8794 2 43.7223 2.04178 75.748
8795 1 18.9184 26.2129 88.1298
8796 2 18.4411 25.5162 87.5943
8797 2 18.252 26.7516 88.6453
8798 1 45.5904 26.5495 28.2371
8799 2 44.8297 26.0836 27.7851
8800 2 45.8425 27.3625 27.7123
8801 1 115.312 8.00316 31.4787
8802 2 116.131 8.26938 31.9878
8803 2 114.499 8.22443 32.0163
8804 1 84.5349 12.6842 62.4727
8805 2 84.5144 13.4767 61.8631
8806 2 85.4843 12.4402 62.6704
8807 1 106.578 22.1028 45.3815
8808 2 106.755 23.0848 45.3139
8809 2 106.185 21.8957 46.2772
8810 1 15.6243 22.0485 52.4819
8811 2 15.607 21.0793 52.7275
8812 2 16.5359 22.4204 52.6567
8813 1 36.2488 29.0689 27.7351
8814 2 36.6261 29.2916 26.8361
8815 2 36.5805 28.1703 28.0224
8816 1 6.0249 2.28932 21.9871
8817 2 6.3514 2.52028 22.9036
8818 2 6.23392 1.33141 21.7903
8819 1 118.008 5.77034 33.742
8820 2 118.972 5.85986 33.9954
8821 2 117.912 5.06194 33.0428
8822 1 37.3029 12.7841 75.5462
8823 2 36.43 12.5412 75.1231
8824 2 37.9148 11.9935 75.5254
8825 1 117.49 25.3908 35.3717
8826 2 117.162 25.5611 36.3009
8827 2 117.3 26.1889 34.7998
8828 1 18.1264 3.50041 64.4635
8829 2 18.2277 4.24064 63.7988
8830 2 17.2585 3.02882 64.3075
8831 1 54.2984 15.8134 41.2986
8832 2 54.5253 16.7862 41.2513
8833 2 54.7908 15.393 42.0607
8834 1 57.7017 10.5373 78.1442
8835 2 58.6891 10.3916 78.2065
8836 2 57.2976 9.83551 77.5575
8837 1 54.839 21.2593 77.144
8838 2 54.4451 20.5111 77.6778
8839 2 55.8244 21.3034 77.3085
8840 1 16.2661 15.9236 10.6221
8841 2 16.3599 15.4011 9.7746
8842 2 15.3984 15.692 11.0621
8843 1 58.6464 13.7358 76.726
8844 2 57.6629 13.7153 76.9057
8845 2 58.8798 13.0211 76.0666
8846 1 39.9835 14.5694 44.4716
8847 2 40.507 15.285 44.9341
8848 2 40.3396 14.4413 43.546
8849 1 19.0311 11.5701 90.6627
8850 2 18.4647 12.0213 89.973
8851 2 19.9336 12.0001 90.6861
8852 1 71.9862 0.00110965 90.1288
8853 2 72.3917 29.1161 89.8999
8854 2 72.6262 0.525701 90.6903
8855 1 37.849 29.0895 78.9337
8856 2 37.103 28.8195 78.3249
8857 2 38.1375 0.0214746 78.7144
8858 1 53.8916 20.6608 55.3979
8859 2 54.4925 20.2718 54.6997
8860 2 52.9377 20.5195 55.1331
8861 1 114.74 4.31706 61.8757
8862 2 114.078 4.11924 61.1534
8863 2 114.391 5.05194 62.4567
8864 1 19.351 15.6901 75.3087
8865 2 19.107 15.1589 74.4974
8866 2 19.2924 16.666 75.0983
8867 1 4.60848 15.3611 28.7879
8868 2 4.68023 15.3624 29.7853
8869 2 4.81673 14.4471 28.4399
8870 1 9.41145 20.7801 90.2336
8871 2 9.22238 20.0871 90.9293
8872 2 10.3808 20.7516 89.9896
8873 1 32.785 23.5107 61.8717
8874 2 33.1426 23.1912 62.7493
8875 2 32.4321 24.4407 61.9743
8876 1 96.4886 11.8753 62.1971
8877 2 96.611 11.283 62.9935
8878 2 96.3578 11.3131 61.3805
8879 1 28.4259 23.8338 86.1442
8880 2 27.5789 23.9662 85.6295
8881 2 28.8967 23.0183 85.8074
8882 1 62.4123 2.03415 67.1834
8883 2 63.0833 1.36104 67.4941
8884 2 62.2945 2.73621 67.8857
8885 1 103.404 14.0527 90.7045
8886 2 104.238 14.6032 90.699
8887 2 103.64 13.0892 90.8293
8888 1 37.1703 17.5079 23.1466
8889 2 36.4601 18.0927 23.5385
8890 2 37.9454 18.071 22.8603
8891 1 11.9686 9.90562 19.7183
8892 2 12.1301 9.05776 20.2233
8893 2 10.9889 10.1059 19.7078
8894 1 70.2154 23.3689 33.5188
8895 2 69.2652 23.2398 33.8024
8896 2 70.6052 22.4884 33.2489
8897 1 38.7856 10.6177 76.4117
8898 2 38.7618 10.1997 75.5035
8899 2 39.4181 10.1093 76.9961
8900 1 72.293 6.78068 57.1616
8901 2 71.4399 6.38826 57.5055
8902 2 72.1291 7.71863 56.8561
8903 1 95.6023 26.6606 27.7017
8904 2 96.2142 26.8303 28.4742
8905 2 94.7728 26.2066 28.027
8906 1 33.2519 27.8185 34.3132
8907 2 32.7024 28.6251 34.0956
8908 2 32.7256 26.9924 34.1119
8909 1 108.492 9.01441 17.9142
8910 2 109.329 9.44371 17.5739
8911 2 108.726 8.18585 18.423
8912 1 17.6649 7.57248 34.2889
8913 2 17.0716 7.67421 35.0875
8914 2 17.369 6.7822 33.7524
8915 1 103.682 16.8797 30.2475
8916 2 104.357 16.212 29.9351
8917 2 102.958 16.41 30.753
8918 1 24.6764 19.8535 16.0053
8919 2 25.2903 20.6194 15.8143
8920 2 24.9976 19.0399 15.5205
8921 1 50.8415 1.189 69.6191
8922 2 50.8923 0.533852 68.8653
8923 2 49.8889 1.45624 69.7648
8924 1 78.0884 8.57565 64.3041
8925 2 77.6142 9.2048 64.9199
8926 2 78.1717 8.99398 63.3996
8927 1 105.452 14.9565 29.1094
8928 2 106.415 15.1887 28.9747
8929 2 105.381 14.1738 29.7279
8930 1 93.7152 12.7495 81.4472
8931 2 94.1129 11.9974 81.9728
8932 2 93.9261 13.6179 81.8962
8933 1 30.2643 0.29339 64.8251
8934 2 30.5879 1.00407 64.2004
8935 2 30.406 0.590004 65.7695
8936 1 105.127 5.74244 90.7823
8937 2 104.358 5.90986 91.3993
8938 2 105.264 4.75715 90.6805
8939 1 87.2309 26.4706 45.4563
8940 2 87.4485 25.5835 45.0493
8941 2 87.3501 26.4205 46.448
8942 1 59.2929 13.9265 47.8293
8943 2 60.2353 13.6881 47.5944
8944 2 58.7121 13.1175 47.7389
8945 1 101.16 22.4361 43.7094
8946 2 101.169 21.8235 44.4997
8947 2 100.761 23.3144 43.973
8948 1 23.8354 8.7104 60.7745
8949 2 24.5332 9.40103 60.9643
8950 2 23.2054 9.05562 60.0789
8951 1 19.5148 17.1134 22.6119
8952 2 19.5889 16.1224 22.4998
8953 2 19.8978 17.5693 21.8086
8954 1 108.831 26.035 29.5148
8955 2 109.313 26.852 29.1974
8956 2 109.166 25.2357 29.0159
8957 1 48.2897 16.1114 50.3678
8958 2 47.3911 15.7309 50.1492
8959 2 48.6017 16.6856 49.6108
8960 1 48.6987 20.2681 83.3899
8961 2 48.3147 19.8114 82.5874
8962 2 47.9815 20.7904 83.8511
8963 1 76.8024 22.358 90.5678
8964 2 77.4987 21.6498 90.4512
8965 2 77.2028 23.254 90.3756
8966 1 22.0444 11.8055 34.2357
8967 2 22.3341 11.1013 34.8839
8968 2 22.3659 12.6992 34.5486
8969 1 4.42978 26.4262 75.6766
8970 2 4.7755 26.5096 76.6112
8971 2 3.43498 26.3264 75.6969
8972 1 65.2979 0.854989 78.7085
8973 2 64.9593 0.749627 79.6435
8974 2 64.5618 0.652872 78.0626
8975 1 117.68 20.3528 11.0958
8976 2 118.151 20.9344 10.433
8977 2 116.747 20.6883 11.2295
8978 1 15.1206 10.3819 21.4773
8979 2 14.6587 11.0253 20.8668
8980 2 14.7112 10.4343 22.3882
8981 1 11.9126 20.0545 26.7168
8982 2 12.0979 20.1784 27.6916
8983 2 11.7025 20.94 26.3022
8984 1 48.4533 20.667 64.0593
8985 2 48.0814 20.0447 63.3705
8986 2 49.0834 20.1677 64.6541
8987 1 61.0637 2.89566 71.9975
8988 2 61.3799 3.02887 71.0582
8989 2 61.8259 3.03738 72.6291
8990 1 98.8073 17.4722 62.3102
8991 2 99.2226 18.297 62.6939
8992 2 99.2224 17.272 61.4227
8993 1 117.019 27.7019 33.8758
8994 2 116.959 27.5424 32.8904
8995 2 117.861 28.1997 34.0828
8996 1 11.1409 7.90692 31.8752
8997 2 11.8171 8.34567 31.2835
8998 2 10.971 8.48526 32.6732
8999 1 108.165 7.70505 34.3397
9000 2 109.091 7.36152 34.4979
9001 2 107.76 7.9847 35.2102
9002 1 64.4856 23.172 90.8957
9003 2 64.6549 22.9041 91.8441
9004 2 64.8009 22.4472 90.2832
9005 1 116.376 12.2227 77.8231
9006 2 116.334 11.5878 78.5945
9007 2 115.613 12.0432 77.2022
9008 1 59.0692 26.4811 61.4038
9009 2 59.4997 26.2788 60.5242
9010 2 58.239 25.9325 61.5027
9011 1 88.9058 29.0589 76.1391
9012 2 89.6981 28.5491 75.8037
9013 2 89.0366 0.033963 75.9597
9014 1 99.4065 22.3052 75.2969
9015 2 100.024 22.6993 74.6165
9016 2 98.6813 22.9607 75.5079
9017 1 53.0559 22.3442 84.0001
9018 2 52.3771 22.1821 84.7163
9019 2 52.6464 22.8919 83.2705
9020 1 66.7903 25.921 50.1502
9021 2 66.1828 25.4428 49.5161
9022 2 67.5102 25.2979 50.456
9023 1 87.7609 7.57193 76.1776
9024 2 88.493 7.69035 76.8484
9025 2 87.0057 8.18994 76.3958
9026 1 5.11494 8.40705 29.4681
9027 2 4.59754 7.85528 28.814
9028 2 5.55163 9.16886 28.9896
9029 1 24.6461 5.68712 54.4724
9030 2 24.0418 6.12901 53.8095
9031 2 25.1579 4.95595 54.0213
9032 1 108.7 7.45648 49.9606
9033 2 107.88 7.10653 49.5072
9034 2 109.395 6.73813 49.994
9035 1 12.8021 2.90396 79.0473
9036 2 12.7146 3.12854 80.0178
9037 2 12.1705 2.16318 78.8183
9038 1 23.7417 14.3542 90.5395
9039 2 24.0196 15.2918 90.331
9040 2 23.8503 14.1843 91.519
9041 1 23.0766 25.0382 90.6354
9042 2 23.8061 25.3596 91.2391
9043 2 23.2533 25.352 89.7026
9044 1 16.9754 5.85221 77.0303
9045 2 17.3453 6.19775 77.8927
9046 2 16.4988 4.98851 77.1943
9047 1 41.0347 14.2491 25.9905
9048 2 40.485 13.5831 25.4863
9049 2 40.4574 14.7217 26.6565
9050 1 102.057 8.90874 57.122
9051 2 102.836 8.85253 56.4975
9052 2 101.238 9.17113 56.611
9053 1 104.381 24.3015 68.4069
9054 2 104.218 25.2732 68.5775
9055 2 105.342 24.162 68.1673
9056 1 84.8734 24.4824 44.5028
9057 2 85.7554 24.5813 44.0421
9058 2 84.8731 23.6425 45.0455
9059 1 108.217 11.7624 69.5021
9060 2 108.608 12.6735 69.6297
9061 2 108.937 11.1247 69.2304
9062 1 91.6326 25.0866 70.8995
9063 2 92.6124 24.8866 70.8969
9064 2 91.4752 25.9875 70.4949
9065 1 40.7064 29.6406 29.5062
9066 2 41.2355 29.3922 28.6948
9067 2 41.2008 29.3545 30.327
9068 1 31.7024 12.7735 56.6652
9069 2 32.5585 12.6932 57.1757
9070 2 30.997 13.1643 57.2565
9071 1 46.1783 26.2391 50.3697
9072 2 45.2887 26.3156 49.9195
9073 2 46.205 26.8498 51.1611
9074 1 29.6267 6.00721 43.4046
9075 2 29.5303 5.34954 42.6574
9076 2 29.1923 6.8703 43.147
9077 1 96.3241 9.75379 45.826
9078 2 96.012 9.51502 44.9065
9079 2 96.8096 8.97624 46.2256
9080 1 111.952 12.4558 53.2504
9081 2 111.713 12.9498 52.4144
9082 2 112.842 12.7692 53.5801
9083 1 73.1488 28.7386 74.0524
9084 2 74.1378 28.84 73.9448
9085 2 72.7953 29.4902 74.6092
9086 1 8.42303 21.0908 73.1605
9087 2 9.09467 21.0982 73.9014
9088 2 8.33795 20.1631 72.797
9089 1 104.962 2.76122 12.5142
9090 2 105.533 3.0074 13.2975
9091 2 104.328 3.50828 12.3163
9092 1 1.38692 8.99766 49.1556
9093 2 1.41338 9.17837 48.1724
9094 2 1.62352 8.04096 49.3252
9095 1 61.3643 17.8979 74.4836
9096 2 60.4192 17.7696 74.7842
9097 2 61.3714 18.3234 73.5787
9098 1 32.6674 1.44223 18.9485
9099 2 32.2513 1.07453 19.7802
9100 2 33.2111 2.24982 19.1768
9101 1 117.551 4.35479 79.5358
9102 2 118.285 3.7358 79.814
9103 2 116.73 3.82417 79.3235
9104 1 51.9395 8.28356 90.4112
9105 2 51.6029 7.89003 89.5557
9106 2 52.5738 7.64395 90.8454
9107 1 105.18 22.666 52.6263
9108 2 105.404 22.0639 51.86
9109 2 105.344 23.6166 52.3623
9110 1 23.0964 28.9308 10.5202
9111 2 22.3522 28.4276 10.0809
9112 2 23.248 28.5667 11.4391
9113 1 10.4966 16.0228 64.4183
9114 2 10.4912 16.3644 63.4785
9115 2 10.8326 16.7382 65.031
9116 1 21.9281 8.29301 46.7206
9117 2 21.1115 8.80868 46.4614
9118 2 22.3373 8.70395 47.5353
9119 1 109.101 9.59471 66.1771
9120 2 109.506 9.55062 67.0901
9121 2 109.293 8.74524 65.6857
9122 1 14.1945 25.0104 21.1925
9123 2 13.7249 25.8782 21.0301
9124 2 14.3723 24.9056 22.171
9125 1 90.0214 15.9682 69.067
9126 2 90.3709 15.3794 68.3382
9127 2 90.6192 15.9004 69.8658
9128 1 1.8826 14.3323 11.7404
9129 2 2.28982 13.5285 11.3068
9130 2 1.30101 14.0423 12.5005
9131 1 35.5408 7.72992 43.7358
9132 2 35.6474 8.69841 43.5107
9133 2 35.0976 7.64188 44.6279
9134 1 67.0754 10.3383 87.1402
9135 2 67.809 10.0178 87.7395
9136 2 66.7788 11.2472 87.4331
9137 1 64.575 29.6062 55.614
9138 2 63.6708 29.212 55.7785
9139 2 64.475 0.492073 55.161
9140 1 5.80898 22.7026 67.8667
9141 2 6.35174 23.4259 68.2936
9142 2 6.15876 21.8105 68.1527
9143 1 4.42731 10.4373 90.2507
9144 2 4.81909 11.3053 89.9455
9145 2 5.16412 9.79613 90.4653
9146 1 100.011 8.76486 29.7957
9147 2 99.654 7.98039 30.3029
9148 2 99.2636 9.39663 29.5899
9149 1 94.8076 7.64063 36.2689
9150 2 95.1578 6.71562 36.4165
9151 2 94.6816 8.09407 37.1513
9152 1 29.4825 29.6731 21.1377
9153 2 29.3021 28.9746 21.8302
9154 2 30.4283 29.9872 21.2196
9155 1 38.9766 10.9216 73.7411
9156 2 39.7374 11.5432 73.5546
9157 2 38.1527 11.2566 73.2839
9158 1 6.97215 12.5319 70.9118
9159 2 6.21014 12.4061 70.2766
9160 2 7.80814 12.1613 70.507
9161 1 81.2148 9.05305 35.8157
9162 2 80.2961 9.38825 36.0247
9163 2 81.8932 9.65804 36.2326
9164 1 19.8388 13.732 15.6372
9165 2 19.262 12.9236 15.5203
9166 2 19.2692 14.5537 15.6162
9167 1 76.1948 2.58549 36.3825
9168 2 75.6143 1.78435 36.2367
9169 2 76.2472 2.78552 37.3608
9170 1 95.5225 9.82499 52.504
9171 2 95.0283 10.604 52.8899
9172 2 94.8875 9.24958 51.9886
9173 1 96.0665 24.8035 48.0732
9174 2 96.3201 25.7153 48.3962
9175 2 95.0989 24.7965 47.8209
9176 1 17.9517 18.3005 48.7287
9177 2 17.5945 19.0733 49.2533
9178 2 18.2428 18.6167 47.8258
9179 1 49.2572 5.59105 64.7497
9180 2 48.6337 6.04074 65.3892
9181 2 49.3039 6.11983 63.9022
9182 1 89.0402 1.01887 88.8149
9183 2 88.6556 0.315302 88.2174
9184 2 89.6541 0.592682 89.4793
9185 1 52.7537 28.7502 70.3416
9186 2 51.8707 28.5537 70.7678
9187 2 52.7222 28.4929 69.3758
9188 1 27.0253 3.29309 88.0628
9189 2 26.3274 2.58311 87.9686
9190 2 26.7538 4.0992 87.537
9191 1 31.862 17.837 39.3173
9192 2 32.4382 18.3774 39.9305
9193 2 31.1036 17.4413 39.8352
9194 1 66.4393 26.4269 90.7754
9195 2 65.6612 27.054 90.7383
9196 2 66.376 25.8657 91.6006
9197 1 15.1285 29.0273 58.6201
9198 2 15.2479 28.628 57.7111
9199 2 15.4265 28.3717 59.3139
9200 1 119.902 23.5823 84.0498
9201 2 119.407 22.7564 84.318
9202 2 119.34 24.119 83.4206
9203 1 19.8916 4.94321 79.0655
9204 2 19.3164 5.75629 79.1557
9205 2 19.6367 4.27548 79.765
9206 1 100.317 29.5454 51.1848
9207 2 100.204 29.273 50.2293
9208 2 100.99 28.9499 51.6233
9209 1 93.9663 2.79337 78.4652
9210 2 93.7493 3.29927 79.3001
9211 2 93.8239 1.81594 78.6213
9212 1 10.699 28.4214 86.6978
9213 2 11.0145 27.4732 86.6602
9214 2 10.9294 28.8836 85.8415
9215 1 17.2914 19.3048 18.4145
9216 2 18.0095 19.6856 17.832
9217 2 17.2308 18.3176 18.2667
9218 1 67.7198 13.3453 81.7976
9219 2 68.5666 12.8382 81.6374
9220 2 67.8705 14.315 81.6054
9221 1 119.521 13.5254 41.7586
9222 2 118.725 12.9207 41.7742
9223 2 119.219 14.4768 41.8132
9224 1 84.7694 19.0183 36.7324
9225 2 85.6061 18.7655 36.2466
9226 2 84.8533 19.9537 37.0761
9227 1 32.5069 9.02123 48.8066
9228 2 31.7737 9.52957 48.3549
9229 2 33.28 8.9237 48.1798
9230 1 25.6905 12.3756 89.8147
9231 2 26.5098 12.751 89.3812
9232 2 25.0575 13.1189 90.0309
9233 1 37.8813 21.3683 74.4784
9234 2 37.3267 21.1714 75.2869
9235 2 38.2945 22.2743 74.5702
9236 1 23.4862 28.3223 21.1314
9237 2 24.0645 29.0068 21.5752
9238 2 23.9822 27.9126 20.3658
9239 1 73.2508 24.3132 48.5681
9240 2 73.6402 23.6679 47.9109
9241 2 73.1027 23.8503 49.442
9242 1 76.4505 27.8846 51.4167
9243 2 76.996 28.6439 51.0619
9244 2 76.6628 27.0532 50.903
9245 1 80.9555 17.9013 53.1643
9246 2 81.8605 18.0087 52.7525
9247 2 80.2839 17.7114 52.4481
9248 1 33.5032 8.84602 86.799
9249 2 32.9288 8.91839 87.6144
9250 2 32.9418 8.56857 86.0194
9251 1 87.9838 10.7094 43.0755
9252 2 87.5933 9.88919 42.6574
9253 2 88.9811 10.6368 43.0836
9254 1 40.5072 7.18174 74.0437
9255 2 41.2357 7.83092 74.2626
9256 2 40.9055 6.28242 73.8629
9257 1 111.517 13.07 43.8931
9258 2 111.628 12.1576 43.4992
9259 2 111.299 13.7223 43.167
9260 1 85.0646 4.37626 36.0006
9261 2 84.3009 4.10456 35.415
9262 2 84.7911 4.30468 36.9598
9263 1 46.2855 10.22 47.9673
9264 2 46.7524 10.5275 47.1383
9265 2 45.3583 10.5942 47.9859
9266 1 83.1615 0.54816 60.4155
9267 2 83.5113 0.638699 59.4831
9268 2 83.6079 1.22076 61.0058
9269 1 107.127 20.5535 41.6
9270 2 108.061 20.454 41.9431
9271 2 107.076 20.1992 40.6663
9272 1 34.1558 16.2042 69.2605
9273 2 34.3057 16.5643 70.1812
9274 2 33.2784 15.7255 69.2285
9275 1 16.6357 12.3556 63.6824
9276 2 15.8701 11.978 64.2032
9277 2 17.2298 12.8777 64.2943
9278 1 80.3437 27.4021 90.7631
9279 2 80.782 28.1634 90.2853
9280 2 80.7281 27.3201 91.6826
9281 1 73.3686 25.6809 51.5646
9282 2 73.3951 26.2238 52.404
9283 2 74.2849 25.3351 51.3623
9284 1 110.156 24.496 58.7192
9285 2 110.321 25.4526 58.9594
9286 2 110.438 23.9084 59.4777
9287 1 14.5492 17.528 59.1859
9288 2 14.8413 16.8191 59.8278
9289 2 15.2976 17.7366 58.5563
9290 1 108.213 8.07471 75.1386
9291 2 108.498 7.54582 75.938
9292 2 108.377 9.04675 75.306
9293 1 37.1502 2.61081 35.6721
9294 2 36.8128 2.42126 36.5942
9295 2 36.8701 3.53058 35.3972
9296 1 30.2012 29.7852 56.0158
9297 2 29.3021 29.3482 55.992
9298 2 30.9121 29.0915 55.8997
9299 1 3.32325 4.05972 25.0595
9300 2 2.41131 4.02137 25.4681
9301 2 3.99624 4.27758 25.7664
9302 1 3.94081 8.08583 65.3866
9303 2 4.8324 7.69453 65.1587
9304 2 3.26798 7.35164 65.4775
9305 1 101.225 28.8123 26.9027
9306 2 100.574 28.5836 27.6261
9307 2 100.831 28.579 26.0135
9308 1 119.453 5.31493 71.6148
9309 2 119.855 4.89841 72.4302
9310 2 119.762 6.26292 71.538
9311 1 45.7155 13.4795 62.7602
9312 2 46.4981 12.8669 62.6496
9313 2 44.8784 12.939 62.8443
9314 1 47.362 24.4144 59.6879
9315 2 47.8117 23.5301 59.8132
9316 2 47.9602 25.0214 59.1648
9317 1 116.239 6.85273 74.9595
9318 2 116.582 7.15738 74.0709
9319 2 115.599 6.09576 74.8281
9320 1 112.682 15.0835 65.6109
9321 2 113.385 15.7532 65.3701
9322 2 112.046 14.9787 64.8467
9323 1 38.6352 14.3075 67.3305
9324 2 38.954 14.4142 66.3888
9325 2 39.1811 14.8877 67.935
9326 1 48.3476 26.0388 90.3046
9327 2 49.2645 25.7868 89.9951
9328 2 47.8734 25.2245 90.6396
9329 1 7.61451 7.50173 59.8338
9330 2 8.00066 7.10593 60.667
9331 2 7.69905 8.49758 59.8677
9332 1 30.6229 19.4579 65.6641
9333 2 30.4132 20.4337 65.6027
9334 2 30.4385 19.0213 64.7835
9335 1 77.4768 25.7819 47.2089
9336 2 78.4156 26.0693 47.0192
9337 2 77.3584 25.6596 48.1943
9338 1 57.143 2.55432 82.2758
9339 2 57.9735 3.05211 82.5257
9340 2 56.4595 2.66267 82.9976
9341 1 103.38 19.0232 52.3978
9342 2 103.306 18.8674 53.3829
9343 2 104.102 18.4419 52.0217
9344 1 25.9542 3.77154 53.4123
9345 2 26.4336 3.40509 54.2097
9346 2 25.7647 3.03077 52.7678
9347 1 96.1019 12.6379 58.8666
9348 2 95.4372 12.8677 58.1557
9349 2 95.7614 11.8668 59.4046
9350 1 116.749 19.2282 40.7288
9351 2 116.662 18.5695 41.4762
9352 2 117.699 19.2554 40.4169
9353 1 55.8047 11.0637 67.3864
9354 2 56.0655 10.6196 66.5292
9355 2 56.6161 11.4582 67.8177
9356 1 85.3358 26.3348 36.4075
9357 2 84.8974 25.4364 36.4333
9358 2 85.5431 26.5773 35.4597
9359 1 8.29236 27.5005 51.7826
9360 2 7.30771 27.327 51.7638
9361 2 8.45629 28.4858 51.8315
9362 1 105.399 2.40745 72.1331
9363 2 104.822 2.19186 72.9206
9364 2 106.361 2.3465 72.3986
9365 1 95.3591 2.39134 75.8882
9366 2 96.0056 1.63058 75.9455
9367 2 94.7059 2.33132 76.643
9368 1 81.0759 17.4679 55.8932
9369 2 81.0812 16.4707 55.8174
9370 2 81.1992 17.8717 54.9867
9371 1 0.912021 9.29527 77.4116
9372 2 1.33889 8.41983 77.6383
9373 2 119.93 9.24501 77.5956
9374 1 7.70924 22.2262 61.142
9375 2 7.19021 22.6789 61.8671
9376 2 8.36682 21.5922 61.5489
9377 1 119.775 5.04198 45.8323
9378 2 0.33736 4.93489 45.0123
9379 2 119.611 6.01417 45.999
9380 1 79.1772 20.2358 77.868
9381 2 79.6619 19.7885 77.1163
9382 2 79.6611 21.072 78.1259
9383 1 111.506 18.5612 68.2336
9384 2 111.811 18.6281 67.2837
9385 2 110.552 18.8557 68.2987
9386 1 56.732 12.5589 58.0121
9387 2 57.4563 11.9152 58.2594
9388 2 57.1044 13.4867 57.9886
9389 1 109.241 24.1062 47.4966
9390 2 109.51 23.6909 46.6276
9391 2 108.243 24.1315 47.5594
9392 1 39.8834 11.8808 36.0136
9393 2 40.5583 12.1227 36.7107
9394 2 39.0689 12.4499 36.1265
9395 1 31.3492 22.2808 48.9083
9396 2 30.4033 22.1097 48.6324
9397 2 31.9655 22.021 48.1649
9398 1 96.1281 14.1896 79.4039
9399 2 95.5885 13.8281 78.6435
9400 2 96.467 13.4322 79.9619
9401 1 34.2779 17.6212 60.364
9402 2 33.6917 17.145 61.0194
9403 2 34.8972 18.2342 60.8547
9404 1 39.3103 5.72972 89.4044
9405 2 40.1084 6.33203 89.3858
9406 2 39.6107 4.78154 89.508
9407 1 81.4997 28.1247 87.7962
9408 2 81.4532 27.188 87.4492
9409 2 81.2345 28.7617 87.0724
9410 1 83.1899 21.0361 42.8517
9411 2 82.788 20.1237 42.9287
9412 2 83.9894 21.0996 43.4491
9413 1 78.942 7.45251 40.0764
9414 2 78.7701 6.60235 39.5787
9415 2 78.4789 7.41968 40.9622
9416 1 0.21567 9.41548 26.4322
9417 2 1.05284 9.11297 25.9765
9418 2 0.329099 9.33905 27.4228
9419 1 88.8635 16.9395 34.7122
9420 2 88.1948 17.6609 34.8924
9421 2 89.6487 17.3262 34.2285
9422 1 28.6851 23.0925 50.885
9423 2 28.4959 23.7065 50.1187
9424 2 29.5849 23.3035 51.2669
9425 1 114.371 0.0248628 58.4467
9426 2 115.238 29.5344 58.5368
9427 2 113.795 29.5623 57.7729
9428 1 53.4928 27.772 78.467
9429 2 54.0356 27.093 77.9728
9430 2 52.7551 28.1019 77.878
9431 1 89.2686 24.7389 65.4126
9432 2 89.8442 24.2614 64.7487
9433 2 88.3859 24.2745 65.4834
9434 1 10.3412 0.960336 80.7979
9435 2 10.9112 0.811268 79.9898
9436 2 9.67118 1.6773 80.6055
9437 1 110.575 14.1186 27.7893
9438 2 111.091 14.7922 28.3193
9439 2 109.599 14.2189 27.9819
9440 1 94.1701 11.8215 66.8648
9441 2 94.2445 12.278 65.9782
9442 2 93.7625 12.4479 67.5291
9443 1 5.76532 17.2726 43.7808
9444 2 4.89207 17.7049 44.0055
9445 2 6.4941 17.6925 44.3217
9446 1 74.0042 1.18976 56.3238
9447 2 73.0744 0.849449 56.1833
9448 2 74.5503 1.01553 55.5043
9449 1 22.6814 22.3115 63.0936
9450 2 23.225 22.0381 62.3001
9451 2 22.9648 23.2222 63.3941
9452 1 55.1451 9.25606 51.6848
9453 2 54.7641 10.0999 52.0626
9454 2 55.55 9.44447 50.79
9455 1 19.4171 11.0659 56.3742
9456 2 20.3554 11.2195 56.6842
9457 2 19.1386 10.1334 56.6041
9458 1 36.8244 23.6043 66.6824
9459 2 35.9141 23.435 66.3046
9460 2 37.0354 22.9079 67.3684
9461 1 28.5706 18.8514 11.5823
9462 2 29.1214 18.1221 11.1764
9463 2 27.6048 18.5934 11.5565
9464 1 31.5165 25.855 32.9494
9465 2 31.9428 25.319 33.678
9466 2 30.5299 25.904 33.1052
9467 1 18.4412 19.5484 75.7946
9468 2 19.0505 18.9654 75.2571
9469 2 17.6556 19.013 76.1048
9470 1 12.2861 29.0459 22.0917
9471 2 12.3364 28.2451 21.4948
9472 2 11.3461 29.3864 22.114
9473 1 30.1813 12.3363 60.7678
9474 2 30.2613 12.6798 59.8321
9475 2 30.3635 13.079 61.4122
9476 1 90.5026 13.0725 81.3611
9477 2 90.5799 13.5845 80.5056
9478 2 89.5369 12.9492 81.5897
9479 1 64.5992 27.7323 60.4044
9480 2 64.3439 28.4953 59.8105
9481 2 64.1832 26.8898 60.062
9482 1 44.0676 0.966193 78.6244
9483 2 43.3047 0.691296 79.2096
9484 2 43.7193 1.48964 77.8467
9485 1 40.9534 12.4241 73.1312
9486 2 40.3846 13.0593 72.6088
9487 2 41.3883 12.9115 73.8884
9488 1 52.7536 23.7885 79.1566
9489 2 52.0792 23.1776 78.7419
9490 2 52.2826 24.5329 79.6299
9491 1 53.0855 24.5605 90.7278
9492 2 53.3681 23.6013 90.712
9493 2 52.1092 24.6238 90.5211
9494 1 66.3487 25.8945 63.6094
9495 2 67.0576 26.488 63.2282
9496 2 66.2642 26.0644 64.5912
9497 1 92.9885 4.05329 67.9196
9498 2 93.5691 4.30287 68.6946
9499 2 93.1506 3.09704 67.6761
9500 1 109.981 2.78268 30.1609
9501 2 110.945 2.69462 29.911
9502 2 109.905 3.27164 31.0299
9503 1 110.194 9.50702 81.7842
9504 2 110.968 9.83431 81.243
9505 2 109.708 10.2879 82.177
9506 1 16.8875 22.5669 36.4662
9507 2 16.4301 22.0594 37.1964
9508 2 16.3026 23.3209 36.1674
9509 1 34.2319 0.983491 76.0664
9510 2 35.0713 1.29104 76.5145
9511 2 34.4241 0.770704 75.1084
9512 1 116.731 1.49773 29.5215
9513 2 116.171 0.814653 29.99
9514 2 117.699 1.30369 29.684
9515 1 62.3354 24.4142 39.0156
9516 2 63.0079 24.7541 39.673
9517 2 62.6379 23.5318 38.6553
9518 1 3.77156 21.7192 49.211
9519 2 4.51959 22.2568 48.8218
9520 2 3.98644 21.487 50.1596
9521 1 103.327 27.0119 35.8648
9522 2 104.12 27.4921 36.2407
9523 2 103 26.3382 36.5276
9524 1 48.2611 14.2741 80.5277
9525 2 47.3812 14.6643 80.7989
9526 2 48.5833 13.6511 81.2406
9527 1 104.521 6.4204 48.4532
9528 2 104.273 5.9508 47.6058
9529 2 103.795 6.29269 49.1294
9530 1 103.657 1.44652 44.5872
9531 2 102.993 0.732764 44.8092
9532 2 104.229 1.14433 43.8243
9533 1 94.5747 14.6797 21.0973
9534 2 94.894 15.5703 21.4212
9535 2 95.2964 14.2418 20.5611
9536 1 119.088 14.8279 25.4479
9537 2 118.127 14.7397 25.7099
9538 2 119.347 14.0567 24.8665
9539 1 8.60579 27.6763 10.8621
9540 2 9.58506 27.5743 10.6871
9541 2 8.16405 28.0788 10.0603
9542 1 51.18 12.8144 88.0212
9543 2 50.473 12.2017 87.6679
9544 2 50.9884 13.0269 88.9794
9545 1 27.6398 2.17481 28.8197
9546 2 27.4559 1.6219 28.007
9547 2 26.8711 2.79328 28.9829
9548 1 118.065 11.7425 58.9597
9549 2 117.998 12.718 59.1695
9550 2 118.833 11.3453 59.4613
9551 1 4.45815 2.0336 90.6574
9552 2 3.49888 2.30837 90.5919
9553 2 5.0162 2.82686 90.9009
9554 1 9.263 10.2719 59.9069
9555 2 8.59296 10.8253 59.4121
9556 2 8.91511 10.0662 60.8216
9557 1 62.8468 17.0294 52.3814
9558 2 62.7296 17.9915 52.1354
9559 2 63.159 16.5165 51.5817
9560 1 116.478 22.6188 74.4494
9561 2 117.076 23.4139 74.5487
9562 2 116.141 22.5708 73.5091
9563 1 55.3385 3.63093 39.3293
9564 2 55.3977 2.70003 38.9689
9565 2 54.4852 3.73708 39.8397
9566 1 108.292 1.3596 69.3415
9567 2 107.854 0.51604 69.0305
9568 2 108.98 1.14235 70.0339
9569 1 45.0563 24.7899 67.8541
9570 2 44.9416 24.5584 68.8202
9571 2 44.1806 24.6912 67.3815
9572 1 39.4009 5.09975 69.6436
9573 2 40.2673 4.99316 70.1314
9574 2 38.9907 5.98026 69.8811
9575 1 119.362 18.6462 82.7965
9576 2 0.0238014 18.9969 82.1343
9577 2 118.502 18.4384 82.33
9578 1 31.3279 4.88709 17.271
9579 2 32.183 4.96641 17.7833
9580 2 30.8592 4.04352 17.5333
9581 1 116.897 26.2537 88.2359
9582 2 116.489 26.8185 87.5188
9583 2 117.688 26.7273 88.6233
9584 1 83.7348 3.63514 63.6237
9585 2 84.2537 3.35565 62.8159
9586 2 83.4535 2.82388 64.1363
9587 1 102.529 0.000992796 57.4072
9588 2 101.617 29.9399 57.8116
9589 2 102.682 0.928891 57.0669
9590 1 117.955 8.63272 65.4881
9591 2 118.533 8.92317 64.7258
9592 2 117.084 9.12384 65.4522
9593 1 70.8872 5.66426 61.9018
9594 2 70.4944 5.8313 60.9975
9595 2 70.8943 6.5166 62.4247
9596 1 25.4502 6.01628 41.7171
9597 2 25.748 5.1176 41.3951
9598 2 24.4876 6.15221 41.4827
9599 1 69.3662 15.4177 47.3757
9600 2 70.2853 15.2063 47.7084
9601 2 68.9742 16.1553 47.9256
9602 1 102.609 14.9712 68.6335
9603 2 103.546 15.2476 68.847
9604 2 102.534 13.9756 68.6897
9605 1 13.1338 20.8774 53.9719
9606 2 13.1093 19.8782 53.9416
9607 2 13.2333 21.2367 53.044
9608 1 55.8489 20.1784 62.3212
9609 2 55.0211 20.2749 62.8738
9610 2 55.6097 20.2263 61.3514
9611 1 32.3321 28.2252 78.5682
9612 2 32.3913 28.0404 79.5492
9613 2 33.2303 28.0923 78.1492
9614 1 66.1439 2.7929 57.3192
9615 2 66.1955 2.29887 56.4513
9616 2 66.4276 3.74167 57.18
9617 1 54.3591 16.0106 61.3416
9618 2 54.1017 16.9626 61.5074
9619 2 53.7365 15.4056 61.8378
9620 1 57.9374 16.2461 43.9151
9621 2 57.0265 15.9208 43.6614
9622 2 58.2566 16.9067 43.2356
9623 1 53.2032 18.3901 60.8727
9624 2 54.1198 18.6456 60.5652
9625 2 52.5218 18.8022 60.2679
9626 1 49.9775 19.078 65.9142
9627 2 50.2691 19.6953 66.645
9628 2 49.1255 18.6267 66.1794
9629 1 23.9279 8.29802 10.9607
9630 2 23.0184 8.02971 10.6433
9631 2 23.8669 9.16778 11.4504
9632 1 119.934 8.88283 15.9708
9633 2 118.949 9.04599 16.0289
9634 2 0.146937 7.98586 16.3584
9635 1 56.0387 13.3677 80.6312
9636 2 55.339 14.0802 80.6838
9637 2 55.9358 12.8621 79.7746
9638 1 106.969 7.02675 47.3196
9639 2 106.048 6.78949 47.6308
9640 2 106.906 7.63182 46.5258
9641 1 53.7915 5.0165 47.0565
9642 2 52.9849 4.80615 46.5041
9643 2 53.8716 6.0073 47.1656
9644 1 76.1842 0.154944 89.3308
9645 2 76.9371 0.259299 89.9807
9646 2 75.9637 1.04443 88.9306
9647 1 109.344 23.6264 31.1572
9648 2 109.35 24.5296 30.7281
9649 2 110.26 23.4109 31.495
9650 1 114.688 14.042 86.35
9651 2 114.014 14.2943 87.0443
9652 2 114.771 13.0462 86.3127
9653 1 9.68241 3.27585 33.8941
9654 2 9.52881 2.71725 33.079
9655 2 10.3195 2.80589 34.5051
9656 1 68.1245 12.9162 65.1303
9657 2 68.0257 12.0054 64.7295
9658 2 67.7724 13.6011 64.4923
9659 1 8.49448 5.69369 38.2805
9660 2 8.92022 6.30163 37.6103
9661 2 8.36888 6.18409 39.1429
9662 1 23.1562 26.0886 12.3616
9663 2 22.4481 26.7618 12.5748
9664 2 22.7356 25.2836 11.9431
9665 1 107.331 20.2697 91.0093
9666 2 106.961 21.1958 90.9316
9667 2 108.252 20.2444 90.6208
9668 1 6.00348 18.7632 24.6944
9669 2 5.00582 18.8276 24.6715
9670 2 6.27259 17.814 24.8576
9671 1 77.3894 11.8124 47.973
9672 2 77.8695 11.6549 47.11
9673 2 76.4024 11.7696 47.8179
9674 1 89.6506 24.9432 68.1682
9675 2 90.4168 24.3295 68.3587
9676 2 89.5233 25.0205 67.1794
9677 1 1.3634 9.83988 23.1291
9678 2 0.656148 9.60301 22.463
9679 2 1.34364 9.184 23.8838
9680 1 39.6372 4.03424 74.9683
9681 2 40.5009 4.30531 74.5435
9682 2 39.8147 3.67466 75.8844
9683 1 46.4784 14.4771 46.897
9684 2 46.311 14.4972 47.8826
9685 2 47.4496 14.3098 46.7272
9686 1 24.1771 25.8409 74.9318
9687 2 24.6346 26.2601 75.7161
9688 2 24.222 26.4615 74.149
9689 1 88.7721 12.7157 49.8491
9690 2 89.6218 12.1913 49.9051
9691 2 88.8401 13.3821 49.1066
9692 1 99.6617 19.2006 26.2133
9693 2 100.164 20.0315 25.9736
9694 2 99.4074 18.7123 25.3785
9695 1 69.6007 2.54928 47.8742
9696 2 69.1614 1.70412 48.1787
9697 2 69.526 3.24116 48.5923
9698 1 118.754 24.2802 17.8036
9699 2 118.725 24.4001 16.8113
9700 2 119.106 23.3695 18.0191
9701 1 30.8504 15.887 88.7453
9702 2 29.9227 15.8862 89.1187
9703 2 31.4904 15.5634 89.4422
9704 1 61.3364 11.5676 35.9322
9705 2 61.025 11.1435 36.7826
9706 2 61.9818 12.3018 36.1428
9707 1 28.1524 25.3241 18.672
9708 2 27.3663 24.7264 18.5144
9709 2 28.8334 25.1752 17.955
9710 1 84.5396 8.47614 34.5842
9711 2 85.4819 8.73873 34.7918
9712 2 84.4383 8.35054 33.5974
9713 1 10.0575 28.6185 45.6711
9714 2 10.3865 28.0223 46.4034
9715 2 10.7535 29.3056 45.4626
9716 1 48.3128 14.0663 69.087
9717 2 48.646 14.5214 69.9128
9718 2 48.9589 13.3527 68.8161
9719 1 115.165 6.29818 41.3347
9720 2 115.887 5.62164 41.4781
9721 2 114.472 5.92062 40.7207
9722 1 22.4894 6.65565 13.0282
9723 2 23.0842 6.31268 13.7552
9724 2 21.5718 6.81146 13.3939
9725 1 15.6099 29.9507 37.9321
9726 2 15.4866 29.0993 38.4419
9727 2 16.2421 0.546925 38.427
9728 1 49.2162 27.896 37.579
9729 2 49.5466 26.9522 37.5706
9730 2 48.8024 28.1122 36.6947
9731 1 38.6129 2.06915 49.8706
9732 2 39.4504 1.90889 50.3931
9733 2 38.4888 3.05183 49.733
9734 1 46.9597 15.4373 84.0795
9735 2 47.8815 15.5966 84.433
9736 2 46.9336 15.6594 83.1048
9737 1 27.218 20.7129 58.7684
9738 2 26.5588 20.576 58.029
9739 2 27.9871 21.2567 58.4327
9740 1 2.68608 11.6917 61.6437
9741 2 3.19281 12.1385 60.9065
9742 2 2.59539 12.3216 62.4152
9743 1 35.7413 13.792 67.2152
9744 2 35.3978 14.1561 68.0809
9745 2 36.7259 13.9548 67.1523
9746 1 103.608 6.94624 18.0565
9747 2 104.474 6.45517 17.9689
9748 2 103.018 6.46907 18.7087
9749 1 78.2584 12.9526 74.4621
9750 2 78.1109 13.1236 75.4362
9751 2 79.1722 12.5703 74.3253
9752 1 99.8193 9.56219 70.0311
9753 2 100.752 9.61031 69.6737
9754 2 99.6487 10.3489 70.6244
9755 1 30.2452 28.2207 16.5189
9756 2 30.4562 27.9458 15.5809
9757 2 29.4691 28.8513 16.5149
9758 1 33.6947 28.7975 88.6261
9759 2 34.381 28.2191 88.1852
9760 2 34.0693 29.1716 89.4744
9761 1 80.976 21.1005 66.2336
9762 2 81.5988 20.4322 66.6404
9763 2 81.197 21.2158 65.2652
9764 1 32.7373 8.95644 42.7301
9765 2 33.4677 9.57802 43.0132
9766 2 32.4398 8.41242 43.5147
9767 1 98.9909 15.2577 72.2649
9768 2 99.8894 14.8852 72.0328
9769 2 99.0744 16.236 72.4543
9770 1 18.8684 28.6736 42.7081
9771 2 17.9847 28.9511 42.3313
9772 2 18.9525 29.0126 43.6451
9773 1 15.2681 13.9772 22.837
9774 2 14.7958 14.8402 23.0165
9775 2 15.3027 13.4353 23.6768
9776 1 79.4888 13.9104 66.3218
9777 2 79.7405 13.9382 67.2893
9778 2 79.0817 13.0223 66.1087
9779 1 110.032 16.6398 59.8983
9780 2 110.389 17.3675 60.4837
9781 2 109.489 17.0416 59.1608
9782 1 30.2801 26.3007 57.6246
9783 2 29.3123 26.492 57.4609
9784 2 30.8313 26.7399 56.9151
9785 1 79.1414 16.1169 41.182
9786 2 78.8493 16.7051 41.936
9787 2 78.7118 15.2186 41.2743
9788 1 43.4303 5.49042 50.9428
9789 2 42.646 4.99771 51.3198
9790 2 44.2575 5.23163 51.4415
9791 1 74.4898 11.3797 39.321
9792 2 73.5272 11.3665 39.0504
9793 2 74.6621 12.1758 39.901
9794 1 86.9474 1.56314 54.1513
9795 2 87.5693 2.24777 54.5314
9796 2 87.3286 0.649961 54.2954
9797 1 87.081 13.5159 41.2615
9798 2 87.7877 13.7318 40.5876
9799 2 87.0884 14.2062 41.985
9800 1 46.2537 7.07017 32.966
9801 2 47.011 6.75462 33.5378
9802 2 46.3257 6.65556 32.0589
9803 1 76.9098 6.14176 75.2522
9804 2 76.0104 6.56817 75.1558
9805 2 77.4739 6.37067 74.4589
9806 1 98.0099 26.0836 63.8512
9807 2 97.4491 25.8278 63.0637
9808 2 97.9802 27.0757 63.9733
9809 1 65.3446 27.5547 80.9904
9810 2 64.7681 27.108 80.3062
9811 2 65.234 27.0945 81.8713
9812 1 114.817 27.7857 66.5126
9813 2 115.602 28.3988 66.4287
9814 2 115.067 26.8763 66.1805
9815 1 13.265 26.4682 31.7875
9816 2 12.416 26.7301 32.2465
9817 2 13.0507 26.0361 30.9115
9818 1 31.1747 9.71531 40.7982
9819 2 31.5806 9.22195 41.5675
9820 2 31.2876 10.6993 40.9364
9821 1 22.7521 19.6525 83.9705
9822 2 22.0417 20.3432 84.1058
9823 2 22.3295 18.7893 83.6944
9824 1 69.4379 14.0998 90.6042
9825 2 69.7523 15.0088 90.3306
9826 2 70.2248 13.5373 90.8579
9827 1 4.25828 15.294 51.2043
9828 2 3.62798 15.7369 51.8419
9829 2 5.19987 15.4579 51.4985
9830 1 95.1196 0.654211 62.9892
9831 2 94.1983 0.532942 63.3585
9832 2 95.2686 0.00331215 62.2447
9833 1 20.1812 5.2898 27.463
9834 2 20.9988 5.83698 27.2837
9835 2 19.9493 5.34539 28.4342
9836 1 41.7968 19.7293 53.2392
9837 2 40.8362 19.5963 52.9948
9838 2 41.953 19.3974 54.1695
9839 1 89.8138 28.089 81.1435
9840 2 90.3267 28.9427 81.0537
9841 2 89.5746 27.9432 82.1035
9842 1 25.8501 16.846 61.0393
9843 2 26.3435 17.6322 61.4115
9844 2 26.4577 16.3243 60.4405
9845 1 44.4422 11.7979 87.6423
9846 2 43.8585 12.5126 87.2571
9847 2 43.8897 10.9891 87.8441
9848 1 17.6859 29.3895 60.9415
9849 2 17.0272 28.6568 60.7709
9850 2 18.587 29.1119 60.6084
9851 1 6.50807 14.4284 82.5127
9852 2 7.39769 14.3487 82.0631
9853 2 6.5637 14.0406 83.4328
9854 1 76.2644 21.9596 72.1234
9855 2 76.2237 21.1664 71.5159
9856 2 76.0946 21.6676 73.0647
9857 1 117.756 13.4738 68.9751
9858 2 118.47 13.5207 69.6732
9859 2 117.149 12.7032 69.1704
9860 1 83.5012 26.5142 83.7038
9861 2 84.391 26.8967 83.455
9862 2 82.8188 27.2448 83.7259
9863 1 47.9844 11.0617 45.8229
9864 2 48.4549 11.9225 46.0166
9865 2 48.5661 10.2952 46.0953
9866 1 90.6191 13.0866 40.4553
9867 2 90.1659 12.6704 39.667
9868 2 90.5649 14.0825 40.3835
9869 1 47.245 10.1207 34.6788
9870 2 48.2183 10.3424 34.6195
9871 2 47.1053 9.41685 35.3753
9872 1 43.3485 11.4717 59.5656
9873 2 43.2069 10.6661 60.1408
9874 2 42.5945 11.5524 58.9137
9875 1 3.95739 7.5663 31.648
9876 2 4.34824 7.85972 30.7756
9877 2 3.69165 6.60417 31.5874
9878 1 27.2844 20.9859 36.7816
9879 2 27.6044 21.5715 37.5263
9880 2 27.6367 21.3307 35.9115
9881 1 87.9328 1.65974 40.5411
9882 2 87.1315 2.25794 40.5535
9883 2 87.7835 0.889739 41.1614
9884 1 114.037 5.05613 36.8746
9885 2 113.648 4.6754 36.0358
9886 2 114.984 5.3326 36.7074
9887 1 36.1782 3.91839 75.4836
9888 2 36.3286 4.1928 74.5338
9889 2 36.3909 4.68484 76.0897
9890 1 78.1732 10.799 45.151
9891 2 78.5091 9.86947 45.3032
9892 2 77.9068 10.9045 44.1929
9893 1 36.9453 28.3998 52.4542
9894 2 36.1822 27.7796 52.6362
9895 2 37.6976 27.8894 52.0376
9896 1 10.6194 13.0857 59.2367
9897 2 10.8479 12.9032 58.2805
9898 2 10.0248 13.8879 59.2901
9899 1 104.446 28.6541 45.1971
9900 2 104.562 27.7612 45.632
9901 2 105.013 28.7013 44.3751
9902 1 117.597 4.8957 58.7109
9903 2 118.51 4.55089 58.9272
9904 2 117.024 4.85918 59.5299
9905 1 93.0726 17.9952 52.1845
9906 2 93.3452 18.7886 52.7287
9907 2 93.2607 18.1729 51.2186
9908 1 73.4559 5.44629 72.892
9909 2 73.7625 6.33488 72.5507
9910 2 73.279 4.83576 72.12
9911 1 89.3854 16.9654 75.513
9912 2 89.2221 16.1172 75.0092
9913 2 88.5387 17.257 75.9581
9914 1 37.7788 23.2662 88.8937
9915 2 38.0041 22.3903 89.3203
9916 2 38.6148 23.6947 88.5508
9917 1 2.31659 25.6899 82.7884
9918 2 2.55553 25.1597 83.6019
9919 2 3.1389 26.1232 82.4196
9920 1 13.4397 22.3608 31.3369
9921 2 12.4923 22.0455 31.281
9922 2 13.5687 23.1391 30.7223
9923 1 71.9802 6.5658 87.9091
9924 2 72.8084 6.01541 87.8039
9925 2 71.1795 6.00852 87.6893
9926 1 52.6265 6.68771 77.9674
9927 2 53.2443 5.94583 78.2281
9928 2 51.9688 6.84789 78.7035
9929 1 36.5956 1.98983 77.4594
9930 2 36.0883 1.92695 78.3189
9931 2 36.6389 2.94516 77.1671
9932 1 66.8916 13.3015 60.9553
9933 2 66.7516 12.4468 60.4555
9934 2 67.8222 13.6316 60.797
9935 1 111.009 19.7279 83.8419
9936 2 111.302 18.7787 83.7272
9937 2 111.387 20.0931 84.6925
9938 1 68.2494 6.922 40.798
9939 2 68.8168 6.3532 41.3934
9940 2 68.4885 6.7467 39.8429
9941 1 33.0063 19.7796 29.4349
9942 2 32.7424 20.5681 28.8794
9943 2 33.4135 19.0797 28.8481
9944 1 118.758 22.6736 13.7433
9945 2 118.006 22.2447 13.2416
9946 2 119.272 21.9723 14.2362
9947 1 27.2599 20.6705 67.6547
9948 2 27.9521 20.8132 68.3622
9949 2 27.2357 21.4644 67.0471
9950 1 109.547 17.4941 27.2128
9951 2 110.192 17.4049 26.4536
9952 2 108.614 17.3724 26.874
9953 1 14.2042 24.7312 57.9517
9954 2 13.6574 24.8637 57.1251
9955 2 13.5984 24.657 58.7439
9956 1 20.6794 23.1299 24.2197
9957 2 21.2109 23.7752 24.7685
9958 2 21.1387 22.9796 23.3442
9959 1 48.7003 20.707 76.323
9960 2 49.6319 20.7175 75.9595
9961 2 48.7314 20.762 77.321
9962 1 61.4757 13.841 90.6863
9963 2 61.0965 12.9781 91.0202
9964 2 62.3532 13.6685 90.2389
9965 1 115.41 9.59432 23.2631
9966 2 114.588 9.51478 22.6998
9967 2 115.364 10.4347 23.8031
9968 1 6.6194 5.41644 44.6849
9969 2 7.25597 4.74019 44.3142
9970 2 6.32136 6.02978 43.9535
9971 1 81.9841 22.432 38.5268
9972 2 81.3825 21.716 38.8808
9973 2 82.8472 22.0247 38.2281
9974 1 119.153 21.3527 85.5764
9975 2 119.408 20.6777 86.2689
9976 2 119.004 22.2394 86.0142
9977 1 27.5428 14.7817 56.163
9978 2 27.3132 15.4697 56.8515
9979 2 26.8201 14.7469 55.4727
9980 1 20.5168 14.3567 62.8043
9981 2 19.5395 14.1705 62.7036
9982 2 21.012 13.9675 62.0275
9983 1 20.2401 20.5371 39.3853
9984 2 19.7134 21.1873 39.9329
9985 2 21.1755 20.4872 39.7355
9986 1 84.9903 29.6056 40.0377
9987 2 84.8777 29.2409 40.962
9988 2 85.9063 29.9953 39.9425
9989 1 15.8255 4.40942 81.7689
9990 2 16.6815 3.90064 81.6769
9991 2 15.3941 4.1809 82.6416
9992 1 67.4624 19.5119 45.4891
9993 2 67.3902 20.4231 45.8947
9994 2 67.0963 19.5313 44.5587
9995 1 97.8189 1.34807 90.0208
9996 2 98.3879 0.580082 90.3147
9997 2 97.834 1.4114 89.0229
9998 1 16.1672 23.5184 90.2279
9999 2 15.1917 23.7166 90.3238
10000 2 16.3138 22.5308 90.2845
10001 1 88.599 12.2828 84.1789
10002 2 88.3153 13.2362 84.2813
10003 2 89.3145 12.0744 84.8457
10004 1 22.111 27.9072 77.0289
10005 2 21.6068 28.6678 77.438
10006 2 23.0719 27.9596 77.3008
10007 1 96.4977 3.958 68.6836
10008 2 96.1534 3.49573 67.8665
10009 2 97.3277 3.49951 69.0011
10010 1 95.386 22.6244 63.3857
10011 2 96.1287 22.9042 63.9939
10012 2 94.9131 23.4357 63.0419
10013 1 81.4141 0.186109 63.3848
10014 2 82.1239 29.5076 63.5741
10015 2 81.8033 0.934857 62.8482
10016 1 14.9522 16.9165 38.2866
10017 2 14.5203 17.7949 38.4911
10018 2 14.3107 16.1754 38.485
10019 1 75.5177 28.1335 54.1378
10020 2 75.8946 28.0528 53.215
10021 2 75.8306 28.9881 54.5521
10022 1 74.1876 17.7989 48.6045
10023 2 73.5881 17.3085 49.2372
10024 2 74.9177 18.2492 49.1185
10025 1 87.1219 0.935584 72.4332
10026 2 87.0381 1.76203 72.99
10027 2 87.1877 0.136424 73.0307
10028 1 110.259 18.8534 61.4898
10029 2 111.016 19.4561 61.2371
10030 2 110.365 18.5667 62.4419
10031 1 103.052 9.8129 84.6579
10032 2 103.569 10.6655 84.7366
10033 2 102.384 9.89532 83.9189
10034 1 50.7308 14.7423 48.2707
10035 2 50.0723 14.497 47.5593
10036 2 50.2416 14.9811 49.1096
10037 1 77.941 19.879 70.1873
10038 2 76.9693 19.6667 70.2909
10039 2 78.3988 19.785 71.0714
10040 1 105.886 18.3365 15.299
10041 2 105.844 19.0012 14.5531
10042 2 105.962 18.8191 16.1716
10043 1 9.22997 15.8355 90.7376
10044 2 9.1473 16.3747 89.8995
10045 2 9.89681 16.2656 91.3462
10046 1 10.5544 12.0779 30.6738
10047 2 9.97406 11.4958 31.2433
10048 2 10.8714 12.8598 31.2106
10049 1 109.213 1.5506 33.7896
10050 2 109.143 2.3627 34.3689
10051 2 108.807 0.768273 34.2622
10052 1 14.1628 26.141 25.5335
10053 2 14.0782 25.8891 26.4975
10054 2 13.8532 25.381 24.962
10055 1 96.5734 13.6509 28.8029
10056 2 97.1725 13.405 28.0409
10057 2 97.025 13.4288 29.6671
10058 1 88.5763 16.4108 61.1977
10059 2 88.1068 15.8437 61.8745
10060 2 87.915 17.0142 60.7521
10061 1 14.0005 9.55068 63.7857
10062 2 13.6106 9.60263 62.8663
10063 2 13.5163 8.85321 64.3141
10064 1 118.327 20.8138 67.2579
10065 2 117.836 21.5981 66.879
10066 2 117.951 20.5879 68.1567
10067 1 109.97 16.8913 55.2795
10068 2 109.779 17.1004 56.2386
10069 2 109.137 16.556 54.8391
10070 1 42.2382 4.92965 77.8845
10071 2 42.7402 4.1144 77.5957
10072 2 42.572 5.72387 77.3767
10073 1 12.1923 4.78131 85.7502
10074 2 12.3751 4.02298 85.1245
10075 2 12.8116 5.53926 85.5452
10076 1 26.0752 23.7731 61.2554
10077 2 27.0379 23.8775 61.0058
10078 2 26.0011 23.1799 62.057
10079 1 84.1324 17.483 85.0058
10080 2 84.5252 18.2453 84.4914
10081 2 84.42 16.6189 84.5927
10082 1 90.3049 13.6414 73.999
10083 2 91.2644 13.3611 73.9703
10084 2 89.72 12.8306 73.9773
10085 1 67.4071 12.877 78.7727
10086 2 66.7051 12.873 79.4848
10087 2 67.6425 13.8211 78.542
10088 1 19.0192 0.887276 13.2732
10089 2 19.9267 0.610864 13.5894
10090 2 18.6211 0.154518 12.7213
10091 1 113.783 27.5782 33.145
10092 2 113.994 27.6664 34.1185
10093 2 113.007 26.9589 33.0267
10094 1 74.9076 26.802 85.7479
10095 2 74.5701 26.2787 86.5304
10096 2 75.7429 27.2872 86.0067
10097 1 36.2489 22.2906 72.2628
10098 2 36.1975 21.736 73.0934
10099 2 36.8643 21.8528 71.6073
10100 1 28.5363 15.9845 90.2392
10101 2 27.6773 15.6675 89.8372
10102 2 28.4936 16.9737 90.3796
10103 1 50.549 5.15135 85.8547
10104 2 50.6373 5.94038 86.4627
10105 2 50.2248 5.45544 84.9589
10106 1 114.846 15.7181 24.2263
10107 2 114.542 16.6342 24.4872
10108 2 115.12 15.7192 23.2647
10109 1 29.5111 19.4659 77.5807
10110 2 28.5544 19.736 77.689
10111 2 30.0773 20.2824 77.4682
10112 1 22.9177 25.1726 37.8499
10113 2 22.354 25.6551 37.1795
10114 2 23.8843 25.3151 37.6368
10115 1 94.4854 11.8482 88.1471
10116 2 95.3245 11.4804 88.5477
10117 2 94.0657 11.1566 87.5592
10118 1 45.5165 19.0867 50.4508
10119 2 46.3664 19.4336 50.054
10120 2 45.0881 18.4464 49.8132
10121 1 95.9575 28.0226 89.4329
10122 2 96.7971 28.0597 89.9749
10123 2 96.11 27.4606 88.62
10124 1 88.8453 0.236264 65.0393
10125 2 89.645 0.621957 65.4993
10126 2 89.0615 29.3174 64.7092
10127 1 25.4668 28.5765 29.3636
10128 2 25.9418 28.8233 30.2083
10129 2 25.4963 29.3473 28.7272
10130 1 109.45 3.22056 90.826
10131 2 108.913 2.37732 90.8545
10132 2 110.35 3.05616 91.2286
10133 1 15.9817 7.39013 57.0085
10134 2 15.3026 7.40531 56.2746
10135 2 16.4583 8.26871 57.0398
10136 1 37.18 5.62911 37.2671
10137 2 36.7852 5.29669 36.4106
10138 2 36.6172 6.3733 37.6269
10139 1 36.0162 14.552 42.4159
10140 2 36.4512 14.2033 41.5858
10141 2 36.7174 14.757 43.0988
10142 1 101.07 18.6113 16.0725
10143 2 101.656 17.8668 16.3912
10144 2 100.259 18.6693 16.6548
10145 1 41.5208 5.04155 71.2609
10146 2 42.4332 4.77412 70.9512
10147 2 41.4717 4.96676 72.2569
10148 1 74.2188 9.22908 84.8046
10149 2 74.5865 8.57478 85.4655
10150 2 74.9636 9.58993 84.2433
10151 1 71.9519 4.92062 39.8831
10152 2 72.3655 4.51583 39.0675
10153 2 71.6366 4.19345 40.4928
10154 1 111.638 12.5493 66.5685
10155 2 112.232 13.1851 66.076
10156 2 112.033 11.6311 66.5361
10157 1 110.758 22.7986 60.6804
10158 2 109.989 22.4409 61.2101
10159 2 111.179 22.0552 60.1612
10160 1 45.6605 6.90667 64.7216
10161 2 46.4056 7.54982 64.5454
10162 2 45.4165 6.93658 65.691
10163 1 107.934 24.081 11.7765
10164 2 107.846 23.6916 12.6933
10165 2 108.806 24.5657 11.7032
10166 1 53.2815 20.1696 50.127
10167 2 52.6398 19.4095 50.2293
10168 2 53.7387 20.3397 51
10169 1 17.7677 1.80798 16.5523
10170 2 17.9103 1.0142 17.1436
10171 2 18.5434 2.43296 16.6405
10172 1 0.618385 21.442 41.116
10173 2 0.0340582 20.6313 41.0778
10174 2 1.38216 21.2732 41.739
10175 1 10.6881 22.4382 44.4682
10176 2 10.7977 23.2129 43.8455
10177 2 9.79653 22.0116 44.3158
10178 1 18.8461 14.7098 77.7513
10179 2 17.8961 15.001 77.8643
10180 2 19.3032 15.3109 77.0958
10181 1 72.3887 24.4183 74.6299
10182 2 73.2249 24.4704 75.176
10183 2 72.2637 23.4826 74.3
10184 1 78.391 21.4004 35.4576
10185 2 78.0952 21.4598 34.5042
10186 2 79.3575 21.1462 35.4915
10187 1 61.3945 7.22 74.0523
10188 2 60.9365 6.77607 73.2821
10189 2 62.2668 6.76414 74.2291
10190 1 59.8776 12.9188 57.1266
10191 2 59.3264 13.276 56.3726
10192 2 59.5143 12.0328 57.4146
10193 1 33.7269 11.0759 67.0872
10194 2 33.9156 10.9149 68.0559
10195 2 34.3489 10.5253 66.5305
10196 1 0.5842 26.9547 22.5559
10197 2 1.45722 27.394 22.344
10198 2 119.833 27.5566 22.2836
10199 1 32.1475 2.68537 56.2144
10200 2 32.6926 2.34633 56.9811
10201 2 32.3968 3.63451 56.0221
10202 1 53.3964 23.9563 51.2274
10203 2 52.4575 23.6708 51.0352
10204 2 53.4641 24.9512 51.1529
10205 1 32.0283 13.3416 16.9243
10206 2 31.1264 13.7496 16.782
10207 2 32.3957 13.0311 16.0477
10208 1 82.3067 0.103189 75.2232
10209 2 81.5709 0.694204 74.8927
10210 2 82.4281 0.240226 76.2063
10211 1 30.279 7.18258 18.241
10212 2 30.5977 6.33783 17.811
10213 2 29.6615 7.66168 17.6172
10214 1 101.71 26.6447 10.849
10215 2 101.32 25.7968 10.4902
10216 2 101.175 27.423 10.5214
10217 1 109.497 27.767 23.9763
10218 2 109.806 28.2736 23.1713
10219 2 108.67 28.1936 24.3417
10220 1 84.3884 8.30407 87.6186
10221 2 85.1374 7.97954 87.041
10222 2 84.2157 9.27057 87.4287
10223 1 17.9655 12.8727 58.0354
10224 2 17.4648 12.177 58.5505
10225 2 18.486 12.4346 57.3025
10226 1 11.3631 5.93227 12.0414
10227 2 11.4573 4.95561 11.8484
10228 2 11.5534 6.10078 13.0085
10229 1 75.9321 15.6976 77.2552
10230 2 75.7539 14.9575 77.9037
10231 2 75.2126 16.3879 77.3314
10232 1 97.4983 24.7383 16.2546
10233 2 96.5329 24.5773 16.4596
10234 2 98.0656 24.2666 16.9297
10235 1 24.8381 6.63675 73.3901
10236 2 24.4275 7.12005 72.6169
10237 2 25.7958 6.9093 73.483
10238 1 10.9993 21.2722 14.5107
10239 2 11.924 21.4646 14.839
10240 2 10.4679 20.8452 15.2423
10241 1 21.5211 2.18418 43.0119
10242 2 21.8045 2.51696 43.9113
10243 2 22.2374 1.59865 42.6322
10244 1 109.633 29.9922 10.8057
10245 2 109.496 29.3027 10.0946
10246 2 110.399 29.7214 11.3891
10247 1 81.6285 7.28914 40.6397
10248 2 81.85 7.90019 41.3997
10249 2 80.6569 7.37174 40.418
10250 1 25.2135 29.1315 48.8882
10251 2 26.1918 28.9402 48.8091
10252 2 24.9085 28.9295 49.8189
10253 1 13.6211 27.7491 44.0241
10254 2 13.2165 28.6553 44.1474
10255 2 13.4661 27.2002 44.8455
10256 1 10.5582 29.2902 74.4438
10257 2 9.78367 29.9087 74.3111
10258 2 10.4657 28.5043 73.8324
10259 1 73.6792 0.456353 33.437
10260 2 72.7888 0.0176788 33.5591
10261 2 74.1108 0.588567 34.3293
10262 1 63.6444 23.4966 61.567
10263 2 63.8259 24.1364 60.8202
10264 2 64.4837 23.3479 62.0899
10265 1 90.9864 25.0817 74.9533
10266 2 91.2408 24.871 75.8972
10267 2 90.7933 26.0594 74.8705
10268 1 62.7542 21.2227 58.7764
10269 2 61.9361 21.3342 58.2122
10270 2 63.5504 21.5704 58.2812
10271 1 20.0106 26.3353 73.1934
10272 2 19.5738 25.9639 74.0128
10273 2 20.4908 27.1811 73.426
10274 1 49.39 29.0225 44.6304
10275 2 48.888 29.4192 43.8619
10276 2 49.5953 29.7373 45.299
10277 1 108.417 9.64718 79.6218
10278 2 109.221 9.62902 80.2159
10279 2 108.323 8.76455 79.1613
10280 1 113.461 8.1852 17.001
10281 2 113.767 8.54644 17.8821
10282 2 112.483 8.36071 16.8895
10283 1 17.6726 16.9516 79.4965
10284 2 17.0274 16.4974 80.1108
10285 2 17.2543 17.0598 78.5946
10286 1 70.9905 16.6867 31.0894
10287 2 70.6058 16.6443 30.1673
10288 2 71.1004 15.7596 31.4477
10289 1 69.1423 0.77539 68.4583
10290 2 68.2467 1.21816 68.4147
10291 2 69.7645 1.3351 69.0057
10292 1 11.5126 12.7258 18.2638
10293 2 10.6994 12.8311 18.8362
10294 2 11.82 13.625 17.9528
10295 1 83.6775 18.6295 73.9575
10296 2 83.8732 18.1267 74.7995
10297 2 82.6877 18.7036 73.8359
10298 1 108.525 28.8814 51.5515
10299 2 107.768 28.239 51.4263
10300 2 108.221 29.8042 51.315
10301 1 6.24479 16.787 68.5185
10302 2 7.17367 16.4709 68.7116
10303 2 6.2842 17.6548 68.0231
10304 1 109.356 16.2507 75.2173
10305 2 110.129 16.8848 75.2519
10306 2 108.841 16.399 74.3733
10307 1 46.3514 4.68838 67.8036
10308 2 46.6303 5.49066 67.2758
10309 2 46.8703 4.65445 68.6578
10310 1 28.8509 7.87192 90.2908
10311 2 28.3923 8.61366 90.7802
10312 2 28.2321 7.09004 90.215
10313 1 69.9907 19.814 54.8633
10314 2 70.8565 19.3974 55.1405
10315 2 69.4768 20.087 55.6766
10316 1 109.581 10.6339 27.3159
10317 2 108.967 11.0154 28.0072
10318 2 109.444 9.64493 27.2584
10319 1 90.3478 4.58985 45.006
10320 2 91.0936 3.92368 45.0073
10321 2 90.4584 5.2155 45.7783
10322 1 19.0917 17.7551 52.4087
10323 2 19.789 18.1771 51.8294
10324 2 18.3433 18.4022 52.5546
10325 1 106.384 14.3605 11.2963
10326 2 105.534 13.838 11.2311
10327 2 106.171 15.3288 11.4267
10328 1 114.158 25.8025 12.1919
10329 2 113.313 25.2816 12.0669
10330 2 114.918 25.3124 11.7652
10331 1 111.238 6.22994 72.1827
10332 2 110.853 5.62794 72.8825
10333 2 111.748 5.68458 71.5176
10334 1 100.103 25.0997 76.7954
10335 2 100.163 26.0959 76.7331
10336 2 99.2841 24.7846 76.316
10337 1 5.486 9.52463 41.1809
10338 2 4.75621 9.29134 40.5383
10339 2 5.49683 8.86044 41.9284
10340 1 34.5692 0.442574 73.3312
10341 2 35.5193 0.193194 73.1441
10342 2 33.9622 29.729 72.9815
10343 1 72.8125 3.04841 90.0747
10344 2 73.3656 3.7732 90.4854
10345 2 73.4125 2.33001 89.7228
10346 1 63.0195 1.11943 70.1211
10347 2 62.591 2.01446 69.9977
10348 2 63.721 0.986319 69.421
10349 1 43.5788 16.1129 44.2721
10350 2 42.7105 16.5173 44.5596
10351 2 43.4007 15.2895 43.7333
10352 1 108.193 29.398 35.5978
10353 2 108.747 28.5729 35.7116
10354 2 108.132 29.8814 36.4711
10355 1 56.2039 14.6304 52.3491
10356 2 57.1387 14.3373 52.5494
10357 2 55.6217 13.8268 52.2259
10358 1 99.0716 25.5085 51.0723
10359 2 99.3756 25.7345 50.1468
10360 2 98.6857 26.3234 51.5047
10361 1 43.6167 28.2983 81.3432
10362 2 42.8623 28.7897 80.9081
10363 2 44.3015 28.9536 81.662
10364 1 44.7483 3.22728 80.9269
10365 2 44.7517 2.39809 80.3679
10366 2 45.1557 3.02987 81.8186
10367 1 94.502 2.44875 86.65
10368 2 93.6915 2.13641 87.1456
10369 2 95.2656 1.83064 86.8367
10370 1 28.0319 1.27837 54.2037
10371 2 27.9892 0.409164 54.6963
10372 2 27.7665 2.02238 54.8169
10373 1 104.93 22.0506 21.9324
10374 2 105.467 22.7391 21.4453
10375 2 104.222 22.5029 22.4753
10376 1 107.38 28.7123 40.4444
10377 2 106.706 28.8725 41.1659
10378 2 108.177 29.2971 40.5966
10379 1 26.8523 10.1628 79.0381
10380 2 27.6551 9.76611 79.4831
10381 2 26.0448 10.0072 79.607
10382 1 67.268 10.7389 84.5583
10383 2 67.2911 10.4247 85.5074
10384 2 66.3857 11.171 84.3717
10385 1 91.8835 14.4973 21.357
10386 2 92.8356 14.8002 21.3154
10387 2 91.6879 13.9046 20.5757
10388 1 104.415 19.1322 47.7894
10389 2 104.454 18.7396 46.8705
10390 2 104.621 20.1096 47.7432
10391 1 108.007 5.31452 27.5446
10392 2 107.05 5.48616 27.7774
10393 2 108.59 5.58765 28.3096
10394 1 53.0451 20.3747 66.5272
10395 2 52.7669 19.6579 65.8878
10396 2 52.2914 21.0197 66.6535
10397 1 23.9465 10.0867 40.4915
10398 2 23.3326 10.1761 39.7072
10399 2 24.8045 10.5631 40.2992
10400 1 2.78121 29.3307 44.5566
10401 2 2.38387 29.8552 43.8035
10402 2 3.7686 29.4862 44.5864
10403 1 17.1142 8.3425 11.193
10404 2 18.0371 8.67505 11.387
10405 2 16.4705 8.74766 11.8423
10406 1 27.7896 27.1245 69.4384
10407 2 27.8065 26.1283 69.5232
10408 2 28.7193 27.4624 69.2916
10409 1 23.7249 12.3969 80.2717
10410 2 22.8296 12.427 80.7161
10411 2 23.6912 11.766 79.4965
10412 1 16.8914 14.1973 15.7791
10413 2 16.7316 13.4247 16.3936
10414 2 16.0829 14.3423 15.2087
10415 1 111.274 29.1772 75.9035
10416 2 111.863 29.8081 76.4093
10417 2 110.703 29.6933 75.2657
10418 1 78.2389 27.9729 73.6912
10419 2 78.764 27.7882 74.522
10420 2 77.3619 28.3863 73.9363
10421 1 26.9789 0.00889323 87.5502
10422 2 27.3776 0.404548 88.3776
10423 2 26.119 29.5531 87.7798
10424 1 4.1457 16.6933 21.5747
10425 2 3.50562 17.1842 22.1658
10426 2 3.677 16.4109 20.7377
10427 1 48.9452 5.72943 55.9082
10428 2 48.4267 5.31998 55.1575
10429 2 48.3421 5.86656 56.694
10430 1 103.371 8.89787 49.6677
10431 2 103.737 8.02041 49.3574
10432 2 103.149 9.4654 48.8749
10433 1 67.428 11.5542 36.1301
10434 2 66.6628 12.0792 35.7574
10435 2 68.0061 11.2302 35.3813
10436 1 17.6421 11.0105 79.8364
10437 2 17.9809 10.9194 78.8999
10438 2 17.876 11.9166 80.1888
10439 1 12.0497 14.5849 53.4664
10440 2 11.9876 15.0265 54.3614
10441 2 12.1017 15.2836 52.7529
10442 1 35.7043 25.7225 89.6557
10443 2 36.6689 25.4975 89.5184
10444 2 35.1412 24.9271 89.4314
10445 1 119.223 13.3766 80.371
10446 2 118.887 12.5696 80.8568
10447 2 119.708 13.9731 81.0108
10448 1 66.9034 10.2846 59.2131
10449 2 66.8579 10.1196 60.1983
10450 2 65.9799 10.2694 58.8296
10451 1 96.9579 10.3904 30.9971
10452 2 96.0558 9.98514 30.8486
10453 2 96.9018 11.3816 30.8774
10454 1 81.1732 29.3705 41.4934
10455 2 81.4688 28.6319 40.8874
10456 2 81.3875 29.1307 42.4402
10457 1 109.334 11.9783 90.4784
10458 2 108.444 12.4017 90.6499
10459 2 109.972 12.2403 91.2018
10460 1 111.564 10.1818 64.2019
10461 2 111.145 10.1213 63.2961
10462 2 112.529 10.427 64.1067
10463 1 14.7436 18.9164 66.7707
10464 2 14.108 19.0142 67.5365
10465 2 14.2296 18.7384 65.9316
10466 1 25.6264 10.9874 58.1026
10467 2 25.2311 10.8448 59.01
10468 2 25.2366 11.8134 57.6953
10469 1 83.1883 28.3868 49.5763
10470 2 84.0682 28.319 50.0466
10471 2 82.478 27.9582 50.1347
10472 1 49.7181 15.3218 63.8338
10473 2 49.544 16.2811 63.6116
10474 2 49.8137 15.2211 64.8241
10475 1 39.1408 23.4194 50.3397
10476 2 38.8801 24.1893 50.9222
10477 2 38.8992 22.5616 50.7932
10478 1 25.5242 5.93838 51.4121
10479 2 25.3489 4.97964 51.1883
10480 2 24.6576 6.40081 51.5994
10481 1 113.764 2.10225 22.0815
10482 2 113.191 1.28297 22.0948
10483 2 114.692 1.86461 22.3693
10484 1 69.1791 9.75762 50.4422
10485 2 69.9267 9.61276 51.0903
10486 2 68.3042 9.6156 50.9053
10487 1 95.3607 26.9726 85.0968
10488 2 94.576 27.0659 84.4839
10489 2 95.8299 27.8523 85.1737
10490 1 59.5476 4.5505 89.438
10491 2 60.4187 4.09097 89.2648
10492 2 59.6928 5.31396 90.0673
10493 1 52.2413 10.9559 42.5894
10494 2 52.1455 11.43 41.7142
10495 2 52.863 11.4697 43.1805
10496 1 47.6095 14.523 88.2687
10497 2 47.7283 13.9624 87.4492
10498 2 47.6348 13.938 89.0793
10499 1 76.148 0.480818 71.7725
10500 2 76.1839 29.9722 72.6327
10501 2 77.0548 0.487148 71.3509
10502 1 112.897 7.15102 49.858
10503 2 113.703 6.77045 50.3122
10504 2 113.138 7.42329 48.9262
10505 1 99.5768 8.44975 78.5728
10506 2 99.8433 7.66801 79.1367
10507 2 100.364 9.05439 78.4483
10508 1 113.098 1.58521 54.9631
10509 2 112.53 1.21258 55.6968
10510 2 112.526 1.78906 54.1689
10511 1 54.295 28.0393 36.791
10512 2 53.3827 28.3457 37.0624
10513 2 54.6964 28.7043 36.1612
10514 1 49.5781 25.5011 31.8246
10515 2 49.5584 26.4686 32.0767
10516 2 48.6547 25.1221 31.8848
10517 1 89.1831 28.8077 48.6997
10518 2 90.0146 28.3557 49.0227
10519 2 88.4864 28.1193 48.498
10520 1 7.49844 23.1381 37.9152
10521 2 7.07848 22.231 37.8849
10522 2 7.34284 23.5475 38.8142
10523 1 42.3365 9.42335 73.3135
10524 2 42.7568 10.1103 73.9063
10525 2 43.0216 8.74269 73.0541
10526 1 12.5653 25.1436 50.0105
10527 2 12.3895 26.0202 50.4584
10528 2 12.6524 25.2847 49.0243
10529 1 74.6826 5.49153 90.3502
10530 2 74.55 5.26291 89.3858
10531 2 75.659 5.60392 90.5349
10532 1 28.6264 18.4722 54.6622
10533 2 29.0556 17.8037 55.2695
10534 2 28.5299 18.0785 53.748
10535 1 75.3808 25.5667 36.8627
10536 2 74.7801 24.7718 36.948
10537 2 75.3806 26.0783 37.7219
10538 1 1.07983 14.063 55.0169
10539 2 1.89464 14.4853 55.4141
10540 2 0.646453 14.705 54.3843
10541 1 25.4156 3.8086 29.1214
10542 2 25.5797 4.47367 29.85
10543 2 24.6031 4.07557 28.6032
10544 1 61.7962 28.3391 39.3836
10545 2 60.882 28.3975 38.9826
10546 2 62.2213 29.2443 39.3775
10547 1 14.4365 0.779281 33.0229
10548 2 14.616 1.64162 32.5495
10549 2 13.4597 0.706537 33.2241
10550 1 59.7487 3.70351 65.7776
10551 2 60.7297 3.75591 65.9646
10552 2 59.2455 3.67921 66.6414
10553 1 87.4183 6.35098 43.2339
10554 2 86.6846 5.67683 43.1492
10555 2 87.1653 7.18281 42.7399
10556 1 101.265 4.92881 22.4111
10557 2 101.229 3.93089 22.4646
10558 2 101.532 5.20366 21.4876
10559 1 94.373 17.8117 37.5708
10560 2 93.9201 16.9559 37.3211
10561 2 93.6903 18.5374 37.6566
10562 1 98.6999 1.7768 24.7531
10563 2 99.3157 2.03469 24.0086
10564 2 98.4393 2.5934 25.2682
10565 1 106.006 16.8099 73.0302
10566 2 105.856 16.0664 73.682
10567 2 106.986 16.9926 72.9519
10568 1 65.0018 9.12241 88.7863
10569 2 64.2949 8.46323 88.5298
10570 2 65.4443 9.47441 87.9615
10571 1 117.065 3.19688 17.3146
10572 2 117.655 2.4895 17.7038
10573 2 116.516 2.80421 16.5767
10574 1 17.2385 2.91433 12.9359
10575 2 17.6832 3.80524 13.0285
10576 2 17.894 2.19062 13.1516
10577 1 31.5467 4.57867 50.1657
10578 2 30.9208 5.28359 50.4994
10579 2 31.0357 3.90473 49.6321
10580 1 50.4536 19.8073 69.102
10581 2 50.5642 20.4771 68.3678
10582 2 49.6327 20.0244 69.6303
10583 1 7.85061 14.8928 34.3229
10584 2 7.0539 14.2885 34.3246
10585 2 7.54636 15.8454 34.3222
10586 1 104.346 17.189 62.0717
10587 2 104.221 17.0656 63.0561
10588 2 103.877 16.455 61.5813
10589 1 68.5985 15.5281 51.3318
10590 2 68.5472 16.2629 50.6556
10591 2 67.6816 15.3283 51.6773
10592 1 81.901 2.24958 57.8932
10593 2 81.9074 3.17767 57.521
10594 2 82.6821 1.74023 57.5322
10595 1 94.834 4.68154 84.437
10596 2 94.8405 4.73937 85.4353
10597 2 95.3689 5.43567 84.0559
10598 1 118.536 24.256 56.8123
10599 2 119.309 23.922 57.3524
10600 2 118.51 23.7755 55.9357
10601 1 103.492 14.9101 60.958
10602 2 103.464 13.9789 61.3213
10603 2 103.756 14.8842 59.9939
10604 1 1.06884 25.3071 26.787
10605 2 1.38005 25.615 27.6861
10606 2 0.076612 25.1836 26.8021
10607 1 57.5102 29.1906 35.8103
10608 2 57.6388 29.495 36.7541
10609 2 56.6855 29.6124 35.4336
10610 1 112.196 4.34033 16.4305
10611 2 111.593 5.07019 16.7525
10612 2 112.037 3.51375 16.9702
10613 1 29.1548 28.8746 33.4038
10614 2 28.3732 29.1252 32.8326
10615 2 29.3158 27.8901 33.335
10616 1 87.5776 20.0492 32.6784
10617 2 87.2605 19.4781 33.4355
10618 2 88.4698 19.723 32.3659
10619 1 60.1804 25.5004 51.0223
10620 2 59.6098 24.7774 50.6331
10621 2 61.129 25.1873 51.0696
10622 1 4.78051 7.14082 13.6208
10623 2 5.54045 7.01415 12.9833
10624 2 4.89359 8.00781 14.1062
10625 1 9.81314 7.70563 86.0893
10626 2 9.06913 8.31896 85.8242
10627 2 10.1308 7.20067 85.2867
10628 1 107.265 7.40072 23.6482
10629 2 107.201 8.16386 24.2912
10630 2 107.647 6.60301 24.1146
10631 1 22.1242 23.2192 21.4364
10632 2 21.4901 22.4959 21.1631
10633 2 22.9415 23.1808 20.8614
10634 1 37.2428 4.534 25.6168
10635 2 36.6634 4.45877 26.4284
10636 2 37.7151 5.4154 25.625
10637 1 1.93267 16.5853 43.5081
10638 2 1.35608 17.3452 43.2081
10639 2 2.38631 16.8293 44.3652
10640 1 62.6729 8.58198 39.0868
10641 2 63.3838 7.88955 39.2098
10642 2 63.0444 9.35297 38.5696
10643 1 31.9678 1.27045 30.9166
10644 2 32.4696 2.08905 31.1961
10645 2 30.9921 1.40137 31.0923
10646 1 43.3667 2.71164 73.0336
10647 2 42.9358 3.49921 73.4741
10648 2 43.8481 2.16749 73.7208
10649 1 59.5742 10.087 85.7996
10650 2 59.9232 10.808 85.201
10651 2 59.9249 9.20162 85.4944
10652 1 77.4033 9.78782 49.8009
10653 2 76.7202 9.13521 49.473
10654 2 77.3908 10.6027 49.2214
10655 1 31.5599 26.8009 39.5644
10656 2 31.9899 27.5922 39.1298
10657 2 30.586 26.7846 39.338
10658 1 37.6527 1.76228 86.1023
10659 2 38.5922 1.80859 86.4418
10660 2 37.4666 0.840815 85.7613
10661 1 58.0802 3.04547 39.7581
10662 2 57.0832 3.07628 39.6873
10663 2 58.4055 2.13848 39.4906
10664 1 92.5816 18.4557 79.8884
10665 2 92.929 18.9775 79.1093
10666 2 92.0468 19.058 80.4811
10667 1 93.6751 3.56208 56.7289
10668 2 94.2198 2.7982 56.3828
10669 2 94.2319 4.11447 57.3492
10670 1 118.781 29.5966 44.5866
10671 2 118.077 0.00542946 45.1676
10672 2 118.488 28.6844 44.3001
10673 1 31.0701 22.2657 67.6389
10674 2 30.392 22.8352 68.1035
10675 2 31.5543 22.8135 66.9567
10676 1 57.874 7.4483 43.184
10677 2 57.7797 6.46888 43.3625
10678 2 56.9673 7.86782 43.1399
10679 1 92.0299 28.0225 35.2642
10680 2 92.7052 27.8279 35.9756
10681 2 91.9471 29.0119 35.1449
10682 1 118.621 13.1808 88.213
10683 2 119.016 13.3736 87.3149
10684 2 119.341 13.2102 88.9069
10685 1 59.375 20.6216 34.2619
10686 2 58.4209 20.9208 34.2507
10687 2 59.9537 21.3653 34.5969
10688 1 29.2615 19.7672 49.5369
10689 2 28.9482 20.1821 48.6827
10690 2 29.8487 18.9843 49.3315
10691 1 41.2787 17.7395 35.1323
10692 2 41.4892 18.2267 34.2848
10693 2 40.3763 18.0177 35.4614
10694 1 80.1128 1.53302 44.5069
10695 2 79.4911 1.47539 43.7258
10696 2 80.3981 2.48265 44.6364
10697 1 115.973 28.3838 69.8717
10698 2 116.474 29.2374 70.0161
10699 2 115.565 28.0865 70.735
10700 1 44.7463 1.40528 89.8999
10701 2 45.4745 2.00626 90.2293
10702 2 45.0386 0.452351 89.9803
10703 1 76.0643 7.18025 69.6385
10704 2 76.3478 7.40786 68.7069
10705 2 75.4417 6.39804 69.6157
10706 1 116.673 21.3507 84.0648
10707 2 117.519 21.139 84.5545
10708 2 116.014 20.6117 84.2034
10709 1 5.80413 6.23576 67.9294
10710 2 5.08059 6.21869 68.6195
10711 2 6.14879 7.1693 67.8309
10712 1 100.228 11.2375 75.55
10713 2 100.752 10.4898 75.9584
10714 2 99.4126 10.8686 75.104
10715 1 73.0347 27.413 79.2733
10716 2 72.8988 27.1483 78.3186
10717 2 73.9313 27.844 79.3753
10718 1 5.7161 12.6895 57.0053
10719 2 6.30803 12.4035 56.2518
10720 2 4.8009 12.8868 56.6539
10721 1 72.7386 28.464 83.1336
10722 2 72.2174 28.464 82.2802
10723 2 73.6463 28.8503 82.9699
10724 1 50.4244 29.824 57.7405
10725 2 50.6341 0.792698 57.8735
10726 2 49.7782 29.7237 56.9839
10727 1 39.7198 6.64428 83.0532
10728 2 39.4916 5.73677 83.4059
10729 2 38.9131 7.23329 83.1019
10730 1 23.1324 24.0052 58.2674
10731 2 23.0444 24.656 57.5132
10732 2 22.7852 24.4206 59.1082
10733 1 3.30306 28.3428 15.9467
10734 2 2.97147 27.7661 15.2001
10735 2 2.61976 28.369 16.6764
10736 1 67.7013 10.3005 63.8713
10737 2 67.1625 10.0719 63.0605
10738 2 67.1191 10.2525 64.6829
10739 1 3.33879 13.7255 76.4765
10740 2 4.02599 13.0163 76.3194
10741 2 2.56331 13.5802 75.8621
10742 1 77.9961 28.1204 69.7876
10743 2 78.0041 29.0839 70.0554
10744 2 78.0655 28.0506 68.7924
10745 1 114.51 12.4545 28.0757
10746 2 114.987 13.3333 28.0992
10747 2 114.204 12.2666 27.1426
10748 1 90.5067 11.7465 85.9711
10749 2 90.4064 11.1608 86.7754
10750 2 91.4111 11.607 85.5679
10751 1 70.8182 13.3228 36.7299
10752 2 71.1599 12.4576 37.0968
10753 2 71.4824 13.6955 36.0818
10754 1 81.4557 23.9529 84.0435
10755 2 80.5088 24.016 84.3588
10756 2 82.0049 24.6561 84.4949
10757 1 93.8665 14.434 49.2196
10758 2 93.5118 14.147 50.1094
10759 2 94.7931 14.7934 49.3303
10760 1 1.44508 7.38554 30.1861
10761 2 1.39878 6.7863 29.3868
10762 2 2.13107 7.03695 30.8247
10763 1 62.652 10.3112 71.4562
10764 2 61.6629 10.1987 71.5515
10765 2 63.0224 9.55767 70.9131
10766 1 25.9613 4.29483 10.9121
10767 2 25.0754 3.99422 10.5588
10768 2 26.4825 4.73035 10.1781
10769 1 21.746 6.01458 58.9126
10770 2 22.7303 6.1806 58.9719
10771 2 21.2517 6.82466 59.228
10772 1 26.401 25.1317 53.4476
10773 2 25.7996 24.334 53.4011
10774 2 26.2014 25.7446 52.683
10775 1 40.3436 17.4847 59.4413
10776 2 41.1308 17.0648 58.9897
10777 2 39.8556 16.7922 59.9726
10778 1 9.75305 21.0497 24.1419
10779 2 9.80316 20.0887 24.4141
10780 2 10.0165 21.6288 24.9134
10781 1 7.28127 0.514978 31.6892
10782 2 8.05572 1.10916 31.472
10783 2 7.30675 0.275651 32.6598
10784 1 73.5405 26.8986 62.1326
10785 2 74.0085 26.7333 63.0008
10786 2 72.9619 27.71 62.2151
10787 1 103.346 24.9024 33.7313
10788 2 104.001 25.6323 33.9278
10789 2 103.256 24.3108 34.5324
10790 1 99.8449 11.7461 30.0643
10791 2 100.464 12.5188 29.9228
10792 2 99.0337 12.0552 30.5607
10793 1 19.385 26.3904 62.9124
10794 2 18.6193 26.37 62.2695
10795 2 19.2221 25.7305 63.6459
10796 1 99.1235 20.2259 36.7821
10797 2 98.5079 20.4719 37.5308
10798 2 99.0378 20.8971 36.0458
10799 1 12.4287 5.34474 57.2663
10800 2 11.521 4.96787 57.0816
10801 2 12.3946 6.34217 57.2032
10802 1 100.638 20.5449 54.5628
10803 2 100.831 20.1019 55.4383
10804 2 100.064 21.3491 54.7157
10805 1 16.2539 12.7862 91.0047
10806 2 17.0019 12.2774 91.431
10807 2 16.4196 12.8609 90.0214
10808 1 27.3507 15.7165 30.4706
10809 2 27.735 15.5484 29.5628
10810 2 28.0776 15.663 31.1553
10811 1 33.8417 10.7035 72.3681
10812 2 34.0943 9.85519 72.8334
10813 2 33.7761 10.5372 71.3842
10814 1 44.287 13.5752 76.9674
10815 2 44.3816 13.3706 77.9417
10816 2 45.1753 13.4775 76.5186
10817 1 19.9905 22.8807 62.6231
10818 2 20.9321 22.5455 62.5935
10819 2 19.6412 22.9759 61.6909
10820 1 114.032 1.82153 51.2599
10821 2 114.444 2.18777 50.4255
10822 2 113.288 2.42062 51.5548
10823 1 8.6657 21.1359 21.5007
10824 2 8.80395 22.1096 21.3199
10825 2 9.07023 20.9003 22.3844
10826 1 115.188 29.7474 54.8213
10827 2 116.048 29.7457 55.3321
10828 2 114.705 0.607213 54.9852
10829 1 62.1684 6.57027 77.4831
10830 2 61.9458 6.97917 78.3681
10831 2 63.146 6.67841 77.3025
10832 1 47.9482 5.77388 39.1179
10833 2 48.5794 5.0073 39.236
10834 2 47.8592 6.26866 39.9823
10835 1 44.6106 20.4242 85.1656
10836 2 44.0712 20.57 84.3362
10837 2 44.8344 19.4534 85.2513
10838 1 29.3756 13.5086 69.426
10839 2 28.8993 13.8164 68.6023
10840 2 30.334 13.7904 69.3819
10841 1 93.8736 3.20617 64.1903
10842 2 93.4714 2.29542 64.2841
10843 2 93.1503 3.87309 64.0112
10844 1 4.22098 22.5604 21.26
10845 2 3.48865 23.0137 21.7682
10846 2 4.91492 22.2294 21.8994
10847 1 52.759 23.5061 58.0859
10848 2 52.6226 23.0384 58.9592
10849 2 51.8863 23.8743 57.7651
10850 1 86.4597 26.3544 41.061
10851 2 85.9946 27.0855 41.5602
10852 2 86.949 26.7429 40.2802
10853 1 25.6385 26.622 51.2545
10854 2 25.6351 27.5952 51.4842
10855 2 24.7232 26.2436 51.393
10856 1 114.433 27.9954 72.3792
10857 2 115.203 27.3687 72.5023
10858 2 113.664 27.6941 72.9435
10859 1 30.6791 27.7448 91.3464
10860 2 31.3245 28.0369 92.0522
10861 2 30.3178 28.5477 90.8722
10862 1 99.9968 0.0215476 55.1174
10863 2 99.3168 29.4385 54.6727
10864 2 100.364 0.672363 54.4527
10865 1 36.1416 5.0756 32.0301
10866 2 36.2389 4.98913 33.0216
10867 2 35.5066 5.81923 31.821
10868 1 34.0047 25.9087 86.5298
10869 2 34.7114 26.5462 86.8366
10870 2 33.4202 26.3586 85.8546
10871 1 9.80629 0.433081 54.99
10872 2 9.14443 1.10193 55.3285
10873 2 9.52863 0.119568 54.082
10874 1 22.5005 20.3217 57.1825
10875 2 22.3079 19.4173 57.563
10876 2 23.4715 20.3866 56.9521
10877 1 89.0972 15.967 82.446
10878 2 90.0095 15.6896 82.1449
10879 2 88.9196 15.5953 83.3572
10880 1 58.8847 3.74534 42.1564
10881 2 58.6784 3.30651 41.2818
10882 2 59.8747 3.848 42.2525
10883 1 4.52197 1.03476 27.8502
10884 2 4.06853 1.21387 26.9771
10885 2 5.22652 0.336627 27.7229
10886 1 32.7994 21.7875 87.529
10887 2 33.0838 22.5996 88.0385
10888 2 31.8955 21.4968 87.8426
10889 1 73.3379 29.3651 42.7816
10890 2 73.5949 29.838 41.9388
10891 2 72.5626 29.8346 43.204
10892 1 113.054 15.0023 29.8126
10893 2 112.841 15.9249 29.491
10894 2 113.997 14.7745 29.5718
10895 1 68.7608 1.3233 76.9823
10896 2 69.3333 0.532342 76.7664
10897 2 69.307 2.00842 77.4643
10898 1 8.60306 15.1215 87.6837
10899 2 8.6505 15.0957 86.6852
10900 2 8.58001 16.0726 87.9918
10901 1 107.372 17.8987 89.5669
10902 2 108.305 17.592 89.7522
10903 2 107.085 18.5412 90.2775
10904 1 51.3444 7.22485 82.3827
10905 2 51.7698 7.47583 83.2522
10906 2 50.7175 6.45931 82.5271
10907 1 108.394 0.519963 38.1659
10908 2 108.947 0.597302 38.9956
10909 2 107.634 1.16786 38.2103
10910 1 81.2706 3.37877 60.5906
10911 2 81.4636 2.54617 60.0714
10912 2 81.8747 4.11273 60.2801
10913 1 6.84527 7.5173 52.7222
10914 2 7.43483 8.22447 53.1125
10915 2 6.14805 7.94481 52.1467
10916 1 66.8285 1.09931 42.6424
10917 2 65.8883 1.12876 42.303
10918 2 67.3449 1.86563 42.2603
10919 1 47.1032 17.9134 31.0377
10920 2 46.7397 18.7854 31.3654
10921 2 46.5059 17.551 30.3223
10922 1 98.5529 23.317 54.6301
10923 2 98.8122 23.6624 53.7282
10924 2 99.3666 23.2481 55.2073
10925 1 92.8923 15.5618 58.2242
10926 2 93.7006 16.1501 58.2483
10927 2 92.9151 14.9321 59.0007
10928 1 24.5369 14.2925 30.3706
10929 2 24.0932 14.3813 29.4789
10930 2 24.0915 14.9018 31.0267
10931 1 74.2794 6.5578 47.0679
10932 2 74.3356 6.2666 48.0229
10933 2 75.0858 7.10244 46.8375
10934 1 17.0978 18.5859 11.1694
10935 2 16.8333 17.7061 10.7743
10936 2 17.9803 18.4925 11.6303
10937 1 17.975 17.472 44.6589
10938 2 18.5782 16.7219 44.9299
10939 2 18.1503 18.2672 45.2393
10940 1 21.8612 8.02386 87.5729
10941 2 22.1877 7.79432 88.4899
10942 2 21.981 7.23553 86.9694
10943 1 30.9964 16.6588 58.8118
10944 2 30.1654 17.2093 58.7314
10945 2 30.7504 15.7126 59.0219
10946 1 8.67996 6.93187 23.2875
10947 2 9.40086 6.31723 22.9673
10948 2 7.97288 6.4013 23.7549
10949 1 63.4061 25.5614 54.3191
10950 2 62.4717 25.7801 54.6002
10951 2 63.383 25.0122 53.4838
10952 1 44.5293 24.0541 63.7637
10953 2 45.3308 24.2031 63.1845
10954 2 43.9092 24.8343 63.6818
10955 1 117.676 17.0218 66.4722
10956 2 118.654 16.9675 66.6745
10957 2 117.534 17.5965 65.6663
10958 1 42.4617 22.2147 89.1619
10959 2 42.6846 21.3074 89.5185
10960 2 42.1596 22.1344 88.212
10961 1 115.063 6.68619 19.9935
10962 2 115.693 6.24666 20.6339
10963 2 114.122 6.459 20.2429
10964 1 11.5354 24.9911 77.9449
10965 2 11.389 25.9044 78.3251
10966 2 11.7337 24.3494 78.6858
10967 1 74.2253 0.113764 67.8957
10968 2 73.7354 0.939164 67.6152
10969 2 73.5877 29.3443 67.9334
10970 1 50.8725 19.1214 33.5
10971 2 50.3359 19.6662 34.1443
10972 2 51.2118 18.3005 33.9595
10973 1 86.7856 13.7766 66.736
10974 2 85.7886 13.7048 66.7043
10975 2 87.0729 14.6253 66.2921
10976 1 60.1625 20.1786 87.0265
10977 2 60.2481 21.1709 87.1162
10978 2 61.062 19.7553 87.1347
10979 1 75.9365 28.7787 64.4487
10980 2 75.5417 28.3065 65.2369
10981 2 76.8642 28.4416 64.2884
10982 1 18.4896 0.212887 19.3038
10983 2 19.2272 29.6315 18.9604
10984 2 18.8803 1.00516 19.7725
10985 1 55.7359 17.7127 75.0335
10986 2 56.2449 18.5734 75.0286
10987 2 56.1414 17.0819 74.372
10988 1 107.479 17.9595 45.4167
10989 2 107.922 18.7865 45.0708
10990 2 106.637 18.2082 45.8963
10991 1 21.6518 5.56333 43.3857
10992 2 20.6616 5.42425 43.3737
10993 2 22.1005 4.73616 43.7241
10994 1 59.1948 1.80656 52.7015
10995 2 59.738 0.972844 52.8007
10996 2 58.9285 1.91894 51.7442
10997 1 109.922 1.29892 47.1896
10998 2 109.399 0.604228 47.6827
10999 2 109.447 1.53504 46.3419
11000 1 4.50835 14.6208 11.9397
11001 2 3.54729 14.7297 12.1937
11002 2 5.04616 14.4052 12.7548
11003 1 36.5751 2.2554 51.9158
11004 2 36.0693 3.10235 51.752
11005 2 37.213 2.09711 51.1622
11006 1 31.4381 7.95883 62.7549
11007 2 32.3651 7.59108 62.6814
11008 2 30.7769 7.24373 62.5282
11009 1 70.9213 8.83108 81.9005
11010 2 70.9886 9.64198 82.4818
11011 2 70.8945 9.11033 80.9406
11012 1 86.7945 10.2196 61.1791
11013 2 86.944 11.0281 61.7483
11014 2 85.8365 10.185 60.8944
11015 1 22.237 17.6597 46.3827
11016 2 21.9684 18.136 45.5454
11017 2 22.5493 16.7372 46.1558
11018 1 29.5446 21.5983 40.7997
11019 2 29.2471 22.151 40.0213
11020 2 29.1071 20.7 40.7572
11021 1 9.86836 1.42661 67.7175
11022 2 9.42599 0.820876 68.3789
11023 2 10.7204 1.00945 67.4014
11024 1 15.7913 21.4033 28.9981
11025 2 16.6007 21.2178 28.4408
11026 2 15.526 20.5725 29.4874
11027 1 47.2697 5.52131 44.7817
11028 2 48.1615 5.31102 44.3811
11029 2 46.7719 4.6709 44.952
11030 1 92.3069 19.5522 46.1409
11031 2 92.3354 18.9404 45.3504
11032 2 91.4769 19.375 46.6697
11033 1 26.3678 10.3637 48.2807
11034 2 26.8988 11.0639 48.7582
11035 2 25.6432 10.8006 47.7478
11036 1 7.89575 0.129154 87.5188
11037 2 8.63341 29.4694 87.3751
11038 2 7.63113 0.529501 86.6414
11039 1 96.7731 10.7926 23.6322
11040 2 96.5178 11.753 23.5207
11041 2 95.9628 10.2581 23.8729
11042 1 59.7996 0.112399 76.8243
11043 2 60.0964 0.957345 77.2692
11044 2 59.4936 29.4602 77.5178
11045 1 84.2347 22.2455 26.8262
11046 2 85.2056 22.3411 27.0459
11047 2 83.7918 21.6725 27.5157
11048 1 94.6536 5.13261 88.2879
11049 2 95.5729 5.49808 88.4335
11050 2 94.6945 4.37911 87.6317
11051 1 9.08299 10.82 67.1071
11052 2 9.89572 10.3751 66.7309
11053 2 9.33412 11.3347 67.9269
11054 1 51.6653 28.7001 90.9766
11055 2 51.9344 28.0216 90.293
11056 2 51.3585 28.2338 91.8063
11057 1 21.0711 7.58264 15.5609
11058 2 20.2206 7.88345 15.1295
11059 2 21.6327 8.3799 15.7822
11060 1 104.519 18.1345 40.6117
11061 2 105.441 17.7495 40.6393
11062 2 103.862 17.4496 40.9275
11063 1 110.825 12.3276 16.4032
11064 2 111.616 12.93 16.299
11065 2 111.1 11.3825 16.227
11066 1 51.636 27.1645 85.598
11067 2 51.3541 28.0871 85.8611
11068 2 52.5846 27.1831 85.2822
11069 1 71.3647 8.09022 74.1805
11070 2 72.118 8.07033 73.5231
11071 2 70.4965 8.16869 73.6904
11072 1 35.25 14.5579 36.6213
11073 2 36.1438 14.166 36.4035
11074 2 35.2573 14.904 37.5594
11075 1 74.8519 4.71291 69.6303
11076 2 75.6881 4.19584 69.813
11077 2 74.096 4.32024 70.1541
11078 1 27.3322 15.4352 78.0119
11079 2 26.9009 16.151 77.4627
11080 2 27.1449 14.5424 77.6024
11081 1 58.8583 9.88936 39.7699
11082 2 58.4237 10.7137 39.4073
11083 2 59.0717 10.0233 40.7377
11084 1 109.29 9.06101 52.1153
11085 2 109.141 8.6344 51.2231
11086 2 108.642 9.81295 52.2371
11087 1 100.712 27.2422 58.059
11088 2 100.12 26.4401 58.1398
11089 2 101.24 27.353 58.9009
11090 1 9.24708 25.7257 38.5561
11091 2 9.94756 25.7774 39.2679
11092 2 8.44915 25.2367 38.9086
11093 1 115.336 16.0851 73.7527
11094 2 114.581 16.0809 73.0975
11095 2 116.133 15.6376 73.346
11096 1 62.8961 10.0729 45.4466
11097 2 62.2312 9.89673 46.1725
11098 2 63.2629 9.20462 45.1126
11099 1 110.952 27.153 58.9184
11100 2 110.466 28.0261 58.9518
11101 2 111.936 27.3164 58.9944
11102 1 77.6929 1.93801 76.3964
11103 2 78.4781 1.58373 75.8885
11104 2 76.86 1.80164 75.8602
11105 1 109.776 7.32624 83.249
11106 2 109.801 8.2086 82.779
11107 2 110.219 6.63321 82.6804
11108 1 108.546 21.411 61.7305
11109 2 108.72 20.9743 62.6131
11110 2 107.653 21.8615 61.7518
11111 1 74.729 9.3198 89.5013
11112 2 75.1413 8.91769 88.6838
11113 2 74.06 8.68313 89.8848
11114 1 58.4672 26.5304 35.5226
11115 2 58.2522 27.4995 35.4017
11116 2 57.8529 25.9797 34.9574
11117 1 6.03891 21.5126 22.8705
11118 2 6.95526 21.6464 22.4931
11119 2 5.88588 20.5384 23.0367
11120 1 36.1646 29.9487 30.4663
11121 2 35.8614 0.0175018 29.5159
11122 2 35.7644 29.1339 30.8857
11123 1 9.12744 15.6919 77.6932
11124 2 8.87613 16.0574 78.5894
11125 2 8.3342 15.2428 77.282
11126 1 26.6679 4.44876 72.2123
11127 2 27.2256 5.27868 72.195
11128 2 27.2643 3.64616 72.199
11129 1 98.322 28.4451 77.5712
11130 2 97.7851 28.9859 76.9237
11131 2 99.2563 28.3462 77.2287
11132 1 54.5945 21.4859 64.6966
11133 2 54.0217 21.0476 65.3893
11134 2 54.016 21.9944 64.0588
11135 1 86.1561 22.6197 33.6606
11136 2 85.502 22.8986 32.9575
11137 2 86.6819 21.8342 33.3339
11138 1 10.8749 16.7905 61.9196
11139 2 11.2113 17.7283 62.0063
11140 2 11.4956 16.2664 61.3364
11141 1 47.6821 22.9891 56.4043
11142 2 47.3744 23.6356 55.7062
11143 2 48.4535 23.3816 56.9052
11144 1 12.5392 10.1047 57.6644
11145 2 12.25 9.37838 57.0408
11146 2 12.2578 10.9911 57.2969
11147 1 63.5036 11.012 49.4051
11148 2 64.0938 10.7205 50.1579
11149 2 64.0668 11.2596 48.6167
11150 1 53.3549 22.7681 30.7063
11151 2 53.7446 22.1402 31.3801
11152 2 53.6942 23.6931 30.8773
11153 1 105.325 22.3643 40.0558
11154 2 105.659 21.9454 39.2114
11155 2 104.343 22.1992 40.1439
11156 1 15.7409 29.3177 28.8342
11157 2 15.7135 28.7915 27.9842
11158 2 16.1855 28.7758 29.5474
11159 1 79.5594 25.8966 51.1041
11160 2 79.6395 26.8754 50.9158
11161 2 78.7328 25.54 50.6688
11162 1 76.7645 19.6876 88.3379
11163 2 76.0293 19.6254 89.0129
11164 2 77.6246 19.9021 88.8008
11165 1 3.5108 13.129 17.3462
11166 2 2.51845 13.2272 17.421
11167 2 3.72697 12.4628 16.6325
11168 1 42.7918 10.713 53.0984
11169 2 41.8114 10.9096 53.1151
11170 2 43.0629 10.4478 52.1731
11171 1 63.859 12.8813 41.1099
11172 2 63.8153 12.2616 40.3262
11173 2 64.1276 12.3688 41.9255
11174 1 99.8086 12.7235 67.3352
11175 2 100.394 12.0038 67.7083
11176 2 99.996 12.833 66.359
11177 1 103.655 29.3602 32.3248
11178 2 103.86 28.3942 32.1679
11179 2 103.66 29.8481 31.4519
11180 1 72.7831 2.78242 86.2402
11181 2 72.8515 3.60744 86.8011
11182 2 71.8661 2.72275 85.8456
11183 1 99.3941 24.3606 21.3761
11184 2 99.0569 25.2897 21.5278
11185 2 98.6398 23.7117 21.4759
11186 1 32.3849 1.30151 39.084
11187 2 32.9808 0.503318 38.9961
11188 2 31.606 1.07327 39.6682
11189 1 46.629 20.0883 90.3217
11190 2 45.9751 20.1259 89.566
11191 2 46.8652 19.1352 90.5109
11192 1 117.988 25.2297 85.0193
11193 2 118.841 25.0165 85.4957
11194 2 117.52 25.976 85.4924
11195 1 29.2412 18.6211 74.6309
11196 2 29.2394 18.6979 75.628
11197 2 29.6959 19.4194 74.236
11198 1 116.923 22.0743 29.9777
11199 2 116.248 22.8066 29.8909
11200 2 116.488 21.1949 29.7842
11201 1 112.325 18.8495 57.4615
11202 2 112.605 19.4676 56.7273
11203 2 113.085 18.7216 58.0985
11204 1 28.2493 9.5601 84.3209
11205 2 28.4472 10.2132 85.0519
11206 2 28.0712 8.65965 84.7177
11207 1 115.504 20.2612 90.1784
11208 2 116.489 20.085 90.1886
11209 2 115.012 19.3963 90.0819
11210 1 15.1384 14.5095 83.42
11211 2 15.4271 13.606 83.7369
11212 2 15.8256 14.8785 82.7943
11213 1 35.4359 12.8392 48.7127
11214 2 35.4825 12.2035 47.9422
11215 2 34.9546 13.6694 48.4312
11216 1 83.5764 26.8196 76.5053
11217 2 83.1797 26.0476 76.0087
11218 2 82.9372 27.126 77.2107
11219 1 56.1115 23.6099 46.7258
11220 2 56.0098 23.1969 45.8208
11221 2 55.7727 22.9762 47.4213
11222 1 18.8619 10.5267 49.2723
11223 2 19.3964 10.4081 48.4355
11224 2 18.051 11.0774 49.0747
11225 1 2.21374 26.5779 50.5862
11226 2 3.04492 26.1356 50.2494
11227 2 2.05488 26.3095 51.5363
11228 1 45.0497 7.55649 48.2412
11229 2 45.394 8.47059 48.0269
11230 2 45.7695 6.88214 48.0764
11231 1 20.3641 28.3153 64.9545
11232 2 20.2048 27.3883 64.615
11233 2 20.4673 28.9405 64.1809
11234 1 27.5226 27.207 86.6827
11235 2 27.3194 26.7445 87.5456
11236 2 27.6906 28.1774 86.8561
11237 1 40.758 11.6725 57.6394
11238 2 40.6326 10.8452 57.0918
11239 2 39.8735 11.9737 57.9957
11240 1 11.1012 13.7176 84.079
11241 2 10.6667 12.8287 84.2244
11242 2 11.7523 13.895 84.8169
11243 1 60.4249 23.7805 82.4477
11244 2 61.2345 23.648 83.0195
11245 2 59.9368 24.6008 82.746
11246 1 11.76 23.8671 52.4203
11247 2 11.0603 24.541 52.183
11248 2 11.9498 23.9149 53.401
11249 1 113.621 1.68908 42.5555
11250 2 114.175 1.7474 43.3858
11251 2 114.088 2.16256 41.8089
11252 1 13.4371 6.4063 76.1462
11253 2 12.7063 5.96074 76.6633
11254 2 13.8872 7.08692 76.7243
11255 1 64.0951 10.3041 36.2849
11256 2 64.1754 10.6609 37.2157
11257 2 63.8892 11.0546 35.6569
11258 1 51.3063 4.07264 72.5782
11259 2 50.5035 4.65488 72.7067
11260 2 51.9886 4.2866 73.2773
11261 1 102.211 14.397 77.5401
11262 2 102.311 14.9566 78.3628
11263 2 101.266 14.4461 77.2165
11264 1 50.1853 29.3214 87.1438
11265 2 50.8419 29.9903 87.4922
11266 2 49.7218 29.6963 86.3409
11267 1 1.1095 4.22301 22.1334
11268 2 0.972996 5.12505 21.7239
11269 2 0.483067 4.10874 22.9045
11270 1 56.6952 8.9181 57.5439
11271 2 55.8721 9.25985 57.0905
11272 2 56.8535 9.4378 58.3835
11273 1 69.1796 14.7746 60.3991
11274 2 68.6717 15.6079 60.6175
11275 2 69.4776 14.8063 59.445
11276 1 63.3243 10.3843 74.2804
11277 2 63.1404 10.3352 73.2987
11278 2 64.2444 10.0389 74.4649
11279 1 80.1001 6.85284 87.2167
11280 2 79.1125 6.96527 87.3262
11281 2 80.3071 6.6357 86.2627
11282 1 64.8541 9.09134 57.6154
11283 2 64.2317 9.56859 58.2358
11284 2 64.4759 8.19363 57.3893
11285 1 49.5344 22.8368 90.3437
11286 2 48.5404 22.9424 90.372
11287 2 49.9453 23.6554 89.9424
11288 1 116.257 29.7741 17.1147
11289 2 116.257 0.327569 16.2818
11290 2 115.314 29.5694 17.3782
11291 1 82.0223 20.3409 69.5934
11292 2 82.2121 19.7084 68.8424
11293 2 82.0718 19.85 70.4632
11294 1 2.19142 9.08806 90.3449
11295 2 1.38893 9.64515 90.5586
11296 2 3.01303 9.65642 90.3889
11297 1 71.7754 14.0963 64.2679
11298 2 71.3727 14.6233 65.0162
11299 2 72.6449 14.5105 63.9988
11300 1 3.43644 23.5372 32.4798
11301 2 4.24968 24.0154 32.1481
11302 2 3.71198 22.7968 33.0929
11303 1 112.299 23.3319 53.7473
11304 2 111.858 22.7369 54.419
11305 2 112.886 23.9895 54.2193
11306 1 28.2909 26.9837 74.255
11307 2 27.9916 27.9334 74.3476
11308 2 28.1864 26.5143 75.1318
11309 1 26.6391 18.9457 32.4571
11310 2 26.5444 19.3424 33.3702
11311 2 27.3568 18.2494 32.469
11312 1 11.254 27.1779 52.1374
11313 2 10.4843 26.6109 51.8439
11314 2 11.3042 27.9949 51.563
11315 1 14.8491 19.9429 23.811
11316 2 14.3046 19.3976 23.1737
11317 2 15.5947 20.3886 23.3156
11318 1 85.3227 12.7842 39.4926
11319 2 84.4007 12.4188 39.6209
11320 2 85.7502 12.9309 40.3847
11321 1 47.8358 16.3685 57.2483
11322 2 46.9063 16 57.2321
11323 2 48.2793 16.193 56.3694
11324 1 109.066 14.5782 30.8961
11325 2 108.668 14.7488 29.9946
11326 2 108.55 15.0829 31.5887
11327 1 72.2668 26.2145 37.2993
11328 2 72.6301 26.815 36.5869
11329 2 72.1519 25.292 36.9309
11330 1 51.2255 15.4167 32.1399
11331 2 50.6066 15.1157 32.8654
11332 2 50.7874 16.1406 31.607
11333 1 79.1081 24.2131 75.855
11334 2 79.5173 23.5057 76.4314
11335 2 79.66 25.0454 75.9062
11336 1 3.85836 13.7209 21.7529
11337 2 3.64963 14.1316 20.8654
11338 2 3.50111 14.3042 22.4824
11339 1 95.6205 4.96146 30.4352
11340 2 95.4195 3.98754 30.3301
11341 2 94.7656 5.48017 30.4354
11342 1 33.6893 1.07343 83.5655
11343 2 34.1665 1.7939 84.0687
11344 2 32.7029 1.2311 83.6127
11345 1 8.68449 15.2657 16.3205
11346 2 8.18077 16.1143 16.4823
11347 2 8.0749 14.4849 16.4576
11348 1 54.9899 25.7067 32.9958
11349 2 55.9383 25.698 33.3129
11350 2 54.6185 24.7789 33.0302
11351 1 25.5551 17.4272 46.2733
11352 2 26.4104 17.1389 45.8428
11353 2 25.5905 17.2266 47.2523
11354 1 41.4472 6.00243 32.4584
11355 2 40.6492 6.59932 32.3755
11356 2 41.5895 5.76786 33.42
11357 1 36.7229 28.9028 41.2424
11358 2 36.8564 28.6341 42.1963
11359 2 36.1358 29.7113 41.203
11360 1 108.378 27.0163 21.052
11361 2 108.421 26.8751 20.063
11362 2 108.887 27.8421 21.2935
11363 1 5.10715 0.657936 25.0924
11364 2 5.25036 0.072651 24.2943
11365 2 5.92129 1.21809 25.2453
11366 1 10.9855 11.2691 64.3213
11367 2 11.1733 10.2923 64.4249
11368 2 11.1138 11.7283 65.2003
11369 1 70.7973 27.9526 52.3795
11370 2 71.3023 28.4173 53.1068
11371 2 69.891 28.3651 52.287
11372 1 113.852 14.2056 78.5358
11373 2 112.984 13.7547 78.7437
11374 2 114.484 14.0809 79.3008
11375 1 24.2377 19.8577 89.7527
11376 2 23.4354 20.1168 89.2149
11377 2 25.0476 19.8616 89.1661
11378 1 54.3438 13.6068 29.1064
11379 2 55.33 13.7559 29.0343
11380 2 53.9113 14.4201 29.4958
11381 1 11.103 0.460731 57.5393
11382 2 10.2222 0.838553 57.8249
11383 2 11.0653 0.224737 56.5683
11384 1 115.741 21.9365 12.4516
11385 2 114.797 21.7633 12.7325
11386 2 115.783 22.7904 11.9327
11387 1 38.2705 21.8437 28.4701
11388 2 39.2145 22.0122 28.7539
11389 2 38.0713 20.8661 28.5387
11390 1 102.749 4.91714 87.9584
11391 2 102.094 4.51967 87.3159
11392 2 103.508 5.32435 87.4509
11393 1 4.24889 27.3729 34.5898
11394 2 4.76708 26.5176 34.5902
11395 2 3.67817 27.4164 33.7698
11396 1 35.5899 15.9538 46.3159
11397 2 36.5082 16.2221 46.607
11398 2 35.0311 15.7516 47.1201
11399 1 102.264 5.54059 90.488
11400 2 102.475 5.24103 89.5576
11401 2 101.768 4.8164 90.9669
11402 1 115.018 23.4612 47.7252
11403 2 115.169 23.2695 48.695
11404 2 115.31 24.3956 47.5207
11405 1 63.1599 25.3625 59.2505
11406 2 62.2751 25.6294 58.8686
11407 2 63.7396 24.9949 58.5233
11408 1 46.3057 27.889 47.81
11409 2 46.893 28.2176 48.5496
11410 2 45.5689 27.3313 48.1922
11411 1 108.309 24.1437 27.4327
11412 2 108.393 24.0224 26.4436
11413 2 109.011 23.6028 27.8956
11414 1 2.92286 23.5348 90.8127
11415 2 3.78616 23.9337 91.122
11416 2 2.95177 22.5426 90.9339
11417 1 24.7019 7.88849 23.8012
11418 2 24.7807 8.51113 23.0227
11419 2 23.7395 7.79336 24.0558
11420 1 81.1814 25.091 89.4336
11421 2 82.1278 25.0042 89.7447
11422 2 80.7371 25.8412 89.9233
11423 1 6.56292 7.67385 84.3214
11424 2 6.33236 7.96618 83.3933
11425 2 7.17852 8.34263 84.7382
11426 1 72.4137 28.3301 54.5365
11427 2 73.2862 28.3028 54.0486
11428 2 72.2218 27.4297 54.9268
11429 1 40.7929 20.7386 39.6331
11430 2 39.8766 21.1365 39.6772
11431 2 41.3935 21.3422 39.1088
11432 1 24.6257 13.0015 60.525
11433 2 24.859 12.2075 61.0864
11434 2 23.6767 13.2648 60.698
11435 1 78.2078 8.8402 52.1062
11436 2 77.8746 9.22067 51.2435
11437 2 77.628 8.07208 52.3778
11438 1 29.6994 10.9938 68.5098
11439 2 28.7298 10.7501 68.5327
11440 2 29.8093 11.9496 68.7825
11441 1 11.1604 13.4172 79.9885
11442 2 11.9881 13.2373 80.5201
11443 2 10.9083 12.5962 79.4762
11444 1 5.97275 24.8475 23.5025
11445 2 5.0751 24.5069 23.2228
11446 2 6.33206 24.2742 24.2389
11447 1 16.556 24.3239 46.3841
11448 2 16.6687 25.0048 47.1079
11449 2 15.9506 23.5949 46.7036
11450 1 33.8997 15.5884 34.2584
11451 2 34.0726 15.488 35.2383
11452 2 34.7651 15.5358 33.7602
11453 1 16.8687 20.3255 50.0929
11454 2 17.2186 21.1609 50.5168
11455 2 15.8843 20.4154 49.9419
11456 1 59.2848 3.23906 85.5086
11457 2 58.305 3.29596 85.7006
11458 2 59.4579 3.5337 84.5688
11459 1 108.068 25.7248 80.1626
11460 2 107.421 24.9678 80.2535
11461 2 108.874 25.5444 80.727
11462 1 10.9912 20.3628 33.441
11463 2 10.8977 20.8012 32.547
11464 2 11.743 19.7041 33.4121
11465 1 18.8463 23.5554 81.1466
11466 2 19.0509 22.5771 81.1784
11467 2 17.9943 23.7016 80.6439
11468 1 28.751 21.2564 27.7238
11469 2 28.6287 22.1992 27.4137
11470 2 29.6815 20.9551 27.5157
11471 1 73.181 16.9767 85.8468
11472 2 73.6525 17.6397 85.2653
11473 2 72.225 16.9044 85.5624
11474 1 50.5831 21.6071 57.4978
11475 2 51.028 21.2447 56.6788
11476 2 50.4947 22.5999 57.4175
11477 1 31.4956 8.93626 89.2362
11478 2 32.1796 8.67081 89.9157
11479 2 30.5996 8.5881 89.5115
11480 1 19.8378 16.0648 17.2534
11481 2 19.5109 16.0055 16.3102
11482 2 19.7615 17.0089 17.5739
11483 1 7.31329 6.68609 55.877
11484 2 6.99978 6.09998 55.1299
11485 2 6.97078 7.61526 55.738
11486 1 5.50111 24.8947 31.7082
11487 2 4.81839 25.4558 31.2402
11488 2 5.71324 25.3004 32.5973
11489 1 98.3151 9.92935 27.7
11490 2 97.358 10.2173 27.6687
11491 2 98.4525 9.1604 27.0757
11492 1 102.076 22.1154 76.3858
11493 2 101.212 22.6178 76.4174
11494 2 102.75 22.6444 75.8707
11495 1 91.6835 14.1951 83.741
11496 2 91.2091 13.9793 82.8875
11497 2 92.6691 14.2284 83.5752
11498 1 13.0785 0.441068 72.7932
11499 2 12.316 29.8574 73.0723
11500 2 12.8888 0.828633 71.8911
11501 1 6.60628 25.6604 81.7143
11502 2 5.77563 26.2117 81.7925
11503 2 6.57204 24.9104 82.3749
11504 1 101.093 9.94708 35.7949
11505 2 100.36 9.50843 36.3156
11506 2 101.747 10.3644 36.4261
11507 1 111.022 23.4161 34.7862
11508 2 111.902 23.0041 35.0231
11509 2 110.751 23.1195 33.8705
11510 1 96.1655 4.90512 77.4967
11511 2 97.0986 4.54576 77.4816
11512 2 95.5155 4.14685 77.4471
11513 1 86.2373 14.9095 70.0671
11514 2 86.3476 13.9208 70.1684
11515 2 85.3878 15.1016 69.5757
11516 1 72.328 18.5212 35.029
11517 2 71.6343 18.5698 34.3104
11518 2 72.8201 19.3904 35.0766
11519 1 93.779 7.57202 44.7072
11520 2 92.8294 7.88467 44.6881
11521 2 94.358 8.23558 44.2335
11522 1 87.6314 22.7966 36.0312
11523 2 86.9392 22.7468 35.3112
11524 2 87.9584 21.8757 36.2434
11525 1 13.9898 1.28114 22.105
11526 2 13.339 0.533491 22.2372
11527 2 13.5007 2.09908 21.802
11528 1 43.2559 8.44079 34.4964
11529 2 42.9054 7.50427 34.5061
11530 2 43.5781 8.68552 35.4109
11531 1 79.1201 3.02843 79.1713
11532 2 78.6077 2.23465 79.499
11533 2 79.6227 2.78187 78.3426
11534 1 110.614 3.98255 38.8401
11535 2 110.744 3.52075 37.9628
11536 2 109.652 4.23256 38.9457
11537 1 14.5182 1.82404 18.1863
11538 2 13.659 2.0883 18.6245
11539 2 15.287 2.15525 18.7333
11540 1 0.573847 17.6728 19.4781
11541 2 0.259884 18.5218 19.903
11542 2 1.42173 17.3744 19.9163
11543 1 26.0257 26.1594 88.8405
11544 2 26.0492 25.9418 89.8163
11545 2 25.2994 26.8238 88.6645
11546 1 6.20134 23.969 20.055
11547 2 6.47567 24.8776 20.3699
11548 2 5.31744 23.7298 20.4568
11549 1 114.214 21.7454 38.003
11550 2 114.047 22.0388 37.0617
11551 2 115.197 21.6264 38.1455
11552 1 104.976 8.07506 57.865
11553 2 104.289 7.50881 58.3203
11554 2 104.656 8.31512 56.9486
11555 1 106.181 26.5993 53.7622
11556 2 106.964 26.0039 53.9432
11557 2 106.315 27.0705 52.8904
11558 1 117.135 21.5078 22.1495
11559 2 117.902 21.8563 22.6882
11560 2 116.487 21.0431 22.7534
11561 1 0.380708 7.8521 70.7516
11562 2 1.06004 8.16187 70.0864
11563 2 0.568648 8.27139 71.6398
11564 1 35.2482 4.37798 56.6563
11565 2 35.0446 4.12365 55.7109
11566 2 34.7655 5.22325 56.8854
11567 1 20.5466 26.0919 44.2172
11568 2 20.6223 27.0832 44.3249
11569 2 21.2662 25.7674 43.6033
11570 1 42.9606 25.2018 74.9415
11571 2 43.6039 25.933 75.1684
11572 2 42.3698 25.0217 75.7279
11573 1 11.2924 26.7184 91.2534
11574 2 11.3962 26.0228 90.5425
11575 2 11.2934 27.6263 90.8342
11576 1 46.9304 21.7618 84.9042
11577 2 46.7609 22.7472 84.8899
11578 2 46.0886 21.2824 85.1524
11579 1 88.2046 25.8928 30.7739
11580 2 88.5847 25.153 30.2187
11581 2 88.2863 25.6583 31.7426
11582 1 87.3687 14.55 34.6217
11583 2 87.9254 15.3726 34.506
11584 2 87.9631 13.77 34.8174
11585 1 97.9257 28.8572 20.6431
11586 2 98.397 29.3819 21.352
11587 2 98.4416 28.9135 19.7883
11588 1 24.4922 7.64577 70.7857
11589 2 24.6947 8.58428 71.0654
11590 2 24.9632 7.445 69.9267
11591 1 38.4922 29.7604 54.1897
11592 2 38.1795 29.3041 53.3566
11593 2 37.9968 0.621559 54.3041
11594 1 36.4816 14.7597 73.4832
11595 2 36.6035 14.1491 74.2657
11596 2 35.5119 14.9823 73.3821
11597 1 21.8172 5.23884 67.4489
11598 2 22.3291 5.47203 68.2757
11599 2 21.2872 6.03243 67.1501
11600 1 86.43 7.83041 71.9249
11601 2 85.8062 7.64003 71.1668
11602 2 87.0554 8.56622 71.6651
11603 1 20.3416 28.3409 50.6887
11604 2 20.4138 27.3442 50.7254
11605 2 21.1683 28.7494 51.0757
11606 1 36.5501 19.5374 90.3347
11607 2 36.458 18.6955 90.8663
11608 2 35.7538 20.121 90.494
11609 1 113.679 15.9267 35.3603
11610 2 113.869 15.4038 36.1912
11611 2 113.435 16.8648 35.6055
11612 1 50.2381 5.28492 90.4243
11613 2 50.5016 5.9131 89.6923
11614 2 49.3978 5.6113 90.8572
11615 1 20.565 16.81 87.6173
11616 2 20.9471 16.6479 88.5271
11617 2 20.1235 17.707 87.5962
11618 1 51.0199 3.55348 33.2926
11619 2 51.3644 2.61598 33.3421
11620 2 50.1068 3.55199 32.885
11621 1 106.531 3.93028 53.954
11622 2 107.291 3.42018 53.5507
11623 2 105.878 4.17695 53.238
11624 1 23.1189 17.8195 41.0913
11625 2 22.4148 17.7289 41.7956
11626 2 23.8824 17.2092 41.3028
11627 1 16.5502 11.0424 59.4295
11628 2 17.3983 10.658 59.7941
11629 2 15.8006 10.8592 60.0656
11630 1 99.0032 0.72373 67.3348
11631 2 99.3769 29.9154 67.7898
11632 2 99.0603 0.60461 66.3436
11633 1 28.8655 4.20031 79.1635
11634 2 29.733 3.81937 78.8437
11635 2 28.1848 3.47063 79.2284
11636 1 91.0429 4.75693 87.3914
11637 2 91.6231 5.55943 87.5308
11638 2 91.6175 3.94926 87.2589
11639 1 73.9844 2.31356 31.3494
11640 2 73.8008 1.58407 32.0083
11641 2 73.4687 3.13125 31.6051
11642 1 38.9428 26.667 46.9642
11643 2 38.4704 25.8432 47.2776
11644 2 39.4514 27.0694 47.7254
11645 1 107.056 9.80603 21.7809
11646 2 106.974 10.4971 22.4989
11647 2 106.95 8.89562 22.1806
11648 1 57.7218 6.79648 68.531
11649 2 57.6696 7.17748 67.6079
11650 2 58.4402 6.10166 68.5647
11651 1 112.894 24.3399 78.2484
11652 2 113.271 24.9154 78.9743
11653 2 112.108 23.8314 78.6004
11654 1 21.217 26.2977 57.6433
11655 2 21.5911 27.0937 58.1192
11656 2 21.8299 26.0367 56.8975
11657 1 72.0977 21.9319 61.1755
11658 2 71.9563 21.1582 60.558
11659 2 72.1924 21.5972 62.1131
11660 1 1.1448 16.7505 10.5337
11661 2 0.225531 16.9944 10.8427
11662 2 1.36864 15.8283 10.849
11663 1 7.74986 29.5572 81.0245
11664 2 7.76879 28.614 81.3564
11665 2 8.68559 29.8772 80.8762
11666 1 106.866 16.6799 39.8957
11667 2 107.349 17.5523 39.8185
11668 2 107.095 16.102 39.1122
11669 1 17.7125 2.18209 67.7495
11670 2 18.2626 2.25718 68.5813
11671 2 16.9456 2.82203 67.7982
11672 1 3.13757 6.66033 36.3784
11673 2 3.65256 7.29511 35.8024
11674 2 2.26673 7.07758 36.6383
11675 1 22.9388 5.62819 41.0533
11676 2 22.5254 5.51478 41.9568
11677 2 23.0414 4.7333 40.619
11678 1 111.902 17.9363 31.5167
11679 2 111.103 17.6293 32.0338
11680 2 111.793 17.6855 30.5548
11681 1 5.58784 26.519 51.8468
11682 2 5.0715 26.0263 52.5472
11683 2 5.27667 26.2331 50.9404
11684 1 115.652 8.95985 83.81
11685 2 114.805 8.57839 84.1812
11686 2 115.616 9.95811 83.857
11687 1 31.7715 17.7778 54.5423
11688 2 32.3131 16.9746 54.7901
11689 2 32.352 18.5917 54.5667
11690 1 63.3511 28.8335 52.4866
11691 2 63.4542 27.8667 52.253
11692 2 62.3797 29.0522 52.5796
11693 1 118.147 18.8398 46.7199
11694 2 117.921 18.886 45.7469
11695 2 118.162 17.884 47.0137
11696 1 28.5578 22.3087 71.6802
11697 2 28.5673 22.8654 70.8495
11698 2 28.8248 21.3714 71.4563
11699 1 24.3489 17.3446 78.7474
11700 2 24.9362 17.0161 79.4871
11701 2 24.8989 17.4919 77.9254
11702 1 25.2769 27.91 76.3979
11703 2 25.0548 28.4084 75.56
11704 2 26.167 27.4658 76.2956
11705 1 108.385 2.03458 53.0315
11706 2 108.301 1.8178 52.0588
11707 2 109.326 2.30645 53.2329
11708 1 43.5854 27.1896 53.2111
11709 2 44.2389 26.4616 53.004
11710 2 43.8104 27.5977 54.0959
11711 1 114.735 23.8162 27.0291
11712 2 113.752 23.9946 27.0886
11713 2 115.128 23.8067 27.9485
11714 1 47.0645 4.07594 88.0627
11715 2 47.1958 4.26697 89.0354
11716 2 46.2946 4.61323 87.7184
11717 1 2.90154 0.0698201 73.972
11718 2 2.77234 0.945438 74.4374
11719 2 3.66635 0.142268 73.3319
11720 1 30.1566 27.9394 68.2178
11721 2 30.0535 27.2589 67.4923
11722 2 30.6464 28.735 67.8614
11723 1 14.303 6.19398 66.7326
11724 2 14.3419 6.75504 67.5595
11725 2 13.6234 6.57282 66.1044
11726 1 45.1972 28.9041 89.9745
11727 2 45.2316 28.333 89.1544
11728 2 44.766 28.3935 90.7184
11729 1 56.5428 25.0239 54.0135
11730 2 55.8306 24.9181 54.7074
11731 2 56.221 24.646 53.1453
11732 1 30.6018 12.6026 40.6579
11733 2 30.6943 12.093 39.8024
11734 2 30.3686 13.5538 40.4557
11735 1 45.1111 2.05864 30.2722
11736 2 45.1644 2.45846 29.3572
11737 2 46.0164 2.07586 30.6967
11738 1 33.9089 4.63066 22.7974
11739 2 33.1918 3.99312 23.0791
11740 2 33.5013 5.51965 22.5887
11741 1 99.3386 13.2445 46.5222
11742 2 98.829 13.4602 47.3551
11743 2 98.709 12.8992 45.8262
11744 1 95.553 14.4859 61.7473
11745 2 94.5867 14.6474 61.948
11746 2 95.7403 13.5041 61.7787
11747 1 48.3907 1.68176 61.3028
11748 2 48.655 0.817795 60.8742
11749 2 47.8381 1.49548 62.1151
11750 1 117.164 9.23947 71.5259
11751 2 116.729 10.0744 71.1893
11752 2 118.024 9.47197 71.9809
11753 1 58.9548 7.60428 76.1896
11754 2 57.9923 7.81553 76.3595
11755 2 59.1162 7.55442 75.204
11756 1 71.0979 2.26324 69.454
11757 2 71.498 2.1101 68.5504
11758 2 71.6713 2.9006 69.9687
11759 1 117.403 9.92725 86.543
11760 2 117.981 10.5239 85.9863
11761 2 116.521 10.372 86.7034
11762 1 118.681 8.53627 75.0086
11763 2 118.583 8.94076 75.9178
11764 2 119.023 7.60065 75.0952
11765 1 110.068 10.611 84.7589
11766 2 110.376 9.66967 84.896
11767 2 109.918 11.0454 85.6471
11768 1 46.3819 5.48091 50.2283
11769 2 45.5459 5.58601 49.6899
11770 2 46.1587 5.0757 51.1149
11771 1 113.633 6.48534 80.6382
11772 2 113.697 6.44966 79.6408
11773 2 114.355 7.07678 80.9973
11774 1 52.7835 10.9352 90.2879
11775 2 52.5746 10.0082 90.5996
11776 2 52.2033 11.5889 90.7737
11777 1 25.2045 0.404115 21.8762
11778 2 25.4781 0.245518 22.8249
11779 2 24.6056 1.20365 21.8312
11780 1 11.2077 25.6633 40.4526
11781 2 10.8842 25.1548 41.2506
11782 2 12.0278 26.1807 40.6972
11783 1 55.8519 14.8374 32.1382
11784 2 56.3718 14.3794 32.8592
11785 2 56.0432 14.3996 31.2598
11786 1 30.2815 14.5558 62.6717
11787 2 30.5864 14.5248 63.6236
11788 2 29.2923 14.4147 62.6338
11789 1 32.5743 20.1981 19.2787
11790 2 32.1877 20.5515 18.4268
11791 2 33.4064 19.6812 19.078
11792 1 11.9757 23.5781 69.6281
11793 2 11.3121 23.4938 70.3713
11794 2 11.6929 24.3119 69.0103
11795 1 76.3055 21.162 37.633
11796 2 75.8644 22.0021 37.9488
11797 2 77.0956 21.3933 37.0654
11798 1 103.407 25.3751 52.6994
11799 2 104.246 25.5959 53.1953
11800 2 102.835 26.1929 52.6305
11801 1 76.8929 25.6858 84.0789
11802 2 77.6643 25.1629 84.4414
11803 2 76.2353 25.8612 84.8116
11804 1 56.1935 0.244222 81.1206
11805 2 56.3747 1.06846 81.6571
11806 2 55.3606 0.373254 80.5824
11807 1 109.072 26.5854 45.4122
11808 2 108.442 25.8103 45.4504
11809 2 108.633 27.3492 44.9391
11810 1 42.6571 7.11758 60.0729
11811 2 42.6972 8.09609 60.2752
11812 2 42.2226 6.9787 59.183
11813 1 92.777 1.67896 29.9767
11814 2 92.8874 0.824056 29.4698
11815 2 93.6756 2.08138 30.1513
11816 1 57.6256 23.5571 44.1501
11817 2 56.6384 23.4457 44.2647
11818 2 58.0624 22.6578 44.1305
11819 1 111.043 18.4771 16.6608
11820 2 111.797 19.1296 16.7381
11821 2 111.362 17.5663 16.9221
11822 1 54.7024 11.5214 49.0996
11823 2 55.421 10.8681 49.3379
11824 2 54.8809 11.896 48.1898
11825 1 10.6115 25.5321 57.5013
11826 2 10.8683 25.2788 58.434
11827 2 10.8855 24.8056 56.8711
11828 1 106.607 17.7702 53.3534
11829 2 106.037 18.0523 54.1253
11830 2 106.022 17.457 52.6048
11831 1 101.245 22.0599 33.7178
11832 2 100.3 21.8808 33.9906
11833 2 101.763 22.3899 34.5071
11834 1 68.9652 17.0942 37.3026
11835 2 68.6394 16.2506 36.8758
11836 2 69.7222 16.884 37.9213
11837 1 51.4038 14.0747 37.294
11838 2 50.9264 13.3529 37.7951
11839 2 52.3289 13.7684 37.0692
11840 1 112.46 21.3981 44.7488
11841 2 112.719 20.4331 44.7894
11842 2 112.276 21.6543 43.7998
11843 1 89.3004 18.8215 73.031
11844 2 90.001 19.0417 72.3522
11845 2 89.7148 18.3106 73.7841
11846 1 15.4925 1.67434 35.9559
11847 2 15.0018 1.45216 35.1133
11848 2 15.7496 0.829236 36.4246
11849 1 63.9463 18.6976 79.3234
11850 2 63.8515 18.1345 80.1443
11851 2 63.2305 18.4554 78.6685
11852 1 55.2413 18.4272 48.8769
11853 2 54.5179 18.9779 49.2933
11854 2 56.1257 18.868 49.0298
11855 1 78.4582 23.7773 71.5682
11856 2 79.2057 23.3534 71.0568
11857 2 77.8335 23.068 71.8947
11858 1 67.231 5.80014 70.5059
11859 2 66.9191 6.34916 71.2813
11860 2 68.2213 5.89672 70.4061
11861 1 90.5251 16.0746 42.3496
11862 2 89.5753 15.9748 42.6461
11863 2 90.5939 15.8628 41.3747
11864 1 9.04028 15.0795 85.1148
11865 2 8.86794 16.0265 84.8439
11866 2 9.99924 14.8532 84.944
11867 1 98.7753 17.8647 45.8163
11868 2 98.6731 17.8015 46.8091
11869 2 99.314 17.0894 45.4866
11870 1 17.2765 20.5737 59.0367
11871 2 16.811 21.1566 58.3706
11872 2 18.1996 20.3678 58.7119
11873 1 34.1515 25.5873 30.5083
11874 2 34.0427 25.0514 31.3455
11875 2 34.8136 25.138 29.9085
11876 1 86.8241 28.0624 51.7247
11877 2 86.5077 28.6098 50.9499
11878 2 86.2634 28.2656 52.5274
11879 1 40.8292 21.3484 63.5726
11880 2 40.8095 20.4968 63.0488
11881 2 41.0527 21.1479 64.5264
11882 1 15.8086 15.5336 57.5225
11883 2 16.1184 16.4816 57.4492
11884 2 15.8439 15.2444 58.4791
11885 1 58.3974 22.5328 69.5297
11886 2 58.9971 23.3156 69.3636
11887 2 57.6168 22.8225 70.0835
11888 1 7.35358 14.3851 45.3418
11889 2 7.11129 13.4158 45.3842
11890 2 7.47166 14.6577 44.3869
11891 1 77.4903 2.26329 64.0424
11892 2 77.4139 3.22173 63.7675
11893 2 78.0077 1.75857 63.3514
11894 1 97.8315 5.15672 43.4074
11895 2 98.3096 4.78177 44.2017
11896 2 98.4155 5.83021 42.9542
11897 1 54.9171 6.47925 59.0172
11898 2 55.4202 5.95417 58.3308
11899 2 54.3437 5.86138 59.5552
11900 1 85.352 17.9803 57.2602
11901 2 84.3863 18.2253 57.1745
11902 2 85.8714 18.776 57.572
11903 1 107.626 19.1458 39.2426
11904 2 107.059 19.6086 38.5607
11905 2 108.339 18.6185 38.781
11906 1 64.581 8.25741 70.8734
11907 2 64.9298 8.14728 69.9426
11908 2 64.9338 7.5211 71.4508
11909 1 21.3803 7.02787 10.7398
11910 2 21.9301 6.67915 11.4988
11911 2 20.6381 6.38694 10.5438
11912 1 79.9501 4.83471 66.0386
11913 2 80.6116 4.58977 65.3298
11914 2 79.1466 5.25246 65.6146
11915 1 76.2126 4.18911 44.2847
11916 2 75.8879 3.36494 43.8207
11917 2 76.3575 3.99071 45.2541
11918 1 117.194 18.5305 32.5549
11919 2 117.368 18.9698 33.4363
11920 2 117.617 17.6243 32.5451
11921 1 3.83136 29.6929 40.7586
11922 2 4.23344 0.519262 40.3644
11923 2 4.47948 29.2792 41.398
11924 1 0.943709 4.97477 90.6855
11925 2 1.26046 4.24903 91.2962
11926 2 0.902696 4.62771 89.7486
11927 1 47.0434 9.87885 90.2103
11928 2 46.3999 9.18686 89.8831
11929 2 47.9475 9.46655 90.3229
11930 1 2.08689 11.7584 53.6317
11931 2 2.96418 11.7347 54.1111
11932 2 1.43545 12.307 54.1558
11933 1 105.124 16.2306 77.2125
11934 2 105.501 15.6461 76.4942
11935 2 104.341 16.7373 76.8525
11936 1 66.1095 4.68445 83.6252
11937 2 66.5453 5.0178 84.4613
11938 2 66.4427 5.2109 82.843
11939 1 70.0065 22.0446 58.5799
11940 2 70.8061 21.4671 58.7448
11941 2 69.2938 21.5064 58.13
11942 1 42.6019 24.0925 66.4595
11943 2 43.0534 23.9671 65.5761
11944 2 41.6156 23.9688 66.3503
11945 1 5.39968 20.3479 15.6347
11946 2 5.91638 19.5373 15.3593
11947 2 4.57421 20.0667 16.1241
11948 1 102.837 9.31687 33.9069
11949 2 102.245 9.52679 34.685
11950 2 103.79 9.49292 34.1557
11951 1 14.0918 19.2 89.9975
11952 2 14.9995 19.3671 89.6126
11953 2 14.1756 18.6248 90.8112
11954 1 13.6584 24.7756 37.9647
11955 2 13.0858 25.5597 38.2038
11956 2 14.3314 25.0513 37.2783
11957 1 46.2288 15.4118 61.0214
11958 2 45.9377 14.6276 61.5693
11959 2 47.1585 15.6731 61.281
11960 1 20.4344 15.5165 67.2212
11961 2 19.7889 16.275 67.1317
11962 2 21.3693 15.8642 67.1494
11963 1 9.06257 0.0358359 47.7799
11964 2 9.35721 29.4277 47.0428
11965 2 8.497 29.5251 48.4274
11966 1 75.4799 0.308466 44.3317
11967 2 75.0335 1.03632 44.8522
11968 2 74.7862 29.7526 43.8737
11969 1 4.32475 25.9929 54.9363
11970 2 5.00267 25.6157 55.5673
11971 2 3.6382 26.5054 55.4521
11972 1 47.6871 1.05758 88.4024
11973 2 48.5063 0.758065 88.8915
11974 2 47.1694 1.69196 88.9765
11975 1 36.8365 13.4863 26.6563
11976 2 36.4825 13.5514 25.7232
11977 2 37.624 14.0942 26.7572
11978 1 99.6516 5.56681 75.5455
11979 2 99.2385 5.10148 76.3283
11980 2 99.7782 6.53485 75.762
11981 1 75.4592 0.356782 39.8788
11982 2 74.5855 0.724485 40.1973
11983 2 76.0762 1.11099 39.6541
11984 1 29.1112 3.93667 39.3342
11985 2 28.2445 3.53593 39.0372
11986 2 29.2993 3.6627 40.2774
11987 1 94.0556 27.9825 30.7591
11988 2 94.4527 27.0674 30.6888
11989 2 93.2794 27.9615 31.3892
11990 1 12.0699 25.2302 18.4741
11991 2 12.2322 25.7624 19.305
11992 2 12.9261 25.136 17.9661
11993 1 67.8688 14.5799 87.3552
11994 2 66.9307 14.9144 87.2659
11995 2 68.1657 14.6696 88.3059
11996 1 110.611 6.69089 16.6368
11997 2 109.651 6.43691 16.5181
11998 2 110.668 7.62808 16.9809
11999 1 34.3878 3.84471 67.1277
12000 2 34.326 4.79678 67.4273
12001 2 33.7543 3.28529 67.6624
12002 1 90.1225 6.68803 42.7404
12003 2 89.1259 6.69145 42.6581
12004 2 90.4189 5.83289 43.1657
12005 1 56.3921 12.6549 74.656
12006 2 56.3604 11.6557 74.6315
12007 2 55.7576 12.9915 75.3517
12008 1 110.059 26.2254 77.0456
12009 2 109.165 25.7925 76.9263
12010 2 110.202 26.4333 78.0132
12011 1 7.08808 20.5898 51.9331
12012 2 7.19229 19.598 52.007
12013 2 6.11804 20.8277 51.9827
12014 1 53.7591 4.43462 82.3154
12015 2 52.8278 4.10197 82.1672
12016 2 54.3231 3.69454 82.6819
12017 1 32.693 8.33721 39.0533
12018 2 32.1092 8.84392 39.6877
12019 2 32.9474 8.92957 38.2888
12020 1 49.8047 7.56937 43.7524
12021 2 50.7893 7.69095 43.6269
12022 2 49.5456 6.64317 43.4786
12023 1 90.815 3.73136 65.0522
12024 2 91.0884 4.36806 65.7732
12025 2 90.8369 2.79667 65.407
12026 1 91.0084 11.288 57.9768
12027 2 90.434 10.986 57.216
12028 2 91.7351 10.6189 58.1319
12029 1 31.3369 23.7087 51.2298
12030 2 31.6538 23.7769 50.2838
12031 2 32.1136 23.818 51.8502
12032 1 116.389 15.1581 80.3776
12033 2 116.75 14.8223 81.2477
12034 2 116.986 14.8612 79.6325
12035 1 39.2488 28.7754 71.7759
12036 2 39.857 28.719 72.5676
12037 2 39.7312 28.4529 70.9614
12038 1 71.6514 24.7843 85.9941
12039 2 71.4108 23.8395 86.2165
12040 2 71.2707 25.3971 86.6866
12041 1 57.3177 22.3032 55.4782
12042 2 57.2728 21.6451 56.2298
12043 2 58.016 22.0143 54.8234
12044 1 16.8319 8.37766 75.9866
12045 2 16.949 7.41247 76.2205
12046 2 17.1298 8.94512 76.7542
12047 1 88.1381 13.3095 45.7395
12048 2 89.0404 13.1573 46.1427
12049 2 88.2362 13.8225 44.8867
12050 1 46.9299 19.1868 39.7106
12051 2 47.5586 18.6517 40.2749
12052 2 46.7937 18.7252 38.834
12053 1 106.617 25.9931 17.1124
12054 2 106.848 26.9382 17.3436
12055 2 106.072 25.9786 16.274
12056 1 60.361 6.24625 46.4827
12057 2 60.9453 7.01319 46.2174
12058 2 60.5891 5.95991 47.4133
12059 1 26.57 28.8474 67.8669
12060 2 25.8061 29.3184 68.308
12061 2 26.9013 28.1173 68.4646
12062 1 114.996 6.94172 45.8008
12063 2 115.252 7.89394 45.6336
12064 2 115.676 6.51383 46.3966
12065 1 83.3284 10.0634 50.5717
12066 2 84.0605 9.42815 50.8178
12067 2 83.5746 10.9864 50.8674
12068 1 41.7147 10.1289 37.8325
12069 2 40.9182 9.56975 38.0626
12070 2 42.3473 9.59358 37.2729
12071 1 14.752 16.6726 24.0582
12072 2 15.0368 16.9389 24.9791
12073 2 13.9475 17.2033 23.7916
12074 1 52.3484 27.6839 67.8831
12075 2 53.0549 27.5614 67.1861
12076 2 51.5817 28.195 67.4943
12077 1 114.739 22.7579 89.7992
12078 2 114.931 21.8577 90.19
12079 2 114.073 22.6643 89.0585
12080 1 53.2034 0.0506342 61.8298
12081 2 53.5164 0.939326 61.4947
12082 2 52.7981 29.5339 61.0757
12083 1 12.3479 15.6498 68.1938
12084 2 12.9581 15.8877 67.4381
12085 2 11.6128 16.3252 68.2539
12086 1 59.7447 13.5399 87.8292
12087 2 59.7036 14.5388 87.8514
12088 2 60.4535 13.2214 88.4585
12089 1 104.394 28.277 65.5085
12090 2 105.231 27.7473 65.6426
12091 2 104.496 28.8654 64.7065
12092 1 29.7294 4.60556 31.6347
12093 2 29.0933 5.2058 32.1197
12094 2 29.7584 3.71474 32.0882
12095 1 54.4364 8.70463 78.2013
12096 2 53.7787 7.95588 78.1189
12097 2 55.2534 8.49109 77.6656
12098 1 9.61854 15.6217 58.4378
12099 2 10.5998 15.441 58.3706
12100 2 9.44927 16.2717 59.1786
12101 1 110.92 23.3827 90.1074
12102 2 111.092 24.3633 90.2009
12103 2 111.463 23.0194 89.3509
12104 1 71.6377 3.51794 59.0179
12105 2 71.182 3.25075 59.867
12106 2 72.603 3.70354 59.2018
12107 1 96.4286 26.2233 24.791
12108 2 95.6364 26.3186 25.3938
12109 2 96.2791 25.4603 24.1621
12110 1 0.374718 23.8611 51.5192
12111 2 0.399276 24.6843 52.0864
12112 2 0.96725 23.9869 50.7235
12113 1 49.342 7.71732 73.7521
12114 2 49.2961 6.72781 73.6151
12115 2 48.4796 8.134 73.4647
12116 1 67.5317 27.7116 58.8541
12117 2 66.7455 27.0937 58.8497
12118 2 68.2227 27.3763 58.2137
12119 1 114.722 18.462 53.6821
12120 2 114.711 19.4536 53.8105
12121 2 114.965 18.2511 52.7353
12122 1 56.9912 14.0152 29.6396
12123 2 57.4504 14.7105 30.1926
12124 2 57.6643 13.3523 29.3115
12125 1 13.0544 2.05733 30.2604
12126 2 13.6479 2.72208 30.7143
12127 2 12.1024 2.35373 30.3366
12128 1 97.586 15.4848 40.764
12129 2 97.0576 16.3113 40.5699
12130 2 98.5018 15.5751 40.3728
12131 1 2.96306 10.9105 27.5486
12132 2 3.11113 11.737 28.0917
12133 2 2.23012 10.3684 27.9596
12134 1 41.2865 15.3003 31.7603
12135 2 42.2686 15.1121 31.7695
12136 2 41.0692 15.9002 30.9903
12137 1 25.341 9.98316 33.4979
12138 2 25.8953 10.6254 34.0272
12139 2 25.6587 9.97132 32.5498
12140 1 50.3234 5.69503 52.9822
12141 2 50.4854 4.8214 53.441
12142 2 50.3564 5.56238 51.9916
12143 1 59.2041 22.2482 53.2758
12144 2 59.7501 21.4113 53.2369
12145 2 58.5096 22.2268 52.5565
12146 1 102.266 14.768 55.2757
12147 2 103.103 14.5956 54.7575
12148 2 101.491 14.8308 54.646
12149 1 97.1901 8.46151 59.9485
12150 2 97.4245 8.11333 60.8562
12151 2 96.527 9.20471 60.0376
12152 1 49.1917 21.1485 47.0773
12153 2 50.0597 21.3964 47.5077
12154 2 48.5981 20.7105 47.7524
12155 1 103.682 18.309 45.2168
12156 2 103.484 18.8195 44.3802
12157 2 103.146 17.465 45.2276
12158 1 6.86753 6.77386 79.6855
12159 2 6.29592 6.47121 78.9229
12160 2 7.7051 6.22814 79.7114
12161 1 57.0823 15.8654 63.1768
12162 2 57.3425 16.364 62.35
12163 2 56.1482 16.1122 63.4348
12164 1 66.4354 13.3158 50.0356
12165 2 66.4504 14.2874 49.7995
12166 2 65.6726 13.1353 50.6565
12167 1 80.1175 11.088 52.5288
12168 2 79.9095 11.3985 53.4563
12169 2 79.4983 10.3434 52.2798
12170 1 28.1329 18.7315 90.4449
12171 2 27.704 18.6269 89.5476
12172 2 28.1442 19.6988 90.6982
12173 1 42.2376 5.56483 53.3508
12174 2 41.3154 5.37269 53.6865
12175 2 42.8998 5.01984 53.865
12176 1 77.4721 27.0054 91.0029
12177 2 78.3583 27.3083 90.6524
12178 2 77.3042 27.4274 91.8938
12179 1 62.5768 15.5431 61.485
12180 2 61.8917 15.1515 60.8707
12181 2 62.3005 15.3894 62.4337
12182 1 108.243 26.9243 73.8036
12183 2 107.667 27.5583 73.2875
12184 2 108.838 27.4405 74.4188
12185 1 10.391 10.0569 22.7973
12186 2 10.8107 9.15662 22.9129
12187 2 9.93771 10.1015 21.9071
12188 1 118.422 13.3682 14.052
12189 2 118.119 13.0158 14.9376
12190 2 119.392 13.1626 13.9253
12191 1 8.67979 28.9518 90.9124
12192 2 7.84081 29.4808 90.7848
12193 2 8.53081 28.2547 91.6138
12194 1 78.4152 9.53852 57.926
12195 2 78.3632 10.3297 58.5353
12196 2 78.5846 9.84877 56.9905
12197 1 47.6124 6.95552 66.9794
12198 2 48.597 6.99494 67.1499
12199 2 47.2386 7.88297 66.9686
12200 1 47.6098 25.2325 82.6046
12201 2 46.9945 25.2005 83.3923
12202 2 47.1158 25.5849 81.8098
12203 1 32.1025 9.52915 11.0891
12204 2 31.8088 10.472 10.9314
12205 2 33.0746 9.44196 10.8712
12206 1 73.4664 18.4895 52.2515
12207 2 73.4311 17.5947 51.8064
12208 2 72.9376 18.4609 53.0998
12209 1 112.549 20.2612 33.9255
12210 2 112.662 19.6355 34.6974
12211 2 112.884 21.1684 34.1803
12212 1 47.1957 5.57813 90.8845
12213 2 46.2373 5.49087 90.6129
12214 2 47.4182 6.54411 91.0164
12215 1 32.759 18.8087 58.5984
12216 2 33.5465 18.4614 59.1075
12217 2 32.0179 18.1382 58.6325
12218 1 99.2349 3.52249 20.6933
12219 2 99.1632 4.5151 20.7912
12220 2 99.6835 3.13947 21.5007
12221 1 66.0534 16.1985 85.0804
12222 2 65.8166 15.6658 85.8928
12223 2 65.9598 17.1735 85.2821
12224 1 99.198 28.0025 40.8195
12225 2 99.9364 28.4927 41.2827
12226 2 98.4092 28.6084 40.7161
12227 1 65.1649 0.666059 62.51
12228 2 64.4925 0.147284 63.038
12229 2 65.6434 0.0507948 61.8835
12230 1 36.3025 15.577 62.4746
12231 2 35.6964 15.6285 61.6809
12232 2 36.4233 16.4911 62.8616
12233 1 49.0625 28.6306 69.7877
12234 2 49.3869 29.1805 69.018
12235 2 48.1097 28.3696 69.6327
12236 1 50.4884 6.82391 48.6521
12237 2 50.9211 7.63362 48.2557
12238 2 49.6657 6.59683 48.131
12239 1 4.47636 0.225511 30.7731
12240 2 4.37076 29.6593 29.9556
12241 2 5.4291 0.199524 31.0757
12242 1 52.4267 24.7337 65.469
12243 2 53.0352 25.4335 65.843
12244 2 52.7543 24.455 64.5662
12245 1 93.6013 24.5385 62.3776
12246 2 93.2386 24.8251 61.4909
12247 2 92.8466 24.4128 63.0216
12248 1 30.3087 13.7661 35.9164
12249 2 30.653 13.6025 34.9919
12250 2 31.0592 13.6803 36.5717
12251 1 0.727303 26.3294 17.3635
12252 2 0.130092 26.9428 16.8467
12253 2 0.620203 25.3952 17.0233
12254 1 105.042 10.4751 68.4012
12255 2 104.699 11.0242 67.6389
12256 2 104.271 10.1243 68.9324
12257 1 28.6117 27.6292 22.7594
12258 2 28.918 26.6827 22.8603
12259 2 29.0043 28.1864 23.4912
12260 1 0.613807 6.50816 33.8066
12261 2 0.758033 7.18989 34.5239
12262 2 1.43173 5.93973 33.7177
12263 1 13.9747 8.14267 58.8336
12264 2 13.5844 8.93392 58.3629
12265 2 14.5903 7.65623 58.2136
12266 1 63.6754 29.429 72.1159
12267 2 63.2178 0.178696 71.6378
12268 2 63.6957 29.6224 73.0968
12269 1 28.7533 12.2567 13.448
12270 2 29.69 12.0735 13.7464
12271 2 28.133 12.1749 14.2281
12272 1 30.2667 29.1111 81.3853
12273 2 31.0475 28.4865 81.3669
12274 2 30.5053 29.9276 81.9111
12275 1 78.9829 18.454 63.6283
12276 2 79.6733 17.7308 63.612
12277 2 78.1622 18.1209 64.0926
12278 1 36.0578 22.5965 45.9614
12279 2 35.749 23.1618 46.7264
12280 2 36.8062 23.059 45.486
12281 1 31.2546 16.2931 37.0921
12282 2 31.5626 16.5899 37.996
12283 2 31.4676 15.3238 36.9691
12284 1 85.0623 5.59251 47.4465
12285 2 86.0489 5.50674 47.3073
12286 2 84.6016 4.78811 47.0714
12287 1 1.48521 4.44569 78.5628
12288 2 1.02654 4.15032 77.7247
12289 2 0.922577 4.20433 79.3535
12290 1 86.179 14.3405 55.8555
12291 2 86.855 13.8875 56.4368
12292 2 86.6273 15.0538 55.3167
12293 1 4.18568 15.726 63.6023
12294 2 4.43051 14.7935 63.3368
12295 2 4.86096 16.0759 64.2516
12296 1 84.3366 4.18396 71.4876
12297 2 85.3087 4.004 71.3369
12298 2 83.9566 3.4804 72.088
12299 1 66.2642 14.0287 57.7565
12300 2 66.8883 14.7097 57.3733
12301 2 66.3418 13.1768 57.2387
12302 1 4.68835 8.28535 77.1366
12303 2 5.16382 7.40827 77.2048
12304 2 3.70171 8.12741 77.0966
12305 1 26.0721 8.71161 29.2425
12306 2 26.9559 8.34853 29.5373
12307 2 25.9029 9.58644 29.6965
12308 1 7.45911 0.521339 76.0656
12309 2 7.95926 0.618803 75.2052
12310 2 6.92428 1.34897 76.2358
12311 1 52.7248 12.785 50.99
12312 2 52.8221 12.2207 51.8098
12313 2 53.3119 12.4241 50.2653
12314 1 9.24782 14.137 81.8666
12315 2 10.093 14.0222 81.3446
12316 2 9.43488 13.9963 82.8389
12317 1 47.8613 12.7817 90.6225
12318 2 47.5489 11.8328 90.5762
12319 2 48.0857 13.0128 91.5692
12320 1 91.9782 3.68177 22.1906
12321 2 91.1618 3.66732 22.7679
12322 2 92.5805 2.92544 22.446
12323 1 19.9007 22.0598 68.8245
12324 2 19.2931 21.824 69.583
12325 2 20.8416 21.8209 69.0646
12326 1 56.5683 19.331 45.0913
12327 2 56.3731 20.1784 45.5849
12328 2 55.8532 19.1689 44.4113
12329 1 74.6962 22.7929 80.6361
12330 2 75.001 23.5631 81.1964
12331 2 73.7118 22.663 80.7554
12332 1 25.3362 21.1424 42.8295
12333 2 24.5197 21.7168 42.7719
12334 2 25.395 20.7372 43.7418
12335 1 36.8934 28.952 24.9754
12336 2 36.1299 29.1408 24.3578
12337 2 37.5892 28.4204 24.4925
12338 1 106.998 5.19728 65.342
12339 2 107.321 6.06984 64.9749
12340 2 105.999 5.18136 65.3341
12341 1 115.422 20.4792 34.2272
12342 2 114.763 20.9126 34.8423
12343 2 116.185 20.114 34.7599
12344 1 103.019 27.4388 24.0185
12345 2 102.038 27.6271 23.9649
12346 2 103.464 27.7459 23.1772
12347 1 95.0746 5.0793 36.3444
12348 2 94.5628 4.48681 36.9665
12349 2 95.8675 4.58411 35.9894
12350 1 116.297 15.186 10.7938
12351 2 117.238 14.8498 10.7778
12352 2 115.67 14.4174 10.9249
12353 1 40.7504 16.0432 90.3329
12354 2 40.1243 16.6132 89.8008
12355 2 40.5038 16.0913 91.3008
12356 1 81.6449 29.9077 45.8493
12357 2 80.9637 29.2734 46.215
12358 2 81.2389 0.441533 45.1075
12359 1 101.121 16.997 68.0319
12360 2 101.528 16.0868 68.1102
12361 2 100.491 17.1471 68.7938
12362 1 101.154 19.6134 77.0837
12363 2 101.441 20.501 76.7233
12364 2 101.446 19.5303 78.0364
12365 1 41.7642 3.06561 41.6732
12366 2 41.055 2.65343 41.1013
12367 2 42.6609 2.72654 41.3886
12368 1 81.7096 2.22332 86.8082
12369 2 82.6594 2.53511 86.8311
12370 2 81.6862 1.238 86.6391
12371 1 108.208 11.5052 82.789
12372 2 108.356 10.9894 83.6328
12373 2 108.314 12.4824 82.9728
12374 1 60.4948 24.7013 90.4857
12375 2 60.2824 25.0815 91.3859
12376 2 60.2054 23.7447 90.4512
12377 1 54.3721 2.71476 62.9416
12378 2 53.7496 2.83004 63.7157
12379 2 54.2825 3.49517 62.3228
12380 1 67.4551 9.48301 79.1381
12381 2 67.4493 8.50372 78.9357
12382 2 66.5973 9.89259 78.8275
12383 1 42.9995 7.78651 39.2952
12384 2 43.135 8.37357 40.0933
12385 2 43.2746 8.27832 38.4691
12386 1 118.189 14.7139 28.499
12387 2 118.568 13.8965 28.0647
12388 2 117.225 14.5605 28.7146
12389 1 64.6697 12.078 80.2595
12390 2 64.3034 11.4918 80.9821
12391 2 64.3284 13.01 80.3813
12392 1 11.6007 10.5833 48.2021
12393 2 11.6249 11.2969 48.9022
12394 2 10.9203 9.89422 48.4519
12395 1 23.6721 18.013 86.6832
12396 2 23.6378 17.4296 87.4947
12397 2 23.1253 17.6019 85.9538
12398 1 35.2417 10.4706 50.2034
12399 2 34.5494 10.9184 50.7692
12400 2 35.4357 11.0376 49.4029
12401 1 20.6064 24.9962 85.7158
12402 2 21.4093 25.549 85.4927
12403 2 20.0813 25.4471 86.4375
12404 1 23.2519 11.4124 49.3264
12405 2 23.2001 12.3973 49.1617
12406 2 22.4239 11.1093 49.7981
12407 1 39.3136 5.25014 40.8755
12408 2 39.0805 4.81457 41.745
12409 2 39.2499 6.24338 40.9727
12410 1 70.6982 27.6661 71.2089
12411 2 71.2877 28.4346 70.9599
12412 2 69.7609 27.8569 70.9171
12413 1 105.878 13.7813 25.4002
12414 2 105.393 13.2895 26.1233
12415 2 106.342 13.1255 24.804
12416 1 74.9288 8.83782 54.2093
12417 2 74.7655 9.46163 54.9736
12418 2 74.6114 9.26047 53.3604
12419 1 98.6683 27.7041 60.03
12420 2 98.6012 28.126 59.1258
12421 2 98.6456 26.7088 59.9359
12422 1 117.785 17.2789 60.2813
12423 2 117.552 16.3081 60.2266
12424 2 117.978 17.6274 59.3642
12425 1 21.0487 10.8804 79.548
12426 2 20.9017 11.8136 79.22
12427 2 21.9792 10.591 79.3235
12428 1 105.82 17.3065 23.1937
12429 2 106.425 17.2501 22.3993
12430 2 106.333 17.6515 23.9795
12431 1 9.43752 27.2879 22.7285
12432 2 9.59971 28.2744 22.7069
12433 2 8.58052 27.0806 22.2567
12434 1 95.5555 24.2267 37.1245
12435 2 94.6872 24.1835 36.6303
12436 2 95.4599 23.7665 38.0072
12437 1 22.9651 2.9669 40.2094
12438 2 22.1537 2.55134 39.7984
12439 2 23.5442 2.25152 40.6003
12440 1 37.1697 23.5605 38.307
12441 2 37.829 24.3124 38.3065
12442 2 37.637 22.7075 38.5393
12443 1 19.9314 6.43967 46.2993
12444 2 20.7844 6.93355 46.4679
12445 2 20.0696 5.46537 46.4772
12446 1 2.50693 16.6713 84.7361
12447 2 2.63826 16.3696 83.7918
12448 2 3.2034 17.3501 84.9691
12449 1 30.8276 4.87252 26.0596
12450 2 30.8266 3.96149 25.6473
12451 2 31.7314 5.28649 25.9511
12452 1 109.426 16.079 49.2094
12453 2 108.441 16.074 49.3807
12454 2 109.609 16.5173 48.3293
12455 1 38.9486 9.16795 19.8933
12456 2 39.7812 9.70175 20.0415
12457 2 38.5839 8.86768 20.7746
12458 1 110.417 15.6301 71.6911
12459 2 109.662 16.2262 71.9624
12460 2 110.081 14.9312 71.0601
12461 1 50.6385 23.8025 50.9341
12462 2 50.2483 24.6897 50.688
12463 2 49.9615 23.0844 50.7733
12464 1 30.6043 29.1619 37.4274
12465 2 29.8613 29.2253 38.0936
12466 2 30.4107 28.4236 36.7813
12467 1 22.3516 21.2762 49.8182
12468 2 21.8494 20.6116 50.3713
12469 2 22.6595 20.8409 48.9721
12470 1 59.8507 13.5605 69.669
12471 2 59.457 14.1949 70.3342
12472 2 59.189 12.8393 69.464
12473 1 106.798 25.1232 44.9506
12474 2 106.48 25.3808 44.0383
12475 2 106.223 25.5627 45.6407
12476 1 57.2268 1.60712 47.8796
12477 2 57.579 1.83831 46.9727
12478 2 56.9931 0.635263 47.9086
12479 1 64.8591 27.2776 35.3009
12480 2 64.3712 26.5641 34.7981
12481 2 64.3421 28.1322 35.2528
12482 1 84.5446 19.7131 33.511
12483 2 85.369 19.3298 33.9276
12484 2 84.8024 20.319 32.7584
12485 1 33.6255 5.79096 85.0642
12486 2 32.8525 6.39921 85.2447
12487 2 34.3784 6.3171 84.6689
12488 1 9.55732 3.78224 85.8864
12489 2 10.3479 4.28692 85.5396
12490 2 9.58674 2.84221 85.5466
12491 1 25.9458 11.2964 10.7492
12492 2 26.0372 12.289 10.6686
12493 2 25.1363 11.0795 11.2948
12494 1 101.763 21.8253 27.8972
12495 2 102.121 20.9208 28.1291
12496 2 101.29 21.781 27.0173
12497 1 71.7897 11.0035 38.5055
12498 2 71.5781 10.0665 38.2277
12499 2 71.0761 11.3378 39.1212
12500 1 7.88822 10.4076 11.4416
12501 2 8.07756 9.42795 11.3755
12502 2 8.73737 10.8989 11.6356
12503 1 84.4148 21.8345 52.4553
12504 2 84.023 21.1701 53.0916
12505 2 84.6376 21.3792 51.5933
12506 1 18.9108 16.3159 26.3787
12507 2 18.5723 16.0931 27.2929
12508 2 19.1658 15.4738 25.9034
12509 1 11.8912 13.2654 36.2203
12510 2 12.7445 13.7565 36.0453
12511 2 11.6728 13.3133 37.195
12512 1 20.9642 23.5444 89.6528
12513 2 21.7529 23.9644 90.1018
12514 2 21.1741 22.5917 89.433
12515 1 78.9111 12.9888 39.1535
12516 2 78.3524 13.0862 39.9771
12517 2 78.3806 13.2737 38.3552
12518 1 1.44453 18.3405 72.4202
12519 2 1.423 17.4005 72.7607
12520 2 2.07429 18.4 71.6457
12521 1 85.5948 21.3451 39.5643
12522 2 85.0627 21.1981 38.7305
12523 2 86.3785 20.724 39.5735
12524 1 103.716 0.728208 48.8992
12525 2 104.101 1.32392 49.6042
12526 2 104.174 29.8397 48.9271
12527 1 68.0476 29.9109 46.6986
12528 2 68.0673 29.9805 47.696
12529 2 68.4882 29.0592 46.4151
12530 1 116.44 25.9322 72.2524
12531 2 116.887 25.0662 72.0273
12532 2 116.923 26.3689 73.0115
12533 1 10.5176 1.74076 28.9236
12534 2 10.4862 2.35292 28.1335
12535 2 9.91257 2.08927 29.6395
12536 1 49.988 29.5108 40.7149
12537 2 49.3211 29.7113 41.4326
12538 2 50.8329 29.1733 41.1299
12539 1 17.1482 11.6235 22.836
12540 2 16.7906 12.4428 23.2841
12541 2 16.5163 11.3341 22.1171
12542 1 117.45 7.75671 90.8552
12543 2 117.228 8.69045 91.1365
12544 2 116.606 7.26492 90.6392
12545 1 56.7905 22.8548 65.6583
12546 2 56.0805 22.499 65.0506
12547 2 56.3974 23.5518 66.258
12548 1 41.3641 17.9575 65.6434
12549 2 40.5061 17.919 65.1311
12550 2 42.1308 18.0237 65.0048
12551 1 32.748 21.969 35.5044
12552 2 33.6388 21.5823 35.7431
12553 2 32.8661 22.913 35.1966
12554 1 6.09638 17.919 30.4123
12555 2 5.42132 17.3611 30.895
12556 2 5.85068 18.8849 30.4947
12557 1 110.587 3.40793 55.3831
12558 2 110.669 2.79575 54.5966
12559 2 110.618 2.87227 56.227
12560 1 20.2773 25.5117 47.0827
12561 2 20.1396 25.6885 46.1082
12562 2 21.0317 26.0746 47.4203
12563 1 61.4602 18.6273 77.9161
12564 2 60.6857 17.9946 77.9164
12565 2 61.2615 19.3971 77.3095
12566 1 4.79449 0.139467 34.7416
12567 2 4.81386 29.1588 34.547
12568 2 4.11476 0.581983 34.1566
12569 1 119.357 10.1041 73.0771
12570 2 119.266 11.0999 73.0817
12571 2 118.81 9.71559 73.8183
12572 1 45.3682 15.3545 56.3097
12573 2 45.6635 15.0444 55.406
12574 2 44.5406 15.9083 56.218
12575 1 56.0258 24.1303 41.3288
12576 2 56.6946 23.4004 41.1875
12577 2 56.5031 24.9841 41.5365
12578 1 59.6856 24.4721 66.4915
12579 2 59.7197 23.5724 66.0564
12580 2 59.784 24.3677 67.4812
12581 1 78.548 26.04 33.8908
12582 2 78.5726 25.3103 33.2075
12583 2 78.6538 25.6457 34.8036
12584 1 21.0948 12.4996 74.1764
12585 2 21.4054 13.4489 74.128
12586 2 20.0952 12.4749 74.1636
12587 1 73.5417 6.85826 61.5205
12588 2 73.9036 6.37666 60.7224
12589 2 72.7618 6.35264 61.8896
12590 1 20.588 8.75286 34.7811
12591 2 20.1691 9.27969 34.0415
12592 2 19.8717 8.33448 35.3395
12593 1 87.5232 18.3702 87.6977
12594 2 87.5244 17.7717 86.8966
12595 2 86.6895 18.2159 88.2279
12596 1 69.6597 5.49957 42.5357
12597 2 69.5097 5.76394 43.4884
12598 2 69.3037 4.57719 42.3858
12599 1 78.2261 7.51791 77.2233
12600 2 77.6758 7.07145 76.5177
12601 2 78.351 8.48184 76.9883
12602 1 0.173852 15.8356 22.7223
12603 2 0.876848 15.2244 23.0859
12604 2 119.272 15.4254 22.8592
12605 1 91.5075 8.01511 60.7428
12606 2 90.5523 8.28635 60.6247
12607 2 92.0682 8.45532 60.0414
12608 1 63.8899 7.69651 75.3212
12609 2 64.3655 6.98639 75.8403
12610 2 64.5567 8.34858 74.9603
12611 1 21.9457 14.6327 24.4946
12612 2 22.9276 14.6573 24.307
12613 2 21.6355 13.6825 24.5233
12614 1 116.133 14.9338 15.1363
12615 2 116.972 15.2445 14.689
12616 2 116.366 14.3313 15.8998
12617 1 44.6988 17.0519 29.8852
12618 2 44.5672 16.2118 29.3588
12619 2 43.8318 17.3219 30.3041
12620 1 13.8174 6.06447 25.6753
12621 2 14.7876 6.30369 25.6375
12622 2 13.4975 5.82353 24.759
12623 1 80.017 13.1367 81.8643
12624 2 79.4877 12.379 82.2462
12625 2 80.4091 13.6777 82.6083
12626 1 101.48 16.1444 64.0195
12627 2 101.417 16.5878 63.1253
12628 2 102.255 16.523 64.5257
12629 1 81.8406 4.34949 47.6351
12630 2 81.25 5.07926 47.2908
12631 2 82.531 4.12677 46.9469
12632 1 97.1439 22.5511 72.4135
12633 2 97.5864 22.4452 71.523
12634 2 96.1583 22.414 72.3144
12635 1 103.501 16.5017 86.9358
12636 2 104.173 15.9418 86.4509
12637 2 103.101 15.9699 87.6819
12638 1 57.5746 8.29466 90.3433
12639 2 56.9076 7.87629 89.7268
12640 2 57.7381 7.68623 91.1199
12641 1 110.881 5.52175 81.4859
12642 2 111.614 6.18827 81.3502
12643 2 111.245 4.59768 81.3688
12644 1 111.328 24.9796 37.2041
12645 2 111.277 24.3287 36.4467
12646 2 110.816 25.8055 36.9692
12647 1 60.566 21.3226 46.3743
12648 2 60.7355 20.8758 45.4958
12649 2 59.5812 21.3632 46.5431
12650 1 18.2178 6.17829 67.1681
12651 2 19.0357 6.68268 66.8914
12652 2 18.4339 5.59738 67.9528
12653 1 39.0476 17.4672 67.5119
12654 2 39.6482 17.6894 66.7438
12655 2 39.5401 16.891 68.1642
12656 1 15.3017 16.4964 88.0483
12657 2 15.655 17.2703 88.5738
12658 2 14.3398 16.3486 88.2783
12659 1 7.08623 6.73328 30.5394
12660 2 6.39692 7.38045 30.2138
12661 2 7.51558 7.09246 31.3681
12662 1 113.075 27.5442 56.4415
12663 2 112.168 27.9232 56.6237
12664 2 113.375 27.8214 55.5287
12665 1 14.1564 10.0271 24.0764
12666 2 13.9673 10.9282 24.4665
12667 2 15.1435 9.86677 24.0709
12668 1 52.3999 17.5959 35.2695
12669 2 53.342 17.8814 35.445
12670 2 51.8303 17.8225 36.0596
12671 1 58.9698 13.3954 79.9364
12672 2 58.4903 13.6055 79.0843
12673 2 59.8382 13.8906 79.961
12674 1 12.6108 16.3355 83.7907
12675 2 12.4701 15.3469 83.7369
12676 2 12.8319 16.6905 82.8823
12677 1 100.498 14.8637 53.2598
12678 2 100.72 15.2594 52.3686
12679 2 100.074 13.9673 53.1304
12680 1 37.928 6.24099 20.8301
12681 2 37.4574 5.63932 21.4755
12682 2 38.8456 5.88576 20.6516
12683 1 106.592 15.9702 49.2058
12684 2 105.932 16.4158 49.8115
12685 2 106.214 15.1023 48.883
12686 1 51.3824 28.9823 76.7197
12687 2 50.7721 29.5008 76.1207
12688 2 51.5602 28.0841 76.3176
12689 1 85.7661 5.49116 52.4045
12690 2 85.6321 6.34133 51.8953
12691 2 85.65 4.71194 51.7886
12692 1 93.8856 25.6192 76.7808
12693 2 93.1094 25.3191 77.3353
12694 2 94.362 24.8201 76.414
12695 1 42.9619 8.23168 51.1335
12696 2 43.3278 7.32362 50.9297
12697 2 43.0207 8.80568 50.3167
12698 1 75.587 13.861 61.5981
12699 2 76.4689 13.6447 62.0171
12700 2 75.0555 14.4373 62.2189
12701 1 11.0722 5.65803 40.5753
12702 2 10.9754 5.28045 39.6544
12703 2 10.8984 4.94043 41.2497
12704 1 105.242 17.7906 70.3099
12705 2 104.773 18.0395 71.1571
12706 2 105.071 16.827 70.1046
12707 1 53.9137 13.7119 54.4504
12708 2 54.7109 13.8751 55.0316
12709 2 54.0617 12.8864 53.9057
12710 1 41.5667 13.7872 38.2201
12711 2 40.924 13.2273 38.7431
12712 2 41.0595 14.3825 37.5969
12713 1 24.0039 12.6093 76.5832
12714 2 23.8116 12.3576 75.6347
12715 2 23.1507 12.8585 77.0415
12716 1 32.7051 4.17734 69.8724
12717 2 33.3706 3.43202 69.912
12718 2 33.1162 5.0112 70.2407
12719 1 74.6148 26.6673 48.9826
12720 2 75.3956 26.2986 49.4869
12721 2 74.0282 25.9159 48.6806
12722 1 15.0485 24.192 83.572
12723 2 15.4595 23.2952 83.4078
12724 2 14.1445 24.2274 83.146
12725 1 2.93935 25.1889 88.7459
12726 2 3.09313 24.4015 89.3429
12727 2 3.62743 25.8896 88.9345
12728 1 100.999 22.6498 82.7936
12729 2 100.69 23.5473 82.4798
12730 2 100.223 22.1386 83.161
12731 1 84.233 4.91763 65.9216
12732 2 84.1863 4.57698 64.9825
12733 2 84.3733 5.90768 65.9104
12734 1 82.0902 28.251 43.7989
12735 2 83.0405 27.9417 43.8352
12736 2 81.8786 28.7755 44.6236
12737 1 25.7549 15.4297 54.1583
12738 2 26.3353 15.935 53.5196
12739 2 24.7938 15.586 53.9306
12740 1 39.571 23.1016 41.0748
12741 2 40.3503 23.4548 41.5924
12742 2 39.3945 23.6964 40.2906
12743 1 44.1386 13.6764 73.0455
12744 2 44.3576 14.0555 72.1464
12745 2 43.6774 14.3716 73.597
12746 1 64.1505 24.4675 85.2036
12747 2 63.5664 24.8155 84.4703
12748 2 63.5814 24.1696 85.97
12749 1 56.0643 3.22946 52.1569
12750 2 56.2674 4.09329 51.6958
12751 2 56.137 3.3546 53.1463
12752 1 58.2271 2.87405 50.3504
12753 2 57.647 3.63913 50.6299
12754 2 57.8032 2.39867 49.5794
12755 1 6.29293 19.7166 19.0354
12756 2 6.63865 18.951 18.4928
12757 2 6.91209 20.4965 18.9437
12758 1 115.225 4.31938 71.8586
12759 2 115.791 5.09243 72.1446
12760 2 114.977 3.77399 72.6591
12761 1 119.83 3.15032 80.4396
12762 2 119.814 2.15686 80.3265
12763 2 119.982 3.37386 81.4023
12764 1 105.355 23.6123 55.5193
12765 2 105.582 23.3442 54.5831
12766 2 105.642 22.8925 56.1512
12767 1 20.1386 17.2242 80.447
12768 2 20.1457 17.3115 81.4432
12769 2 19.3567 16.6673 80.1667
12770 1 36.5907 7.57043 63.5924
12771 2 37.1171 7.90622 62.8113
12772 2 35.6759 7.30431 63.2883
12773 1 93.3638 22.7665 82.544
12774 2 93.5854 22.0694 81.8621
12775 2 92.3755 22.9184 82.5563
12776 1 40.9723 29.6538 38.3527
12777 2 41.7345 29.1129 38.7082
12778 2 40.1304 29.1165 38.4029
12779 1 5.01246 19.1339 58.4112
12780 2 4.12917 18.9699 57.972
12781 2 5.36267 20.028 58.132
12782 1 16.2418 5.89799 15.9785
12783 2 15.6305 5.67502 16.7378
12784 2 16.6809 6.77958 16.1519
12785 1 41.781 13.4299 89.1261
12786 2 42.487 13.542 88.4267
12787 2 41.5624 14.3206 89.5247
12788 1 114.693 13.2227 90.0852
12789 2 115.361 12.5716 89.7245
12790 2 113.785 12.9963 89.7351
12791 1 115.022 20.0141 67.6655
12792 2 115.947 19.9979 68.0453
12793 2 115.031 20.4909 66.7865
12794 1 108.896 20.1259 24.4324
12795 2 108.742 20.9156 25.0261
12796 2 108.425 19.3285 24.8087
12797 1 117.314 27.3765 91.0665
12798 2 117.927 27.5943 90.3069
12799 2 117.851 27.2372 91.8986
12800 1 105.54 15.4622 34.2709
12801 2 105.271 14.545 33.9766
12802 2 106.487 15.635 33.9999
12803 1 94.6535 2.645 41.0572
12804 2 95.6275 2.57324 41.2719
12805 2 94.1245 2.13079 41.7323
12806 1 5.34031 26.0668 64.7771
12807 2 6.2467 25.6704 64.6309
12808 2 4.68375 25.3366 64.9661
12809 1 21.5341 24.1071 69.1652
12810 2 21.9478 24.0481 68.2567
12811 2 20.7805 23.4531 69.2314
12812 1 8.83221 9.2983 62.5127
12813 2 8.92456 8.30391 62.4612
12814 2 8.05076 9.5309 63.0917
12815 1 48.3706 26.8108 53.8202
12816 2 48.015 25.8808 53.9131
12817 2 47.7396 27.3552 53.2675
12818 1 45.3774 17.2714 67.7608
12819 2 44.3834 17.1617 67.7567
12820 2 45.6567 17.809 66.9652
12821 1 34.711 24.4446 38.3832
12822 2 34.6421 25.133 37.6611
12823 2 35.6085 24.0057 38.3407
12824 1 47.9203 10.2651 58.2672
12825 2 48.4081 10.7549 57.5446
12826 2 47.171 9.73852 57.8658
12827 1 111.425 10.1858 74.6271
12828 2 111.916 11.0484 74.5056
12829 2 110.771 10.0671 73.8805
12830 1 5.65887 12.6472 29.0913
12831 2 6.02193 12.7774 30.0139
12832 2 6.05968 11.8243 28.6884
12833 1 104.616 27.1174 90.9306
12834 2 104.914 26.5394 90.1709
12835 2 103.899 26.648 91.4452
12836 1 50.5496 10.3588 37.2069
12837 2 51.3376 10.1659 37.7915
12838 2 50.1076 11.2027 37.511
12839 1 101.915 11.2052 10.7646
12840 2 102.615 10.5569 10.4664
12841 2 101.406 10.8161 11.5326
12842 1 20.533 6.45868 62.3283
12843 2 19.5747 6.52359 62.05
12844 2 20.959 7.36149 62.2695
12845 1 101.207 20.8023 73.5271
12846 2 101.499 21.4859 72.8579
12847 2 101.596 21.0246 74.4213
12848 1 27.7842 23.9927 75.24
12849 2 27.3462 24.8038 75.6275
12850 2 28.3936 23.5858 75.9204
12851 1 103.181 27.7712 16.5963
12852 2 103.364 27.1803 17.3821
12853 2 103.764 27.498 15.8309
12854 1 20.7588 3.5339 32.4285
12855 2 20.8123 3.88341 31.4931
12856 2 20.7218 4.30076 33.0693
12857 1 57.013 22.2416 36.4302
12858 2 56.4162 22.2753 37.2319
12859 2 56.6997 21.5214 35.8114
12860 1 51.2518 28.9311 47.7382
12861 2 50.813 29.7157 47.3001
12862 2 51.5262 29.1787 48.6674
12863 1 0.224453 25.9423 71.6117
12864 2 0.299817 25.3458 72.4107
12865 2 0.839359 26.7235 71.7197
12866 1 15.0034 17.4226 26.6664
12867 2 15.5825 17.2051 27.4521
12868 2 14.0653 17.1308 26.8529
12869 1 62.7223 29.3133 84.6671
12870 2 63.6003 29.7875 84.7332
12871 2 62.5612 28.7919 85.5051
12872 1 114.821 25.5274 70.0366
12873 2 115.218 25.8154 70.9079
12874 2 115.522 25.0784 69.4827
12875 1 44.9076 12.0933 68.4069
12876 2 44.362 11.7862 67.6271
12877 2 44.461 11.8139 69.2569
12878 1 12.9241 11.2395 46.0895
12879 2 12.9337 12.2248 45.919
12880 2 12.2595 11.0319 46.8073
12881 1 77.8421 28.1578 67.0919
12882 2 76.8715 28.322 66.9163
12883 2 78.3727 28.3941 66.2779
12884 1 101.566 29.3022 71.1463
12885 2 101.542 0.146721 71.6813
12886 2 102.179 28.6461 71.586
12887 1 109.302 18.3865 18.608
12888 2 109.695 17.5297 18.9425
12889 2 109.729 18.6316 17.7378
12890 1 17.9631 1.09009 90.7923
12891 2 18.3109 0.158347 90.6878
12892 2 18.6746 1.74261 90.5315
12893 1 3.86768 21.3275 37.1967
12894 2 4.74408 21.0402 37.5832
12895 2 3.86076 21.144 36.2137
12896 1 103.273 27.3506 13.254
12897 2 103.06 26.8129 12.4381
12898 2 104.022 26.9152 13.754
12899 1 32.2049 8.60342 45.3764
12900 2 33.0627 8.18836 45.6795
12901 2 31.4623 8.31174 45.9792
12902 1 113.488 19.0956 76.4415
12903 2 114.129 19.6123 75.8739
12904 2 112.652 18.9172 75.9223
12905 1 14.4448 17.7483 20.3762
12906 2 14.1183 17.4413 21.2702
12907 2 15.2509 17.217 20.1154
12908 1 102.455 24.9826 37.0769
12909 2 102.679 24.768 38.0275
12910 2 102.697 24.2071 36.494
12911 1 2.25277 27.2307 28.7186
12912 2 1.57949 27.8859 29.0612
12913 2 2.78744 26.8715 29.4835
12914 1 27.9548 1.73443 76.3596
12915 2 28.8098 1.85469 76.8641
12916 2 27.6871 2.60426 75.9452
12917 1 70.6748 24.3776 59.7351
12918 2 69.8755 24.7656 60.1941
12919 2 70.3927 23.5967 59.1779
12920 1 87.1635 3.66337 64.6465
12921 2 86.3919 4.20244 64.309
12922 2 87.8005 4.26141 65.1329
12923 1 15.4968 28.5271 50.8198
12924 2 16.4204 28.7964 50.5469
12925 2 15.1029 29.2346 51.4065
12926 1 86.9045 23.6339 41.3307
12927 2 87.1141 23.6238 42.3084
12928 2 86.7952 24.5792 41.023
12929 1 63.1878 23.8878 76.0497
12930 2 63.5797 23.0025 75.7993
12931 2 62.3031 23.747 76.4941
12932 1 83.4443 15.6239 34.0028
12933 2 83.5878 16.4703 34.5157
12934 2 82.6294 15.715 33.4305
12935 1 69.444 4.14976 50.1903
12936 2 69.3473 4.66065 51.0445
12937 2 70.1138 3.4175 50.3139
12938 1 108.047 9.58428 13.0042
12939 2 107.325 8.93043 13.2335
12940 2 108.88 9.35149 13.5061
12941 1 20.0242 14.3651 86.5136
12942 2 19.8905 14.1585 85.5443
12943 2 20.6213 15.162 86.6053
12944 1 106.374 26.1287 65.8199
12945 2 107.328 25.9123 65.6142
12946 2 105.774 25.5595 65.2572
12947 1 80.2068 12.2421 46.8985
12948 2 79.4183 12.0479 46.3149
12949 2 80.252 11.5657 47.6337
12950 1 63.7032 3.87386 41.4872
12951 2 64.5498 4.38941 41.619
12952 2 62.9991 4.22593 42.1039
12953 1 119.635 3.63405 69.4413
12954 2 119.364 3.99459 68.5486
12955 2 119.452 4.3189 70.1466
12956 1 98.5401 15.7786 31.6137
12957 2 99.5014 15.5887 31.4144
12958 2 98.0099 14.9346 31.5331
12959 1 82.1082 1.40681 32.807
12960 2 82.4986 2.1565 33.3413
12961 2 82.8064 1.0342 32.1957
12962 1 15.6426 7.78738 71.1634
12963 2 15.8509 6.82571 70.9851
12964 2 16.3877 8.19786 71.6891
12965 1 97.0467 10.8618 42.3098
12966 2 96.5495 10.1457 42.7996
12967 2 96.432 11.6291 42.127
12968 1 10.7744 21.531 30.9378
12969 2 9.87101 21.1041 30.8974
12970 2 10.9443 22.0326 30.0895
12971 1 4.03885 0.0901447 86.6856
12972 2 4.52988 0.846191 87.1184
12973 2 4.61813 29.6744 85.9845
12974 1 94.4688 4.49436 25.4817
12975 2 94.0313 3.97141 24.7501
12976 2 94.9088 3.86611 26.1233
12977 1 21.5561 5.95789 90.0498
12978 2 22.4852 5.62536 89.8874
12979 2 20.9043 5.37697 89.5624
12980 1 105.892 25.9169 42.3751
12981 2 104.919 25.8832 42.1441
12982 2 106.146 26.8552 42.6086
12983 1 50.7196 24.7221 84.9538
12984 2 51.074 24.2894 84.1248
12985 2 51.1916 25.5908 85.1043
12986 1 18.6378 1.54311 83.0737
12987 2 18.7458 2.0703 82.2308
12988 2 18.1628 0.686453 82.8724
12989 1 21.9073 16.0833 78.8796
12990 2 22.8195 16.4885 78.8182
12991 2 21.4262 16.4635 79.6695
12992 1 19.366 13.8536 24.9804
12993 2 18.5995 13.3359 25.3605
12994 2 20.1525 13.2472 24.8637
12995 1 37.935 8.46112 84.5635
12996 2 37.1208 7.98691 84.2286
12997 2 37.9343 8.45897 85.5635
12998 1 106.485 24.7218 62.7331
12999 2 106.523 23.974 62.0702
13000 2 105.717 25.3231 62.5138
13001 1 101.577 0.913168 53.1293
13002 2 102.471 1.09278 52.7198
13003 2 100.932 0.639254 52.4153
13004 1 101.919 3.47807 85.8583
13005 2 102.708 2.88014 85.7207
13006 2 101.084 2.994 85.5951
13007 1 108.119 22.2356 54.5884
13008 2 109.041 22.036 54.9207
13009 2 107.491 21.5216 54.8982
13010 1 0.68738 15.2559 33.7302
13011 2 0.293481 14.9733 34.6048
13012 2 0.527155 16.2334 33.5928
13013 1 103.786 18.3114 84.1969
13014 2 103.077 18.5911 83.5499
13015 2 103.955 17.3303 84.1026
13016 1 107.096 13.4706 51.9526
13017 2 107.139 12.4728 52.0034
13018 2 106.158 13.7541 51.754
13019 1 16.1481 2.57417 48.3324
13020 2 16.932 2.913 47.8123
13021 2 15.5061 2.12351 47.7122
13022 1 11.1642 25.5363 67.4264
13023 2 11.3115 26.4914 67.1693
13024 2 11.5442 24.9387 66.7203
13025 1 3.51563 16.3372 14.5986
13026 2 4.25387 15.6804 14.445
13027 2 3.70057 17.1733 14.0821
13028 1 116.539 14.8666 39.7074
13029 2 117.343 15.4455 39.5732
13030 2 116.652 14.327 40.5417
13031 1 34.3656 2.0151 28.7439
13032 2 34.379 2.9299 28.3402
13033 2 34.6582 2.06779 29.6987
13034 1 8.75079 3.0813 38.3043
13035 2 7.94176 2.55334 38.5626
13036 2 8.51645 4.05268 38.2654
13037 1 22.156 5.9316 35.1765
13038 2 21.1955 5.66668 35.2618
13039 2 22.2511 6.61022 34.4482
13040 1 116.812 5.70733 36.0256
13041 2 117.304 5.60184 35.1616
13042 2 117.157 5.04331 36.689
13043 1 82.2805 18.2292 35.3351
13044 2 81.7635 19.0693 35.1716
13045 2 83.1444 18.452 35.7868
13046 1 71.6478 9.35545 79.3625
13047 2 71.3291 9.35497 78.4147
13048 2 72.5272 9.82827 79.4182
13049 1 42.3623 21.7673 46.397
13050 2 43.1846 21.3088 46.7341
13051 2 42.3261 22.6976 46.762
13052 1 42.5037 5.31023 26.1136
13053 2 42.428 6.29645 26.2607
13054 2 42.9935 4.89544 26.8805
13055 1 47.0351 8.19137 43.0707
13056 2 46.5853 8.80435 43.7202
13057 2 47.949 7.96281 43.4062
13058 1 3.22085 16.8214 90.8259
13059 2 3.51969 17.4936 91.5033
13060 2 3.99543 16.5629 90.2486
13061 1 100.191 1.14011 57.8667
13062 2 100.239 2.13782 57.8189
13063 2 100.318 0.756139 56.9521
13064 1 53.6716 6.272 90.3309
13065 2 54.3655 6.63936 89.7116
13066 2 53.9111 5.33385 90.581
13067 1 3.95599 4.43339 45.6024
13068 2 4.17701 3.55713 45.1742
13069 2 4.76506 5.02106 45.5958
13070 1 39.1794 21.051 86.8093
13071 2 38.8519 20.8988 85.8768
13072 2 40.1535 20.8311 86.8605
13073 1 113.104 25.1891 67.1561
13074 2 114.007 25.5022 66.8639
13075 2 112.609 24.8179 66.3701
13076 1 106.083 29.2729 27.8789
13077 2 105.465 28.643 28.3483
13078 2 106.983 29.2433 28.3146
13079 1 0.59451 3.26568 33.4263
13080 2 0.617215 2.39938 32.9273
13081 2 119.845 3.83 33.0804
13082 1 87.9121 10.8911 57.7511
13083 2 88.4607 11.1638 56.9607
13084 2 87.3025 10.1421 57.4914
13085 1 47.8595 12.7167 50.3167
13086 2 47.2441 13.4559 50.043
13087 2 47.7324 12.5199 51.2888
13088 1 35.2971 2.79222 84.8974
13089 2 36.1234 2.32655 85.2143
13090 2 35.4859 3.25226 84.0297
13091 1 14.4074 5.00024 11.0165
13092 2 15.3134 4.82906 10.6295
13093 2 14.056 5.87014 10.6704
13094 1 92.2143 6.89054 38.6965
13095 2 92.9649 7.55136 38.7013
13096 2 91.7176 6.95664 37.8312
13097 1 93.8543 18.0808 42.4982
13098 2 93.2939 17.5557 41.8577
13099 2 94.0679 17.5156 43.295
13100 1 47.7347 17.8394 53.1396
13101 2 48.3004 17.7881 52.3166
13102 2 48.2168 17.4094 53.9029
13103 1 56.6188 3.43357 72.0282
13104 2 57.0736 3.01181 71.2439
13105 2 56.821 4.41279 72.0439
13106 1 110.214 26.1549 11.447
13107 2 110.864 25.4211 11.6455
13108 2 110.425 26.9497 12.0161
13109 1 102.433 2.73809 37.3266
13110 2 101.636 2.89135 36.7425
13111 2 102.301 3.20671 38.2001
13112 1 27.0598 28.5385 19.0796
13113 2 26.1048 28.2449 19.0374
13114 2 27.3819 28.7583 18.1587
13115 1 119.837 23.5141 79.9743
13116 2 119.534 23.8619 79.0868
13117 2 119.405 22.6291 80.1498
13118 1 99.8093 11.7311 71.5566
13119 2 100.394 12.5383 71.6411
13120 2 98.9374 11.9011 72.0159
13121 1 92.387 5.83138 76.7063
13122 2 91.4218 5.61848 76.8583
13123 2 92.9076 5.62919 77.5358
13124 1 26.4033 3.50447 41.5062
13125 2 27.3333 3.36358 41.8455
13126 2 26.3262 3.13305 40.581
13127 1 29.1042 10.1742 28.5476
13128 2 29.4401 10.4354 29.4526
13129 2 28.571 10.9262 28.1601
13130 1 59.3222 27.7768 78.3338
13131 2 59.4186 27.7264 79.3279
13132 2 58.9757 26.9048 77.988
13133 1 30.6982 2.22392 25.2592
13134 2 29.8363 2.2152 24.7522
13135 2 31.4621 2.13961 24.6194
13136 1 28.6781 22.6478 44.6513
13137 2 28.8089 21.9889 45.392
13138 2 29.5634 23.0274 44.3826
13139 1 72.1619 6.22161 42.2623
13140 2 71.238 6.35429 42.621
13141 2 72.137 5.5585 41.5142
13142 1 47.6552 2.51691 40.5498
13143 2 48.5437 2.94683 40.3893
13144 2 47.278 2.84469 41.416
13145 1 111.814 7.09171 25.9102
13146 2 111.551 6.8545 24.9751
13147 2 112.383 7.9141 25.8979
13148 1 47.0142 15.5179 34.2791
13149 2 46.0171 15.5293 34.3545
13150 2 47.4158 15.9005 35.1112
13151 1 78.619 21.281 64.5322
13152 2 78.9346 20.3671 64.277
13153 2 79.3129 21.7276 65.0971
13154 1 86.0844 18.6229 52.4756
13155 2 86.0361 18.5277 51.4813
13156 2 85.2889 18.1824 52.8917
13157 1 82.503 18.389 32.0056
13158 2 83.1027 18.7377 32.7258
13159 2 82.1277 17.5047 32.2835
13160 1 78.856 13.7663 71.1006
13161 2 79.0202 13.5403 70.1404
13162 2 78.6025 14.7306 71.1774
13163 1 99.4144 0.486765 38.5425
13164 2 99.4861 0.614295 39.5317
13165 2 98.7367 1.12242 38.1727
13166 1 46.5889 9.52104 68.4538
13167 2 47.16 10.0713 69.0629
13168 2 46.109 8.82385 68.9863
13169 1 108.13 15.4514 53.6388
13170 2 107.646 16.3023 53.4336
13171 2 108.034 14.8195 52.8697
13172 1 99.5139 25.4776 27.626
13173 2 99.0099 24.9134 28.28
13174 2 99.5184 26.4273 27.9392
13175 1 110.627 23.1359 79.3047
13176 2 110.525 23.7681 80.0727
13177 2 110.115 22.2982 79.4922
13178 1 49.6497 11.4054 53.4887
13179 2 49.3719 10.8162 54.2474
13180 2 48.9559 12.1107 53.343
13181 1 13.1873 28.0597 14.5371
13182 2 13.104 27.0826 14.733
13183 2 13.4517 28.1866 13.581
13184 1 70.8231 10.2072 48.0143
13185 2 71.7828 9.93005 48.0604
13186 2 70.3723 9.99289 48.8808
13187 1 43.5225 17.1614 53.3208
13188 2 43.1187 17.9388 52.8385
13189 2 43.6847 17.4094 54.2759
13190 1 99.8689 5.33826 63.9492
13191 2 100.542 4.60215 64.0199
13192 2 99.2159 5.12415 63.2227
13193 1 28.5917 2.41474 82.5814
13194 2 27.8505 2.00098 83.1099
13195 2 29.4391 1.90902 82.7433
13196 1 111.162 25.0532 62.2727
13197 2 110.909 24.3382 61.6211
13198 2 111.658 24.6451 63.0393
13199 1 29.9364 16.6312 40.5203
13200 2 29.4561 17.4867 40.7137
13201 2 29.2814 15.8756 40.5131
13202 1 35.6869 13.6861 17.923
13203 2 35.6165 14.1194 17.0245
13204 2 35.3604 12.7427 17.8647
13205 1 118.667 8.57436 59.633
13206 2 118.691 7.65227 60.0192
13207 2 119.007 9.22789 60.3088
13208 1 34.0267 19.6019 54.2426
13209 2 34.8963 19.4188 53.784
13210 2 33.587 20.394 53.8192
13211 1 107.526 22.4497 78.5388
13212 2 108.092 21.8003 79.0465
13213 2 107.117 23.1041 79.1751
13214 1 42.9119 27.5186 91.1401
13215 2 42.4536 27.9973 91.889
13216 2 42.3857 27.6362 90.2979
13217 1 85.3544 7.88053 51.1483
13218 2 86.2108 8.31757 51.4232
13219 2 85.205 8.02591 50.1702
13220 1 84.4226 3.4311 86.2344
13221 2 84.2573 3.30549 85.2562
13222 2 84.7956 2.58742 86.6205
13223 1 110.356 12.8205 76.7219
13224 2 111.258 12.5477 76.3891
13225 2 110.449 13.264 77.6133
13226 1 51.3846 4.74296 60.8806
13227 2 52.3589 4.61527 60.6953
13228 2 51.1189 4.18519 61.6669
13229 1 30.9391 26.0832 24.6549
13230 2 31.1381 26.1926 25.6288
13231 2 31.5317 26.6886 24.1235
13232 1 94.2275 27.7124 37.3008
13233 2 93.8838 27.3509 38.1675
13234 2 95.0025 28.3193 37.4767
13235 1 1.60433 1.23251 18.4572
13236 2 2.21723 0.443356 18.497
13237 2 1.27075 1.34863 17.5216
13238 1 75.0623 8.20067 49.7713
13239 2 74.8904 8.44646 50.7253
13240 2 74.7057 7.28341 49.594
13241 1 107.778 2.95642 66.5745
13242 2 108.109 3.3231 67.444
13243 2 107.337 3.6858 66.0513
13244 1 96.3661 28.7329 61.3101
13245 2 95.6911 28.9664 60.6102
13246 2 97.2463 28.5443 60.8745
13247 1 90.7265 1.89386 31.7273
13248 2 91.1151 1.56535 32.5882
13249 2 91.3539 1.68498 30.9772
13250 1 102.972 15.2086 39.3503
13251 2 102.663 15.3438 40.2917
13252 2 102.764 14.2737 39.0623
13253 1 5.22032 24.9438 37.1469
13254 2 5.7435 24.146 37.4465
13255 2 5.48312 25.183 36.2121
13256 1 0.567557 0.845467 62.6029
13257 2 119.761 0.998384 62.0319
13258 2 0.987341 1.72446 62.829
13259 1 107.372 13.9642 71.3087
13260 2 108.194 13.8498 70.7509
13261 2 106.991 14.8763 71.1576
13262 1 48.4496 20.772 70.5934
13263 2 48.7833 21.5325 71.1505
13264 2 48.3653 19.9539 71.1623
13265 1 45.3893 19.5616 53.1417
13266 2 46.202 19.2083 53.605
13267 2 45.4855 19.4322 52.1548
13268 1 70.7854 1.05187 53.0497
13269 2 70.8641 0.932203 54.0394
13270 2 71.5388 0.576412 52.5955
13271 1 91.0657 28.0889 67.4878
13272 2 90.9408 28.087 68.48
13273 2 91.11 29.0323 67.1592
13274 1 87.2471 5.56122 54.6994
13275 2 86.8692 5.29656 53.8122
13276 2 87.7493 4.79029 55.0912
13277 1 8.17263 3.16602 74.5208
13278 2 8.08342 2.2926 74.042
13279 2 9.1185 3.48468 74.4593
13280 1 119.794 25.4474 11.6064
13281 2 0.0101567 26.0166 10.8131
13282 2 119.555 26.0325 12.3813
13283 1 105.77 17.1425 36.7244
13284 2 105.587 16.4101 36.0688
13285 2 106.399 16.8104 37.4278
13286 1 119.35 25.8941 40.2354
13287 2 119.933 26.6212 39.8728
13288 2 118.391 26.1202 40.066
13289 1 77.686 18.9062 60.9252
13290 2 78.0586 19.6139 60.325
13291 2 78.3352 18.7185 61.6623
13292 1 46.4226 25.7773 43.3313
13293 2 46.0072 25.1896 44.0256
13294 2 45.713 26.1165 42.7137
13295 1 63.9772 7.1701 66.3842
13296 2 63.0729 6.87682 66.6945
13297 2 64.5429 7.40034 67.1761
13298 1 29.3953 24.8303 22.3365
13299 2 30.1611 25.0473 21.7312
13300 2 29.011 23.9426 22.0827
13301 1 21.0048 27.5054 9.33887
13302 2 20.6352 27.2558 8.44379
13303 2 20.5714 26.9466 10.046
13304 1 113.496 3.70086 67.7838
13305 2 114.079 2.91789 67.5672
13306 2 112.723 3.72653 67.1494
13307 1 100.039 28.5323 68.7057
13308 2 100.627 28.7361 69.4886
13309 2 99.5545 27.6724 68.8672
13310 1 25.0283 8.97651 42.7467
13311 2 24.7644 9.22476 41.8146
13312 2 24.215 8.95272 43.3282
13313 1 51.8042 12.1926 40.272
13314 2 52.1744 11.3416 39.8995
13315 2 51.0298 12.4914 39.7143
13316 1 35.7849 19.4137 33.709
13317 2 36.5678 18.8769 34.0235
13318 2 34.9395 18.999 34.0457
13319 1 108.926 18.0202 85.2658
13320 2 108.35 17.2149 85.129
13321 2 109.851 17.827 84.9387
13322 1 101.013 21.4829 25.2479
13323 2 100.252 21.9999 24.8556
13324 2 101.822 21.5903 24.67
13325 1 99.1516 17.3535 34.2484
13326 2 99.0251 17.8973 33.4187
13327 2 99.7829 16.6011 34.0608
13328 1 27.543 10.9445 37.8453
13329 2 26.8613 11.0085 38.5741
13330 2 27.0883 11.0086 36.957
13331 1 90.717 18.221 38.0802
13332 2 91.3262 18.8936 38.5003
13333 2 90.146 18.6714 37.3937
13334 1 52.0289 11.7941 47.0941
13335 2 51.949 10.7989 47.1494
13336 2 52.9907 12.0459 46.9869
13337 1 26.0988 13.4802 33.5279
13338 2 26.2996 12.8024 34.2352
13339 2 26.9263 13.6632 32.9971
13340 1 49.6629 22.4966 72.1397
13341 2 49.5663 22.8365 73.0752
13342 2 50.2105 23.141 71.6059
13343 1 101.764 27.9442 87.8692
13344 2 101.955 28.0868 88.8403
13345 2 101.156 27.1569 87.7615
13346 1 92.0433 21.1515 48.4434
13347 2 92.5488 20.5378 49.0499
13348 2 92.3028 20.9708 47.4947
13349 1 78.7493 22.5302 83.2626
13350 2 78.757 23.3816 83.787
13351 2 77.8334 22.1298 83.2906
13352 1 35.8861 4.25813 44.5323
13353 2 36.119 4.38525 45.4964
13354 2 34.9936 3.81274 44.4609
13355 1 41.1354 10.2606 44.8543
13356 2 41.6476 9.47561 45.2029
13357 2 41.7726 10.9882 44.6004
13358 1 97.9889 4.13398 86.0538
13359 2 98.7022 4.48246 85.4457
13360 2 97.6391 4.88068 86.6195
13361 1 29.0699 5.68459 23.9588
13362 2 29.5721 6.45583 23.5677
13363 2 29.6235 5.25308 24.671
13364 1 59.7597 8.30087 78.9214
13365 2 60.1242 7.48583 79.3718
13366 2 59.6683 8.12711 77.9409
13367 1 54.9955 29.0928 42.7923
13368 2 53.998 29.0228 42.7875
13369 2 55.3098 29.4366 41.9073
13370 1 116.358 28.4677 13.741
13371 2 115.763 27.6677 13.6656
13372 2 117.298 28.2049 13.5258
13373 1 27.7658 28.6166 82.4441
13374 2 28.6694 28.7541 82.0384
13375 2 27.2161 28.0353 81.8442
13376 1 81.3625 7.69529 77.9764
13377 2 81.0742 6.83775 78.4024
13378 2 80.5908 8.33064 77.9506
13379 1 103.235 7.65395 31.673
13380 2 103.009 8.15017 32.5111
13381 2 103.952 6.98381 31.8658
13382 1 90.5319 15.8477 72.6423
13383 2 89.6238 15.6811 72.2582
13384 2 90.7612 15.1167 73.285
13385 1 116.829 6.57777 72.2976
13386 2 116.819 7.51887 71.9596
13387 2 117.689 6.13847 72.0357
13388 1 106.008 2.67921 69.5628
13389 2 106.746 2.03279 69.3677
13390 2 105.811 2.67335 70.5431
13391 1 69.2785 8.45432 72.5941
13392 2 68.2958 8.45488 72.779
13393 2 69.4513 8.0181 71.711
13394 1 25.6654 2.10179 73.5665
13395 2 26.1456 1.51035 72.9187
13396 2 25.1733 1.53868 74.2304
13397 1 25.3084 28.341 57.83
13398 2 25.5151 27.4541 57.4167
13399 2 26.1313 28.9093 57.8285
13400 1 87.4922 29.4242 69.9887
13401 2 87.6117 0.313606 69.5475
13402 2 87.2818 29.5581 70.9571
13403 1 19.8149 23.738 10.7843
13404 2 20.1394 23.1165 11.4974
13405 2 20.0343 24.68 11.0381
13406 1 12.3768 3.61926 68.9575
13407 2 12.7612 4.44837 69.3634
13408 2 12.4255 2.87082 69.6189
13409 1 5.16451 17.8718 81.2289
13410 2 5.52672 17.6903 80.3147
13411 2 4.42122 17.2324 81.4259
13412 1 36.3004 0.86358 68.9248
13413 2 35.4316 0.927829 69.4158
13414 2 36.5369 1.75889 68.5474
13415 1 10.2485 15.5271 11.2732
13416 2 11.0832 14.9948 11.4143
13417 2 9.48715 14.9081 11.0801
13418 1 90.5036 21.5408 36.2898
13419 2 89.7482 20.9635 35.9797
13420 2 91.3726 21.1262 36.0198
13421 1 29.7158 7.53584 86.7297
13422 2 30.4327 7.93088 86.1553
13423 2 28.8611 7.49126 86.2125
13424 1 30.7274 16.4011 70.6636
13425 2 31.0793 17.1661 70.1242
13426 2 31.024 15.5391 70.2525
13427 1 0.678348 25.933 86.238
13428 2 0.317733 25.333 86.9521
13429 2 1.54264 26.3326 86.5434
13430 1 79.7378 18.9301 86.7446
13431 2 80.4297 18.2156 86.6401
13432 2 78.9889 18.7652 86.1028
13433 1 3.8011 14.1354 82.2336
13434 2 4.79382 14.1972 82.337
13435 2 3.43002 15.0416 82.0309
13436 1 17.0462 6.89756 87.1831
13437 2 16.2229 6.51629 87.6037
13438 2 17.567 6.16453 86.7457
13439 1 74.3524 12.118 90.6798
13440 2 74.594 11.1532 90.576
13441 2 74.5233 12.5988 89.8199
13442 1 30.1902 19.1297 86.0044
13443 2 30.703 18.4901 85.4318
13444 2 30.4506 19.0027 86.9615
13445 1 23.9032 17.5871 71.2436
13446 2 24.0534 17.0288 70.4277
13447 2 23.054 17.304 71.6895
13448 1 36.0787 4.55021 82.751
13449 2 35.5633 4.402 81.9069
13450 2 35.8899 5.46809 83.1
13451 1 26.465 28.9761 45.3984
13452 2 25.87 29.3923 44.7109
13453 2 27.2461 29.5764 45.5707
13454 1 8.82986 23.054 65.9111
13455 2 9.62674 22.4775 65.7304
13456 2 8.70888 23.1556 66.8985
13457 1 33.4191 2.70241 45.0189
13458 2 32.7529 3.38421 45.321
13459 2 33.5733 2.03956 45.7516
13460 1 109.79 4.04282 21.8956
13461 2 110.151 4.30254 20.9997
13462 2 110.054 4.7298 22.5728
13463 1 97.5422 12.0014 72.8639
13464 2 97.725 11.2306 73.4743
13465 2 96.5769 11.9982 72.6029
13466 1 68.6849 13.1463 33.492
13467 2 67.6867 13.1616 33.5494
13468 2 69.0061 12.1998 33.5227
13469 1 14.1241 9.1034 32.6678
13470 2 13.9313 9.10847 31.6865
13471 2 13.7814 9.94796 33.0792
13472 1 104.059 3.32277 81.164
13473 2 104.336 3.18712 80.2129
13474 2 104.409 4.20041 81.4914
13475 1 97.5604 20.9211 81.4521
13476 2 98.2741 21.253 80.8353
13477 2 97.7914 19.9995 81.7639
13478 1 67.9687 8.17325 82.8341
13479 2 67.7704 7.43952 82.1843
13480 2 68.5619 7.82454 83.5597
13481 1 86.9533 12.7362 73.0232
13482 2 87.1985 13.7037 73.0844
13483 2 87.7528 12.1754 73.2383
13484 1 24.5291 4.1509 33.7461
13485 2 25.3314 3.58616 33.9393
13486 2 24.6901 4.68618 32.9169
13487 1 92.2306 0.297004 39.1791
13488 2 91.8825 1.00644 38.5663
13489 2 91.9665 29.3973 38.8315
13490 1 96.4316 23.3175 57.4198
13491 2 97.1247 23.8981 57.847
13492 2 95.5515 23.461 57.8724
13493 1 56.0573 6.72843 53.1364
13494 2 55.8758 6.35843 52.2252
13495 2 55.3604 7.40823 53.3649
13496 1 5.03051 12.0723 69.0672
13497 2 4.93321 11.4221 68.3137
13498 2 4.1257 12.3834 69.358
13499 1 6.57327 20.2004 68.7424
13500 2 5.66578 20.1226 69.1552
13501 2 6.59025 19.6985 67.8776
13502 1 33.0424 8.60929 27.2316
13503 2 33.6695 9.24757 26.785
13504 2 33.1818 7.69097 26.8611
13505 1 9.37767 9.81752 51.7673
13506 2 9.48653 9.32869 50.9017
13507 2 9.82563 10.7094 51.705
13508 1 96.9544 6.69033 52.8461
13509 2 97.254 7.52803 52.3895
13510 2 97.5925 5.94964 52.6359
13511 1 14.2985 27.2349 65.7434
13512 2 14.4817 27.5673 66.6686
13513 2 14.4219 26.243 65.715
13514 1 2.23712 17.2849 67.7574
13515 2 2.21565 17.9669 67.0264
13516 2 2.74151 17.6506 68.5397
13517 1 27.6729 5.70003 27.7949
13518 2 27.4161 5.39157 26.879
13519 2 26.8733 5.66559 28.3946
13520 1 34.1145 21.0744 39.1642
13521 2 34.4546 21.8585 39.6834
13522 2 33.7548 20.3873 39.7954
13523 1 114.238 6.07115 89.6086
13524 2 113.813 6.13603 88.706
13525 2 114.913 5.33282 89.6068
13526 1 102.22 0.00669307 20.0213
13527 2 101.277 29.7583 20.2425
13528 2 102.293 0.202068 19.0433
13529 1 48.0101 7.76224 83.8461
13530 2 48.0994 7.68776 84.8394
13531 2 48.3376 6.91997 83.4179
13532 1 104.72 0.469251 54.8003
13533 2 104.162 1.29203 54.9065
13534 2 104.559 0.0708626 53.8975
13535 1 37.1697 2.76927 90.0848
13536 2 37.0297 1.79896 90.282
13537 2 38.1465 2.97961 90.1231
13538 1 35.1146 22.3124 60.6528
13539 2 36.0465 22.5544 60.923
13540 2 34.4647 22.901 61.1337
13541 1 105.224 18.6897 58.1586
13542 2 105.524 18.6603 57.2052
13543 2 104.227 18.6196 58.1962
13544 1 109.801 13.5494 41.5877
13545 2 109.756 13.5506 40.5887
13546 2 110.058 12.6378 41.9087
13547 1 20.3171 28.572 60.2966
13548 2 20.6108 28.8137 61.2215
13549 2 21.0914 28.6534 59.6691
13550 1 2.29123 29.663 65.6016
13551 2 2.06238 0.477076 66.1354
13552 2 1.46984 29.1076 65.4721
13553 1 97.9988 24.3525 29.567
13554 2 98.2826 24.7982 30.416
13555 2 97.2066 23.769 29.7455
13556 1 47.5783 15.7451 75.9444
13557 2 48.5431 15.6551 75.697
13558 2 47.0835 14.9237 75.661
13559 1 95.897 29.8527 38.4626
13560 2 96.6404 29.4026 37.9678
13561 2 95.9232 29.5795 39.4242
13562 1 2.41018 19.3855 57.1328
13563 2 2.47406 20.3474 56.8672
13564 2 2.1925 18.8316 56.3291
13565 1 108.536 29.3034 44.2439
13566 2 109.241 29.368 43.5374
13567 2 107.748 28.8032 43.8842
13568 1 68.1496 18.1735 83.7827
13569 2 69.0198 18.0552 84.2611
13570 2 67.4807 18.582 84.4037
13571 1 83.6619 22.471 89.6853
13572 2 83.7043 23.4411 89.9243
13573 2 84.3519 21.9689 90.2065
13574 1 108.363 13.0234 14.7022
13575 2 109.271 12.8044 15.0598
13576 2 108.001 13.8235 15.1802
13577 1 119.569 15.6358 53.573
13578 2 119.054 15.0838 52.9171
13579 2 119.882 16.4756 53.1291
13580 1 13.6779 0.733313 46.9492
13581 2 13.7024 29.7344 46.909
13582 2 13.5011 1.0995 46.0357
13583 1 68.982 19.4485 86.8571
13584 2 69.4608 18.9634 86.1254
13585 2 69.496 19.3566 87.7099
13586 1 33.5049 15.9862 18.6313
13587 2 34.2508 15.6282 18.0696
13588 2 33.3286 16.9388 18.3834
13589 1 111.211 23.4893 25.1213
13590 2 111.59 22.6039 25.3908
13591 2 111.054 24.0464 25.9365
13592 1 35.1358 9.41933 75.7583
13593 2 35.0161 8.88643 74.9207
13594 2 35.0063 10.3903 75.557
13595 1 55.2806 6.16475 68.0607
13596 2 56.2001 6.18764 68.4531
13597 2 55.3197 5.77025 67.1426
13598 1 1.2401 21.8168 89.0254
13599 2 0.553233 21.2008 88.6397
13600 2 2.14784 21.5468 88.7043
13601 1 6.31905 21.5766 58.8337
13602 2 6.85408 21.7405 59.6625
13603 2 6.93299 21.3292 58.0841
13604 1 82.8966 6.86433 43.5183
13605 2 83.1469 6.38888 42.6749
13606 2 82.5545 7.7776 43.2971
13607 1 65.6861 2.25579 75.2582
13608 2 66.2224 1.43304 75.07
13609 2 64.9224 2.02513 75.8612
13610 1 45.1345 25.4059 72.7209
13611 2 44.859 24.7519 72.0164
13612 2 44.8407 26.3244 72.4563
13613 1 112.082 21.2016 62.98
13614 2 111.923 21.2395 63.9665
13615 2 111.77 22.0534 62.559
13616 1 26.2464 23.6039 17.8279
13617 2 25.4996 23.3319 18.4348
13618 2 26.304 22.9632 17.0623
13619 1 75.4862 18.8373 77.4302
13620 2 75.6235 19.3719 78.2641
13621 2 74.6649 18.275 77.5262
13622 1 27.6167 26.6464 64.5109
13623 2 28.5121 26.6876 64.9542
13624 2 27.7262 26.7767 63.5255
13625 1 68.2979 26.0529 88.9736
13626 2 68.6209 26.9085 88.5692
13627 2 67.5582 26.2472 89.6179
13628 1 35.0358 25.0177 44.1431
13629 2 35.378 24.1455 44.4926
13630 2 34.6435 25.5473 44.8952
13631 1 44.8428 19.8563 41.533
13632 2 44.9195 20.8031 41.8454
13633 2 45.6336 19.6275 40.9653
13634 1 37.4844 20.699 84.7317
13635 2 37.1872 19.8626 84.2713
13636 2 38.0381 21.2462 84.104
13637 1 28.5343 7.71122 30.35
13638 2 28.4018 7.1356 31.157
13639 2 29.5045 7.93475 30.2558
13640 1 15.8973 7.44914 28.2998
13641 2 16.411 8.28689 28.485
13642 2 16.2519 7.0172 27.4705
13643 1 99.2585 11.8097 40.9403
13644 2 98.5094 11.2964 41.359
13645 2 99.8937 12.1118 41.6512
13646 1 70.9618 14.4039 32.356
13647 2 70.1082 14.1899 32.8309
13648 2 71.6433 13.7018 32.5626
13649 1 34.0895 6.40564 34.9406
13650 2 33.4497 6.499 34.1778
13651 2 34.9578 6.04077 34.6046
13652 1 30.3451 23.2822 54.5335
13653 2 29.3503 23.2512 54.4356
13654 2 30.6434 24.234 54.6047
13655 1 48.5738 8.03066 52.9237
13656 2 49.0763 7.16707 52.9658
13657 2 48.7008 8.53223 53.7794
13658 1 110.234 20.1856 53.0422
13659 2 111.061 20.032 52.5018
13660 2 110.459 20.7327 53.8483
13661 1 26.3492 12.648 67.0788
13662 2 25.442 12.6229 66.6588
13663 2 26.5202 11.7853 67.5547
13664 1 114.639 19.5241 84.7702
13665 2 113.809 19.9365 85.1465
13666 2 114.697 18.5686 85.0594
13667 1 2.76403 19.3147 25.0502
13668 2 2.57253 18.3468 25.2126
13669 2 1.97346 19.8617 25.3256
13670 1 58.9357 4.76922 52.6706
13671 2 58.9746 3.77245 52.7409
13672 2 58.1207 5.03551 52.156
13673 1 37.944 1.32697 41.8691
13674 2 37.8749 1.29298 42.8661
13675 2 37.0864 1.00914 41.4646
13676 1 16.035 0.850731 24.4259
13677 2 15.498 0.0756915 24.0928
13678 2 16.9995 0.708085 24.2034
13679 1 103.855 23.1578 74.4851
13680 2 104.778 23.1248 74.869
13681 2 103.66 24.0856 74.1676
13682 1 70.7841 11.8795 65.9961
13683 2 71.1482 12.5568 65.3569
13684 2 70.7692 10.9811 65.5571
13685 1 21.5696 29.539 55.7463
13686 2 21.9711 0.413547 55.4744
13687 2 20.6284 29.6847 56.051
13688 1 9.44295 12.8376 14.4726
13689 2 9.84905 13.7486 14.401
13690 2 9.58204 12.3424 13.615
13691 1 3.08773 17.9111 32.3421
13692 2 3.85517 18.508 32.5759
13693 2 3.4357 17.0228 32.0422
13694 1 69.2757 15.046 77.8335
13695 2 69.391 15.8085 78.4701
13696 2 70.1644 14.6243 77.6539
13697 1 33.4794 6.08583 25.6013
13698 2 33.7152 6.02056 24.6317
13699 2 34.1321 5.55292 26.1397
13700 1 3.88312 0.210396 51.7085
13701 2 3.27085 29.6092 52.222
13702 2 3.56953 1.15621 51.7927
13703 1 30.6368 11.4923 19.1205
13704 2 29.9683 11.0692 19.7321
13705 2 30.1594 12.033 18.4278
13706 1 64.2029 26.6772 77.9445
13707 2 63.8769 27.5576 77.6002
13708 2 63.4601 26.2119 78.4259
13709 1 7.15763 6.87085 40.5961
13710 2 7.2285 7.78565 40.1985
13711 2 6.63631 6.91726 41.4482
13712 1 58.9116 17.584 75.7039
13713 2 58.4591 18.4649 75.565
13714 2 58.9529 17.3811 76.6822
13715 1 15.5832 21.5754 80.7673
13716 2 15.975 21.6752 81.6819
13717 2 15.6629 22.4417 80.2742
13718 1 68.0322 29.9046 64.8617
13719 2 67.2794 29.673 65.4779
13720 2 68.4063 29.0672 64.463
13721 1 61.0312 15.2907 49.7907
13722 2 60.6718 15.0698 48.884
13723 2 60.4419 15.9712 50.2261
13724 1 86.7399 25.3791 88.4846
13725 2 86.7146 25.2535 89.4764
13726 2 86.0841 24.7594 88.0534
13727 1 101.509 13.7725 72.2026
13728 2 101.786 13.161 72.9439
13729 2 102.173 14.5158 72.1182
13730 1 22.0741 22.2965 17.7571
13731 2 22.7824 22.5246 18.4252
13732 2 21.8212 21.334 17.855
13733 1 61.3691 26.3611 35.502
13734 2 61.1975 27.3211 35.2808
13735 2 60.5281 25.9425 35.8446
13736 1 76.5803 22.009 45.6477
13737 2 76.6823 21.0158 45.7053
13738 2 75.7512 22.2875 46.1326
13739 1 4.56454 27.1441 82.5573
13740 2 4.39804 27.7008 81.7434
13741 2 4.921 27.7236 83.2902
13742 1 74.8251 5.35092 57.6803
13743 2 74.6303 6.31844 57.8414
13744 2 74.6001 4.82458 58.5003
13745 1 112.264 14.6703 39.515
13746 2 112.443 15.0956 40.4022
13747 2 111.295 14.7656 39.289
13748 1 103.899 1.81628 52.1706
13749 2 104.182 0.858233 52.2189
13750 2 104.455 2.29386 51.4903
13751 1 60.9471 0.438537 45.8179
13752 2 61.6176 0.959725 45.2899
13753 2 61.3904 0.0442276 46.6228
13754 1 36.4082 26.4585 68.0422
13755 2 35.604 26.782 68.5408
13756 2 36.1779 25.6219 67.545
13757 1 43.094 24.9799 89.4256
13758 2 42.9807 24.0266 89.7055
13759 2 43.1281 25.5637 90.2368
13760 1 118.122 9.88652 77.1802
13761 2 117.155 9.6498 77.2822
13762 2 118.201 10.8014 76.7842
13763 1 116.145 8.39878 81.2019
13764 2 116.053 8.67584 82.1583
13765 2 116.132 9.20988 80.6171
13766 1 34.8592 16.7439 15.8686
13767 2 35.4337 17.3123 15.2796
13768 2 33.9273 17.1066 15.8757
13769 1 101.953 17.3626 73.5559
13770 2 100.998 17.6257 73.4151
13771 2 102.188 16.6172 72.9324
13772 1 50.1628 7.57515 67.6798
13773 2 50.6219 8.424 67.4176
13774 2 49.8275 7.6538 68.6186
13775 1 100.857 15.8657 60.9032
13776 2 101.818 15.5974 60.8285
13777 2 100.491 16.0518 59.9913
13778 1 0.248354 16.2463 66.1379
13779 2 0.940313 16.5279 66.8027
13780 2 0.682702 16.089 65.251
13781 1 38.7009 4.45318 80.7067
13782 2 38.9986 3.77704 81.3806
13783 2 38.9392 4.13615 79.7887
13784 1 68.6429 21.7398 67.0825
13785 2 69.0877 22.248 67.82
13786 2 67.7648 22.1665 66.8661
13787 1 18.9184 27.8839 28.7115
13788 2 19.1089 28.8327 28.9637
13789 2 18.1941 27.8613 28.0224
13790 1 95.9797 0.178175 86.8366
13791 2 95.8227 29.3885 87.4297
13792 2 96.1381 29.8653 85.9001
13793 1 119.834 12.1868 38.2025
13794 2 0.113929 11.8218 37.3147
13795 2 118.891 11.9134 38.3928
13796 1 115.609 4.2393 30.9212
13797 2 115.775 3.26951 31.1004
13798 2 116.471 4.68574 30.6809
13799 1 16.4404 22.7936 70.4944
13800 2 15.5614 22.6764 70.9566
13801 2 17.0967 22.1297 70.8529
13802 1 11.4091 7.49296 47.2963
13803 2 10.8036 7.98948 47.9183
13804 2 12.2932 7.34476 47.7394
13805 1 51.1497 9.06755 86.929
13806 2 50.4695 9.80036 86.9466
13807 2 50.8796 8.34665 87.5673
13808 1 5.89742 15.2552 54.4392
13809 2 4.90554 15.1582 54.5214
13810 2 6.16914 15.107 53.4883
13811 1 51.5513 27.4323 44.3374
13812 2 50.8408 28.055 44.6651
13813 2 51.9024 27.7594 43.46
13814 1 23.943 1.59193 27.0608
13815 2 23.871 1.57887 26.0635
13816 2 24.8975 1.4597 27.3279
13817 1 37.8328 13.6891 63.5962
13818 2 37.212 14.3466 63.1693
13819 2 38.6335 14.17 63.9535
13820 1 20.8492 9.94458 42.8069
13821 2 19.9901 10.1604 43.271
13822 2 20.6631 9.36375 42.0144
13823 1 59.5211 23.2708 36.4285
13824 2 60.3238 22.6789 36.3558
13825 2 58.6948 22.7087 36.4657
13826 1 38.3921 21.6235 52.1207
13827 2 39.1466 21.7161 52.7703
13828 2 37.6309 22.2044 52.4088
13829 1 119.672 22.3681 27.481
13830 2 0.11427 21.593 27.03
13831 2 118.832 22.6039 26.9913
13832 1 118.138 9.68592 30.433
13833 2 117.534 10.2101 29.833
13834 2 117.673 9.50609 31.2998
13835 1 22.8564 17.7425 81.6473
13836 2 21.8781 17.6338 81.8238
13837 2 23.0002 18.5198 81.0348
13838 1 0.510869 27.22 9.64133
13839 2 0.31906 27.6996 8.78504
13840 2 1.06857 27.803 10.2322
13841 1 35.7047 16.9598 90.6233
13842 2 35.4304 16.0333 90.881
13843 2 35.1882 17.2482 89.817
13844 1 79.6373 20.5491 46.0947
13845 2 79.3858 21.4733 45.8069
13846 2 80.5497 20.3292 45.7495
13847 1 34.4754 19.6341 86.584
13848 2 34.0179 20.5178 86.6832
13849 2 34.388 19.3178 85.6394
13850 1 24.6565 27.9327 85.3556
13851 2 24.7093 28.1312 86.3343
13852 2 23.7102 28.0276 85.0468
13853 1 3.54559 12.8393 25.2997
13854 2 2.86249 13.321 24.7507
13855 2 3.08838 12.1832 25.9001
13856 1 39.7246 3.73675 78.2983
13857 2 39.7281 2.76261 78.5242
13858 2 40.6449 4.01948 78.0277
13859 1 57.0729 20.591 57.4104
13860 2 56.5394 20.0705 58.0771
13861 2 57.6765 19.9709 56.9092
13862 1 96.4263 21.0039 25.0122
13863 2 95.6829 21.2879 24.4067
13864 2 96.4329 21.5841 25.8267
13865 1 107.617 21.2181 66.8296
13866 2 108.013 21.1209 65.9166
13867 2 108.212 20.7748 67.5
13868 1 28.6851 0.762622 12.5924
13869 2 29.2836 1.05292 13.3392
13870 2 27.7427 1.02525 12.7993
13871 1 26.2406 1.36981 16.8936
13872 2 26.8702 0.617246 16.7008
13873 2 26.5002 2.16889 16.3513
13874 1 90.4771 18.754 31.9137
13875 2 91.2497 19.3883 31.8851
13876 2 90.5832 18.0669 31.1949
13877 1 119.026 26.1145 65.0836
13878 2 119.713 26.8414 65.0989
13879 2 119.159 25.5138 65.8719
13880 1 22.2699 16.4739 75.8982
13881 2 22.0584 16.4845 76.8756
13882 2 21.5732 16.9907 75.4008
13883 1 11.0871 8.52296 69.9768
13884 2 11.7115 8.97325 69.3386
13885 2 11.5393 8.40938 70.8614
13886 1 105.536 10.4238 77.6699
13887 2 104.867 10.8106 78.3047
13888 2 105.582 9.43292 77.7968
13889 1 84.2982 29.2287 70.0589
13890 2 83.5603 29.9 69.9892
13891 2 84.6739 29.2413 70.9856
13892 1 11.3016 5.46191 49.7105
13893 2 12.0436 5.41403 49.0418
13894 2 10.9496 6.39699 49.7514
13895 1 7.37211 1.01222 50.3469
13896 2 7.93111 0.840695 51.1581
13897 2 7.20895 0.150607 49.8662
13898 1 5.83496 22.0596 70.9009
13899 2 5.72354 23.0195 71.1582
13900 2 4.99645 21.7317 70.4657
13901 1 99.9549 14.1074 64.7872
13902 2 100.592 14.8618 64.63
13903 2 99.1098 14.2734 64.279
13904 1 20.6214 12.0616 87.8267
13905 2 20.301 12.9646 87.5406
13906 2 20.7218 11.4738 87.024
13907 1 83.9128 1.13076 43.5224
13908 2 84.1866 0.374616 42.9281
13909 2 83.4034 0.772214 44.3047
13910 1 37.6339 2.37092 54.4368
13911 2 37.1089 2.39171 53.5859
13912 2 37.525 3.2413 54.917
13913 1 117.321 28.702 63.672
13914 2 116.876 29.0084 64.5134
13915 2 116.654 28.2301 63.095
13916 1 113.851 5.33824 74.9987
13917 2 113.275 6.11574 74.7445
13918 2 113.474 4.50107 74.6024
13919 1 35.6453 7.91795 49.5829
13920 2 35.6887 7.95676 48.5846
13921 2 35.3756 8.81229 49.9399
13922 1 13.5272 21.2647 20.4051
13923 2 14.1711 21.9459 20.7536
13924 2 12.848 21.0573 21.1091
13925 1 15.6511 9.02791 13.2394
13926 2 15.8806 9.45512 14.114
13927 2 14.7698 9.37575 12.9196
13928 1 115.846 8.61048 76.851
13929 2 115.998 7.90844 76.1551
13930 2 114.865 8.76679 76.9586
13931 1 33.3889 5.20645 88.5276
13932 2 33.7639 4.68648 89.295
13933 2 32.3902 5.20246 88.5785
13934 1 9.69517 8.23888 41.3824
13935 2 9.9919 7.44486 40.8518
13936 2 9.17405 8.8571 40.794
13937 1 68.0792 4.54898 37.0491
13938 2 68.5092 3.91468 36.4067
13939 2 68.7833 5.10615 37.4893
13940 1 58.0492 7.8008 37.8135
13941 2 59.0382 7.65501 37.7851
13942 2 57.8541 8.77838 37.7344
13943 1 10.3613 8.99118 88.5499
13944 2 10.0463 8.41633 87.7947
13945 2 9.91125 9.88281 88.5002
13946 1 88.5041 21.6054 78.5335
13947 2 88.7911 21.7477 79.4808
13948 2 87.5071 21.5379 78.4938
13949 1 28.0439 15.0476 59.5418
13950 2 27.5475 15.5268 58.818
13951 2 28.7004 14.414 59.1326
13952 1 36.6199 3.87456 65.2773
13953 2 36.2986 3.19417 64.6186
13954 2 36.0622 3.82582 66.1058
13955 1 18.9114 22.619 60.3097
13956 2 19.6861 22.2388 59.8046
13957 2 18.1283 22.7163 59.6954
13958 1 118.519 29.9954 41.0014
13959 2 117.785 29.3226 40.9088
13960 2 118.905 0.193985 40.1004
13961 1 68.5903 11.9221 75.5253
13962 2 69.1879 11.8999 74.7238
13963 2 67.6425 12.0445 75.231
13964 1 41.1261 22.7337 48.8009
13965 2 40.363 23.0359 49.3721
13966 2 40.8224 21.9902 48.205
13967 1 2.0058 19.1036 81.6322
13968 2 2.51407 18.2425 81.6504
13969 2 2.31281 19.6878 82.3835
13970 1 25.0004 6.87791 47.7185
13971 2 24.5827 6.74533 46.8196
13972 2 24.3393 7.3083 48.3331
13973 1 74.3607 29.4981 47.6775
13974 2 74.6111 28.6426 48.1308
13975 2 75.1747 0.0688991 47.5698
13976 1 93.706 8.0858 73.2257
13977 2 94.0733 7.15819 73.1579
13978 2 93.9269 8.59347 72.3929
13979 1 36.6997 22.529 78.5605
13980 2 36.025 21.7968 78.6531
13981 2 37.609 22.1737 78.7771
13982 1 102.527 11.2176 13.7468
13983 2 101.989 11.1858 14.5891
13984 2 103.187 10.4657 13.7439
13985 1 42.167 29.8855 34.5573
13986 2 41.7614 29.8671 33.6434
13987 2 41.7756 29.1502 35.1105
13988 1 61.688 20.3537 82.6233
13989 2 62.0331 19.6261 83.2163
13990 2 60.9737 19.9871 82.0271
13991 1 14.557 10.0525 86.0295
13992 2 14.7182 10.4813 86.9185
13993 2 14.6693 10.7333 85.3058
13994 1 3.37413 26.3769 21.2228
13995 2 3.45525 25.7735 22.0162
13996 2 3.1819 27.3086 21.531
13997 1 59.1187 13.1503 40.8908
13998 2 59.5035 12.2846 41.2111
13999 2 59.1199 13.1659 39.8909
14000 1 24.8409 1.45927 47.8443
14001 2 24.3083 1.36115 47.0037
14002 2 25.1003 0.554486 48.1821
14003 1 14.2231 7.57761 68.9372
14004 2 14.8889 7.69001 69.6748
14005 2 13.7776 8.45395 68.7539
14006 1 48.8628 13.2145 34.5085
14007 2 48.8149 14.2121 34.46
14008 2 49.7039 12.9435 34.9766
14009 1 15.029 13.4266 68.1817
14010 2 15.3267 13.5161 69.1321
14011 2 15.3263 14.2278 67.6624
14012 1 62.3948 7.43187 60.9095
14013 2 62.8637 8.25695 61.2248
14014 2 63.0648 6.78919 60.5378
14015 1 37.0789 9.5459 26.5531
14016 2 37.324 8.90588 25.8249
14017 2 36.4957 9.08347 27.2209
14018 1 99.8658 12.1371 22.6215
14019 2 99.0254 12.6588 22.4747
14020 2 100.029 12.0372 23.603
14021 1 38.0704 20.2484 36.5371
14022 2 37.928 20.7198 37.4074
14023 2 38.5281 19.3747 36.7023
14024 1 119.167 23.3686 63.8109
14025 2 0.0659818 23.2363 64.2284
14026 2 118.638 24.0171 64.3579
14027 1 111.003 26.4165 41.3596
14028 2 111.46 26.5544 40.4811
14029 2 110.495 27.2423 41.604
14030 1 95.7718 13.4684 69.6834
14031 2 95.832 14.3259 69.1724
14032 2 94.9381 13.4673 70.2356
14033 1 80.2568 3.56529 52.5621
14034 2 79.3337 3.8427 52.2961
14035 2 80.4005 3.77047 53.5302
14036 1 68.2716 29.397 80.605
14037 2 68.9408 29.992 80.1598
14038 2 67.7911 28.859 79.9125
14039 1 89.0941 24.4708 48.5115
14040 2 88.8762 23.8207 47.7836
14041 2 88.5805 25.3167 48.3677
14042 1 54.4694 13.0024 59.2938
14043 2 54.1758 12.2643 59.9014
14044 2 55.2678 12.7054 58.7702
14045 1 2.39424 12.9929 48.2121
14046 2 1.7118 12.5347 48.7815
14047 2 2.49144 12.5005 47.3471
14048 1 62.2966 17.6098 67.0766
14049 2 61.5926 17.3654 66.4098
14050 2 63.193 17.6003 66.6336
14051 1 102.614 6.75874 39.3192
14052 2 102.508 6.93515 38.3407
14053 2 102.6 5.77242 39.4835
14054 1 107.509 23.4207 83.7237
14055 2 107.399 24.3888 83.4983
14056 2 107.434 23.2982 84.7133
14057 1 9.77767 25.2143 26.0635
14058 2 10.1725 24.2971 26.1172
14059 2 10.4055 25.8723 26.4792
14060 1 91.3399 20.568 40.7424
14061 2 91.7736 21.2925 41.278
14062 2 91.9783 20.2407 40.0458
14063 1 38.9793 26.8655 33.665
14064 2 38.3536 26.9786 34.4368
14065 2 38.5557 27.2315 32.8363
14066 1 32.8697 14.6757 10.7534
14067 2 32.4401 13.7733 10.7194
14068 2 33.1115 14.9648 9.8271
14069 1 71.1095 26.001 48.3448
14070 2 70.2275 25.6194 48.0681
14071 2 71.7806 25.2641 48.4264
14072 1 23.703 21.1278 33.7915
14073 2 22.7443 21.4083 33.8387
14074 2 24.116 21.4915 32.9565
14075 1 69.8146 6.10935 38.7239
14076 2 70.5816 5.56093 39.0571
14077 2 70.1638 6.92114 38.2559
14078 1 84.8395 22.9417 69.8026
14079 2 85.72 23.4072 69.7136
14080 2 84.1048 23.6197 69.8257
14081 1 1.9086 17.8365 22.609
14082 2 1.5073 18.7442 22.7316
14083 2 1.17897 17.1616 22.499
14084 1 100.352 1.17069 15.4653
14085 2 100.93 1.91697 15.7948
14086 2 99.4973 1.15679 15.9847
14087 1 45.4992 23.4129 45.9935
14088 2 44.7403 24.0622 46.0441
14089 2 45.764 23.1371 46.9175
14090 1 80.2559 6.83452 61.3834
14091 2 79.6244 7.55822 61.6619
14092 2 80.7528 6.49953 62.184
14093 1 92.5668 0.0637642 74.4388
14094 2 92.0112 29.2759 74.1735
14095 2 92.4442 0.244602 75.4147
14096 1 91.7233 1.92357 44.0715
14097 2 92.3932 1.57666 43.415
14098 2 90.859 2.1039 43.602
14099 1 27.3445 15.8894 12.8245
14100 2 28.2311 16.2263 12.5074
14101 2 26.6366 16.5631 12.6122
14102 1 33.1874 12.4778 31.4136
14103 2 32.3829 12.2423 31.959
14104 2 33.3966 11.7272 30.7869
14105 1 100.872 1.78057 73.5421
14106 2 101.342 2.59127 73.1923
14107 2 101.196 1.58097 74.4669
14108 1 119.151 12.4242 75.9332
14109 2 119.091 12.7333 76.8823
14110 2 119.774 13.0204 75.4271
14111 1 5.51341 13.9525 38.5194
14112 2 6.06855 14.7799 38.604
14113 2 6.05942 13.226 38.1021
14114 1 7.45801 10.1269 57.4978
14115 2 6.50694 9.90994 57.7178
14116 2 7.48771 10.7093 56.6855
14117 1 72.7775 10.9394 72.6824
14118 2 71.8406 10.8689 73.0249
14119 2 73.149 10.0225 72.5365
14120 1 25.5146 4.15775 69.4032
14121 2 26.19 4.88245 69.2666
14122 2 25.9489 3.37797 69.854
14123 1 57.0788 26.037 44.7064
14124 2 56.859 26.4273 43.8123
14125 2 57.4067 25.0996 44.5894
14126 1 98.2468 8.54632 89.4556
14127 2 98.9131 7.943 89.8939
14128 2 98.668 8.98879 88.6639
14129 1 101.803 29.9274 17.3797
14130 2 101.355 0.268113 16.5532
14131 2 102.297 29.084 17.1677
14132 1 41.6892 14.0853 62.2926
14133 2 40.8783 13.8371 61.7627
14134 2 41.6299 13.6773 63.2036
14135 1 20.1372 16.5081 70.1441
14136 2 19.8071 16.9449 69.3073
14137 2 19.3695 16.3586 70.7672
14138 1 66.7231 20.5885 68.5098
14139 2 67.5354 20.7518 67.9499
14140 2 66.9715 20.0332 69.3036
14141 1 81.9419 26.2937 47.1876
14142 2 81.6917 25.5191 47.7685
14143 2 81.1138 26.7089 46.8109
14144 1 79.8117 23.8409 66.6556
14145 2 79.1309 24.4856 67.0032
14146 2 80.0691 24.0978 65.7241
14147 1 7.49619 25.9571 78.5211
14148 2 7.70989 25.7462 79.4749
14149 2 6.51376 26.1186 78.4274
14150 1 112.736 1.08502 88.0229
14151 2 112.987 1.14445 87.0568
14152 2 113.338 1.67488 88.5607
14153 1 65.3949 2.47941 86.2876
14154 2 66.3889 2.58756 86.3052
14155 2 65.1639 1.58172 85.9124
14156 1 59.3253 13.0629 38.0453
14157 2 59.3106 12.8143 37.0768
14158 2 58.489 13.5612 38.2742
14159 1 70.186 12.1125 60.4793
14160 2 70.2637 13.1095 60.4839
14161 2 70.2814 11.7751 59.5428
14162 1 43.1878 14.16 59.9876
14163 2 42.7679 14.5311 60.8158
14164 2 43.0927 13.1645 59.983
14165 1 75.5576 27.679 39.036
14166 2 75.3378 28.62 39.2931
14167 2 75.0223 27.0468 39.5962
14168 1 71.2338 8.68166 65.962
14169 2 70.9862 7.93619 66.5809
14170 2 70.8078 8.52987 65.0701
14171 1 43.918 2.56285 54.0298
14172 2 44.4255 3.27407 53.5434
14173 2 44.5248 2.10609 54.6803
14174 1 44.1513 29.6534 66.8791
14175 2 43.5945 29.4761 67.6906
14176 2 43.5921 0.104118 66.1832
14177 1 29.284 17.4293 28.3196
14178 2 28.4324 17.9493 28.3849
14179 2 29.0899 16.4556 28.4392
14180 1 55.3096 7.91836 38.1685
14181 2 55.4506 7.22951 37.4574
14182 2 56.1252 8.49216 38.2431
14183 1 111.811 7.02649 78.3971
14184 2 112.129 7.95804 78.5732
14185 2 112.467 6.55633 77.8067
14186 1 65.6129 3.29313 52.869
14187 2 65.6671 4.17179 53.3433
14188 2 65.3834 2.5739 53.5248
14189 1 46.6065 23.0431 90.0543
14190 2 45.6529 23.2834 90.2354
14191 2 46.7563 22.0806 90.2804
14192 1 22.6333 28.519 58.514
14193 2 22.3822 29.4752 58.6642
14194 2 23.6075 28.4604 58.2959
14195 1 89.4595 4.66801 77.6484
14196 2 88.9556 4.98206 78.4531
14197 2 89.7452 3.71923 77.7834
14198 1 115.681 3.51029 44.0462
14199 2 116.206 3.613 44.8911
14200 2 116.123 4.029 43.3142
14201 1 67.709 19.9844 51.3555
14202 2 67.6899 20.3743 50.4348
14203 2 66.8028 19.6301 51.5863
14204 1 99.2849 28.6779 85.786
14205 2 98.3471 28.8796 85.5035
14206 2 99.9062 28.8407 85.0195
14207 1 0.737175 0.940302 51.8913
14208 2 1.20175 0.233426 52.4247
14209 2 1.40025 1.63237 51.6061
14210 1 107.95 2.42898 28.1944
14211 2 108.711 2.54191 28.8332
14212 2 107.801 3.28469 27.6989
14213 1 108.259 4.8984 56.1028
14214 2 109.243 4.73875 56.023
14215 2 107.812 4.65613 55.2422
14216 1 88.3881 16.81 28.7441
14217 2 88.2993 16.7274 27.7514
14218 2 87.7233 17.4752 29.084
14219 1 94.4368 25.1607 33.8404
14220 2 94.0237 24.4603 33.2583
14221 2 95.0763 25.708 33.3006
14222 1 13.1957 26.1413 81.0535
14223 2 12.789 25.3822 81.5619
14224 2 12.4727 26.6698 80.6086
14225 1 90.5011 23.6244 82.0078
14226 2 89.7539 23.1853 81.509
14227 2 90.1456 24.4058 82.5207
14228 1 21.0088 18.8196 17.024
14229 2 21.4714 19.23 17.8099
14230 2 21.6577 18.2568 16.5119
14231 1 29.0831 2.22761 34.0625
14232 2 29.0027 1.7027 33.2152
14233 2 28.1734 2.37545 34.4506
14234 1 74.2768 25.6293 54.681
14235 2 73.3013 25.7556 54.8613
14236 2 74.7496 26.5052 54.7769
14237 1 2.44758 9.34068 80.6006
14238 2 3.43777 9.32383 80.7394
14239 2 2.16856 8.52694 80.0908
14240 1 16.8173 25.5839 62.162
14241 2 16.366 26.2615 61.5815
14242 2 16.705 24.6743 61.7619
14243 1 92.0904 0.601535 70.7426
14244 2 91.4314 1.2668 71.0934
14245 2 91.6429 29.7137 70.6354
14246 1 58.3314 9.10747 54.5923
14247 2 58.2562 8.54571 53.7684
14248 2 57.5134 9.67531 54.6844
14249 1 7.62435 17.3657 85.125
14250 2 6.69982 17.2994 85.5003
14251 2 7.76056 18.2757 84.7334
14252 1 5.33756 2.60991 87.2093
14253 2 4.44717 3.03779 87.0539
14254 2 5.71508 2.29978 86.3367
14255 1 38.8841 25.8298 41.8889
14256 2 39.619 26.4236 42.2165
14257 2 38.9777 25.697 40.9022
14258 1 108.392 9.3895 89.0332
14259 2 109.086 9.99274 89.4261
14260 2 107.779 9.07182 89.7563
14261 1 29.8412 28.898 59.3351
14262 2 29.2671 28.1411 59.0225
14263 2 30.5334 28.5518 59.9683
14264 1 116.785 21.7203 38.9705
14265 2 117.669 22.0724 39.278
14266 2 116.692 20.7641 39.2481
14267 1 13.1315 13.5398 56.4508
14268 2 12.9684 14.5227 56.3658
14269 2 12.2596 13.0669 56.5777
14270 1 99.7808 4.17811 36.7457
14271 2 100.407 4.04364 35.9779
14272 2 98.8379 4.07986 36.4277
14273 1 21.1097 22.052 33.6484
14274 2 20.8646 21.1485 33.2966
14275 2 20.3079 22.649 33.621
14276 1 81.5947 28.68 83.1329
14277 2 81.4353 29.1792 83.9846
14278 2 80.9084 28.9473 82.4565
14279 1 11.6666 12.2756 22.6993
14280 2 11.139 11.4554 22.9202
14281 2 11.0575 13.0685 22.6796
14282 1 70.2783 23.341 56.2108
14283 2 70.1713 22.964 57.1308
14284 2 71.0468 23.9807 56.2
14285 1 71.32 11.4208 45.478
14286 2 70.4224 11.252 45.0709
14287 2 71.3004 11.1673 46.4452
14288 1 51.0622 6.03829 40.0221
14289 2 50.8018 5.10189 40.2573
14290 2 52.0412 6.16252 40.1835
14291 1 18.1013 22.2106 17.4329
14292 2 18.3216 22.5876 18.3326
14293 2 18.4353 22.829 16.7216
14294 1 94.5291 19.6975 29.9329
14295 2 95.3671 19.3238 30.3305
14296 2 93.8784 19.907 30.6628
14297 1 106.101 16.0003 17.638
14298 2 105.803 15.9505 16.6849
14299 2 105.793 15.1843 18.1269
14300 1 52.7422 25.6593 35.6849
14301 2 53.5536 25.9419 36.1965
14302 2 51.9231 25.8569 36.2234
14303 1 98.1402 21.006 90.8888
14304 2 98.8406 21.5144 91.3898
14305 2 98.2051 21.2212 89.9144
14306 1 113.223 9.50109 13.7697
14307 2 113.481 9.50228 12.8035
14308 2 113.853 10.0837 14.2833
14309 1 12.6584 24.0187 47.3011
14310 2 12.9221 24.7286 46.648
14311 2 13.2881 23.2455 47.2253
14312 1 27.41 23.7858 58.3818
14313 2 27.4311 24.6964 57.9691
14314 2 28.1439 23.7086 59.0566
14315 1 67.0053 18.5883 55.5868
14316 2 66.1117 18.9252 55.8836
14317 2 67.6443 19.3544 55.5184
14318 1 19.0289 5.01331 21.5651
14319 2 19.8556 5.5538 21.4091
14320 2 18.2694 5.62348 21.7906
14321 1 49.5658 26.2225 72.7286
14322 2 50.0353 25.4785 72.2532
14323 2 50.1603 26.5881 73.4448
14324 1 90.0946 0.86369 37.5373
14325 2 89.7271 1.78942 37.4483
14326 2 90.741 0.688825 36.7947
14327 1 49.3801 16.8252 46.1263
14328 2 48.7077 17.2482 45.5189
14329 2 49.218 15.8394 46.1681
14330 1 4.01168 5.11238 54.9661
14331 2 3.81963 5.74369 54.2147
14332 2 3.53226 5.41777 55.7888
14333 1 24.905 7.75311 90.0178
14334 2 25.2539 7.90099 89.0924
14335 2 24.4175 8.5705 90.3248
14336 1 32.589 14.8183 90.7138
14337 2 32.1785 14.9338 91.6183
14338 2 33.572 14.6629 90.8113
14339 1 15.7925 5.1939 84.8297
14340 2 16.7574 5.0366 85.0398
14341 2 15.2576 4.39355 85.1005
14342 1 24.9953 3.6338 37.0659
14343 2 25.4844 3.18878 37.8161
14344 2 25.45 3.42351 36.2004
14345 1 30.1438 16.4216 11.3396
14346 2 30.8552 16.4534 10.6376
14347 2 30.406 15.7692 12.0507
14348 1 11.2191 14.0118 43.3204
14349 2 11.1582 13.0217 43.4466
14350 2 10.3099 14.4168 43.4174
14351 1 91.5777 9.19461 44.0264
14352 2 91.4096 10.173 43.9056
14353 2 90.7266 8.74015 44.2892
14354 1 75.3151 8.25485 58.2258
14355 2 74.6274 8.56942 58.8802
14356 2 75.4093 8.92762 57.492
14357 1 113.558 0.227731 16.1018
14358 2 114.248 0.920691 15.8937
14359 2 112.788 0.655684 16.5757
14360 1 81.8379 5.77568 38.3077
14361 2 82.5287 5.06578 38.4451
14362 2 81.8166 6.37876 39.1051
14363 1 46.7129 15.1059 72.1974
14364 2 47.5002 15.7056 72.3407
14365 2 47.0037 14.1516 72.2673
14366 1 34.8462 5.31331 61.031
14367 2 35.7971 5.18558 61.3127
14368 2 34.5189 6.20099 61.355
14369 1 74.6406 23.6353 58.2613
14370 2 74.3293 22.8004 57.8075
14371 2 73.9237 24.3305 58.2086
14372 1 71.8717 12.6654 87.6923
14373 2 72.6585 13.1218 87.277
14374 2 71.8577 12.8529 88.6745
14375 1 110.265 10.0028 68.6408
14376 2 110.075 9.10457 69.0371
14377 2 111.155 10.3273 68.9619
14378 1 114.974 12.7978 31.1265
14379 2 114.933 13.6266 31.6845
14380 2 115.211 13.0404 30.186
14381 1 97.9501 2.86071 63.7168
14382 2 98.3428 3.43967 63.0022
14383 2 98.5991 2.13786 63.9542
14384 1 111.634 27.2149 53.5204
14385 2 111.071 26.5083 53.9492
14386 2 111.18 28.1016 53.6086
14387 1 118.463 19.8323 55.7526
14388 2 118.324 20.8008 55.5453
14389 2 119.317 19.5212 55.3361
14390 1 90.3309 20.7653 90.3472
14391 2 91.0263 21.4507 90.1312
14392 2 89.4396 21.2105 90.4332
14393 1 60.9636 18.1055 47.6569
14394 2 60.3087 17.3851 47.4285
14395 2 61.5999 18.231 46.8958
14396 1 24.9598 22.6532 13.3498
14397 2 25.0956 21.9271 12.6757
14398 2 25.5323 22.4761 14.1504
14399 1 74.0166 20.2512 50.3719
14400 2 73.7602 19.5697 51.0574
14401 2 73.7347 21.1589 50.6826
14402 1 17.7904 21.5873 44.0682
14403 2 18.0751 21.7787 43.1289
14404 2 18.4681 20.9983 44.5085
14405 1 69.9951 11.6804 80.7511
14406 2 70.4507 12.4326 80.275
14407 2 70.6034 11.3148 81.4556
14408 1 68.3284 7.03419 64.0682
14409 2 68.1475 7.10513 65.0491
14410 2 69.2578 7.34999 63.877
14411 1 113.604 3.66949 28.8217
14412 2 114.524 3.68596 29.2129
14413 2 113.117 2.85977 29.1491
14414 1 46.3503 8.59382 82.0119
14415 2 47.0237 8.8457 81.3169
14416 2 46.8081 8.47942 82.8936
14417 1 50.4105 28.0274 51.2297
14418 2 51.0067 28.7888 50.9749
14419 2 50.4926 27.8538 52.211
14420 1 16.0539 3.89184 51.9879
14421 2 16.3484 3.93819 51.0333
14422 2 15.3055 3.23428 52.0742
14423 1 100.189 13.0699 49.9783
14424 2 99.8016 12.8978 50.884
14425 2 99.5322 13.5848 49.4273
14426 1 72.2498 18.3941 55.0373
14427 2 72.2218 17.4822 54.6277
14428 2 73.0578 18.4726 55.6211
14429 1 81.5139 24.4087 34.6579
14430 2 81.1607 24.9335 35.4323
14431 2 82.2545 24.9182 34.2198
14432 1 16.6981 19.8371 70.9327
14433 2 17.5436 20.3707 70.9136
14434 2 16.8856 18.9286 71.3061
14435 1 90.6139 24.2264 57.7103
14436 2 91.2994 23.9829 57.0242
14437 2 91.0713 24.5539 58.537
14438 1 40.4442 2.35601 54.1655
14439 2 40.8926 1.99129 54.9816
14440 2 39.4779 2.09865 54.173
14441 1 31.5018 28.708 30.598
14442 2 30.5869 28.705 30.1943
14443 2 31.8223 29.6507 30.6904
14444 1 109.603 13.8488 38.8079
14445 2 109.951 13.1303 38.2056
14446 2 108.778 14.2485 38.4082
14447 1 108.195 14.6861 77.2837
14448 2 108.343 15.2818 76.4942
14449 2 108.07 15.2444 78.1039
14450 1 112.338 21.2918 85.6814
14451 2 112.597 21.624 86.5884
14452 2 112.513 22.0051 85.0027
14453 1 42.6815 5.8149 44.5144
14454 2 41.908 6.15887 43.982
14455 2 43.4166 6.49291 44.5106
14456 1 31.9125 20.4534 44.6043
14457 2 31.6986 21.3842 44.3076
14458 2 32.3734 20.4839 45.4912
14459 1 95.7757 6.08008 56.1962
14460 2 96.4258 5.32575 56.2876
14461 2 95.4428 6.34462 57.1013
14462 1 114.332 3.71636 34.2607
14463 2 113.941 4.415 33.6616
14464 2 115.269 3.5187 33.9745
14465 1 76.5512 26.3123 42.4455
14466 2 76.5229 27.2532 42.7831
14467 2 75.643 26.0468 42.122
14468 1 119.963 17.27 87.6818
14469 2 119.91 18.2452 87.8963
14470 2 119.862 16.7377 88.5222
14471 1 72.024 7.22373 33.373
14472 2 72.4953 7.83998 32.742
14473 2 72.0566 7.60423 34.2972
14474 1 92.9231 13.3833 73.8851
14475 2 93.6354 13.9384 74.3147
14476 2 93.0724 13.3562 72.8967
14477 1 9.12633 24.7767 51.764
14478 2 8.77964 24.3531 50.9271
14479 2 8.59664 25.6008 51.9646
14480 1 0.935278 1.87618 72.2395
14481 2 1.13248 1.58299 73.175
14482 2 1.02541 1.09649 71.6198
14483 1 13.7123 19.7742 80.7272
14484 2 14.3562 20.5389 80.6993
14485 2 12.8404 20.0579 80.328
14486 1 92.6146 25.3909 84.813
14487 2 92.9649 26.1422 84.2536
14488 2 93.2955 24.6597 84.8534
14489 1 75.3307 1.20866 75.3681
14490 2 75.6914 0.43231 74.8512
14491 2 74.3562 1.06878 75.5431
14492 1 7.6959 10.5176 24.1896
14493 2 7.6448 10.3293 23.2088
14494 2 7.98972 11.4627 24.3326
14495 1 104.198 25.9145 79.253
14496 2 105.092 25.4691 79.3015
14497 2 104.321 26.8869 79.0543
14498 1 5.37496 17.249 86.8052
14499 2 4.86562 17.9803 86.3516
14500 2 4.93728 16.3703 86.6146
14501 1 96.8691 6.39906 87.848
14502 2 97.5276 6.8777 88.4287
14503 2 96.1346 7.02663 87.5896
14504 1 46.3711 12.7299 36.2105
14505 2 46.7352 13.2693 36.9697
14506 2 47.0947 12.5681 35.5394
14507 1 103.88 21.3093 90.6385
14508 2 104.74 21.6008 90.2196
14509 2 104.001 21.2305 91.628
14510 1 27.4783 21.7282 33.5051
14511 2 27.8968 22.5105 33.9664
14512 2 26.6402 22.0216 33.0453
14513 1 7.16012 26.3113 21.6333
14514 2 6.36637 26.5847 21.09
14515 2 6.85486 25.7912 22.431
14516 1 3.19122 1.48095 33.0964
14517 2 3.67072 1.18898 32.2688
14518 2 2.23693 1.18562 33.0504
14519 1 19.0022 24.3282 57.2913
14520 2 18.2715 24.2435 56.6139
14521 2 19.5346 25.1541 57.1059
14522 1 98.7987 12.4216 57.4098
14523 2 98.4148 12.0847 58.2696
14524 2 98.4254 13.3276 57.2105
14525 1 77.2334 3.19177 70.4533
14526 2 77.2493 2.20258 70.5991
14527 2 77.9159 3.43828 69.7652
14528 1 52.5333 15.9427 71.9784
14529 2 51.7172 15.7135 71.4479
14530 2 53.2739 15.3148 71.7388
14531 1 93.3759 13.2795 78.8708
14532 2 93.4842 13.2034 79.862
14533 2 92.4502 13.5935 78.6599
14534 1 39.7093 1.73721 39.901
14535 2 38.998 1.63788 40.5967
14536 2 39.7275 0.920673 39.324
14537 1 97.6851 2.36754 53.0571
14538 2 97.8554 3.24142 52.6018
14539 2 98.1143 2.37312 53.9603
14540 1 86.9782 18.5784 70.5729
14541 2 87.7613 18.511 71.1911
14542 2 87.1318 19.3203 69.9201
14543 1 37.3278 13.5799 40.0864
14544 2 38.2901 13.3145 40.1467
14545 2 36.8288 12.9033 39.5448
14546 1 39.0966 24.5465 23.2301
14547 2 39.1865 24.1715 24.1527
14548 2 38.5083 23.9502 22.6838
14549 1 8.84837 27.0936 82.4279
14550 2 7.97695 26.6286 82.2719
14551 2 8.71517 27.8419 83.0778
14552 1 47.359 16.4548 44.3107
14553 2 47.3664 16.9467 43.4401
14554 2 46.9246 15.5627 44.1858
14555 1 73.3285 9.5223 47.9807
14556 2 73.8469 8.87824 48.5432
14557 2 73.9593 10.1546 47.5309
14558 1 31.0202 11.8851 54.1321
14559 2 31.3843 12.3371 54.9464
14560 2 30.218 11.3431 54.3824
14561 1 25.1233 9.73066 52.0137
14562 2 25.5588 9.6252 52.9077
14563 2 24.3788 9.06896 51.9255
14564 1 114.796 28.8964 43.9165
14565 2 114.214 28.4203 44.5759
14566 2 115.07 29.7817 44.2921
14567 1 44.3758 22.8326 36.0938
14568 2 44.7837 23.0334 36.9845
14569 2 43.6615 22.1412 36.2026
14570 1 53.5333 18.2731 82.2462
14571 2 53.3889 19.157 81.8012
14572 2 53.6675 18.4118 83.2274
14573 1 34.9162 26.7522 36.4116
14574 2 35.8636 26.4675 36.2654
14575 2 34.5147 27.0344 35.5403
14576 1 7.59424 21.5413 32.5524
14577 2 7.17669 21.437 31.6498
14578 2 7.08907 22.2273 33.0761
14579 1 39.5417 9.65963 90.3159
14580 2 40.0599 8.81432 90.1861
14581 2 39.2994 10.0423 89.4244
14582 1 31.8592 12.331 11.2106
14583 2 30.9304 12.3459 10.8405
14584 2 31.822 12.1796 12.1984
14585 1 117.716 18.1607 57.7786
14586 2 118 18.592 56.9224
14587 2 117.05 17.4407 57.584
14588 1 23.7224 15.5298 32.5574
14589 2 23.5118 16.4543 32.875
14590 2 23.5381 14.8753 33.2906
14591 1 41.9473 26.9544 28.8073
14592 2 41.1503 27.2872 28.3032
14593 2 42.61 26.5682 28.1658
14594 1 3.80098 5.08703 79.6165
14595 2 2.96187 4.71026 79.2241
14596 2 4.49286 5.17678 78.9001
14597 1 102.922 22.1055 80.8749
14598 2 102.127 22.1328 81.4805
14599 2 102.869 21.2949 80.2917
14600 1 87.0648 8.03831 83.0291
14601 2 86.298 8.59751 82.7139
14602 2 86.9128 7.08559 82.766
14603 1 105.292 7.6539 40.3217
14604 2 105.575 7.29579 41.2115
14605 2 104.513 7.1263 39.9823
14606 1 71.0583 27.8874 63.4866
14607 2 70.247 27.4197 63.1359
14608 2 71.6563 27.2247 63.9373
14609 1 78.3819 15.9975 82.9802
14610 2 78.3325 15.8817 81.9882
14611 2 79.2335 15.5988 83.3204
14612 1 9.20388 23.6703 21.3472
14613 2 8.33321 24.1581 21.284
14614 2 9.62708 23.6252 20.4422
14615 1 96.6347 15.1927 82.5666
14616 2 97.0411 15.8195 83.2314
14617 2 95.645 15.3331 82.538
14618 1 117.058 2.31652 32.4194
14619 2 117.442 1.43411 32.1479
14620 2 117.722 3.04072 32.2328
14621 1 66.2283 0.112854 89.7692
14622 2 67.1922 0.254028 89.9948
14623 2 66.1557 29.6942 88.8639
14624 1 41.7951 24.2093 36.8063
14625 2 41.7013 24.7946 37.6117
14626 2 42.5356 23.554 36.9548
14627 1 81.0362 25.5329 86.6393
14628 2 80.7651 25.2313 87.5534
14629 2 80.6111 24.9421 85.9536
14630 1 36.8792 5.59899 42.3358
14631 2 36.5231 4.93931 42.9976
14632 2 36.9851 6.48998 42.7773
14633 1 68.1981 18.385 34.9037
14634 2 67.7554 19.2576 35.1097
14635 2 68.4669 17.9379 35.7568
14636 1 8.06379 9.42327 54.2298
14637 2 8.42155 9.7252 53.3462
14638 2 7.63035 10.195 54.6952
14639 1 2.62728 27.5417 78.2578
14640 2 2.07279 27.1134 77.5443
14641 2 3.55468 27.1689 78.2281
14642 1 17.2929 7.28311 23.2326
14643 2 18.1723 7.75883 23.2144
14644 2 17.2192 6.7509 24.076
14645 1 39.5065 10.6637 42.0542
14646 2 39.9857 10.9807 41.2357
14647 2 40.0823 10.8159 42.8574
14648 1 37.1792 28.5103 61.8076
14649 2 36.479 27.7991 61.8711
14650 2 37.6913 28.3987 60.956
14651 1 80.0773 15.2695 34.6714
14652 2 79.9386 14.2822 34.5941
14653 2 80.4193 15.6271 33.8024
14654 1 106.599 16.2693 61.0069
14655 2 106.509 16.3708 60.0161
14656 2 105.783 16.634 61.4549
14657 1 91.8868 19.0882 23.6417
14658 2 90.989 18.8564 23.2671
14659 2 91.8818 18.9463 24.6315
14660 1 104.54 12.8572 21.9561
14661 2 105.446 13.0834 21.5973
14662 2 104.614 12.0777 22.5782
14663 1 48.2131 10.6098 39.7058
14664 2 48.7823 9.79986 39.8471
14665 2 48.7787 11.3584 39.3597
14666 1 78.726 10.871 82.7049
14667 2 77.749 10.7063 82.5697
14668 2 79.2115 9.99704 82.7269
14669 1 70.8188 17.6143 59.1744
14670 2 70.3165 18.0157 59.9403
14671 2 70.1811 17.1323 58.5736
14672 1 98.9908 18.0734 56.4361
14673 2 98.9582 17.5821 55.5657
14674 2 99.0137 17.4159 57.1893
14675 1 26.4744 19.5656 60.9901
14676 2 25.8333 20.314 61.16
14677 2 26.925 19.7064 60.1085
14678 1 94.6547 9.40539 62.465
14679 2 95.3506 8.80156 62.8537
14680 2 94.8262 9.52547 61.4871
14681 1 29.7102 19.5104 82.7364
14682 2 29.2303 19.4149 81.8643
14683 2 29.6373 18.6567 83.2521
14684 1 70.9632 13.1125 84.9402
14685 2 69.9844 13.1865 84.749
14686 2 71.0973 12.8513 85.8961
14687 1 2.25532 20.7242 83.9625
14688 2 2.79627 20.163 84.589
14689 2 1.55752 21.2213 84.4783
14690 1 61.6756 5.9315 63.8556
14691 2 62.6619 5.92362 63.6909
14692 2 61.471 6.53638 64.6252
14693 1 26.5849 15.5701 85.2759
14694 2 25.7258 15.3417 85.7339
14695 2 26.7303 16.5587 85.3139
14696 1 47.0249 8.7226 73.0491
14697 2 46.9839 9.70453 73.2338
14698 2 46.0995 8.37104 72.9076
14699 1 93.2004 0.364604 65.0095
14700 2 92.748 29.806 64.3143
14701 2 92.5535 1.03642 65.3702
14702 1 40.7635 17.6274 22.0777
14703 2 41.682 17.6651 21.6843
14704 2 40.5788 16.7007 22.4051
14705 1 110.2 16.7594 46.2515
14706 2 110.571 16.6491 45.3295
14707 2 109.43 17.3976 46.2269
14708 1 71.3175 11.8934 62.796
14709 2 70.9123 12.1285 61.9126
14710 2 71.2054 12.6596 63.4287
14711 1 10.0322 24.9104 30.9392
14712 2 9.69132 23.9916 30.74
14713 2 10.917 25.0418 30.4921
14714 1 119.804 19.6246 12.8085
14715 2 119.903 19.1664 13.6918
14716 2 118.835 19.7954 12.6284
14717 1 104.741 26.6111 31.6745
14718 2 104.865 26.9314 30.7354
14719 2 105.579 26.7725 32.1956
14720 1 62.0251 3.59156 69.4126
14721 2 62.8689 4.06716 69.6612
14722 2 61.308 4.26219 69.2227
14723 1 80.1924 28.5352 49.3744
14724 2 80.1119 27.9612 48.5596
14725 2 79.3546 29.0688 49.4904
14726 1 87.7198 14.2128 78.3176
14727 2 87.4135 14.774 79.0864
14728 2 87.0334 13.5125 78.1218
14729 1 50.0686 16.0598 84.39
14730 2 49.9207 15.9143 83.4117
14731 2 50.8629 15.5311 84.6892
14732 1 0.913286 5.52872 59.3435
14733 2 1.11259 6.40327 58.9015
14734 2 1.19946 5.56635 60.301
14735 1 40.0762 4.21175 62.6054
14736 2 40.568 3.76295 61.8593
14737 2 40.4256 3.88035 63.4818
14738 1 91.3996 14.6898 47.6957
14739 2 92.3633 14.6225 47.954
14740 2 90.9366 15.3371 48.3012
14741 1 27.4147 22.463 55.8853
14742 2 27.342 23.1717 56.587
14743 2 26.6323 21.8441 55.9544
14744 1 57.7634 4.57946 47.4572
14745 2 58.6524 4.78606 47.866
14746 2 57.8633 3.82905 46.8038
14747 1 29.6687 24.0848 63.3822
14748 2 30.4948 24.6335 63.2534
14749 2 29.2223 23.942 62.4988
14750 1 91.2486 19.081 71.0306
14751 2 91.5885 20.0136 71.1519
14752 2 91.0062 18.9368 70.0712
14753 1 11.095 11.1424 16.0017
14754 2 11.1727 11.4842 16.9383
14755 2 10.4524 11.7132 15.4907
14756 1 64.83 6.22885 86.2177
14757 2 64.6277 6.6756 87.0891
14758 2 65.8148 6.07056 86.145
14759 1 16.6422 11.5686 55.8183
14760 2 16.1562 11.5268 54.9453
14761 2 17.6209 11.4356 55.6615
14762 1 15.5751 21.9247 42.4609
14763 2 15.8486 21.799 41.5073
14764 2 16.318 21.6305 43.0622
14765 1 27.948 17.623 42.6537
14766 2 27.3018 16.8772 42.4918
14767 2 28.0553 18.1587 41.8162
14768 1 68.1208 17.0301 64.3172
14769 2 67.944 16.2592 63.7053
14770 2 67.8657 16.7797 65.2511
14771 1 27.2481 24.1566 78.1105
14772 2 28.1193 23.9947 78.5739
14773 2 27.2757 25.0435 77.6492
14774 1 9.65225 12.2025 46.7004
14775 2 9.21424 12.1098 47.5945
14776 2 10.2237 13.0231 46.6927
14777 1 3.63259 17.4514 36.1982
14778 2 3.49512 16.4688 36.3225
14779 2 4.37459 17.762 36.7924
14780 1 30.1408 21.3491 23.2868
14781 2 29.5981 21.5831 22.4801
14782 2 30.5594 20.4501 23.1577
14783 1 11.8616 5.42942 78.128
14784 2 12.1126 4.50174 78.4043
14785 2 10.9636 5.65775 78.5041
14786 1 116.294 24.2731 10.8413
14787 2 116.964 23.7421 10.322
14788 2 116.64 25.2013 10.9797
14789 1 19.078 26.8013 18.843
14790 2 18.6101 26.2563 18.1473
14791 2 19.522 27.5854 18.4092
14792 1 70.6067 6.31647 90.3152
14793 2 70.6941 6.32806 89.3191
14794 2 70.6744 5.37478 90.6448
14795 1 42.9796 4.87408 56.0084
14796 2 42.7643 4.14189 55.3622
14797 2 42.1391 5.35348 56.2609
14798 1 29.4515 26.1246 46.795
14799 2 30.0521 25.6832 46.1283
14800 2 29.9603 26.833 47.2842
14801 1 92.321 23.6194 51.5692
14802 2 91.7175 24.3365 51.918
14803 2 92.5279 23.7967 50.6071
14804 1 11.258 23.2729 86.1987
14805 2 11.5225 24.2357 86.1422
14806 2 11.9466 22.768 86.7192
14807 1 41.7833 23.9919 57.0743
14808 2 42.651 24.4572 57.2495
14809 2 41.6344 23.9249 56.0877
14810 1 81.6644 11.6379 55.8828
14811 2 81.9468 10.9575 55.2065
14812 2 82.375 12.336 55.97
14813 1 80.4552 25.0257 72.6701
14814 2 79.5566 24.6868 72.3917
14815 2 80.8288 24.4328 73.3835
14816 1 28.7389 29.74 42.5047
14817 2 29.4183 0.263712 41.9908
14818 2 28.5389 0.207781 43.3656
14819 1 60.9835 0.821926 81.5077
14820 2 60.1054 0.422059 81.7704
14821 2 60.8252 1.6568 80.9805
14822 1 27.3474 9.02385 58.2247
14823 2 26.6068 9.61248 57.9007
14824 2 27.427 9.10462 59.2183
14825 1 37.0791 27.4371 49.2558
14826 2 37.3262 28.1039 48.5528
14827 2 37.6782 27.5508 50.0484
14828 1 98.411 12.2313 89.8581
14829 2 97.8087 11.4333 89.8756
14830 2 99.3167 11.9584 89.5336
14831 1 46.716 21.6496 74.5054
14832 2 46.6984 21.1877 73.6186
14833 2 47.2884 21.1305 75.1403
14834 1 55.6096 1.63831 37.3506
14835 2 55.1635 1.04839 36.6775
14836 2 56.4079 1.16902 37.728
14837 1 0.483404 14.6046 44.7531
14838 2 1.04951 15.2778 44.2775
14839 2 0.546483 13.7243 44.2829
14840 1 33.2031 5.40977 29.0599
14841 2 33.6662 6.2171 29.4255
14842 2 33.7755 4.9865 28.3576
14843 1 30.8933 27.058 73.3702
14844 2 29.9332 27.0751 73.6493
14845 2 30.9531 26.8482 72.3943
14846 1 117.097 0.222928 88.9269
14847 2 117.642 1.04232 88.7499
14848 2 117.687 29.4164 88.8951
14849 1 0.773029 1.22645 12.38
14850 2 1.34103 1.41439 13.1813
14851 2 0.133673 1.98249 12.2399
14852 1 89.0696 20.4064 86.9567
14853 2 88.5948 19.5894 87.2838
14854 2 89.7989 20.1385 86.3271
14855 1 71.6358 14.6029 48.5745
14856 2 71.9456 15.4316 49.0406
14857 2 72.278 13.8583 48.7565
14858 1 103.642 27.3484 68.6818
14859 2 103.057 27.2276 69.4839
14860 2 104.601 27.3504 68.9656
14861 1 68.2845 9.16478 75.3518
14862 2 67.3646 9.09336 74.9662
14863 2 68.476 10.1187 75.5827
14864 1 48.5964 16.4388 78.6706
14865 2 47.9835 15.9873 78.0221
14866 2 48.5748 15.9521 79.5439
14867 1 37.5498 23.8063 35.2377
14868 2 37.5893 24.8004 35.3388
14869 2 37.056 23.4119 36.0127
14870 1 82.8515 11.4723 33.6819
14871 2 82.6772 10.711 33.0573
14872 2 83.2024 11.1184 34.5489
14873 1 22.7937 29.0283 51.7699
14874 2 23.7909 28.9752 51.8222
14875 2 22.5034 29.977 51.895
14876 1 59.44 25.7471 75.8828
14877 2 60.0595 25.3865 76.5801
14878 2 58.5649 25.266 75.9334
14879 1 74.1157 18.6111 37.9268
14880 2 73.8774 17.6893 37.6208
14881 2 75.0477 18.8281 37.6365
14882 1 41.9442 19.0144 77.4858
14883 2 42.5984 18.983 78.2415
14884 2 42.4366 18.9693 76.6166
14885 1 13.8501 21.3719 34.2822
14886 2 13.6032 21.9318 33.4912
14887 2 13.0188 21.0393 34.7275
14888 1 69.6067 22.5083 62.0235
14889 2 69.0061 21.8273 61.6046
14890 2 70.3685 22.7055 61.4065
14891 1 94.4754 20.9865 36.9178
14892 2 93.8098 20.4045 37.3851
14893 2 95.3334 20.9904 37.4314
14894 1 26.4695 11.4912 83.92
14895 2 25.9795 11.6769 84.7717
14896 2 26.9451 10.6146 83.9933
14897 1 15.7621 26.3757 56.4738
14898 2 14.9416 25.8637 56.7281
14899 2 15.5333 27.0398 55.762
14900 1 13.9499 27.7087 62.1648
14901 2 14.6678 27.7038 61.4687
14902 2 13.8744 28.6245 62.5592
14903 1 27.3646 8.95209 60.9499
14904 2 27.2728 8.10928 61.4803
14905 2 26.7728 9.65749 61.34
14906 1 34.0101 1.5816 65.2118
14907 2 33.9633 2.36224 65.835
14908 2 34.8271 1.65974 64.6405
14909 1 94.2017 12.1409 53.4006
14910 2 93.6222 11.3262 53.419
14911 2 93.6653 12.9244 53.087
14912 1 11.8403 1.41282 20.0035
14913 2 11.4155 1.45472 20.9078
14914 2 11.8765 2.33117 19.6094
14915 1 93.0388 15.6186 77.1272
14916 2 92.7759 16.3957 76.5555
14917 2 93.6935 15.0471 76.6323
14918 1 9.12635 16.9947 40.0821
14919 2 10.016 17.0665 39.6312
14920 2 8.44698 16.6623 39.428
14921 1 82.878 1.75049 65.6818
14922 2 83.1917 0.803908 65.7564
14923 2 82.7613 2.13613 66.597
14924 1 90.3912 23.2419 33.8624
14925 2 90.38 22.6957 33.0248
14926 2 90.3674 22.6347 34.6566
14927 1 116.986 20.7984 18.6579
14928 2 117.66 20.6436 17.9356
14929 2 117.288 20.3482 19.4981
14930 1 111.702 2.7856 81.439
14931 2 111.502 2.29567 82.2875
14932 2 112.691 2.80692 81.2917
14933 1 118.441 0.590462 61.1075
14934 2 118.629 29.6085 61.0865
14935 2 117.517 0.74539 61.4576
14936 1 117.685 3.70607 86.0405
14937 2 117.495 3.26155 85.165
14938 2 116.902 4.26998 86.3042
14939 1 82.0636 15.0315 43.2579
14940 2 81.3708 15.3134 43.9217
14941 2 82.3192 15.814 42.6903
14942 1 38.9136 6.59683 29.0114
14943 2 38.0059 6.1971 28.8837
14944 2 38.8322 7.45167 29.5239
14945 1 10.9763 28.1663 67.0392
14946 2 10.5279 28.5887 66.2515
14947 2 11.7275 28.7498 67.3478
14948 1 109.621 10.7995 30.6338
14949 2 109.239 9.88175 30.5252
14950 2 109.009 11.4675 30.2106
14951 1 58.5268 16.3977 51.0479
14952 2 58.3229 15.9643 51.9257
14953 2 58.3147 17.3736 51.1008
14954 1 10.5846 3.01934 51.2115
14955 2 11.4253 3.37644 50.8044
14956 2 10.7696 2.71586 52.1462
14957 1 119.053 22.6323 36.9776
14958 2 118.062 22.7559 37.0248
14959 2 119.464 22.8917 37.8519
14960 1 97.3315 20.3746 40.5505
14961 2 97.4452 20.7873 39.6467
14962 2 97.3298 19.3784 40.4642
14963 1 117.146 21.8777 52.4942
14964 2 116.315 21.4728 52.8758
14965 2 116.959 22.2148 51.5714
14966 1 16.8075 8.30271 90.501
14967 2 17.4736 8.46229 89.7725
14968 2 16.5666 9.17377 90.9291
14969 1 5.65637 0.858375 81.6617
14970 2 6.47017 0.283428 81.5771
14971 2 4.83766 0.297104 81.5405
14972 1 60.3575 29.2922 35.8651
14973 2 60.4941 0.229773 36.1848
14974 2 59.3818 29.0735 35.8807
14975 1 109.569 18.261 10.8584
14976 2 108.944 18.8135 11.4097
14977 2 109.909 18.8064 10.092
14978 1 55.431 24.9323 36.9183
14979 2 55.3106 23.9662 36.6899
14980 2 55.0287 25.1153 37.8153
14981 1 110.537 25.4669 73.0641
14982 2 110.761 25.3632 72.095
14983 2 109.603 25.813 73.1551
14984 1 33.2439 5.75863 64.438
14985 2 33.5213 6.45116 63.7721
14986 2 33.8742 5.77127 65.2143
14987 1 71.5479 2.5413 50.6133
14988 2 72.0221 2.9446 51.3959
14989 2 72.0907 2.6829 49.7855
14990 1 66.9559 18.6787 89.532
14991 2 67.8053 18.5441 89.0218
14992 2 66.751 19.6559 89.5865
14993 1 41.2064 0.619286 66.9578
14994 2 41.8124 0.668997 66.1639
14995 2 40.2552 0.596759 66.6502
14996 1 15.6679 14.8248 43.1389
14997 2 15.1712 13.9637 43.247
14998 2 16.6412 14.6343 43.0109
14999 1 51.6932 12.9297 80.4425
15000 2 51.0472 12.7943 81.1937
15001 2 52.4175 13.5545 80.7342
15002 1 43.1179 14.7458 70.3392
15003 2 42.5275 15.455 70.7247
15004 2 42.8461 14.5631 69.3944
15005 1 13.3237 7.15601 41.2964
15006 2 12.5411 6.54665 41.1691
15007 2 13.1805 7.99628 40.7735
15008 1 119 24.6 77.3592
15009 2 119.366 23.8652 76.7879
15010 2 118.037 24.4192 77.5584
15011 1 49.3192 21.1803 30.6592
15012 2 48.3614 21.1988 30.9461
15013 2 49.6162 22.1071 30.4292
15014 1 2.48838 25.0485 40.4902
15015 2 1.94315 25.8159 40.1529
15016 2 2.40644 24.278 39.8581
15017 1 74.2889 19.5401 66.6895
15018 2 74.039 20.0366 65.8581
15019 2 74.907 18.7894 66.4563
15020 1 12.7392 18.4749 56.984
15021 2 13.7376 18.4892 57.0402
15022 2 12.4389 17.5966 56.612
15023 1 5.48178 4.33637 10.6702
15024 2 4.82586 4.69333 10.0051
15025 2 5.96374 5.09737 11.1044
15026 1 48.9087 26.8926 76.4044
15027 2 48.9459 26.4432 77.2969
15028 2 49.8099 26.8519 75.9729
15029 1 104.951 20.615 66.1188
15030 2 104.698 21.3118 65.4475
15031 2 105.946 20.5254 66.1474
15032 1 103.43 19.8372 42.8068
15033 2 102.463 20.0432 42.6547
15034 2 103.771 19.2676 42.059
15035 1 113.578 22.9244 16.4244
15036 2 113.935 23.0521 17.3495
15037 2 113.158 22.0199 16.3514
15038 1 93.7213 10.9555 46.0573
15039 2 94.1543 10.3068 45.4314
15040 2 94.1611 11.8491 45.9678
15041 1 18.9763 16.1093 90.444
15042 2 19.0277 15.458 91.2012
15043 2 18.9913 17.0418 90.8049
15044 1 90.5254 2.20034 40.0785
15045 2 89.6073 1.82871 40.2162
15046 2 91.1849 1.45016 40.0305
15047 1 88.3838 14.598 38.6357
15048 2 89.0442 15.1529 39.1417
15049 2 88.7843 13.704 38.4347
15050 1 101.66 12.4354 56.5
15051 2 101.924 13.3779 56.2948
15052 2 100.774 12.4307 56.9635
15053 1 98.4077 7.99994 76.1351
15054 2 98.1203 8.84052 75.676
15055 2 98.6301 8.20058 77.0892
15056 1 71.3714 7.03067 50.8439
15057 2 72.3575 6.8777 50.7787
15058 2 71.1959 7.83828 51.4068
15059 1 90.6926 5.36714 67.4605
15060 2 91.4058 4.73915 67.772
15061 2 91.1022 6.25111 67.235
15062 1 101.159 21.4032 90.1673
15063 2 100.893 20.5111 89.8022
15064 2 102.133 21.3938 90.3926
15065 1 67.9117 22.9794 34.8603
15066 2 67.5436 22.1021 35.1683
15067 2 67.1607 23.6236 34.7156
15068 1 40.1415 7.89369 47.2791
15069 2 40.9988 8.39508 47.1629
15070 2 39.7532 7.68487 46.3815
15071 1 49.9787 11.3366 56.8938
15072 2 50.7993 11.1102 57.4184
15073 2 49.761 10.5828 56.2737
15074 1 60.3299 22.2084 80.233
15075 2 60.458 22.8579 79.4835
15076 2 60.4927 22.6695 81.1052
15077 1 62.6109 25.5895 69.2198
15078 2 63.1815 25.9232 68.4695
15079 2 61.8128 25.1164 68.8467
15080 1 60.3156 5.65961 71.936
15081 2 60.208 4.86178 72.5292
15082 2 60.5089 5.3573 71.0026
15083 1 10.1655 20.6079 51.5982
15084 2 9.46745 20.8233 52.2811
15085 2 10.2623 19.6155 51.5221
15086 1 23.5663 15.5916 66.6115
15087 2 23.9201 15.5477 67.5458
15088 2 23.8485 14.7741 66.1095
15089 1 47.8233 28.0587 81.0848
15090 2 47.3698 27.188 80.894
15091 2 48.6782 27.8888 81.5749
15092 1 7.68572 11.6643 44.8353
15093 2 6.93469 11.2678 45.3632
15094 2 8.32398 12.1211 45.4549
15095 1 89.3756 19.4036 60.1517
15096 2 89.641 18.6649 59.5321
15097 2 89.8636 20.2399 59.9015
15098 1 24.5006 22.5414 89.9064
15099 2 23.6353 22.9208 89.5788
15100 2 24.478 21.5446 89.829
15101 1 4.33513 10.2372 66.9347
15102 2 3.93733 9.39782 66.5644
15103 2 5.10323 10.5231 66.3617
15104 1 62.372 28.3832 67.8782
15105 2 62.8257 27.5709 67.5116
15106 2 63.0595 29.0655 68.1267
15107 1 96.651 13.1106 65.3368
15108 2 96.4114 12.7157 64.4499
15109 2 96.3982 12.4733 66.0648
15110 1 117.486 25.6674 60.802
15111 2 116.936 25.4385 59.9987
15112 2 117.695 26.6453 60.7953
15113 1 75.3287 5.62513 83.3387
15114 2 75.417 5.24556 84.2596
15115 2 74.8833 4.95611 82.7437
15116 1 43.1751 16.8343 89.374
15117 2 44.0441 16.4541 89.691
15118 2 42.4339 16.5039 89.9584
15119 1 6.96154 21.0202 42.3521
15120 2 6.02931 20.9167 42.0053
15121 2 7.53613 21.4329 41.6452
15122 1 47.9943 26.6085 40.4233
15123 2 47.122 26.9848 40.1111
15124 2 48.0511 26.6806 41.4191
15125 1 54.4021 3.71656 90.2128
15126 2 54.0134 2.9577 89.6902
15127 2 55.4002 3.66034 90.1898
15128 1 14.8516 10.9283 88.3421
15129 2 14.0983 11.5551 88.5416
15130 2 15.7132 11.3356 88.6449
15131 1 94.9141 9.6861 57.3172
15132 2 93.9631 9.42592 57.4844
15133 2 95.3565 9.90864 58.186
15134 1 76.0361 22.0012 83.673
15135 2 75.2975 22.6732 83.6193
15136 2 75.8809 21.2807 82.9972
15137 1 6.20381 8.10518 71.4399
15138 2 6.08259 8.53249 72.3359
15139 2 5.46536 8.39362 70.8304
15140 1 57.6551 0.0749946 74.9922
15141 2 58.5172 0.00376051 75.4939
15142 2 57.8302 0.443739 74.0793
15143 1 113.112 8.38525 52.3157
15144 2 112.663 8.25181 51.4325
15145 2 113.701 9.19211 52.2714
15146 1 110.537 16.5127 43.6785
15147 2 111.185 16.7444 42.9531
15148 2 109.615 16.4575 43.2962
15149 1 23.2988 7.40394 33.3131
15150 2 24.2978 7.41704 33.2704
15151 2 22.9334 8.18584 32.808
15152 1 15.0095 12.1876 42.3086
15153 2 16.0057 12.1075 42.3425
15154 2 14.6863 11.9427 41.3945
15155 1 106.197 8.30593 90.3501
15156 2 105.879 7.37369 90.5234
15157 2 105.471 8.95367 90.5799
15158 1 43.8778 26.338 48.8044
15159 2 43.4837 25.5293 49.2411
15160 2 43.4303 27.1593 49.158
15161 1 1.77148 8.57673 62.1952
15162 2 1.45644 7.63387 62.0868
15163 2 1.18407 9.05111 62.8509
15164 1 65.6986 16.7575 48.7405
15165 2 65.2691 17.6602 48.7161
15166 2 66.6861 16.8613 48.859
15167 1 6.19514 0.251807 53.3684
15168 2 5.76897 29.7928 52.5888
15169 2 7.18972 0.176749 53.2964
15170 1 104.641 9.6392 64.9061
15171 2 103.947 9.09489 65.3774
15172 2 104.497 10.6084 65.1057
15173 1 110.821 16.0914 51.6803
15174 2 110.258 16.4245 50.9233
15175 2 111.752 15.9252 51.356
15176 1 101.188 1.89803 65.6092
15177 2 101.349 2.74858 65.1086
15178 2 100.451 1.38598 65.168
15179 1 39.8609 24.2512 87.4947
15180 2 40.2473 23.49 86.974
15181 2 40.2742 25.1086 87.188
15182 1 15.8946 8.9941 65.8353
15183 2 16.8422 9.29645 65.7319
15184 2 15.3892 9.1882 64.9945
15185 1 42.1841 19.3216 56.0133
15186 2 41.5204 19.604 56.706
15187 2 42.3445 18.3373 56.087
15188 1 74.4523 2.82309 65.7377
15189 2 73.6179 2.41589 66.1092
15190 2 74.2391 3.71533 65.3396
15191 1 26.9224 13.6058 24.7542
15192 2 27.4775 13.9501 25.5114
15193 2 27.4459 12.9275 24.2386
15194 1 45.524 0.0720641 82.1442
15195 2 45.895 0.880261 82.6015
15196 2 46.2678 29.4383 81.9318
15197 1 118.478 10.8557 81.437
15198 2 118.814 10.1349 82.0432
15199 2 117.667 10.531 80.9508
15200 1 22.081 14.4917 49.8873
15201 2 21.4098 13.9685 50.4123
15202 2 21.7283 15.4122 49.7189
15203 1 91.533 17.8375 34.8519
15204 2 92.2552 17.4774 35.4425
15205 2 91.7631 18.7705 34.5751
15206 1 113.593 21.1638 79.0157
15207 2 114.327 20.4863 79.046
15208 2 112.863 20.8928 79.644
15209 1 119.9 28.0308 68.3587
15210 2 0.657954 27.5575 67.9095
15211 2 119.153 27.3862 68.5192
15212 1 62.0411 29.7709 56.8271
15213 2 62.0136 0.739511 57.074
15214 2 61.2281 29.5399 56.2925
15215 1 83.3625 16.2709 48.1805
15216 2 84.0085 16.824 47.6544
15217 2 83.0181 16.805 48.9526
15218 1 117.821 8.2683 43.8127
15219 2 116.995 8.82909 43.8694
15220 2 118.222 8.17259 44.7238
15221 1 54.2665 14.1889 70.626
15222 2 55.127 13.682 70.574
15223 2 53.9575 14.4167 69.7026
15224 1 24.8632 15.0773 63.4815
15225 2 24.4207 14.288 63.9072
15226 2 25.5774 14.7621 62.8565
15227 1 78.725 20.611 80.4574
15228 2 78.8673 20.3101 79.5144
15229 2 77.9228 20.1501 80.8369
15230 1 116.8 12.3146 22.1048
15231 2 115.911 12.2103 22.5501
15232 2 116.875 13.2348 21.7206
15233 1 29.2606 18.2233 67.9333
15234 2 29.3206 18.9179 67.2165
15235 2 30.031 18.3262 68.5625
15236 1 36.2439 27.3802 32.9005
15237 2 36.2608 27.5374 33.888
15238 2 35.3367 27.6022 32.5432
15239 1 103.306 6.0759 83.7931
15240 2 103.82 6.15923 82.9392
15241 2 102.374 6.41039 83.6553
15242 1 67.9294 22.8881 84.1976
15243 2 67.3301 22.1775 84.5663
15244 2 68.7387 22.4638 83.7913
15245 1 112.861 18.8409 73.1147
15246 2 112.177 18.3286 73.6347
15247 2 113.459 19.3343 73.7462
15248 1 72.8797 26.9034 76.2864
15249 2 72.8454 27.6203 75.59
15250 2 73.608 26.2558 76.0624
15251 1 117.11 9.94842 18.3537
15252 2 116.17 9.75045 18.634
15253 2 117.25 9.63583 17.4142
15254 1 54.7532 24.2624 69.3919
15255 2 54.6103 25.103 69.9144
15256 2 55.2201 23.589 69.9652
15257 1 94.6086 20.6094 81.0643
15258 2 95.6029 20.6929 81.1306
15259 2 94.3341 20.6493 80.1035
15260 1 49.8522 18.2123 61.8302
15261 2 50.539 18.8307 62.2121
15262 2 49.1622 18.7433 61.3382
15263 1 79.0455 17.4078 57.6604
15264 2 78.3212 16.719 57.6281
15265 2 79.7639 17.1669 57.0079
15266 1 8.46777 14.3716 67.7668
15267 2 8.66713 13.7108 68.4905
15268 2 9.0842 15.1544 67.8512
15269 1 106.736 1.65456 20.908
15270 2 106.107 2.33282 20.5284
15271 2 106.73 0.835706 20.3341
15272 1 21.8667 12.8709 46.1703
15273 2 21.2509 13.0851 45.4121
15274 2 22.7824 12.6853 45.8137
15275 1 12.325 25.8207 11.797
15276 2 11.5811 25.4607 11.234
15277 2 12.2316 25.4779 12.7317
15278 1 21.1549 22.4505 79.682
15279 2 20.257 22.8573 79.8503
15280 2 21.7616 23.1364 79.2803
15281 1 20.9119 0.417051 21.7802
15282 2 20.9393 29.5766 22.3214
15283 2 20.1942 1.01745 22.133
15284 1 29.7269 16.2425 56.2106
15285 2 29.2101 15.3964 56.0803
15286 2 30.4461 16.0927 56.8891
15287 1 17.8192 8.45007 68.8854
15288 2 17.8604 7.91897 68.0391
15289 2 17.9321 7.83851 69.6686
15290 1 51.1469 19.6483 72.9891
15291 2 50.2269 19.471 72.6395
15292 2 51.0907 20.2525 73.7839
15293 1 39.1299 7.37276 76.7401
15294 2 39.571 6.90113 75.9765
15295 2 39.7236 8.10899 77.0648
15296 1 24.1828 26.3559 67.0833
15297 2 23.2718 26.1156 66.7481
15298 2 24.1939 26.3078 68.082
15299 1 40.6796 16.6303 51.9813
15300 2 40.3401 17.4536 52.4362
15301 2 39.912 16.131 51.5794
15302 1 42.975 19.2307 26.3826
15303 2 43.0069 18.3132 25.9863
15304 2 43.664 19.3067 27.1034
15305 1 105.728 15.3938 90.3605
15306 2 106.511 14.8958 90.7335
15307 2 106.011 16.3197 90.1098
15308 1 60.8058 7.5596 37.4411
15309 2 61.4272 7.74089 38.2033
15310 2 61.2125 7.89682 36.592
15311 1 100.339 18.3049 89.3332
15312 2 99.8863 18.3788 88.4444
15313 2 100.638 17.3618 89.4775
15314 1 62.7114 3.57405 73.873
15315 2 63.7038 3.45338 73.8988
15316 2 62.3771 3.78337 74.7919
15317 1 44.3971 28.707 55.3928
15318 2 44.9331 29.5399 55.5304
15319 2 44.8811 27.9292 55.7938
15320 1 73.8518 22.5276 39.2125
15321 2 74.7223 22.8722 39.5639
15322 2 73.1163 22.7753 39.8431
15323 1 16.8396 12.5035 75.9873
15324 2 17.6556 12.5223 75.4097
15325 2 16.6927 13.4085 76.3864
15326 1 107.081 4.31212 11.2443
15327 2 107.768 4.87352 11.7061
15328 2 106.328 4.89326 10.9361
15329 1 45.1085 8.63966 59.86
15330 2 44.2971 9.00484 60.3163
15331 2 45.9279 9.05822 60.2517
15332 1 69.2313 26.959 56.7142
15333 2 68.5492 26.2393 56.5846
15334 2 70.0503 26.7415 56.1833
15335 1 69.477 14.9477 43.7506
15336 2 68.6334 14.4164 43.6726
15337 2 70.1597 14.4174 44.2534
15338 1 31.5119 13.7439 28.9922
15339 2 32.3233 13.6116 28.4228
15340 2 31.2555 12.8744 29.4143
15341 1 47.192 23.7008 29.1651
15342 2 47.3797 23.6573 30.1463
15343 2 47.0976 24.6564 28.8858
15344 1 34.4731 8.34108 73.3143
15345 2 34.6636 7.94542 72.4159
15346 2 33.6212 7.95915 73.6728
15347 1 25.6627 23.3225 69.8693
15348 2 26.64 23.525 69.8073
15349 2 25.2751 23.2654 68.9493
15350 1 16.065 11.144 70.5392
15351 2 15.8812 12.1165 70.6823
15352 2 17.0019 11.0268 70.2098
15353 1 105.447 26.5737 19.9174
15354 2 105.604 25.6589 20.2895
15355 2 105.922 26.6636 19.0422
15356 1 38.869 8.33518 24.5282
15357 2 38.3355 8.55033 23.7103
15358 2 39.648 8.95901 24.5917
15359 1 19.9791 28.6268 85.0383
15360 2 20.6462 27.8939 85.1717
15361 2 19.5726 28.8717 85.9184
15362 1 73.9606 26.8657 32.1703
15363 2 74.5437 27.6673 32.3023
15364 2 74.2161 26.4039 31.3209
15365 1 116.712 10.2808 90.9197
15366 2 116.64 10.7551 90.0423
15367 2 115.823 9.89027 91.1608
15368 1 80.6952 6.247 50.3872
15369 2 80.6489 7.00806 51.0342
15370 2 80.7351 5.38372 50.8903
15371 1 52.1812 27.1407 88.8903
15372 2 51.4175 26.4973 88.9432
15373 2 52.212 27.5472 87.9772
15374 1 7.03413 24.5401 14.9354
15375 2 7.07196 23.6576 15.4041
15376 2 6.6594 25.2304 15.5542
15377 1 84.5337 13.7572 86.5394
15378 2 84.2758 12.7968 86.4335
15379 2 83.8812 14.2127 87.145
15380 1 95.3687 1.51705 59.6239
15381 2 94.9739 0.604686 59.5155
15382 2 96.3651 1.44573 59.6704
15383 1 76.8425 5.32323 60.6289
15384 2 75.9834 5.08419 60.1765
15385 2 77.4325 4.51694 60.6712
15386 1 81.9084 27.7321 31.5208
15387 2 82.0917 27.3567 32.4293
15388 2 81.9699 27.0023 30.8399
15389 1 5.9633 3.9435 89.5909
15390 2 5.36595 3.39771 89.0033
15391 2 6.89145 3.57264 89.5591
15392 1 88.5089 22.7055 60.6133
15393 2 89.4006 22.5034 60.2083
15394 2 87.8367 22.8455 59.8863
15395 1 26.4443 13.4403 76.153
15396 2 26.5658 13.8759 75.2611
15397 2 25.4896 13.1629 76.2611
15398 1 30.0309 0.613658 89.2626
15399 2 30.2224 1.41621 88.6976
15400 2 29.3921 0.863179 89.9904
15401 1 15.0916 26.4212 53.1496
15402 2 15.1798 25.6522 52.5165
15403 2 14.6305 27.1802 52.6899
15404 1 73.6933 21.22 76.2229
15405 2 74.0801 20.4633 76.7499
15406 2 72.8168 21.4901 76.6213
15407 1 18.3707 28.2036 15.6069
15408 2 18.1651 27.3321 16.0522
15409 2 18.9002 28.7794 16.2299
15410 1 60.7378 6.1437 80.0651
15411 2 60.7754 5.15296 79.9346
15412 2 61.5109 6.43526 80.6284
15413 1 24.8122 11.4376 23.7133
15414 2 24.8583 12.4295 23.8318
15415 2 24.012 11.2047 23.1607
15416 1 21.5384 23.3173 31.133
15417 2 22.236 23.9702 30.8379
15418 2 21.6202 23.1647 32.1179
15419 1 73.8465 10.1621 51.9862
15420 2 74.1033 11.0945 51.7319
15421 2 72.8668 10.1284 52.1839
15422 1 95.5996 19.405 76.6863
15423 2 95.7619 20.0852 77.4012
15424 2 95.3967 18.521 77.1073
15425 1 23.4748 29.7904 38.1308
15426 2 23.7932 0.266961 37.3113
15427 2 22.4826 29.6748 38.0849
15428 1 61.1197 20.4667 90.4572
15429 2 60.4879 21.2241 90.6223
15430 2 60.7491 19.8732 89.7428
15431 1 112.089 15.7335 68.1767
15432 2 112.127 15.5283 67.1987
15433 2 112.019 16.7224 68.3073
15434 1 9.88128 19.2081 86.0875
15435 2 9.17209 18.5289 85.8983
15436 2 10.7139 18.7449 86.3912
15437 1 114.14 3.75888 81.1313
15438 2 114.827 3.59992 81.8408
15439 2 113.928 4.73511 81.0851
15440 1 67.7499 26.2813 72.4643
15441 2 67.367 26.7663 73.2506
15442 2 68.6926 26.0141 72.6643
15443 1 101.191 7.76983 54.4988
15444 2 100.973 7.39564 53.5974
15445 2 101.305 8.76087 54.4296
15446 1 39.6064 28.9558 57.2119
15447 2 40.1114 29.7972 57.0196
15448 2 39.363 28.9273 58.1814
15449 1 117.479 26.7289 68.4665
15450 2 117.168 26.7468 67.5164
15451 2 116.816 27.206 69.0435
15452 1 74.655 14.4426 74.856
15453 2 74.1725 15.3173 74.902
15454 2 75.0388 14.2261 75.7537
15455 1 35.1895 10.4483 46.663
15456 2 34.9064 10.9691 45.8576
15457 2 34.8903 9.49885 46.568
15458 1 114.07 29.6593 37.7636
15459 2 113.428 29.8012 37.0099
15460 2 113.561 29.4645 38.6023
15461 1 8.66084 1.02968 84.982
15462 2 7.90785 1.64883 84.7592
15463 2 9.41194 1.17285 84.3375
15464 1 59.4547 6.81259 50.0861
15465 2 59.9691 6.00789 49.7897
15466 2 58.6092 6.52144 50.5338
15467 1 6.83205 4.0648 30.7088
15468 2 7.56194 3.45325 31.0142
15469 2 7.18283 4.99945 30.6506
15470 1 0.81494 5.37212 43.3032
15471 2 119.977 5.8488 43.0387
15472 2 0.976329 4.60927 42.6771
15473 1 119.743 21.6936 17.8741
15474 2 119.964 21.2485 18.7419
15475 2 119.401 21.0116 17.2274
15476 1 93.0405 6.87403 86.9481
15477 2 93.7298 6.42678 87.5181
15478 2 92.9918 7.84461 87.1839
15479 1 70.4325 28.1332 66.2109
15480 2 71.3117 28.2627 66.6695
15481 2 70.5745 28.0985 65.2217
15482 1 36.8384 29.6889 58.1556
15483 2 37.4396 29.0409 58.6233
15484 2 37.0737 0.620824 58.4316
15485 1 0.424789 27.2035 34.8618
15486 2 119.952 27.6507 35.6209
15487 2 0.730269 27.8941 34.2063
15488 1 115.954 22.6211 81.7599
15489 2 116.603 22.6097 80.9991
15490 2 116.349 22.139 82.542
15491 1 26.7919 17.5493 73.4041
15492 2 27.486 18.1101 73.8554
15493 2 27.1674 16.6418 73.2157
15494 1 87.0428 26.198 76.1954
15495 2 86.8098 25.2326 76.0782
15496 2 87.6816 26.2965 76.9585
15497 1 37.9398 1.95391 26.8367
15498 2 37.404 2.16469 26.0191
15499 2 38.8559 1.65669 26.5674
15500 1 16.2976 23.6033 59.776
15501 2 15.551 23.6192 59.1109
15502 2 16.0188 23.0741 60.5774
15503 1 5.66201 25.6543 42.7654
15504 2 5.92134 26.045 43.6487
15505 2 6.3037 24.9272 42.5213
15506 1 37.0384 24.2639 29.4766
15507 2 37.5915 24.9287 28.9745
15508 2 37.4606 23.3599 29.4086
15509 1 103.383 14.8669 65.8942
15510 2 103.801 15.7181 65.5774
15511 2 103.044 14.989 66.8272
15512 1 19.5133 3.97928 61.0323
15513 2 19.3264 4.33935 60.1183
15514 2 18.9834 4.49238 61.7075
15515 1 56.6212 16.6412 78.5033
15516 2 56.4889 15.7072 78.1713
15517 2 57.5999 16.8371 78.566
15518 1 1.77334 25.0239 56.4467
15519 2 1.6893 24.107 56.8371
15520 2 2.20635 25.6313 57.1127
15521 1 107.92 4.08694 39.84
15522 2 107.998 3.3337 40.4931
15523 2 107.182 3.8926 39.194
15524 1 8.56892 7.99061 20.8794
15525 2 8.71169 7.46509 21.7181
15526 2 8.52158 7.36685 20.0992
15527 1 2.45329 20.7616 19.94
15528 2 3.20327 20.8472 20.5959
15529 2 1.63783 20.4219 20.4086
15530 1 119.931 22.9133 20.8108
15531 2 119.881 21.9161 20.7548
15532 2 0.257091 23.1805 21.7174
15533 1 44.3052 27.6506 74.6171
15534 2 44.7338 27.7035 73.7152
15535 2 44.8097 28.2267 75.2602
15536 1 34.1289 16.5444 50.7268
15537 2 35.0281 16.8217 50.3886
15538 2 33.5645 17.3561 50.8773
15539 1 42.8388 13.2719 35.1308
15540 2 43.4055 14.0896 35.2311
15541 2 43.4205 12.4587 35.15
15542 1 105.379 21.6573 50.2272
15543 2 105.609 21.8437 49.2722
15544 2 104.419 21.3833 50.2908
15545 1 26.5847 21.4394 48.3011
15546 2 27.4569 21.548 47.8242
15547 2 25.8358 21.4803 47.6396
15548 1 112.931 1.18358 71.8872
15549 2 113.459 1.16636 71.0377
15550 2 112.057 0.71852 71.7464
15551 1 118.609 16.5243 39.1463
15552 2 118.454 16.6723 38.1696
15553 2 118.912 17.3787 39.569
15554 1 0.0629237 18.099 33.9214
15555 2 119.209 18.4854 34.2695
15556 2 0.0824041 18.1775 32.9246
15557 1 45.7595 19.9012 35.8227
15558 2 46.4039 19.2881 36.2798
15559 2 45.1842 20.35 36.5065
15560 1 63.2634 20.6996 66.8441
15561 2 62.3003 20.9234 66.6946
15562 2 63.7863 20.9087 66.0177
15563 1 39.7105 9.15764 50.9837
15564 2 39.9202 9.83503 51.6888
15565 2 39.4374 9.62522 50.143
15566 1 27.3697 7.49088 73.368
15567 2 28.0944 7.34578 74.0416
15568 2 27.7538 7.4289 72.4467
15569 1 105.875 2.75142 33.3269
15570 2 105.355 2.80904 32.4748
15571 2 106.443 3.56806 33.4262
15572 1 101.805 16.6271 44.0877
15573 2 102.206 16.4566 43.1875
15574 2 101.131 15.9174 44.2924
15575 1 119.17 16.2267 30.5115
15576 2 118.598 15.9007 31.2642
15577 2 119.097 15.5955 29.7394
15578 1 66.1027 26.837 54.2981
15579 2 66.5039 26.4515 55.129
15580 2 65.3075 26.2938 54.0288
15581 1 114.778 12.9031 23.7689
15582 2 115.185 13.7426 24.1289
15583 2 114.228 12.467 24.4815
15584 1 72.5682 5.08349 35.6567
15585 2 72.5547 6.04681 35.9247
15586 2 72.8949 4.5291 36.4221
15587 1 35.242 14.4149 90.683
15588 2 35.1423 13.4597 90.9617
15589 2 36.0498 14.5097 90.1012
15590 1 59.7658 7.21202 62.0808
15591 2 60.7302 7.21521 61.8164
15592 2 59.621 7.86833 62.8213
15593 1 75.5668 28.6674 79.8785
15594 2 75.2492 29.0527 80.7449
15595 2 76.0033 27.7835 80.0469
15596 1 42.5775 17.2079 68.0642
15597 2 41.829 16.9648 68.6811
15598 2 42.2023 17.5839 67.2169
15599 1 108.964 13.2917 44.9579
15600 2 109.932 13.4296 45.1679
15601 2 108.878 12.7191 44.1426
15602 1 76.6117 11.3091 70.0328
15603 2 77.5632 11.4635 69.7669
15604 2 76.2153 10.5965 69.4539
15605 1 78.7113 21.6008 75.1707
15606 2 79.5859 21.4526 75.6323
15607 2 78.5216 22.5815 75.1228
15608 1 87.7403 7.08417 38.1596
15609 2 86.8715 6.59074 38.2018
15610 2 88.4947 6.4436 38.3026
15611 1 99.7063 15.9306 39.3098
15612 2 100.033 16.7825 39.7193
15613 2 100.481 15.4235 38.9328
15614 1 55.0008 28.8827 75.6048
15615 2 55.9554 28.9799 75.3235
15616 2 54.8539 27.965 75.9741
15617 1 0.890726 4.52617 52.6136
15618 2 1.47911 3.93895 52.0578
15619 2 0.595677 4.02696 53.4283
15620 1 77.9143 6.88366 79.8598
15621 2 78.6399 6.22569 80.0613
15622 2 78.086 7.30714 78.9703
15623 1 71.2018 18.7409 78.8126
15624 2 71.7918 18.3294 78.118
15625 2 70.4531 18.114 79.028
15626 1 76.4587 15.3629 32.8813
15627 2 75.982 14.5315 32.5955
15628 2 77.3296 15.4317 32.3947
15629 1 32.8991 6.98746 22.7655
15630 2 31.9449 7.27257 22.8555
15631 2 33.4256 7.71795 22.3306
15632 1 23.7068 1.99834 10.5724
15633 2 23.6105 1.11395 11.0291
15634 2 23.6464 1.87055 9.58245
15635 1 97.0447 7.50568 20.1271
15636 2 96.7824 8.19633 20.801
15637 2 97.9582 7.16021 20.342
15638 1 73.4011 23.3377 69.6523
15639 2 73.9991 22.5394 69.5803
15640 2 73.8436 24.1254 69.2237
15641 1 13.3577 25.4662 55.3065
15642 2 13.6821 25.8931 54.4625
15643 2 12.6709 24.7733 55.0869
15644 1 25.3245 2.61578 90.552
15645 2 24.7747 3.43769 90.7012
15646 2 24.977 2.12266 89.7544
15647 1 41.4907 22.3567 59.6856
15648 2 41.485 22.9808 58.9043
15649 2 40.8928 22.7148 60.4027
15650 1 18.2656 14.623 42.4324
15651 2 18.8421 14.3333 43.1964
15652 2 18.4079 15.5974 42.2583
15653 1 107.249 6.81675 83.5073
15654 2 106.849 6.97141 84.4107
15655 2 108.237 6.97039 83.5491
15656 1 15.7158 14.1047 72.9465
15657 2 16.5791 14.4 73.3556
15658 2 15.8549 13.9156 71.9744
15659 1 102.708 22.3806 67.7045
15660 2 103.535 22.9096 67.8921
15661 2 102.123 22.378 68.5155
15662 1 105.638 20.1089 60.6803
15663 2 105.848 21.0743 60.8354
15664 2 106.082 19.8027 59.8381
15665 1 111.942 12.4865 71.9939
15666 2 112.255 12.5783 72.9392
15667 2 112.051 11.5378 71.6972
15668 1 33.5008 7.86443 68.7342
15669 2 33.4674 7.26362 69.5329
15670 2 33.769 8.78437 69.0201
15671 1 87.1784 15.7771 49.3823
15672 2 87.0236 15.4481 50.3139
15673 2 88.1359 16.0461 49.2787
15674 1 55.8931 9.91663 74.7182
15675 2 56.4494 9.42695 74.0469
15676 2 55.9718 9.46698 75.608
15677 1 110.754 6.3622 34.5923
15678 2 110.107 5.60767 34.7022
15679 2 111.334 6.1908 33.7957
15680 1 19.0896 1.12694 47.6076
15681 2 18.8289 2.09051 47.5483
15682 2 19.3151 0.785862 46.6951
15683 1 110.229 14.6215 89.7601
15684 2 110.76 14.6078 88.9132
15685 2 109.883 13.7029 89.9514
15686 1 2.56062 3.82869 18.894
15687 2 2.45018 2.86285 18.6596
15688 2 3.1202 3.90961 19.7188
15689 1 43.5118 29.5768 85.4829
15690 2 43.1828 29.5979 86.427
15691 2 43.3691 28.6638 85.1006
15692 1 102.897 25.1238 76.9246
15693 2 103.26 25.6795 77.6725
15694 2 102.028 25.5093 76.6146
15695 1 104.533 23.3618 25.8505
15696 2 104.023 22.8696 25.1448
15697 2 104.808 22.7233 26.5692
15698 1 107.666 4.54473 43.3344
15699 2 106.92 5.04876 42.8978
15700 2 107.796 3.67056 42.8665
15701 1 97.9724 14.6735 60.1152
15702 2 97.2548 14.0495 59.8058
15703 2 98.2219 15.2906 59.3689
15704 1 81.4228 15.4302 60.4234
15705 2 81.7551 16.3474 60.2036
15706 2 80.716 15.1657 59.7673
15707 1 118.027 7.77026 13.3064
15708 2 117.893 7.97229 14.2766
15709 2 118.431 6.86046 13.2081
15710 1 54.72 25.3518 30.3363
15711 2 55.585 24.9965 29.982
15712 2 54.8902 25.8667 31.1764
15713 1 114.674 1.36307 70.0237
15714 2 115.588 0.971233 70.1294
15715 2 114.445 1.4167 69.0518
15716 1 94.6112 16.9003 64.0104
15717 2 94.4422 16.0334 64.4794
15718 2 93.9332 17.0251 63.286
15719 1 82.2421 27.6179 58.1735
15720 2 82.9661 27.7994 57.508
15721 2 81.633 28.4092 58.2275
15722 1 42.3358 2.40201 90.3843
15723 2 43.306 2.18399 90.2786
15724 2 42.1541 2.66222 91.3326
15725 1 43.0886 24.7583 32.6545
15726 2 43.835 24.599 32.0084
15727 2 42.5565 25.5521 32.36
15728 1 71.1842 26.2278 33.1884
15729 2 70.7457 25.3291 33.1994
15730 2 72.102 26.1461 32.8
15731 1 10.2908 28.3346 42.5203
15732 2 10.7719 29.0509 43.0257
15733 2 9.31191 28.3875 42.7178
15734 1 5.78526 23.6465 48.6234
15735 2 5.35255 24.4507 49.0308
15736 2 6.70978 23.5435 48.9903
15737 1 58.0592 12.7293 90.6865
15738 2 58.7433 12.0041 90.6091
15739 2 57.1532 12.3555 90.4876
15740 1 7.13743 3.21399 47.4769
15741 2 7.34775 2.71705 46.635
15742 2 7.45617 4.15829 47.3951
15743 1 35.4369 25.4 70.9814
15744 2 36.3404 25.5025 71.3975
15745 2 34.7918 26.0199 71.4282
15746 1 90.8741 9.21034 37.3944
15747 2 90.1773 8.6474 36.9499
15748 2 90.4371 9.99175 37.8398
15749 1 16.2046 1.68922 61.2362
15750 2 16.333 1.69313 62.2279
15751 2 16.7863 0.985957 60.8275
15752 1 39.8214 4.8295 54.2663
15753 2 40.2595 3.93125 54.2324
15754 2 39.3584 4.94156 55.1456
15755 1 101.613 15.0309 16.8237
15756 2 102.24 14.6748 16.1315
15757 2 101.328 14.2879 17.4297
15758 1 2.79204 20.6237 73.1332
15759 2 2.23193 19.8091 72.9823
15760 2 2.496 21.3512 72.5143
15761 1 112.713 15.9669 47.1242
15762 2 111.756 16.2243 46.9865
15763 2 113.258 16.7879 47.2941
15764 1 80.2793 8.91905 80.803
15765 2 80.9058 9.66465 81.0302
15766 2 79.6663 9.2108 80.0687
15767 1 7.41585 22.579 90.5022
15768 2 8.15818 21.909 90.494
15769 2 6.54067 22.1055 90.602
15770 1 97.5611 12.7795 34.1422
15771 2 97.56 12.8776 33.147
15772 2 96.6815 12.4099 34.4417
15773 1 26.0671 11.5883 70.5181
15774 2 26.532 11.0306 69.8305
15775 2 25.2666 11.0965 70.8606
15776 1 104.435 6.85373 61.459
15777 2 104.009 6.83638 60.5543
15778 2 103.723 6.84678 62.1621
15779 1 77.9741 11.1522 42.5727
15780 2 77.9637 11.9452 41.9636
15781 2 78.7524 10.5671 42.3449
15782 1 106.549 12.4633 37.1619
15783 2 106.647 13.3757 37.5594
15784 2 106.443 11.7904 37.894
15785 1 70.5552 20.2535 39.1072
15786 2 70.3667 20.8812 39.8625
15787 2 70.7025 19.3326 39.468
15788 1 86.6841 17.2646 76.054
15789 2 86.8065 17.8585 76.8492
15790 2 86.4084 16.3528 76.3582
15791 1 10.5029 12.3219 51.7373
15792 2 10.7891 12.9223 50.9907
15793 2 11.1647 12.3806 52.4847
15794 1 62.5147 18.9131 86.5899
15795 2 63.14 19.6807 86.7302
15796 2 62.5092 18.6601 85.6224
15797 1 103.256 11.7815 54.448
15798 2 102.559 12.1308 55.0737
15799 2 103.618 12.5345 53.8982
15800 1 117.167 17.7609 85.7716
15801 2 117.2 18.2311 86.6536
15802 2 116.225 17.4875 85.5747
15803 1 3.71434 8.8466 18.0229
15804 2 3.06485 9.60007 18.1251
15805 2 3.2347 7.97597 18.1321
15806 1 95.4926 5.05708 19.2485
15807 2 96.1581 5.67053 18.8232
15808 2 94.9229 5.57445 19.887
15809 1 54.856 1.46245 45.0505
15810 2 53.9588 1.85658 44.851
15811 2 54.7401 0.617752 45.5731
15812 1 35.6698 9.17816 14.9925
15813 2 36.4825 9.40806 15.5279
15814 2 35.1854 10.0172 14.745
15815 1 55.4568 22.1682 49.0235
15816 2 54.5032 21.8855 49.127
15817 2 55.9973 21.8013 49.7806
15818 1 5.40359 23.2135 10.965
15819 2 5.2386 23.0506 9.99224
15820 2 5.18752 22.3859 11.4829
15821 1 34.4097 9.79325 60.7439
15822 2 35.3321 10.1758 60.798
15823 2 34.3169 9.05168 61.4083
15824 1 71.9644 20.3359 59.1234
15825 2 72.6803 20.6969 58.5257
15826 2 71.8909 19.3469 58.9955
15827 1 6.4324 9.30437 37.6653
15828 2 5.45953 9.24408 37.8886
15829 2 6.57053 9.05411 36.707
15830 1 31.8466 11.4004 27.1668
15831 2 31.0754 11.9618 26.8666
15832 2 32.61 11.9928 27.4241
15833 1 1.4012 0.32416 78.0632
15834 2 1.79509 29.4074 78.1302
15835 2 0.599104 0.386521 78.6572
15836 1 3.11929 21.1504 29.9917
15837 2 2.76605 20.3716 29.4734
15838 2 2.395 21.8302 30.107
15839 1 39.6168 15.1217 36.7763
15840 2 38.768 14.6568 36.5244
15841 2 39.4627 16.1096 36.7958
15842 1 32.5017 4.11845 31.5537
15843 2 32.9057 4.43979 30.6972
15844 2 31.5958 4.52612 31.6685
15845 1 87.6482 5.47398 32.2428
15846 2 87.782 6.45821 32.127
15847 2 86.6965 5.24118 32.0428
15848 1 96.5644 18.161 65.2475
15849 2 96.6965 18.8449 64.53
15850 2 95.9198 17.4654 64.9304
15851 1 98.7766 9.91205 48.3204
15852 2 98.5368 9.04808 47.8776
15853 2 98.4507 9.90372 49.2658
15854 1 113.089 26.5887 21.1675
15855 2 113.889 25.9957 21.0703
15856 2 112.601 26.3545 22.0079
15857 1 111.766 0.0715014 36.2582
15858 2 111.133 29.3038 36.3572
15859 2 111.319 0.913579 36.5594
15860 1 1.63449 24.9508 63.6783
15861 2 1.95886 24.3427 62.9538
15862 2 2.41749 25.3208 64.1783
15863 1 100.107 19.6177 63.2636
15864 2 99.7232 20.4609 63.6405
15865 2 101.069 19.5434 63.5243
15866 1 23.2447 2.58789 22.1996
15867 2 23.2821 2.01787 23.0204
15868 2 22.8476 3.47657 22.4287
15869 1 2.05478 13.531 28.3858
15870 2 1.56909 14.207 27.8316
15871 2 1.69707 13.5465 29.3195
15872 1 27.046 24.06 90.6119
15873 2 27.3012 24.6519 91.3764
15874 2 26.1622 23.6324 90.802
15875 1 34.115 1.99216 70.1962
15876 2 33.3628 1.38459 69.9411
15877 2 33.9331 2.388 71.0963
15878 1 100.829 27.5181 61.885
15879 2 99.9933 27.6788 61.3592
15880 2 101.618 27.5383 61.2713
15881 1 78.871 29.4856 85.133
15882 2 78.3436 28.9224 85.7691
15883 2 79.7996 29.6048 85.4844
15884 1 72.3129 15.7687 68.5558
15885 2 73.2798 15.8856 68.329
15886 2 72.2212 15.0911 69.2855
15887 1 2.83281 28.9203 49.2254
15888 2 2.48607 28.2079 49.8355
15889 2 3.6091 29.3799 49.6568
15890 1 111.861 29.2294 66.7718
15891 2 111.408 0.0850856 67.0223
15892 2 111.171 28.537 66.5598
15893 1 88.0839 20.6568 68.8533
15894 2 87.6429 20.6203 67.9565
15895 2 88.904 20.0846 68.8449
15896 1 55.5723 15.3143 83.5296
15897 2 56.4902 15.5459 83.8518
15898 2 54.8923 15.7576 84.1136
15899 1 101.763 22.7571 62.8775
15900 2 100.971 22.1675 63.0345
15901 2 101.474 23.7144 62.8935
15902 1 61.9202 27.8356 89.5303
15903 2 61.5881 28.7695 89.6629
15904 2 62.2924 27.7421 88.6069
15905 1 34.8618 20.64 79.7331
15906 2 34.2708 21.0294 80.4396
15907 2 35.4168 19.9083 80.1289
15908 1 39.2832 14.6401 83.6279
15909 2 38.4286 14.7635 84.1322
15910 2 39.7692 15.5126 83.577
15911 1 32.4981 15.6774 44.8161
15912 2 32.2649 14.7049 44.8182
15913 2 31.9375 16.156 45.4919
15914 1 23.102 9.49781 78.5873
15915 2 23.5065 9.61781 77.6807
15916 2 23.4282 8.64124 78.9871
15917 1 100.27 10.483 62.1083
15918 2 100.393 9.97345 61.2567
15919 2 100.324 9.85416 62.8839
15920 1 52.2672 14.7501 68.7433
15921 2 51.4921 14.8818 69.3613
15922 2 52.6772 15.6367 68.5292
15923 1 29.9216 29.4052 52.0056
15924 2 30.0198 28.4119 52.0673
15925 2 29.059 29.6272 51.5511
15926 1 4.17386 0.47537 37.7377
15927 2 4.24189 0.239575 36.7683
15928 2 5.07832 0.723482 38.0847
15929 1 90.8388 15.9298 26.0015
15930 2 91.2117 15.7506 25.0911
15931 2 91.0715 16.8618 26.2795
15932 1 25.6162 0.676368 33.3139
15933 2 26.301 1.13432 33.8808
15934 2 26.0735 0.16982 32.5829
15935 1 95.8343 6.8991 49.1716
15936 2 96.4485 7.26164 48.4707
15937 2 94.9811 6.59967 48.7446
15938 1 19.7987 6.03849 38.4276
15939 2 20.1582 6.97155 38.4409
15940 2 19.9671 5.60373 39.3123
15941 1 35.3041 20.1703 44.662
15942 2 35.4636 20.4791 43.7243
15943 2 35.3874 20.9462 45.2872
15944 1 112.494 12.4834 88.7354
15945 2 112.603 11.5774 88.3265
15946 2 112.317 13.1548 88.0157
15947 1 52.9638 18.9084 90.6766
15948 2 52.745 17.9371 90.5826
15949 2 53.7023 19.1463 90.0458
15950 1 65.6998 12.9222 33.889
15951 2 65.4226 13.6986 34.4551
15952 2 64.8928 12.3872 33.6388
15953 1 112.854 2.98231 74.0428
15954 2 112.634 2.56108 73.1632
15955 2 112.065 2.91387 74.6528
15956 1 83.2758 25.0242 41.6907
15957 2 82.6068 25.7012 41.3839
15958 2 83.6798 25.3229 42.5553
15959 1 15.6238 25.8321 75.9359
15960 2 16.1148 26.6889 75.7784
15961 2 15.9872 25.1236 75.3309
15962 1 26.4582 12.1331 54.5094
15963 2 26.9649 12.3466 53.6741
15964 2 26.2975 11.1473 54.5589
15965 1 109.636 14.3553 85.895
15966 2 110.424 14.7944 86.3271
15967 2 108.807 14.8702 86.1123
15968 1 58.1929 3.72724 68.1969
15969 2 58.917 4.34247 68.5086
15970 2 57.9621 3.08626 68.929
15971 1 8.31094 8.98672 80.8985
15972 2 8.76581 9.00115 81.789
15973 2 8.26078 8.04529 80.5651
15974 1 119.97 16.1649 13.6939
15975 2 0.302763 16.9304 14.2447
15976 2 119.554 16.5144 12.8545
15977 1 106.114 11.4042 44.7338
15978 2 106.251 10.5876 45.2944
15979 2 106.511 11.2573 43.8278
15980 1 4.49422 7.93161 34.3555
15981 2 5.48444 7.98817 34.483
15982 2 4.29051 7.78909 33.3869
15983 1 61.3069 21.0185 74.4641
15984 2 61.0017 20.5971 73.6101
15985 2 62.1555 21.5223 74.3024
15986 1 30.4762 18.1715 52.0415
15987 2 30.4192 18.0394 53.0311
15988 2 31.4258 18.0687 51.7456
15989 1 118.509 2.45853 88.4936
15990 2 119.444 2.80795 88.4349
15991 2 117.865 3.19428 88.2853
15992 1 58.3763 4.01511 79.2653
15993 2 59.2343 3.65974 79.6361
15994 2 57.929 4.58895 79.9513
15995 1 17.7944 15.2664 54.8104
15996 2 17.8457 14.8597 55.7225
15997 2 16.8382 15.3208 54.5229
15998 1 1.91974 13.2286 63.9688
15999 2 2.29268 14.0927 64.3069
16000 2 1.27048 12.8624 64.6354
16001 1 116.175 21.6944 77.0539
16002 2 116.231 22.4498 77.7067
16003 2 116.277 22.0487 76.1244
16004 1 9.09322 15.2017 72.1796
16005 2 9.25886 15.62 73.0727
16006 2 9.48493 15.7791 71.4633
16007 1 84.1813 21.3897 66.6268
16008 2 85.097 21.2028 66.9824
16009 2 83.5994 20.5886 66.7671
16010 1 31.2911 15.1064 82.7654
16011 2 30.3368 14.9076 82.5423
16012 2 31.3289 15.8399 83.444
16013 1 38.9349 24.1792 25.9481
16014 2 38.3381 24.8236 26.4261
16015 2 39.7832 24.0641 26.4649
16016 1 38.5782 26.5326 30.6708
16017 2 38.7125 26.55 29.68
16018 2 39.4666 26.57 31.1283
16019 1 63.5322 20.7898 72.1464
16020 2 63.8446 21.1623 73.0202
16021 2 62.6245 20.3862 72.2615
16022 1 80.9133 0.0249374 80.7227
16023 2 80.0533 0.408348 80.3859
16024 2 81.2776 29.3814 80.0496
16025 1 105.183 7.75165 77.5467
16026 2 104.212 7.78523 77.7869
16027 2 105.334 7.03135 76.8697
16028 1 95.1248 2.89599 53.9431
16029 2 96.1144 2.7716 53.8704
16030 2 94.8689 3.77473 53.5402
16031 1 4.7393 29.9843 12.7532
16032 2 5.4949 29.3481 12.9092
16033 2 3.88166 29.5613 13.0457
16034 1 40.5999 4.24637 86.3586
16035 2 41.3674 4.65085 86.8559
16036 2 40.4957 3.28895 86.6279
16037 1 35.2986 21.2567 57.3819
16038 2 36.1539 21.501 57.8389
16039 2 35.3543 20.3145 57.0517
16040 1 89.9922 27.5989 56.2927
16041 2 90.9515 27.3187 56.2579
16042 2 89.7658 27.8981 57.2196
16043 1 29.2342 8.01606 26.9656
16044 2 29.365 8.65107 27.7269
16045 2 28.6353 7.26893 27.2538
16046 1 0.798123 12.8769 17.4389
16047 2 119.88 12.9563 17.0515
16048 2 0.985621 11.9195 17.6586
16049 1 36.978 23.8823 41.5157
16050 2 37.4413 23.3654 40.7958
16051 2 37.4444 24.7564 41.6511
16052 1 22.3546 8.57344 54.519
16053 2 21.3823 8.77915 54.4085
16054 2 22.7445 8.32041 53.6335
16055 1 72.0739 12.0063 70.3534
16056 2 71.9542 12.999 70.367
16057 2 72.2986 11.6851 71.2734
16058 1 85.9475 17.0216 40.3401
16059 2 85.2416 16.9232 41.0416
16060 2 86.6131 17.7088 40.6312
16061 1 55.2147 21.0724 52.2749
16062 2 55.1478 21.8087 52.9482
16063 2 56.0622 21.1734 51.7537
16064 1 68.4475 4.12786 59.5666
16065 2 67.6273 4.35525 60.0916
16066 2 68.9924 4.95432 59.4251
16067 1 62.2396 18.6061 59.8502
16068 2 61.2709 18.4255 60.0207
16069 2 62.3447 19.5219 59.4625
16070 1 90.3017 14.722 51.6489
16071 2 90.0506 15.1517 50.7816
16072 2 91.285 14.5398 51.6583
16073 1 118.578 2.22056 14.9185
16074 2 117.783 2.39861 15.4991
16075 2 119.219 1.62591 15.404
16076 1 39.7901 2.98468 89.5631
16077 2 39.8127 2.55776 88.6591
16078 2 40.6894 2.90307 89.9928
16079 1 35.8618 21.3723 42.3544
16080 2 36.3373 20.5993 41.9346
16081 2 36.3928 22.2076 42.2119
16082 1 6.08847 16.7859 65.2107
16083 2 6.82231 16.109 65.2682
16084 2 6.37271 17.6257 65.6732
16085 1 13.7692 5.21038 17.1451
16086 2 13.2586 4.45873 17.5626
16087 2 13.3537 6.08149 17.4069
16088 1 104.194 2.21019 64.5226
16089 2 104.196 1.26623 64.1925
16090 2 103.323 2.64284 64.2906
16091 1 19.7132 21.8998 46.7282
16092 2 19.5189 20.9197 46.7663
16093 2 20.4667 22.0658 46.092
16094 1 81.3484 5.57002 89.1328
16095 2 82.2299 5.43863 88.6792
16096 2 80.7822 6.18869 88.5881
16097 1 70.1668 4.2008 64.4258
16098 2 70.2294 5.08757 63.9678
16099 2 70.5428 3.49087 63.8303
16100 1 100.749 25.5209 65.9605
16101 2 100.431 25.0421 66.7788
16102 2 100.053 26.1758 65.6659
16103 1 44.7774 11.1664 28.2578
16104 2 44.3801 11.6584 27.4831
16105 2 44.8763 10.1993 28.0231
16106 1 90.1688 25.2842 61.7668
16107 2 90.7709 25.2432 60.9694
16108 2 90.551 24.7247 62.5022
16109 1 43.8172 2.21335 33.3912
16110 2 44.2303 2.68543 34.17
16111 2 43.1303 1.56542 33.7204
16112 1 1.24067 9.38912 46.5482
16113 2 1.47925 10.3546 46.4435
16114 2 2.03954 8.82409 46.3419
16115 1 89.7825 28.826 31.8842
16116 2 90.6852 28.4183 31.747
16117 2 89.0995 28.1011 31.9741
16118 1 0.267726 11.8102 10.8417
16119 2 1.13608 11.5445 10.423
16120 2 0.374669 11.8484 11.8352
16121 1 41.91 18.0798 47.6389
16122 2 42.3975 18.8909 47.3157
16123 2 41.7363 17.4663 46.8686
16124 1 15.1302 20.1802 10.5335
16125 2 15.3673 20.9014 11.1843
16126 2 15.838 19.4738 10.5463
16127 1 60.5486 16.4564 65.2353
16128 2 61.1368 15.6869 64.9863
16129 2 60.3888 17.0278 64.4303
16130 1 5.46127 16.7951 40.6328
16131 2 6.18996 16.5749 39.9843
16132 2 4.90168 17.5381 40.2656
16133 1 20.2497 10.2728 53.6009
16134 2 20.5164 10.5918 54.5103
16135 2 19.334 10.6111 53.3843
16136 1 13.4027 12.6673 82.0105
16137 2 13.4568 11.7438 82.3902
16138 2 13.9036 13.3002 82.6008
16139 1 66.9659 4.2899 88.2894
16140 2 67.7012 3.62081 88.1813
16141 2 66.7425 4.68633 87.3989
16142 1 60.9726 12.5885 85.4877
16143 2 61.4336 11.7481 85.7726
16144 2 60.5205 13.0045 86.2768
16145 1 23.0688 1.85429 70.0829
16146 2 23.4552 1.00658 69.7195
16147 2 23.637 2.62735 69.801
16148 1 99.5579 28.6961 18.407
16149 2 99.7445 27.7927 18.021
16150 2 100.351 29.2887 18.2673
16151 1 17.1395 10.1482 82.8349
16152 2 17.1062 9.4396 83.5398
16153 2 16.883 11.0282 83.2346
16154 1 13.0423 15.7915 41.5462
16155 2 13.7374 15.6947 42.2585
16156 2 13.4742 15.7204 40.6471
16157 1 63.1244 11.0797 86.1491
16158 2 62.8744 10.1338 85.9425
16159 2 63.8993 11.3518 85.5786
16160 1 50.3449 19.3296 53.0201
16161 2 50.6786 18.4367 52.7176
16162 2 51.0781 19.8159 53.4954
16163 1 106.985 3.57753 82.8993
16164 2 107.138 4.23596 82.1623
16165 2 107.075 2.64856 82.5404
16166 1 59.6142 27.2279 53.0315
16167 2 59.8723 28.1892 52.9348
16168 2 60.1319 26.6764 52.3774
16169 1 36.7675 8.1394 54.0717
16170 2 36.6549 7.54223 53.2775
16171 2 37.7305 8.39226 54.1647
16172 1 114.46 6.35233 57.0713
16173 2 113.477 6.51965 57.1372
16174 2 114.871 6.41817 57.9805
16175 1 0.0120883 21.8826 72.6146
16176 2 0.362064 22.7852 72.8651
16177 2 0.215153 21.2315 73.3459
16178 1 110.751 9.43012 14.5886
16179 2 111.7 9.44113 14.2719
16180 2 110.734 9.37337 15.5868
16181 1 93.8296 6.0311 21.902
16182 2 92.9659 5.65922 21.5618
16183 2 94.3559 5.30314 22.3415
16184 1 89.1877 24.7091 38.0321
16185 2 89.212 23.7399 38.2773
16186 2 90.083 25.1194 38.2057
16187 1 5.54973 2.2897 43.0736
16188 2 5.49853 2.7507 42.1877
16189 2 4.62523 2.11065 43.4101
16190 1 45.8203 27.2787 33.8539
16191 2 46.135 27.3837 32.9106
16192 2 46.5938 27.3907 34.4777
16193 1 58.4447 18.4566 83.5291
16194 2 58.9128 18.6768 82.6734
16195 2 58.4924 17.471 83.6912
16196 1 12.1325 24.1291 35.471
16197 2 11.5081 24.9072 35.4031
16198 2 13.0669 24.4346 35.2879
16199 1 36.1911 23.289 52.9169
16200 2 35.2821 23.6902 52.8042
16201 2 36.8844 23.9461 52.6211
16202 1 1.94947 9.40044 37.7292
16203 2 1.37956 8.958 37.0368
16204 2 2.79842 9.71954 37.308
16205 1 45.8354 22.507 50.8611
16206 2 45.666 22.3673 49.8855
16207 2 46.8208 22.5107 51.0312
16208 1 58.3853 24.2521 63.9526
16209 2 57.6712 24.3687 63.2622
16210 2 58.0977 23.5616 64.6162
16211 1 93.6137 25.0221 46.8156
16212 2 92.7117 24.998 46.3843
16213 2 94.2613 25.4821 46.2082
16214 1 89.9191 18.0773 47.3951
16215 2 89.3377 17.5616 46.7656
16216 2 89.9961 17.5812 48.2599
16217 1 42.4479 16.6178 26.7222
16218 2 41.8447 17.0046 27.4197
16219 2 41.9806 15.8658 26.2573
16220 1 108.337 21.815 73.7786
16221 2 108.725 20.9011 73.8978
16222 2 108.667 22.4151 74.507
16223 1 0.0214377 6.41458 17.0451
16224 2 119.597 5.75913 17.6698
16225 2 119.785 6.17783 16.1026
16226 1 24.7585 1.69058 64.8655
16227 2 24.0791 1.12644 65.3347
16228 2 25.6062 1.70157 65.3958
16229 1 110.251 22.6236 45.6521
16230 2 110.809 21.8833 45.2768
16231 2 110.273 23.4061 45.0298
16232 1 19.1883 4.34486 69.4163
16233 2 19.3093 5.12924 70.0247
16234 2 19.371 3.50076 69.9204
16235 1 73.7091 14.8819 83.5316
16236 2 72.8026 15.3017 83.4868
16237 2 74.1583 14.9632 82.6418
16238 1 0.554128 20.0334 22.8035
16239 2 119.945 20.2493 22.0401
16240 2 0.406251 20.6895 23.5436
16241 1 74.0222 4.06142 51.5073
16242 2 74.0772 4.82105 50.8593
16243 2 73.7506 4.40817 52.4051
16244 1 118.668 25.1711 14.9063
16245 2 118.346 24.35 14.4346
16246 2 118.742 25.9237 14.2521
16247 1 2.72626 10.8049 71.53
16248 2 2.98451 10.9322 72.4877
16249 2 3.36082 10.1656 71.0958
16250 1 28.9603 18.6068 80.0995
16251 2 28.1292 18.0872 80.2979
16252 2 29.0517 18.7244 79.1107
16253 1 58.5548 27.182 68.4192
16254 2 58.802 27.9724 68.9797
16255 2 59.004 26.3644 68.7794
16256 1 86.8422 26.6499 66.8318
16257 2 86.1814 25.9607 66.5343
16258 2 87.5624 26.7399 66.1439
16259 1 111.112 25.6163 69.6051
16260 2 110.71 26.5244 69.4886
16261 2 110.387 24.9278 69.6035
16262 1 115.2 27.7622 86.8068
16263 2 114.261 27.9148 86.4983
16264 2 115.735 28.596 86.6711
16265 1 111.355 1.51164 84.2107
16266 2 110.757 0.79272 84.5655
16267 2 111.15 2.37402 84.6737
16268 1 14.4551 19.611 76.6796
16269 2 15.1205 19.0573 77.1802
16270 2 14.8898 20.4574 76.3721
16271 1 83.8104 15.8818 55.9774
16272 2 84.5648 15.2461 55.8141
16273 2 82.9433 15.3844 55.949
16274 1 17.9173 8.3716 36.9854
16275 2 18.6376 8.06046 37.6055
16276 2 17.1724 7.70451 36.9785
16277 1 15.1933 24.3609 51.0395
16278 2 15.2829 23.4758 51.496
16279 2 14.2616 24.4636 50.6912
16280 1 8.5703 1.96015 26.3843
16281 2 8.66072 0.99478 26.1396
16282 2 9.47709 2.3492 26.5467
16283 1 29.6698 29.4806 71.0361
16284 2 30.0343 28.5526 71.1129
16285 2 28.693 29.4738 71.25
16286 1 69.8008 14.3417 69.9933
16287 2 70.735 14.4649 70.3281
16288 2 69.3731 15.2361 69.8622
16289 1 84.9758 26.3226 69.8134
16290 2 84.7759 27.3024 69.8081
16291 2 85.086 25.9998 68.8733
16292 1 55.5865 7.94702 80.5399
16293 2 55.1499 7.66214 81.3933
16294 2 54.8911 8.05431 79.8294
16295 1 85.4831 1.65064 90.1239
16296 2 85.9355 0.76544 90.2324
16297 2 86.0864 2.37607 90.4554
16298 1 86.0414 27.01 82.9684
16299 2 86.3299 26.716 82.0572
16300 2 86.7955 27.4882 83.4187
16301 1 9.05236 5.49906 76.5872
16302 2 9.08602 5.34456 77.5746
16303 2 8.95207 6.47741 76.4062
16304 1 106.548 29.1906 20.0695
16305 2 106.823 28.353 20.5417
16306 2 106.543 29.0303 19.0824
16307 1 31.0273 22.6974 82.0833
16308 2 30.6281 22.8201 81.1747
16309 2 32.0185 22.5941 82.0006
16310 1 84.4106 17.6419 30.1901
16311 2 83.6692 18.114 30.6671
16312 2 84.2074 16.6639 30.1434
16313 1 109.558 10.1035 62.3573
16314 2 108.895 10.7079 61.9151
16315 2 109.423 9.16721 62.0329
16316 1 48.1796 0.0239298 31.2012
16317 2 49.1073 29.7386 31.4422
16318 2 48.0542 0.986688 31.4407
16319 1 12.0028 8.17235 23.9762
16320 2 12.6905 8.89816 23.963
16321 2 12.4106 7.32071 23.647
16322 1 115.432 25.737 75.9587
16323 2 116.31 25.5061 75.5387
16324 2 115.287 26.725 75.9052
16325 1 35.9729 8.92438 29.0322
16326 2 35.31 8.47088 29.628
16327 2 36.8995 8.71452 29.3441
16328 1 85.2532 9.82016 54.9144
16329 2 85.1454 9.00395 55.482
16330 2 85.7412 10.5235 55.4312
16331 1 74.306 9.46504 41.6561
16332 2 74.4242 10.2875 41.0996
16333 2 75.1819 8.9896 41.7384
16334 1 16.2545 5.33427 90.3957
16335 2 16.7806 6.14682 90.6469
16336 2 15.6803 5.5407 89.6034
16337 1 73.199 7.66714 90.8061
16338 2 72.3206 7.25762 90.5598
16339 2 73.9045 6.9586 90.8213
16340 1 18.292 0.10265 50.4831
16341 2 18.9461 29.3528 50.3836
16342 2 18.3294 0.687429 49.6728
16343 1 91.4006 10.959 68.0341
16344 2 90.4505 11.1192 67.7665
16345 2 91.8657 11.8362 68.1532
16346 1 0.989525 9.949 29.2627
16347 2 0.356605 10.3453 29.9278
16348 2 1.13767 8.98369 29.4777
16349 1 28.043 5.42805 60.2391
16350 2 27.2637 4.80138 60.2366
16351 2 27.7954 6.26584 60.7257
16352 1 96.8773 15.1913 43.3866
16353 2 96.4749 16.0356 43.7404
16354 2 97.142 15.3229 42.4313
16355 1 38.8599 3.57088 43.3518
16356 2 38.238 3.86452 44.0777
16357 2 38.4365 2.83075 42.8293
16358 1 50.9384 23.1179 33.9694
16359 2 50.2754 23.6508 33.4436
16360 2 50.4885 22.7231 34.7705
16361 1 0.465761 22.7183 45.6837
16362 2 0.96553 23.4744 45.261
16363 2 1.10704 22.1268 46.1724
16364 1 114.396 24.7425 55.1286
16365 2 114.928 23.9016 55.2275
16366 2 114.92 25.4082 54.5976
16367 1 97.1644 24.5011 82.7653
16368 2 96.9174 23.5966 82.4176
16369 2 98.0866 24.7359 82.4579
16370 1 109.579 17.5933 38.3126
16371 2 110.047 17.7432 39.1832
16372 2 109.255 16.6483 38.2667
16373 1 71.8887 16.0243 80.8928
16374 2 71.0477 16.1017 80.3573
16375 2 71.6603 15.952 81.8636
16376 1 70.1643 21.6859 82.8811
16377 2 70.8514 22.124 82.3016
16378 2 69.8688 20.8292 82.4583
16379 1 6.99919 19.9935 47.4101
16380 2 6.04589 19.6991 47.3427
16381 2 7.55918 19.4569 46.7789
16382 1 8.46782 8.19548 75.5724
16383 2 9.26762 8.3736 74.9991
16384 2 8.04166 9.06302 75.8288
16385 1 108.45 20.9384 34.0975
16386 2 107.801 20.4818 34.7056
16387 2 108.304 20.6266 33.1587
16388 1 44.524 2.17445 87.1618
16389 2 44.5093 1.81479 88.0948
16390 2 44.3245 3.1542 87.1791
16391 1 62.3966 16.8249 34.6926
16392 2 61.7566 17.3039 34.0919
16393 2 63.3344 17.0456 34.4243
16394 1 69.1164 18.9689 81.3983
16395 2 69.2422 18.1822 80.7939
16396 2 68.6764 18.6713 82.2455
16397 1 34.7665 12.0738 74.8174
16398 2 34.4016 11.9924 73.8899
16399 2 34.2798 12.7989 75.3046
16400 1 119.61 6.47467 68.6815
16401 2 119.371 6.8307 69.5847
16402 2 0.584063 6.24925 68.6595
16403 1 25.8746 23.5527 21.2338
16404 2 26.7279 23.0332 21.1894
16405 2 25.2078 23.1528 20.6051
16406 1 100.263 23.7936 31.821
16407 2 99.2642 23.7643 31.8708
16408 2 100.649 23.2166 32.5405
16409 1 90.9008 29.6497 90.6551
16410 2 91.8641 29.4558 90.4696
16411 2 90.3275 29.008 90.1456
16412 1 95.0649 22.8168 39.4588
16413 2 95.136 22.9217 40.4507
16414 2 95.7398 22.149 39.145
16415 1 68.8675 10.5397 56.8651
16416 2 68.2753 10.5178 57.6706
16417 2 69.6824 9.98569 57.0352
16418 1 48.2157 23.7089 45.4125
16419 2 48.6276 24.0134 46.2713
16420 2 47.244 23.5217 45.5569
16421 1 71.3876 14.7954 51.7582
16422 2 71.592 15.2336 52.6336
16423 2 70.3967 14.7488 51.6321
16424 1 2.00594 14.3129 40.5799
16425 2 1.12111 14.259 41.0427
16426 2 2.28916 13.3973 40.2945
16427 1 8.4874 5.66519 88.5083
16428 2 8.69654 5.04496 89.2643
16429 2 8.15129 6.5336 88.8728
16430 1 14.4971 22.008 64.3535
16431 2 15.1498 22.0896 63.6003
16432 2 14.4719 22.8656 64.8671
16433 1 65.7544 11.1374 71.1502
16434 2 65.5877 10.1714 71.3478
16435 2 65.5626 11.3183 70.1856
16436 1 13.952 2.33556 54.9243
16437 2 14.4314 1.48816 54.696
16438 2 13.3877 2.61861 54.1488
16439 1 37.7195 1.73118 59.4622
16440 2 37.8969 1.97882 60.4146
16441 2 38.4468 2.09707 58.8816
16442 1 42.8092 22.1673 32.6527
16443 2 42.7497 23.1646 32.6942
16444 2 41.8896 21.7813 32.5787
16445 1 98.458 17.1808 20.5178
16446 2 98.6813 16.9384 19.5737
16447 2 99.2913 17.171 21.0705
16448 1 86.0279 22.3142 55.8613
16449 2 86.6311 22.228 56.6543
16450 2 85.1083 22.008 56.1072
16451 1 10.2695 3.89622 46.619
16452 2 10.8906 4.60411 46.2827
16453 2 10.1703 3.18287 45.9253
16454 1 5.94335 6.76425 89.5067
16455 2 5.65907 6.32664 90.3598
16456 2 5.84111 6.11807 88.7504
16457 1 54.863 8.59935 34.6232
16458 2 54.8469 9.45469 35.141
16459 2 54.0013 8.49378 34.127
16460 1 89.8987 27.2623 45.1112
16461 2 90.5308 26.6323 44.6599
16462 2 88.9575 26.9926 44.908
16463 1 105.855 21.6843 57.7634
16464 2 106.183 20.9127 57.2179
16465 2 104.86 21.6367 57.8443
16466 1 60.2199 14.8279 73.2117
16467 2 61.052 15.179 72.7823
16468 2 59.4237 15.1128 72.678
16469 1 49.2393 3.3748 78.523
16470 2 50.1737 3.19546 78.8306
16471 2 49.224 3.44241 77.5254
16472 1 49.444 1.24286 50.1563
16473 2 49.3165 1.82711 50.9578
16474 2 50.3402 0.801786 50.2045
16475 1 49.7704 9.96198 50.9055
16476 2 49.6943 10.0326 51.9001
16477 2 50.6686 9.59392 50.6653
16478 1 95.2758 20.5518 70.3038
16479 2 94.987 20.9483 69.4324
16480 2 95.0992 21.2034 71.0414
16481 1 43.4784 17.2488 79.2304
16482 2 44.1497 16.5113 79.1553
16483 2 42.5582 16.875 79.1136
16484 1 15.8363 6.5912 53.959
16485 2 15.1564 7.31661 54.0665
16486 2 15.5581 5.79202 54.4918
16487 1 23.2229 28.9437 33.6663
16488 2 22.4372 28.35 33.8402
16489 2 23.9677 28.7016 34.2881
16490 1 39.5629 7.99515 41.1763
16491 2 39.8522 8.01232 40.2192
16492 2 39.2214 8.898 41.4375
16493 1 64.2562 10.8346 68.4745
16494 2 64.4547 11.3131 67.6191
16495 2 64.7226 9.95009 68.4776
16496 1 71.9759 10.2474 34.4193
16497 2 72.314 11.0393 33.9108
16498 2 72.5148 9.44069 34.1767
16499 1 36.4038 2.73181 30.8323
16500 2 36.3309 3.60806 31.3086
16501 2 36.8517 2.06498 31.4279
16502 1 109.703 8.22789 22.9683
16503 2 110.179 7.36034 23.1135
16504 2 108.782 8.17095 23.3518
16505 1 49.1947 26.0297 50.1764
16506 2 48.1986 26.1155 50.196
16507 2 49.6086 26.871 50.5242
16508 1 48.0091 11.0767 80.5319
16509 2 47.9853 10.9783 81.5267
16510 2 48.7409 10.5069 80.158
16511 1 3.15446 11.68 10.894
16512 2 4.09455 11.7149 10.5548
16513 2 3.01495 10.8304 11.4026
16514 1 83.8791 2.76167 80.5726
16515 2 83.4035 3.63068 80.4359
16516 2 84.8558 2.88497 80.3971
16517 1 10.8694 3.9238 26.7668
16518 2 11.3388 4.4325 27.4886
16519 2 11.4548 3.87684 25.9574
16520 1 70.0697 0.0215171 73.1371
16521 2 70.8082 0.358277 73.7212
16522 2 70.2924 29.1012 72.8156
16523 1 106.558 26.9567 68.5661
16524 2 106.668 27.8974 68.2449
16525 2 106.333 26.3645 67.7924
16526 1 103.21 1.28536 87.5675
16527 2 102.94 0.647872 86.8462
16528 2 104.207 1.36321 87.5865
16529 1 47.5969 2.17611 36.7365
16530 2 47.563 1.47953 36.0199
16531 2 46.7944 2.08666 37.3265
16532 1 51.6141 0.435182 84.6562
16533 2 51.7058 0.824515 83.7396
16534 2 50.6456 0.301285 84.8661
16535 1 12.8714 22.1638 56.2214
16536 2 12.9672 21.7092 55.3358
16537 2 12.3326 22.9989 56.1107
16538 1 42.5734 0.414579 88.0787
16539 2 43.0069 0.879702 88.8505
16540 2 41.8283 0.979784 87.7248
16541 1 75.2989 18.8094 73.6964
16542 2 75.2254 18.9248 72.7058
16543 2 75.2901 19.7065 74.1381
16544 1 11.9634 20.7759 89.4151
16545 2 12.692 20.299 89.9069
16546 2 12.2598 20.9614 88.4782
16547 1 36.4702 13.0774 78.4015
16548 2 36.3452 13.3925 77.4607
16549 2 35.9314 13.6501 79.0192
16550 1 95.5576 19.4368 57.2937
16551 2 94.8538 19.9105 57.8231
16552 2 96.4603 19.6717 57.6541
16553 1 63.5825 26.4431 82.8126
16554 2 63.0251 26.2771 83.6261
16555 2 63.2906 25.8307 82.0779
16556 1 16.6377 28.5548 85.8076
16557 2 15.924 29.0711 85.3342
16558 2 16.531 27.5804 85.6098
16559 1 102.057 19.7242 13.4361
16560 2 102.09 19.6357 12.4406
16561 2 102.09 18.8157 13.8528
16562 1 111.925 10.3241 39.0514
16563 2 111.469 10.879 38.3554
16564 2 111.279 10.1111 39.7839
16565 1 112.186 7.9362 43.5344
16566 2 113.003 8.2567 44.0126
16567 2 112.066 6.9568 43.6975
16568 1 61.8304 2.54383 39.6752
16569 2 62.3439 3.13533 40.2968
16570 2 62.4042 1.77299 39.3984
16571 1 61.369 28.249 70.906
16572 2 61.8278 27.9656 70.0639
16573 2 61.8874 28.9884 71.3355
16574 1 86.3101 29.5707 76.4865
16575 2 85.9265 28.8369 77.0471
16576 2 87.2851 29.4033 76.3401
16577 1 12.8184 24.1897 24.035
16578 2 12.2151 23.5809 24.5502
16579 2 13.6225 23.6806 23.728
16580 1 95.4189 2.91614 27.5042
16581 2 95.2458 2.78182 28.4799
16582 2 96.2951 2.50023 27.2607
16583 1 30.5569 28.713 84.577
16584 2 30.4371 29.0589 85.5076
16585 2 30.4573 29.4657 83.9263
16586 1 7.19997 1.74091 45.219
16587 2 8.13363 1.51019 44.945
16588 2 6.64755 1.91736 44.4043
16589 1 58.6811 28.1972 45.3365
16590 2 58.2502 27.3483 45.0306
16591 2 58.4423 28.3664 46.2928
16592 1 41.1516 2.23577 51.5908
16593 2 41.4502 1.29277 51.4439
16594 2 40.753 2.3208 52.504
16595 1 61.0271 10.6393 60.6349
16596 2 61.8448 10.6752 60.0603
16597 2 60.213 10.7379 60.0626
16598 1 38.2713 16.8234 81.6711
16599 2 38.2716 15.8408 81.4851
16600 2 39.1691 17.2046 81.4506
16601 1 94.9987 8.21909 32.8263
16602 2 95.1822 8.49879 31.884
16603 2 94.892 9.03104 33.4002
16604 1 88.5838 11.6153 76.1165
16605 2 88.4447 11.4762 75.1361
16606 2 87.7385 11.9557 76.5282
16607 1 2.84829 6.27232 17.6854
16608 2 2.00026 6.71692 17.397
16609 2 2.63401 5.4038 18.1323
16610 1 92.484 21.4575 26.5889
16611 2 92.4637 20.4855 26.3548
16612 2 93.1149 21.6038 27.3508
16613 1 1.43504 23.5161 48.9417
16614 2 0.668727 22.9201 49.1815
16615 2 2.20486 22.9598 48.6289
16616 1 61.8452 3.08158 89.6459
16617 2 61.1066 2.47378 89.9374
16618 2 62.5708 2.54287 89.2177
16619 1 103.95 19.8441 38.4484
16620 2 104.058 19.3776 39.3263
16621 2 104.83 20.2223 38.1615
16622 1 45.6295 29.2444 76.1868
16623 2 46.6108 29.1862 76.3699
16624 2 45.4498 0.0147074 75.5749
16625 1 82.18 28.3811 35.9755
16626 2 82.8631 28.2495 36.6938
16627 2 81.3289 27.9262 36.2375
16628 1 51.9388 16.1729 65.4758
16629 2 51.9199 15.6956 64.5973
16630 2 51.2514 15.7774 66.0849
16631 1 84.4926 10.2674 42.5824
16632 2 85.1697 9.53758 42.4884
16633 2 83.5815 9.90378 42.3883
16634 1 38.7547 22.6981 54.6983
16635 2 38.3136 23.5918 54.6166
16636 2 39.7479 22.8151 54.6956
16637 1 25.8325 2.97031 24.5506
16638 2 25.9817 3.86629 24.9689
16639 2 24.8557 2.75641 24.5604
16640 1 61.9675 13.5471 46.991
16641 2 62.9445 13.7302 47.1003
16642 2 61.741 13.5173 46.0174
16643 1 104.141 5.77002 71.1846
16644 2 104.288 5.72198 70.1967
16645 2 104.997 5.56658 71.6597
16646 1 98.4267 23.0238 38.0969
16647 2 99.0216 22.5518 38.7475
16648 2 97.6612 22.4285 37.8526
16649 1 21.6594 12.2954 90.4346
16650 2 22.3458 13.0126 90.3146
16651 2 21.243 12.0814 89.5509
16652 1 88.7692 8.4972 60.5019
16653 2 88.0629 8.88831 61.092
16654 2 88.4044 7.69215 60.0341
16655 1 25.9637 4.74749 79.2031
16656 2 25.7601 5.19133 80.0758
16657 2 26.3468 5.41907 78.569
16658 1 36.9686 6.7303 51.6501
16659 2 36.812 7.29911 50.8427
16660 2 36.3262 5.96391 51.6476
16661 1 105.051 27.2173 29.092
16662 2 105.396 26.4096 28.6143
16663 2 104.093 27.365 28.8471
16664 1 64.5108 14.6543 46.9722
16665 2 65.4134 14.2244 46.9497
16666 2 64.5232 15.4221 47.6128
16667 1 33.3194 11.4433 82.5832
16668 2 33.283 12.3497 83.004
16669 2 33.6011 11.5305 81.6277
16670 1 29.5915 10.49 31.3935
16671 2 28.9305 9.89079 31.8451
16672 2 30.2713 10.798 32.059
16673 1 69.0074 5.46198 55.1806
16674 2 69.4475 4.7294 55.6999
16675 2 68.0778 5.60052 55.5219
16676 1 66.3597 0.899548 71.4726
16677 2 66.7685 1.7047 71.0429
16678 2 65.8946 0.35094 70.7779
16679 1 118.241 21.3585 59.3389
16680 2 118.75 20.6817 59.8701
16681 2 118.882 21.9813 58.8901
16682 1 36.7657 0.992899 22.5638
16683 2 35.9666 0.721662 22.0274
16684 2 37.3297 1.62079 22.0275
16685 1 32.6624 24.311 26.2964
16686 2 32.301 25.0991 26.7946
16687 2 32.8123 23.5545 26.933
16688 1 25.4805 26.453 81.4692
16689 2 25.4092 25.8159 80.7018
16690 2 24.6495 27.007 81.5208
16691 1 114.694 21.8448 58.1842
16692 2 114.997 21.9097 57.2334
16693 2 114.461 22.7564 58.5227
16694 1 44.4843 4.88053 90.6366
16695 2 43.5533 4.56547 90.8209
16696 2 44.6477 4.87863 89.65
16697 1 61.6417 8.59063 82.673
16698 2 61.9626 7.73755 82.2615
16699 2 61.3151 8.41092 83.6009
16700 1 47.5385 14.3429 38.1112
16701 2 47.8575 15.1131 37.559
16702 2 48.3182 13.915 38.5684
16703 1 56.726 9.28197 83.4472
16704 2 55.9336 9.29321 84.0571
16705 2 57.2948 8.48604 83.6544
16706 1 29.5274 17.9066 63.763
16707 2 29.2815 18.3285 62.8903
16708 2 28.7378 17.925 64.3763
16709 1 52.183 17.6433 56.8647
16710 2 52.0042 16.6637 56.7729
16711 2 53.1449 17.827 56.6621
16712 1 4.67224 26.7246 92.5249
16713 2 4.96047 26.0874 91.8101
16714 2 5.47264 27.0333 93.0387
16715 1 25.615 22.4339 31.9875
16716 2 25.4142 23.3591 32.3095
16717 2 25.7329 22.4448 30.9945
16718 1 77.7813 8.74809 32.7151
16719 2 78.3283 8.06279 32.2343
16720 2 77.5887 8.42949 33.6432
16721 1 81.824 15.1484 66.1959
16722 2 81.6875 16.1279 66.3441
16723 2 80.9357 14.6927 66.1403
16724 1 89.7846 2.03631 71.8385
16725 2 89.8564 2.95766 71.4564
16726 2 88.8351 1.72698 71.7865
16727 1 78.6915 19.8006 72.7294
16728 2 79.5662 19.4449 73.0585
16729 2 78.2505 20.3263 73.4569
16730 1 59.1792 12.5297 73.6607
16731 2 59.4393 13.4209 73.2891
16732 2 58.2288 12.5622 73.9701
16733 1 67.9174 11.3239 90.7859
16734 2 68.3875 10.6374 90.2312
16735 2 68.531 12.0961 90.9512
16736 1 110.003 26.437 56.0166
16737 2 109.442 27.2392 56.2192
16738 2 109.482 25.7999 55.4488
16739 1 12.5502 8.25898 50.4682
16740 2 13.0393 7.76249 49.7511
16741 2 11.7723 8.74297 50.0674
16742 1 95.0244 18.0248 82.8846
16743 2 94.7159 18.8026 82.337
16744 2 95.9802 17.824 82.6697
16745 1 85.6136 8.18988 48.4246
16746 2 85.2284 7.41909 47.9172
16747 2 86.2567 8.68531 47.8407
16748 1 108.771 15.0611 16.6389
16749 2 109.472 15.5231 17.1827
16750 2 108.377 15.7068 15.9848
16751 1 4.80841 17.3134 11.1241
16752 2 5.7148 17.5059 10.7481
16753 2 4.71898 16.3317 11.2924
16754 1 110.578 13.8756 62.047
16755 2 111.512 13.5886 62.2619
16756 2 110.254 13.3786 61.2422
16757 1 37.523 6.88071 80.3213
16758 2 37.8014 5.92041 80.3406
16759 2 38.3354 7.46241 80.2799
16760 1 13.4484 5.31287 71.3611
16761 2 13.0745 6.21204 71.5884
16762 2 14.3604 5.42144 70.9654
16763 1 115.203 16.9583 76.8948
16764 2 114.706 17.7905 76.648
16765 2 116.142 17.0181 76.5573
16766 1 115.855 16.3689 54.7936
16767 2 116.043 16.2353 55.7665
16768 2 115.518 17.2985 54.6439
16769 1 19.1832 17.9077 67.7287
16770 2 19.8685 18.2287 67.075
16771 2 18.4484 18.5822 67.7994
16772 1 61.5596 2.17443 77.584
16773 2 61.2718 2.3601 78.5235
16774 2 61.3802 2.97736 77.0156
16775 1 8.74337 12.3222 63.0345
16776 2 9.3855 11.994 63.7273
16777 2 8.14543 11.5721 62.7522
16778 1 112.838 17.6758 82.0756
16779 2 112.334 17.3925 82.892
16780 2 113.819 17.6646 82.2684
16781 1 69.8918 6.56458 78.3328
16782 2 70.1054 6.66832 79.3041
16783 2 70.4941 7.15383 77.7942
16784 1 45.7697 26.7146 77.7687
16785 2 46.2968 26.8366 76.9277
16786 2 46.3225 26.2207 78.4399
16787 1 54.4004 16.3285 86.0076
16788 2 53.5091 16.2851 86.4589
16789 2 54.7635 17.2578 86.0754
16790 1 44.5474 3.02008 27.7239
16791 2 43.5835 2.75626 27.688
16792 2 45.0682 2.46923 27.0717
16793 1 98.2769 20.5374 57.3766
16794 2 98.0553 20.4083 58.3431
16795 2 98.5202 19.6569 56.9699
16796 1 39.2846 1.50005 23.9682
16797 2 38.3514 1.14496 23.9138
16798 2 39.7923 0.997427 24.668
16799 1 25.0378 18.7942 67.4052
16800 2 25.8063 18.3708 67.885
16801 2 25.1887 19.7806 67.3394
16802 1 61.984 2.06768 84.6114
16803 2 61.0238 2.19291 84.8611
16804 2 62.1862 1.09065 84.5442
16805 1 49.9301 7.15301 33.1299
16806 2 49.1466 6.81666 33.6524
16807 2 49.6465 7.92879 32.5662
16808 1 37.3909 29.3877 88.3195
16809 2 36.7778 28.8611 87.7306
16810 2 37.4515 0.32716 87.9824
16811 1 96.1245 5.84375 33.161
16812 2 95.9231 6.80664 32.9813
16813 2 96.35 5.38446 32.3018
16814 1 29.1439 10.2934 55.2208
16815 2 29.5055 9.46181 55.6423
16816 2 28.3909 10.0557 54.6072
16817 1 79.6905 0.659538 33.2909
16818 2 80.6016 0.981873 33.0341
16819 2 79.4701 29.8343 32.7709
16820 1 20.7939 20.3546 53.1664
16821 2 21.5587 20.95 53.4127
16822 2 20.9454 19.9783 52.2524
16823 1 102.212 8.67921 88.7134
16824 2 102.257 8.29809 87.79
16825 2 102.051 7.94269 89.3704
16826 1 107.084 2.77462 86.0793
16827 2 107.594 3.17995 85.3202
16828 2 107.671 2.12885 86.5676
16829 1 99.6649 21.2018 79.776
16830 2 99.9118 22.1695 79.8275
16831 2 100.495 20.6444 79.7992
16832 1 64.1047 9.50416 61.5826
16833 2 65.0969 9.60108 61.6605
16834 2 63.8123 9.79163 60.6706
16835 1 74.9679 14.4478 59.0825
16836 2 75.2358 14.1672 60.0042
16837 2 75.7726 14.4539 58.4889
16838 1 109.318 29.2861 59.5071
16839 2 108.324 29.1947 59.5691
16840 2 109.61 0.102112 60.0062
16841 1 86.9475 9.58231 46.5291
16842 2 86.2199 9.34471 45.8857
16843 2 86.7362 10.4584 46.9626
16844 1 32.4862 6.04578 43.3792
16845 2 32.784 5.76431 44.2913
16846 2 31.5001 5.90445 43.2921
16847 1 102.274 25.8951 91.3191
16848 2 102.029 25.2368 90.6074
16849 2 101.445 26.2145 91.7777
16850 1 25.7362 8.15706 68.398
16851 2 26.1678 9.05899 68.4131
16852 2 26.4426 7.44931 68.406
16853 1 11.0985 3.25856 60.2144
16854 2 11.4175 2.63199 60.9254
16855 2 10.2435 3.68688 60.5067
16856 1 61.061 13.9227 59.6443
16857 2 62.0241 13.9634 59.3783
16858 2 60.4868 14.1089 58.8471
16859 1 34.5588 26.7098 63.9076
16860 2 34.7056 26.5854 62.9263
16861 2 33.8229 26.1058 64.2138
16862 1 113.317 4.40355 84.114
16863 2 112.473 4.14513 84.5835
16864 2 113.448 5.3924 84.1843
16865 1 7.33841 23.2898 74.88
16866 2 7.93825 22.6752 74.3676
16867 2 6.39851 22.9512 74.8363
16868 1 33.3884 2.43612 34.1418
16869 2 33.7354 3.07906 33.459
16870 2 33.2491 2.914 35.0092
16871 1 68.7866 3.2904 45.4528
16872 2 69.0132 4.24758 45.2727
16873 2 69.3087 2.96704 46.242
16874 1 113.322 26.3468 92.0825
16875 2 113.142 26.1041 93.0358
16876 2 112.496 26.1955 91.5388
16877 1 53.8637 15.7358 58.6215
16878 2 53.9989 15.8368 59.6071
16879 2 54.6023 16.2018 58.1343
16880 1 11.1118 4.1555 30.9896
16881 2 10.4576 3.45673 31.2789
16882 2 11.0146 4.31701 30.0076
16883 1 114.524 16.8317 85.9099
16884 2 114.684 15.8478 85.9906
16885 2 113.736 17.0886 86.4696
16886 1 88.0255 5.85277 66.3598
16887 2 89.0201 5.80857 66.4538
16888 2 87.6057 5.87896 67.2671
16889 1 23.5998 12.0753 84.3424
16890 2 24.1503 12.2267 85.1634
16891 2 23.5237 12.9306 83.8297
16892 1 28.0182 12.6526 52.4188
16893 2 28.3771 13.4954 52.8199
16894 2 28.5912 12.3811 51.6456
16895 1 115.738 9.3652 45.2884
16896 2 115.801 9.72144 46.2207
16897 2 115.049 9.8817 44.7799
16898 1 117.899 2.28847 64.6299
16899 2 116.915 2.35537 64.4622
16900 2 118.392 2.80602 63.9307
16901 1 14.5238 28.2966 35.7811
16902 2 13.5463 28.3172 35.571
16903 2 14.7667 29.1053 36.3168
16904 1 49.3633 16.0589 54.9097
16905 2 49.2833 15.5256 54.0676
16906 2 50.2853 15.956 55.2831
16907 1 84.4206 3.05196 83.5561
16908 2 84.1032 3.18168 82.6167
16909 2 84.8428 2.14967 83.6436
16910 1 21.8633 14.3817 19.7511
16911 2 22.2394 13.5212 20.0947
16912 2 22.2962 15.1479 20.226
16913 1 42.1499 14.4795 47.2076
16914 2 42.8904 13.937 46.8108
16915 2 41.6786 14.9812 46.4821
16916 1 101.122 22.476 71.3393
16917 2 100.288 22.3448 70.8028
16918 2 101.681 23.1901 70.9177
16919 1 36.6903 17.8127 26.2576
16920 2 37.4658 17.3141 25.8704
16921 2 36.2491 18.352 25.5404
16922 1 26.9918 18.1525 38.5688
16923 2 27.4305 18.6131 39.3404
16924 2 26 18.1604 38.696
16925 1 38.6597 21.3655 47.4039
16926 2 38.5411 22.358 47.4332
16927 2 39.0168 21.0989 46.5086
16928 1 42.0326 15.7606 58.2387
16929 2 42.5219 16.3111 57.5623
16930 2 42.6767 15.1519 58.702
16931 1 80.5081 18.0246 76.0694
16932 2 81.3412 17.8131 76.5805
16933 2 80.7459 18.5246 75.2367
16934 1 21.54 20.1494 23.1836
16935 2 20.9705 20.2711 22.3707
16936 2 22.0949 19.3239 23.0813
16937 1 118.412 22.651 54.6517
16938 2 119.408 22.6157 54.5773
16939 2 118.005 22.5068 53.7496
16940 1 80.7706 11.1483 43.7373
16941 2 80.246 10.5284 44.3209
16942 2 81.5285 10.6492 43.3172
16943 1 39.047 16.8982 25.6238
16944 2 39.5911 17.7 25.8708
16945 2 38.8383 16.3705 26.4472
16946 1 17.7029 17.8943 87.0848
16947 2 18.44 18.3851 86.6202
16948 2 17.3437 18.4584 87.8283
16949 1 90.1786 17.7227 57.9917
16950 2 89.8081 18.5336 57.5387
16951 2 91.0886 17.9286 58.3517
16952 1 97.4271 2.78747 33.2987
16953 2 96.6376 2.17703 33.235
16954 2 97.5395 3.08919 34.2455
16955 1 13.1047 7.24972 10.4807
16956 2 12.5489 8.05236 10.2643
16957 2 12.5445 6.57678 10.9637
16958 1 27.8358 26.8222 91.7622
16959 2 28.7742 27.0548 92.0176
16960 2 27.3913 27.623 91.3608
16961 1 36.6686 9.09338 18.1336
16962 2 37.5139 9.19231 18.6587
16963 2 36.1849 8.27072 18.4324
16964 1 112.275 5.30648 42.7505
16965 2 111.623 4.69782 42.2984
16966 2 112.635 4.85983 43.5694
16967 1 113.684 19.1239 45.4151
16968 2 113.84 18.7627 46.3344
16969 2 113.679 18.3706 44.7574
16970 1 51.2383 13.8528 44.9815
16971 2 51.943 13.1448 44.9358
16972 2 50.4615 13.5161 45.5137
16973 1 12.4327 28.1698 56.545
16974 2 12.7427 28.6812 55.7435
16975 2 12.7961 27.2389 56.5074
16976 1 28.9801 8.60172 42.674
16977 2 29.454 9.48219 42.6893
16978 2 28.5783 8.45511 41.7701
16979 1 39.6718 25.8686 79.3657
16980 2 39.4684 25.7616 78.3925
16981 2 40.192 25.077 79.6865
16982 1 111.727 20.5922 80.9851
16983 2 110.792 20.8124 80.7075
16984 2 111.705 20.0088 81.7971
16985 1 40.9729 19.2061 61.7076
16986 2 41.9627 19.207 61.5649
16987 2 40.5237 18.7754 60.9248
16988 1 74.1407 25.7802 88.0608
16989 2 73.5952 24.9548 88.2065
16990 2 73.8045 26.5111 88.6546
16991 1 66.5178 28.1272 75.8684
16992 2 65.6854 27.6337 75.6162
16993 2 66.9046 28.565 75.0568
16994 1 33.0559 7.80855 32.6958
16995 2 32.3382 8.46078 32.4518
16996 2 33.5432 7.52483 31.87
16997 1 40.6295 25.2781 45.3068
16998 2 40.6856 25.7098 44.4065
16999 2 39.9232 25.7316 45.8505
17000 1 90.8959 5.03653 50.4944
17001 2 90.1973 5.64759 50.122
17002 2 91.6731 5.57646 50.8175
17003 1 54.3296 18.791 53.1619
17004 2 54.9207 17.9905 53.0628
17005 2 54.6664 19.5286 52.5766
17006 1 57.4925 15.292 89.6272
17007 2 58.0123 16.0683 89.9841
17008 2 58.0096 14.4488 89.7744
17009 1 64.9605 21.5599 84.417
17010 2 64.7495 21.2649 85.349
17011 2 64.1393 21.9442 83.9951
17012 1 33.1432 5.4949 73.4236
17013 2 33.289 5.96133 72.5511
17014 2 33.739 4.69349 73.4767
17015 1 102.586 3.79302 72.3545
17016 2 103.108 4.30328 71.6704
17017 2 103.217 3.2987 72.9532
17018 1 96.5401 3.47573 57.7079
17019 2 96.4773 4.18082 58.4142
17020 2 96.151 2.62192 58.0537
17021 1 22.924 9.71358 44.4361
17022 2 22.1712 9.85952 43.7943
17023 2 22.6761 8.99161 45.0821
17024 1 77.0043 17.5731 80.144
17025 2 77.0719 16.5937 80.3343
17026 2 77.0819 18.085 80.9995
17027 1 84.0901 28.563 37.8047
17028 2 84.3529 29.0618 38.6306
17029 2 84.572 27.6872 37.7768
17030 1 90.44 8.05744 30.2654
17031 2 91.1789 8.07229 29.5917
17032 2 90.0035 7.15778 30.2615
17033 1 34.5221 27.5492 50.7063
17034 2 34.6464 26.9476 51.4954
17035 2 35.3101 27.4659 50.0963
17036 1 115.306 1.95264 75.1
17037 2 114.462 2.45743 74.9182
17038 2 115.239 1.50059 75.9894
17039 1 18.5404 11.1793 15.4738
17040 2 18.1576 11.1722 16.3976
17041 2 18.2559 10.3523 14.9888
17042 1 116.793 5.85752 47.339
17043 2 117.078 4.94437 47.0473
17044 2 117.014 5.98257 48.3062
17045 1 76.3345 16.0907 44.2713
17046 2 76.5651 16.1443 45.2429
17047 2 76.8451 16.7883 43.7686
17048 1 49.0039 7.94989 90.5288
17049 2 49.2027 7.47581 89.6711
17050 2 49.8572 8.27938 90.933
17051 1 6.88014 3.21012 60.0966
17052 2 6.30988 3.14502 59.2777
17053 2 6.29762 3.2086 60.9094
17054 1 105.583 25.3646 75.5838
17055 2 106.04 25.7384 76.3908
17056 2 104.625 25.1774 75.8002
17057 1 49.4558 6.41649 61.7546
17058 2 50.326 6.2924 61.2778
17059 2 49.5215 7.20277 62.3689
17060 1 72.1467 23.9796 35.7324
17061 2 73.1055 23.7085 35.6481
17062 2 71.5869 23.4189 35.1222
17063 1 5.40905 7.31337 23.8592
17064 2 5.87836 8.03379 23.3486
17065 2 6.0356 6.54844 24.0086
17066 1 23.3473 17.5864 18.5117
17067 2 23.3675 17.0288 19.3415
17068 2 23.0924 18.5244 18.7465
17069 1 54.3032 27.853 63.3666
17070 2 53.6768 28.5514 63.0202
17071 2 54.0615 27.627 64.3102
17072 1 12.6319 29.5175 26.2858
17073 2 12.9415 0.391659 26.6599
17074 2 13.1663 29.296 25.4701
17075 1 8.13866 29.8887 39.2018
17076 2 7.38252 0.543018 39.1912
17077 2 7.80406 28.9976 39.5083
17078 1 80.961 0.944809 90.0559
17079 2 81.3366 0.235247 89.4598
17080 2 81.6659 1.62819 90.2458
17081 1 91.3106 15.2012 90.334
17082 2 92.1929 14.7323 90.375
17083 2 91.4532 16.1876 90.4159
17084 1 72.4606 16.7961 50.2603
17085 2 71.6481 17.2838 50.5799
17086 2 72.5374 15.924 50.7436
17087 1 61.5703 26.0072 84.5027
17088 2 60.6159 26.175 84.256
17089 2 61.8171 26.5767 85.2867
17090 1 7.72117 18.4633 56.508
17091 2 7.92971 19.4036 56.2392
17092 2 7.6218 18.4149 57.5018
17093 1 2.60804 27.7923 36.6257
17094 2 3.07423 27.6485 35.7528
17095 2 2.04114 26.9958 36.836
17096 1 22.4982 5.64553 17.1795
17097 2 22.8062 5.12436 16.3835
17098 2 21.9738 6.44063 16.8748
17099 1 62.4893 4.83426 87.1745
17100 2 62.7059 5.70815 87.6097
17101 2 62.9834 4.09918 87.6388
17102 1 84.2664 0.897014 57.3683
17103 2 84.9065 0.182128 57.6499
17104 2 84.7775 1.69978 57.0611
17105 1 57.5792 14.229 66.517
17106 2 57.6713 13.621 67.3055
17107 2 57.0213 15.0197 66.7691
17108 1 38.0536 4.57075 59.638
17109 2 38.6482 3.9663 59.1078
17110 2 37.9901 4.23529 60.5779
17111 1 20.2786 11.4601 63.3652
17112 2 19.5838 12.0055 63.8339
17113 2 20.1291 11.5074 62.3775
17114 1 90.9899 27.2649 40.9621
17115 2 91.7669 27.0502 40.3704
17116 2 90.5415 26.4168 41.2443
17117 1 22.1495 12.3341 10.8253
17118 2 22.4515 13.2788 10.9537
17119 2 22.7279 11.723 11.3657
17120 1 95.3721 21.4075 60.2891
17121 2 94.718 21.1501 59.5779
17122 2 96.217 20.8862 60.1694
17123 1 40.1612 1.04006 73.5652
17124 2 40.3751 0.070743 73.6865
17125 2 40.4073 1.54196 74.3944
17126 1 22.81 16.8672 28.2804
17127 2 23.1136 15.9233 28.1509
17128 2 23.5617 17.4914 28.0671
17129 1 39.5358 12.9985 60.9859
17130 2 39.9274 12.112 61.2323
17131 2 39.0869 12.9286 60.0951
17132 1 29.3901 1.83712 16.0587
17133 2 29.063 0.892397 16.0813
17134 2 29.6707 2.11478 16.9775
17135 1 23.1294 21.6217 38.2701
17136 2 22.5004 21.0509 38.7977
17137 2 23.654 22.2027 38.8924
17138 1 15.1999 11.5833 61.5923
17139 2 15.7221 11.7926 62.4191
17140 2 14.7498 12.4134 61.2633
17141 1 22.7297 5.04838 21.0829
17142 2 22.1204 5.73164 20.6804
17143 2 23.2329 4.5812 20.3559
17144 1 46.2364 13.5308 74.9137
17145 2 45.634 13.7981 74.1616
17146 2 46.7185 12.6888 74.6716
17147 1 100.57 7.45493 48.7174
17148 2 101.403 7.10676 49.1472
17149 2 99.7832 7.24601 49.298
17150 1 11.0919 17.4543 29.3137
17151 2 11.8726 18.0722 29.4067
17152 2 10.2437 17.9661 29.4501
17153 1 78.9397 22.7066 50.1263
17154 2 79.4896 22.6553 49.2927
17155 2 78.7823 21.7842 50.4791
17156 1 32.0029 15.8981 31.9613
17157 2 32.5098 15.3678 32.641
17158 2 31.0268 15.8692 32.1764
17159 1 118.158 1.73011 72.5767
17160 2 119.1 1.91157 72.294
17161 2 117.73 1.10161 71.927
17162 1 78.3098 22.12 86.6275
17163 2 77.4491 22.2861 87.1086
17164 2 78.5211 22.9028 86.0423
17165 1 110.271 2.33484 36.8308
17166 2 109.948 3.03147 36.1903
17167 2 109.494 1.96396 37.3397
17168 1 103.454 0.470909 69.5881
17169 2 104.321 0.0819031 69.902
17170 2 102.736 0.262904 70.2516
17171 1 39.963 23.1192 65.4919
17172 2 39.9112 22.2343 65.9548
17173 2 40.2252 22.9809 64.5368
17174 1 9.94221 2.09769 44.4709
17175 2 9.91277 2.58693 43.5992
17176 2 10.5241 1.28954 44.38
17177 1 105.173 15.6151 56.0021
17178 2 105.321 16.5768 55.7708
17179 2 105.027 15.0895 55.164
17180 1 80.326 26.3643 55.7116
17181 2 79.5159 26.9326 55.5677
17182 2 80.3982 25.6937 54.9733
17183 1 31.4582 3.27354 67.3465
17184 2 31.7051 3.41749 68.3048
17185 2 31.1935 2.31889 67.2103
17186 1 26.3965 20.0212 77.6342
17187 2 26.3324 19.186 77.088
17188 2 25.7941 20.7194 77.2475
17189 1 83.5449 27.8408 55.6918
17190 2 84.1907 28.2449 55.044
17191 2 83.1266 27.0295 55.2833
17192 1 9.82633 1.29203 10.7105
17193 2 9.54937 1.25198 11.6706
17194 2 10.6178 1.89598 10.6169
17195 1 6.35342 8.86038 68.3826
17196 2 5.44636 8.999 68.7801
17197 2 6.56896 9.62129 67.7706
17198 1 33.3839 14.2581 87.4521
17199 2 32.52 14.5329 87.8741
17200 2 33.4782 13.2638 87.5028
17201 1 69.5041 1.60821 59.2403
17202 2 69.3363 2.58917 59.1425
17203 2 70.2089 1.45811 59.9336
17204 1 20.3249 15.5705 11.982
17205 2 20.7587 15.6584 11.0852
17206 2 20.0656 16.4763 12.3171
17207 1 88.1602 16.7647 45.9143
17208 2 88.2868 16.1649 45.1242
17209 2 87.3894 17.3792 45.7462
17210 1 101.696 15.7605 31.712
17211 2 101.756 14.8965 31.2122
17212 2 101.331 15.5911 32.6277
17213 1 107.462 5.03204 70.9878
17214 2 107.154 4.11144 71.2276
17215 2 107.644 5.07714 70.0056
17216 1 6.68537 14.3083 78.1204
17217 2 6.67463 13.3256 78.3049
17218 2 5.91038 14.7423 78.5798
17219 1 72.2939 20.9643 89.5552
17220 2 71.4023 20.5916 89.8125
17221 2 72.501 20.7106 88.6103
17222 1 52.143 24.8567 39.168
17223 2 52.0195 23.9361 39.5383
17224 2 51.6001 24.9563 38.3342
17225 1 4.70112 1.91984 48.1295
17226 2 5.64743 2.2345 48.2036
17227 2 4.68079 1.02814 47.6773
17228 1 104.378 10.1207 61.6973
17229 2 104.274 9.45703 62.4379
17230 2 104.57 11.0231 62.083
17231 1 93.9999 13.9346 89.7811
17232 2 93.903 13.2397 89.0685
17233 2 94.9446 13.9462 90.109
17234 1 71.8974 5.67801 45.2465
17235 2 70.9054 5.5585 45.2876
17236 2 72.1185 6.65158 45.3036
17237 1 31.401 1.82807 75.8424
17238 2 31.3251 2.63061 76.4341
17239 2 32.3613 1.67597 75.6085
17240 1 48.9006 5.0903 31.8063
17241 2 47.9754 5.40971 31.6015
17242 2 49.4877 5.87499 32.0052
17243 1 18.4311 4.07294 53.6691
17244 2 17.4907 4.05218 53.3297
17245 2 18.4587 3.70191 54.5973
17246 1 24.9122 20.7574 70.2748
17247 2 24.0597 20.6513 69.763
17248 2 25.1832 21.72 70.275
17249 1 100.186 6.55492 80.4505
17250 2 99.3179 6.98065 80.7051
17251 2 100.019 5.83365 79.7782
17252 1 119.394 15.8151 74.2068
17253 2 118.643 15.3462 73.7407
17254 2 0.219826 15.7616 73.646
17255 1 113.852 29.3839 52.1926
17256 2 114.101 29.6522 53.1232
17257 2 113.996 0.155763 51.5734
17258 1 114.166 28.6042 19.471
17259 2 113.874 27.8372 20.0425
17260 2 113.447 28.8197 18.8101
17261 1 91.9115 11.347 50.1496
17262 2 92.1339 12.0707 50.803
17263 2 92.564 10.5959 50.2493
17264 1 87.7751 8.22415 31.6975
17265 2 88.1836 8.83154 32.3788
17266 2 88.0667 8.50504 30.7831
17267 1 15.4164 22.6836 67.7095
17268 2 15.9371 22.6558 68.5627
17269 2 15.3466 23.6294 67.3923
17270 1 16.9314 27.1475 36.1006
17271 2 16.1457 27.7292 35.8904
17272 2 17.7306 27.7202 36.2834
17273 1 18.5285 9.57862 60.6687
17274 2 19.2681 10.219 60.8756
17275 2 18.9075 8.75938 60.2384
17276 1 44.6796 28.1832 45.1851
17277 2 45.594 28.4527 45.4872
17278 2 44.7503 27.4022 44.5646
17279 1 13.4416 26.9774 41.2996
17280 2 14.2558 27.3124 40.8253
17281 2 13.4468 27.3068 42.2438
17282 1 63.2945 6.98986 90.7556
17283 2 63.7596 6.11142 90.8651
17284 2 63.0039 7.09695 89.8048
17285 1 119.508 3.42909 66.4942
17286 2 118.888 2.97474 65.8545
17287 2 0.407693 2.99408 66.4525
17288 1 39.333 0.718427 32.8457
17289 2 39.4737 0.798256 33.8325
17290 2 40.124 0.268124 32.4315
17291 1 116.224 0.513475 25.4988
17292 2 116.581 1.22181 26.1077
17293 2 116.227 0.850321 24.5573
17294 1 103.454 1.66161 21.7657
17295 2 103.123 1.05802 21.0404
17296 2 102.694 2.21018 22.1154
17297 1 79.6483 0.719936 65.8012
17298 2 80.439 1.2424 65.4822
17299 2 78.9192 0.768515 65.1185
17300 1 91.4266 7.70711 90.8755
17301 2 91.7307 8.4871 90.3286
17302 2 91.7177 7.8314 91.8241
17303 1 79.231 28.471 31.8928
17304 2 80.1224 28.4801 31.4398
17305 2 79.0649 27.5657 32.2836
17306 1 63.9005 20.4612 76.9229
17307 2 62.9963 20.511 77.3472
17308 2 63.8593 20.8522 76.0035
17309 1 114.955 24.2347 63.2757
17310 2 114.125 24.0572 63.804
17311 2 115.181 23.428 62.7298
17312 1 85.6958 8.42988 58.0713
17313 2 86.2296 7.87439 58.7088
17314 2 85.4043 7.86435 57.2998
17315 1 92.3543 27.3316 32.7628
17316 2 91.7443 26.5686 32.5487
17317 2 92.4313 27.4286 33.7551
17318 1 0.00674225 27.7852 58.3212
17319 2 0.956972 27.5343 58.5058
17320 2 119.484 27.7617 59.1735
17321 1 25.9884 2.05604 44.0334
17322 2 26.8292 1.51586 43.9994
17323 2 25.8831 2.56309 43.1779
17324 1 92.3717 22.1582 89.3015
17325 2 92.3139 23.0972 88.9625
17326 2 93.261 22.0149 89.7358
17327 1 66.0904 5.23589 41.2274
17328 2 66.5638 4.37083 41.3934
17329 2 66.7504 5.98676 41.25
17330 1 103.941 12.2691 17.0863
17331 2 102.994 11.979 17.2284
17332 2 104.311 12.6286 17.9428
17333 1 115.823 15.7161 46.2919
17334 2 115.326 16.45 46.755
17335 2 116.771 15.7026 46.6105
17336 1 44.5017 21.5412 44.082
17337 2 44.8623 22.0538 44.8613
17338 2 44.2896 22.1733 43.3367
17339 1 0.329723 15.2353 61.9365
17340 2 1.13676 15.6682 62.3381
17341 2 0.522797 14.9857 60.9876
17342 1 85.0782 5.43223 60.3088
17343 2 84.1959 5.78646 59.9988
17344 2 84.9575 4.50838 60.672
17345 1 60.8523 26.2729 55.7849
17346 2 60.6678 26.2238 56.7665
17347 2 61.0732 27.2154 55.534
17348 1 59.7571 23.4752 61.0908
17349 2 59.8689 23.7453 60.1345
17350 2 58.8125 23.639 61.3752
17351 1 41.6088 13.4174 67.6533
17352 2 41.582 13.4586 66.6545
17353 2 41.1273 14.2076 68.0326
17354 1 113.667 22.4424 30.3491
17355 2 113.838 22.5972 31.322
17356 2 114.161 23.1248 29.8108
17357 1 53.9594 7.80958 47.214
17358 2 54.2879 7.80068 48.1584
17359 2 53.2192 8.47594 47.1248
17360 1 70.4512 8.86779 59.245
17361 2 70.1814 7.91239 59.3649
17362 2 70.9027 8.97798 58.3595
17363 1 117.275 18.4789 81.2752
17364 2 116.793 18.9713 80.5505
17365 2 116.618 18.1743 81.965
17366 1 4.77378 13.2444 72.6428
17367 2 4.39844 12.6397 73.3452
17368 2 5.25872 12.6997 71.9585
17369 1 29.2721 3.02799 41.9208
17370 2 29.7274 3.24273 42.7849
17371 2 29.716 2.23825 41.4974
17372 1 17.4786 11.4004 18.1623
17373 2 17.5173 10.8499 18.9962
17374 2 16.6988 12.0245 18.2107
17375 1 103.899 28.8431 80.7975
17376 2 103.345 29.1307 81.5785
17377 2 104.819 28.6059 81.1107
17378 1 76.0088 20.4034 52.6599
17379 2 75.9336 20.02 53.5804
17380 2 75.1252 20.3343 52.1968
17381 1 13.7317 7.43448 86.5443
17382 2 14.1954 6.94833 87.285
17383 2 13.8332 8.42031 86.6778
17384 1 27.33 2.40332 62.977
17385 2 27.5784 2.60574 63.9243
17386 2 28.1388 2.08833 62.4804
17387 1 86.6316 7.46776 86.1987
17388 2 87.4224 7.11859 86.7014
17389 2 86.4054 6.83901 85.4547
17390 1 19.851 4.35877 58.4841
17391 2 20.5461 5.01004 58.7885
17392 2 20.2949 3.58202 58.0373
17393 1 7.72004 6.20656 70.6303
17394 2 6.90577 6.73595 70.8685
17395 2 8.39483 6.28477 71.3642
17396 1 48.9501 9.19366 31.4408
17397 2 48.2915 8.91806 30.7406
17398 2 48.9096 10.1851 31.5647
17399 1 87.4457 14.0725 87.0427
17400 2 87.7093 14.1276 86.0797
17401 2 86.4487 14.0906 87.117
17402 1 72.5135 25.3999 58.0196
17403 2 71.5727 25.2159 58.3042
17404 2 72.52 25.7058 57.0675
17405 1 73.0276 4.99607 64.8711
17406 2 73.5002 5.83782 65.1322
17407 2 72.7263 5.06425 63.92
17408 1 83.419 17.1635 41.9416
17409 2 83.0325 17.8281 42.5811
17410 2 82.9403 17.2262 41.0659
17411 1 27.9328 16.4334 45.2835
17412 2 27.5759 16.3092 44.3577
17413 2 28.4844 17.2667 45.3191
17414 1 92.582 23.7734 48.8574
17415 2 92.8944 24.2596 48.0413
17416 2 92.45 22.8064 48.6392
17417 1 96.7645 24.1711 50.597
17418 2 96.3679 24.3749 49.7019
17419 2 97.5708 24.7445 50.7426
17420 1 47.2274 0.45733 53.7352
17421 2 46.8113 29.8551 53.0539
17422 2 46.5601 0.661575 54.4515
17423 1 102.019 14.1107 13.953
17424 2 101.035 14.2179 14.0997
17425 2 102.231 13.144 13.8098
17426 1 93.5823 25.3482 66.4184
17427 2 94.506 25.2962 66.0388
17428 2 93.6287 25.2986 67.4161
17429 1 29.5913 9.51929 21.2277
17430 2 29.9409 10.3795 21.5988
17431 2 29.798 8.77423 21.8618
17432 1 69.3537 10.4425 34.1998
17433 2 68.8454 9.60924 33.9824
17434 2 70.2636 10.1998 34.5363
17435 1 53.4118 7.65571 39.9848
17436 2 53.8054 7.96858 40.8492
17437 2 54.1299 7.60432 39.2908
17438 1 110.108 24.3618 52.1299
17439 2 110.306 24.6727 51.2004
17440 2 110.954 24.0598 52.5683
17441 1 34.1492 3.43226 20.494
17442 2 34.7796 2.69028 20.7223
17443 2 34.0629 4.04898 21.2764
17444 1 6.79947 6.1588 74.7108
17445 2 6.98456 5.28509 75.1607
17446 2 7.31235 6.88481 75.1689
17447 1 37.6175 21.8975 58.8023
17448 2 37.8671 22.8216 58.5128
17449 2 37.6474 21.8414 59.8003
17450 1 26.8637 0.82524 57.1998
17451 2 26.9735 29.9914 56.6588
17452 2 27.087 1.62027 56.6358
17453 1 47.6834 1.26506 46.9527
17454 2 48.6038 1.15131 46.5788
17455 2 47.1803 1.93193 46.4029
17456 1 50.8593 5.92256 58.4113
17457 2 51.076 5.41487 59.2451
17458 2 50.0137 6.43921 58.5459
17459 1 37.956 14.8138 33.621
17460 2 37.2519 14.8908 32.9151
17461 2 37.7028 14.0937 34.2671
17462 1 68.6999 11.3243 44.4885
17463 2 68.2326 12.1336 44.1326
17464 2 68.0558 10.7743 45.0201
17465 1 24.3568 1.59158 88.4081
17466 2 24.4783 1.67601 87.4191
17467 2 23.8695 0.742672 88.6128
17468 1 95.0846 1.21558 90.802
17469 2 95.9915 1.2653 90.3835
17470 2 94.4919 0.633939 90.245
17471 1 52.6232 10.0091 39.0075
17472 2 52.8037 9.08442 39.3427
17473 2 53.4902 10.4819 38.8504
17474 1 59.0419 0.533523 41.8934
17475 2 59.1887 29.5618 42.0784
17476 2 59.8104 1.06147 42.2549
17477 1 2.89867 0.400056 70.2248
17478 2 2.21843 29.6704 70.2948
17479 2 3.80718 29.9987 70.1085
17480 1 79.0032 23.3278 79.7518
17481 2 78.6994 22.3761 79.7954
17482 2 79.7153 23.4188 79.0556
17483 1 4.08511 15.0539 68.3586
17484 2 4.89 15.6442 68.2984
17485 2 3.30505 15.509 67.9293
17486 1 15.9226 18.9598 13.8723
17487 2 16.2979 19.0122 12.9469
17488 2 16.0644 18.0399 14.2378
17489 1 25.4646 7.23562 15.4337
17490 2 24.9201 6.58076 14.9096
17491 2 26.4168 7.19512 15.1309
17492 1 14.4095 21.0686 49.4942
17493 2 13.7104 21.5607 50.013
17494 2 14.6468 21.5915 48.6755
17495 1 59.1821 28.7861 91.2207
17496 2 59.8001 28.3018 91.84
17497 2 58.4121 28.1925 90.9866
17498 1 88.7557 12.5108 65.1793
17499 2 88.3352 13.0494 65.9094
17500 2 88.0413 12.1283 64.5934
17501 1 94.3176 28.8757 76.8229
17502 2 95.0918 29.3866 76.4493
17503 2 93.8724 29.4186 77.535
17504 1 40.1411 23.4446 75.6373
17505 2 40.0095 22.7133 76.3065
17506 2 39.9108 24.3237 76.0547
17507 1 49.6434 18.1055 48.8521
17508 2 49.5914 17.8211 47.8948
17509 2 48.9073 18.7534 49.0479
17510 1 46.539 11.1936 76.9904
17511 2 46.0326 10.3404 77.1149
17512 2 46.9239 11.2213 76.0679
17513 1 111.376 15.7403 13.7648
17514 2 110.57 15.4046 13.2776
17515 2 111.255 15.5983 14.7472
17516 1 4.71697 26.9124 85.9028
17517 2 5.48547 26.5724 86.4449
17518 2 5.05528 27.5409 85.2025
17519 1 16.3604 23.5617 30.388
17520 2 17.233 23.2782 30.7859
17521 2 16.0261 22.8467 29.7741
17522 1 87.1886 29.6888 45.7641
17523 2 86.7105 28.8108 45.7896
17524 2 86.6199 0.364404 45.295
17525 1 96.5562 26.4207 74.9357
17526 2 95.795 26.0344 74.4148
17527 2 97.0426 25.6864 75.4092
17528 1 111.545 13.6669 31.5124
17529 2 112.149 14.2833 31.0062
17530 2 110.599 13.9753 31.4185
17531 1 118.778 7.79717 78.5579
17532 2 118.76 7.83758 79.5569
17533 2 118.17 8.49849 78.1851
17534 1 4.96919 3.09575 14.4759
17535 2 4.72783 4.05654 14.6124
17536 2 4.23658 2.51449 14.8301
17537 1 11.126 22.2867 65.1239
17538 2 10.5957 21.8589 64.3919
17539 2 11.516 23.1464 64.7941
17540 1 114.514 12.4413 41.2844
17541 2 114.127 11.97 42.0772
17542 2 115.389 12.8545 41.5362
17543 1 102.653 19.4258 63.982
17544 2 103.07 20.2438 64.3777
17545 2 103.166 18.6173 64.2695
17546 1 29.3611 0.811218 61.925
17547 2 30.29 0.44093 61.9177
17548 2 29.1652 1.23739 61.0418
17549 1 105.932 29.674 70.2702
17550 2 106.624 29.5297 70.9782
17551 2 106.363 29.6273 69.369
17552 1 14.1614 2.01928 51.9703
17553 2 13.7592 1.60291 51.1549
17554 2 14.4785 1.3009 52.5895
17555 1 34.19 9.05417 64.8953
17556 2 34.1533 8.36365 65.6177
17557 2 34.2468 8.60244 64.005
17558 1 3.8176 6.19827 70.4383
17559 2 3.93531 7.17667 70.6083
17560 2 3.13381 6.06446 69.721
17561 1 11.4421 28.8548 19.1117
17562 2 11.5219 29.6876 19.6596
17563 2 11.9176 28.1056 19.5729
17564 1 86.5538 0.720079 37.6258
17565 2 86.335 0.382361 36.7104
17566 2 86.1657 1.63386 37.7456
17567 1 4.87896 7.48073 59.4147
17568 2 4.4554 8.29868 59.804
17569 2 5.87119 7.53336 59.5275
17570 1 51.1642 26.9048 57.6377
17571 2 50.6066 26.1685 58.021
17572 2 50.5891 27.7053 57.4692
17573 1 0.240261 14.7667 50.0491
17574 2 119.912 14.3233 49.2151
17575 2 119.546 14.6882 50.7641
17576 1 112.565 4.01105 52.404
17577 2 112.305 4.8686 52.8478
17578 2 112.003 3.26597 52.7633
17579 1 55.711 20.441 70.3467
17580 2 56.18 19.6893 70.8103
17581 2 56.0547 21.3133 70.6944
17582 1 42.7119 20.6781 36.1641
17583 2 41.7675 20.9616 35.9976
17584 2 42.7873 20.2939 37.0842
17585 1 109.659 17.0048 81.7679
17586 2 108.811 17.3802 82.1412
17587 2 110.324 16.8853 82.5055
17588 1 37.5763 5.21851 77.3456
17589 2 38.0408 6.10372 77.3206
17590 2 38.2044 4.52215 77.6928
17591 1 7.89102 18.682 71.7796
17592 2 7.16003 18.3779 71.1687
17593 2 8.77559 18.4038 71.4052
17594 1 13.4321 11.9128 75.2093
17595 2 12.4563 12.1242 75.152
17596 2 13.9446 12.7518 75.3922
17597 1 88.8583 7.72564 54.7079
17598 2 89.4929 7.79549 55.4775
17599 2 88.238 6.95539 54.8561
17600 1 4.49212 11.4798 54.6135
17601 2 5.35681 11.9798 54.662
17602 2 4.4533 10.8085 55.3537
17603 1 112.173 24.662 49.9281
17604 2 111.966 23.6843 49.8886
17605 2 112.209 25.0327 49
17606 1 42.1327 1.321 71.2118
17607 2 42.8391 1.89044 71.6322
17608 2 41.476 1.035 71.9097
17609 1 51.5081 23.7204 82.4694
17610 2 51.3015 24.438 81.8043
17611 2 51.2211 22.8349 82.1043
17612 1 91.8937 17.8979 75.4605
17613 2 92.2976 18.0479 74.558
17614 2 90.9971 17.4673 75.3571
17615 1 88.5951 4.8218 39.4334
17616 2 87.9013 4.47496 40.0645
17617 2 88.8448 4.10288 38.7847
17618 1 2.86425 26.966 13.5488
17619 2 3.50834 26.3314 13.1217
17620 2 2.38334 27.4808 12.8391
17621 1 73.784 1.78852 72.157
17622 2 73.5002 2.48714 71.5002
17623 2 74.7378 1.54001 71.988
17624 1 75.1834 6.48105 41.5341
17625 2 74.4347 6.66781 40.898
17626 2 75.6308 5.62364 41.2798
17627 1 5.65643 16.1352 89.3438
17628 2 5.56388 16.4818 88.4104
17629 2 5.80365 15.1464 89.3192
17630 1 45.5597 19.0941 57.4762
17631 2 45.6144 18.4403 58.2309
17632 2 44.9617 18.7298 56.7623
17633 1 0.298051 2.48654 27.8002
17634 2 0.396964 3.07377 26.9969
17635 2 0.151087 3.053 28.6111
17636 1 98.1215 0.000521764 48.674
17637 2 97.7506 0.548572 47.9243
17638 2 97.7938 29.0592 48.5927
17639 1 103.863 18.9263 89.4936
17640 2 104.06 18.1238 90.0571
17641 2 103.742 19.7255 90.0824
17642 1 118.06 17.1411 90.4738
17643 2 118.965 16.7208 90.5486
17644 2 117.435 16.5076 90.018
17645 1 85.4812 24.1761 53.6219
17646 2 85.3483 23.2064 53.8269
17647 2 86.4196 24.3253 53.3102
17648 1 2.62901 21.0172 46.4925
17649 2 3.20634 21.1653 47.2955
17650 2 3.20058 20.7559 45.7147
17651 1 1.23672 21.5212 11.6352
17652 2 2.16537 21.3284 11.9521
17653 2 0.59971 20.8765 12.0578
17654 1 116.986 7.39485 38.979
17655 2 116.06 7.76044 39.0667
17656 2 117.042 6.51207 39.4455
17657 1 89.1555 20.2834 29.4849
17658 2 89.5294 20.2255 28.5592
17659 2 88.4786 19.5593 29.617
17660 1 87.9805 7.65362 51.9114
17661 2 87.6983 6.72291 52.144
17662 2 88.49 8.04838 52.676
17663 1 97.0341 26.6732 71.4057
17664 2 97.534 26.6513 70.5399
17665 2 96.0658 26.4898 71.2362
17666 1 1.89044 0.71986 42.3138
17667 2 2.79631 0.449924 41.9874
17668 2 1.63066 1.58977 41.8945
17669 1 9.72692 19.6643 16.4875
17670 2 9.59821 19.8192 17.467
17671 2 9.19406 18.8672 16.2033
17672 1 119.307 8.49591 19.2466
17673 2 119.312 7.73168 18.6017
17674 2 118.453 9.00721 19.1512
17675 1 103.692 10.5107 20.2395
17676 2 104.566 10.612 19.7642
17677 2 103.854 10.1674 21.1647
17678 1 88.7639 3.19529 90.3695
17679 2 89.5524 3.80503 90.2892
17680 2 89.016 2.28092 90.0527
17681 1 21.9191 18.8492 13.5709
17682 2 21.0259 18.4991 13.2889
17683 2 22.3217 19.3766 12.8227
17684 1 70.9576 15.6553 83.4106
17685 2 70.6118 16.3646 84.0248
17686 2 70.8813 14.7629 83.8554
17687 1 30.7457 24.3172 41.6563
17688 2 31.0339 23.7002 42.3886
17689 2 29.7713 24.1858 41.4738
17690 1 43.9858 16.1636 82.8987
17691 2 43.4308 16.9345 82.5862
17692 2 43.3889 15.4509 83.2673
17693 1 1.78585 26.7584 92.7859
17694 2 2.53094 26.4846 93.3941
17695 2 2.08676 27.52 92.212
17696 1 115.853 13.2737 50.2657
17697 2 116.735 13.4869 50.6861
17698 2 115.788 12.2881 50.1103
17699 1 66.0778 24.2481 87.1656
17700 2 66.0219 24.9854 87.8389
17701 2 65.3334 24.343 86.5047
17702 1 60.5476 0.230883 89.3269
17703 2 60.2509 0.235602 88.3719
17704 2 59.7656 0.0323687 89.9178
17705 1 71.485 11.1997 82.951
17706 2 71.4781 11.6848 83.8254
17707 2 72.4178 11.1736 82.5917
17708 1 34.6699 15.1891 21.5244
17709 2 34.7016 16.035 20.9919
17710 2 35.4166 14.5879 21.2396
17711 1 49.1511 18.4169 58.566
17712 2 48.8222 17.5041 58.324
17713 2 48.4713 18.8752 59.1386
17714 1 40.1805 15.41 23.5339
17715 2 39.6466 15.8744 24.2405
17716 2 40.9664 14.9564 23.9541
17717 1 57.46 6.15363 81.2751
17718 2 56.6664 6.74658 81.1386
17719 2 57.655 6.07759 82.253
17720 1 83.006 19.7997 58.2404
17721 2 82.6049 20.3365 58.9826
17722 2 83.2236 20.4026 57.4728
17723 1 90.5083 13.357 35.9166
17724 2 90.0638 12.7769 35.2341
17725 2 90.6615 12.8305 36.7529
17726 1 5.26745 27.2343 62.1002
17727 2 5.5709 27.7167 62.9219
17728 2 4.35967 27.5615 61.8377
17729 1 41.2053 2.6636 60.3332
17730 2 40.8024 2.83486 59.4342
17731 2 41.084 1.70085 60.5749
17732 1 89.2189 7.60388 35.7998
17733 2 89.8033 6.79246 35.7905
17734 2 88.3284 7.36882 36.1893
17735 1 79.14 3.66101 68.4215
17736 2 79.3446 4.12778 67.5611
17737 2 79.8325 3.89874 69.1026
17738 1 71.0804 29.9824 49.2041
17739 2 70.1348 29.659 49.1669
17740 2 71.1004 0.912415 49.5711
17741 1 35.1905 19.6981 73.5719
17742 2 34.9249 19.2645 72.7108
17743 2 34.895 19.127 74.3377
17744 1 1.77223 14.9056 79.1074
17745 2 2.27312 14.6401 78.2835
17746 2 1.84275 14.1776 79.7894
17747 1 92.0067 1.62137 87.994
17748 2 91.0226 1.48445 88.1072
17749 2 92.3738 2.08367 88.8012
17750 1 105.178 3.13557 47.5933
17751 2 105.092 2.96918 48.5756
17752 2 104.601 3.91064 47.3349
17753 1 5.91644 16.1172 58.0663
17754 2 6.53202 16.6676 58.6303
17755 2 4.9686 16.318 58.3138
17756 1 94.7418 25.0688 73.4684
17757 2 94.8026 25.3309 72.5053
17758 2 94.3098 24.17 73.5427
17759 1 53.4778 17.2418 67.8364
17760 2 54.3112 16.7027 67.7151
17761 2 52.8074 16.9799 67.142
17762 1 41.9283 17.4599 41.8544
17763 2 40.9535 17.3644 42.0557
17764 2 42.155 18.4289 41.7559
17765 1 62.2531 3.02057 55.0379
17766 2 63.1999 2.90407 54.738
17767 2 62.1717 2.75065 55.9974
17768 1 109.557 19.3829 73.4464
17769 2 109.179 18.457 73.4448
17770 2 110.375 19.4082 74.0207
17771 1 46.9042 3.84233 59.0244
17772 2 47.5129 3.37573 59.6661
17773 2 47.1937 3.6461 58.0876
17774 1 33.3577 18.3088 27.1762
17775 2 32.4473 17.9787 26.9268
17776 2 34.0302 17.587 27.013
17777 1 12.2424 2.73729 11.3778
17778 2 12.2344 2.61387 12.3701
17779 2 12.8905 3.45979 11.137
17780 1 71.2994 25.2611 81.4765
17781 2 71.4622 24.276 81.4206
17782 2 72.1208 25.7516 81.1853
17783 1 100.391 29.5478 13.3512
17784 2 100.282 0.198693 12.6
17785 2 100.41 0.0420136 14.2204
17786 1 70.735 24.0517 66.5893
17787 2 70.8538 24.2696 67.5581
17788 2 70.0466 24.6593 66.193
17789 1 15.9761 19.9672 46.0037
17790 2 15.5491 20.8298 46.275
17791 2 16.905 19.9249 46.3717
17792 1 104.572 3.58958 28.3805
17793 2 104.411 3.54581 29.3664
17794 2 104.828 4.52209 28.1257
17795 1 112.856 27.0148 64.5399
17796 2 113.021 27.3316 65.4739
17797 2 112.41 26.12 64.5654
17798 1 90.4947 13.0939 31.7791
17799 2 89.9865 12.4229 32.3191
17800 2 89.8787 13.5282 31.1219
17801 1 23.9913 18.6231 59.6579
17802 2 24.8979 18.2459 59.8471
17803 2 23.9142 19.5298 60.0726
17804 1 18.8181 2.80573 56.0615
17805 2 19.7433 2.92073 56.4233
17806 2 18.3047 2.18244 56.6513
17807 1 68.1405 28.2984 51.1671
17808 2 67.621 27.5152 50.8256
17809 2 68.3094 28.9387 50.4178
17810 1 41.0158 10.9031 61.8541
17811 2 41.766 10.3853 61.4427
17812 2 41.0806 10.8489 62.8506
17813 1 64.2319 5.17472 63.0551
17814 2 64.0029 4.40322 63.6487
17815 2 64.8051 4.85585 62.3003
17816 1 15.2856 8.39548 46.9672
17817 2 14.8186 7.65695 47.4534
17818 2 15.9207 8.00598 46.3001
17819 1 52.5132 29.0678 59.3507
17820 2 53.1244 28.3652 58.9863
17821 2 51.7656 29.2263 58.7057
17822 1 84.7707 6.25373 38.6831
17823 2 84.4063 5.32289 38.6555
17824 2 84.5732 6.66274 39.574
17825 1 117.375 26.6837 56.873
17826 2 116.883 26.8805 56.0247
17827 2 117.854 25.8105 56.7856
17828 1 65.613 9.88932 65.556
17829 2 65.0573 10.716 65.6445
17830 2 65.3825 9.2524 66.2917
17831 1 60.6756 15.6809 83.2103
17832 2 59.7343 15.6552 83.547
17833 2 61.0949 16.554 83.459
17834 1 84.5176 7.44684 66.587
17835 2 85.3505 7.65364 67.1002
17836 2 83.7504 7.95565 66.9776
17837 1 28.0214 1.19996 90.9252
17838 2 27.5024 2.01261 90.6601
17839 2 27.3923 0.437592 91.077
17840 1 8.76351 3.48185 80.4518
17841 2 9.09787 4.40203 80.2481
17842 2 8.07755 3.21873 79.7734
17843 1 1.24226 10.8708 86.882
17844 2 0.966705 11.7203 86.4321
17845 2 2.24031 10.8243 86.9237
17846 1 2.87753 4.52832 62.5624
17847 2 2.68546 3.97726 63.3744
17848 2 2.07127 5.07256 62.3306
17849 1 3.32265 3.38987 67.7866
17850 2 3.07368 4.31886 68.0605
17851 2 2.50767 2.90721 67.4659
17852 1 11.5335 9.75625 66.5358
17853 2 11.8413 8.93974 66.0474
17854 2 12.1744 9.96399 67.2748
17855 1 85.2467 13.956 75.6872
17856 2 85.4849 13.72 74.7451
17857 2 85.4734 13.1909 76.2899
17858 1 58.325 3.90165 76.6586
17859 2 57.9317 4.81913 76.5995
17860 2 58.612 3.72206 77.5996
17861 1 12.2247 21.482 74.2526
17862 2 11.5621 20.7335 74.2286
17863 2 12.8429 21.4051 73.4704
17864 1 19.6931 2.65278 20.6099
17865 2 19.6255 3.58371 20.9688
17866 2 20.6545 2.42264 20.4592
17867 1 79.6889 23.7556 32.5654
17868 2 79.2387 22.8626 32.5638
17869 2 80.1657 23.8869 33.4345
17870 1 83.26 13.863 59.1194
17871 2 82.7833 14.5075 59.7172
17872 2 82.8269 12.9641 59.1857
17873 1 43.7009 1.06994 39.9847
17874 2 43.4988 0.399056 39.2712
17875 2 44.3609 1.73651 39.6381
17876 1 24.661 24.8943 32.9428
17877 2 24.0682 24.7723 32.1468
17878 2 25.0461 25.8171 32.9333
17879 1 26.0379 3.85473 15.472
17880 2 25.3827 4.48244 15.0517
17881 2 26.5182 4.32208 16.2143
17882 1 51.164 27.1353 93.7779
17883 2 51.3946 26.3562 94.3609
17884 2 50.2528 27.4716 94.016
17885 1 119.849 25.1125 42.8226
17886 2 119.245 25.6677 43.3939
17887 2 119.636 25.2713 41.8587
17888 1 4.46837 9.78574 57.1117
17889 2 3.86021 10.5085 57.4401
17890 2 4.05076 8.89397 57.2859
17891 1 13.4768 3.52525 88.5235
17892 2 13.8735 4.40698 88.7788
17893 2 13.6078 3.37197 87.544
17894 1 99.9293 26.4262 92.4545
17895 2 99.6265 26.8255 91.5892
17896 2 99.1443 26.3183 93.0646
17897 1 111.515 1.72135 44.3049
17898 2 112.273 1.8243 43.6604
17899 2 110.871 1.04098 43.9559
17900 1 107.752 29.569 65.4376
17901 2 107.96 0.521816 65.2169
17902 2 107.205 29.5327 66.2738
17903 1 46.5865 5.67595 73.9301
17904 2 47.3964 5.57635 73.3521
17905 2 46.5138 4.88745 74.5409
17906 1 85.2511 29.6202 35.2425
17907 2 85.6329 29.2747 34.3852
17908 2 84.9161 28.854 35.7909
17909 1 28.6413 8.58152 16.5515
17910 2 28.3406 8.02565 15.7765
17911 2 27.8494 9.02666 16.9696
17912 1 96.7102 17.6004 72.2968
17913 2 97.675 17.5908 72.5593
17914 2 96.2026 18.2011 72.9145
17915 1 12.2056 9.56313 76.1881
17916 2 12.8979 9.15452 76.7828
17917 2 12.22 10.5574 76.294
17918 1 45.2353 29.093 37.1577
17919 2 44.3155 29.4837 37.1937
17920 2 45.3243 28.3849 37.8582
17921 1 0.879865 19.0891 54.5491
17922 2 0.480665 18.5939 53.7775
17923 2 1.82112 18.7825 54.6908
17924 1 95.9971 17.4776 40.1767
17925 2 95.1454 17.551 40.6954
17926 2 95.8536 17.8234 39.2494
17927 1 86.7702 0.880871 43.3372
17928 2 86.1207 1.50691 43.7686
17929 2 86.2954 0.0445486 43.0632
17930 1 12.6394 18.6438 38.4202
17931 2 12.0931 17.8132 38.5285
17932 2 12.4235 19.2833 39.1581
17933 1 45.1534 13.0847 40.1415
17934 2 45.2206 12.102 40.3138
17935 2 44.4619 13.4824 40.7446
17936 1 115.037 26.6838 84.2485
17937 2 114.974 26.983 85.2006
17938 2 115.724 27.2312 83.7715
17939 1 40.5213 0.0279392 60.4886
17940 2 40.5786 29.9264 61.4817
17941 2 39.8393 29.392 60.1273
17942 1 68.3287 21.344 40.6039
17943 2 67.9425 21.9998 41.2525
17944 2 68.119 20.4139 40.9055
17945 1 2.67386 16.3305 24.5786
17946 2 2.48943 15.3608 24.4184
17947 2 2.40177 16.8589 23.7744
17948 1 94.0688 23.1076 54.8669
17949 2 93.5737 23.7635 54.2971
17950 2 93.4361 22.6866 55.5169
17951 1 20.0902 3.0732 16.2211
17952 2 20.6996 3.7204 15.7631
17953 2 20.1607 2.17898 15.7791
17954 1 29.9494 14.7613 53.26
17955 2 30.3565 13.8745 53.4788
17956 2 30.337 15.4626 53.8582
17957 1 7.90166 28.0682 65.8439
17958 2 7.09175 28.6112 65.6221
17959 2 8.70533 28.476 65.4105
17960 1 78.37 18.3312 84.3602
17961 2 77.7774 18.6679 83.6284
17962 2 78.7461 17.4414 84.1016
17963 1 83.1565 6.79577 31.9853
17964 2 83.8307 7.49772 31.7556
17965 2 82.4246 7.20273 32.5318
17966 1 115.085 6.69338 23.7339
17967 2 114.862 7.65624 23.5822
17968 2 115.863 6.4371 23.1599
17969 1 96.4454 19.1702 90.0548
17970 2 97.0151 19.8293 90.5459
17971 2 96.9028 18.2811 90.0388
17972 1 64.2609 19.8167 35.5573
17973 2 65.1594 20.2303 35.4102
17974 2 64.3211 18.8289 35.4135
17975 1 64.225 17.6862 39.5297
17976 2 63.633 18.2964 39.0031
17977 2 63.951 17.7041 40.4913
17978 1 26.4922 2.51545 13.1664
17979 2 26.494 2.9331 14.075
17980 2 26.5099 3.23272 12.4699
17981 1 111.151 8.36528 85.4458
17982 2 112.15 8.36678 85.4954
17983 2 110.861 7.9479 84.5846
17984 1 61.6043 3.97814 51.4129
17985 2 61.175 4.10161 50.5182
17986 2 60.9246 4.1244 52.1317
17987 1 16.4041 0.983652 78.2093
17988 2 16.2259 0.197413 78.801
17989 2 15.6271 1.12147 77.5951
17990 1 106.906 28.388 25.3201
17991 2 106.657 27.4451 25.0985
17992 2 106.429 28.6717 26.152
17993 1 78.3859 4.63412 42.5598
17994 2 78.463 5.6215 42.6982
17995 2 77.6603 4.27131 43.1445
17996 1 106.025 14.7036 14.7569
17997 2 105.187 15.0557 14.3409
17998 2 106.725 15.4178 14.7518
17999 1 99.6672 29.377 90.0636
18000 2 100.61 29.3224 90.3914
18001 2 99.2542 28.4665 90.0833
18002 1 50.8577 18.5675 86.9845
18003 2 51.5311 17.8353 87.0868
18004 2 50.7898 19.0798 87.8406
18005 1 14.9549 28.2373 19.5484
18006 2 14.0498 28.0437 19.9271
18007 2 14.9913 27.9295 18.5977
18008 1 8.84908 29.8056 70.9873
18009 2 8.08186 29.3424 70.5437
18010 2 8.60778 0.0179035 71.9343
18011 1 20.88 28.3508 23.3608
18012 2 20.1257 28.126 23.9777
18013 2 21.714 28.4958 23.8931
18014 1 35.7436 9.58358 32.1326
18015 2 35.7152 8.82176 31.4855
18016 2 36.6943 9.84764 32.2951
18017 1 92.6247 8.70524 35.1227
18018 2 93.4131 8.31584 35.5988
18019 2 91.9393 8.99201 35.7921
18020 1 119.357 8.67931 88.0743
18021 2 118.912 9.04532 87.2569
18022 2 119.126 7.71171 88.1748
18023 1 6.39426 26.0879 17.1412
18024 2 6.78607 25.9567 18.0518
18025 2 6.76954 26.9205 16.7336
18026 1 49.4929 10.8982 43.0883
18027 2 50.4509 10.7303 42.8556
18028 2 49.3959 10.9529 44.082
18029 1 114.224 16.0958 21.4475
18030 2 113.434 16.7024 21.5318
18031 2 114.791 16.3912 20.6779
18032 1 2.12097 2.12924 55.2977
18033 2 1.46352 2.79935 54.9532
18034 2 1.73414 1.21066 55.2167
18035 1 68.1123 18.6852 40.8606
18036 2 68.922 18.5869 40.282
18037 2 67.6122 17.8195 40.8837
18038 1 64.0575 17.06 81.9812
18039 2 63.4794 17.2516 82.7744
18040 2 64.0013 16.0876 81.7549
18041 1 90.7318 0.11023 84.9789
18042 2 91.0667 29.7821 84.0956
18043 2 91.254 29.6788 85.7145
18044 1 10.9206 28.9321 89.3058
18045 2 10.6021 28.5719 88.429
18046 2 10.1471 29.0103 89.9348
18047 1 93.03 27.9097 49.3049
18048 2 92.133 27.4989 49.4683
18049 2 93.2489 27.8556 48.3307
18050 1 106.64 7.67953 62.8189
18051 2 105.919 7.6332 62.127
18052 2 107.516 7.43002 62.4055
18053 1 27.0562 4.45484 75.0639
18054 2 26.8845 4.25582 74.0991
18055 2 27.9815 4.81891 75.1697
18056 1 45.8173 7.31484 52.4739
18057 2 45.6424 6.36625 52.7376
18058 2 46.7391 7.57594 52.7604
18059 1 109.506 6.19474 47.2857
18060 2 108.57 6.51263 47.1344
18061 2 110.135 6.96896 47.2207
18062 1 56.5933 22.3788 73.8423
18063 2 56.7687 22.5662 72.8758
18064 2 55.87 21.693 73.923
18065 1 91.5108 18.057 90.8111
18066 2 92.3326 18.2604 90.2788
18067 2 91.2973 18.8331 91.4043
18068 1 8.36835 2.1082 63.1018
18069 2 8.83915 2.6345 62.3937
18070 2 7.80381 2.72213 63.6535
18071 1 27.6565 20.7198 53.5132
18072 2 28.186 20.0121 53.9809
18073 2 27.4813 21.4762 54.1435
18074 1 84.4975 27.0858 44.2779
18075 2 84.8529 26.1606 44.4109
18076 2 85.1612 27.6268 43.7615
18077 1 97.4954 6.3062 40.461
18078 2 97.8716 6.31763 39.5345
18079 2 98.1612 6.69787 41.096
18080 1 15.8443 22.0854 13.011
18081 2 16.4801 22.3079 12.2718
18082 2 15.446 22.9282 13.3731
18083 1 25.9521 18.1529 14.4748
18084 2 25.7151 18.0618 13.5076
18085 2 26.908 18.4344 14.5587
18086 1 108.789 5.5554 30.6405
18087 2 108.848 5.52242 31.6382
18088 2 109.242 4.7529 30.2528
18089 1 79.3857 3.90507 32.8075
18090 2 78.4266 3.93414 32.5257
18091 2 79.8895 3.28003 32.2113
18092 1 65.3785 22.1857 37.9025
18093 2 65.6781 21.9027 36.9914
18094 2 64.3839 22.2896 37.909
18095 1 114.734 12.04 81.5005
18096 2 115.403 11.5392 80.9511
18097 2 115.114 12.2155 82.4089
18098 1 44.4114 11.209 35.3123
18099 2 44.3639 10.309 35.7457
18100 2 45.3305 11.586 35.427
18101 1 118.173 17.5346 10.5844
18102 2 117.666 18.222 11.1043
18103 2 117.538 16.8472 10.2325
18104 1 119.677 21.8435 34.2409
18105 2 118.734 21.8738 33.9088
18106 2 119.703 22.1374 35.1964
18107 1 19.0514 12.2425 21.1767
18108 2 19.1982 11.3351 20.783
18109 2 18.3368 12.1915 21.8744
18110 1 106.266 29.7731 78.3516
18111 2 106.612 29.3709 77.5039
18112 2 106.204 29.0652 79.0551
18113 1 82.6077 26.0364 29.4939
18114 2 83.4687 25.6843 29.8609
18115 2 82.7265 26.2672 28.5282
18116 1 91.5584 21.7437 62.6568
18117 2 91.3032 21.0635 63.344
18118 2 91.7087 22.6267 63.1016
18119 1 34.8515 4.48724 80.0394
18120 2 35.6321 5.02569 79.722
18121 2 34.0055 4.99049 79.8629
18122 1 80.7675 7.32035 56.7101
18123 2 81.1003 6.45392 57.0822
18124 2 81.4038 8.05309 56.9512
18125 1 57.3196 16.5769 68.6018
18126 2 56.4624 16.3876 68.1229
18127 2 57.1227 17.0299 69.4713
18128 1 4.7874 24.8916 13.0153
18129 2 5.50069 24.8492 13.7149
18130 2 5.08668 24.3905 12.2033
18131 1 110.883 4.87708 58.067
18132 2 110.965 5.66277 57.4539
18133 2 111.795 4.54424 58.3063
18134 1 28.7827 2.68633 71.9441
18135 2 29.0076 2.94138 71.0037
18136 2 28.2677 1.82911 71.9429
18137 1 113.041 11.7746 10.9146
18138 2 113.559 12.5113 11.3493
18139 2 113.566 10.9249 10.9621
18140 1 48.8035 1.7159 82.4981
18141 2 48.8373 1.25827 83.3866
18142 2 47.9497 2.23076 82.4206
18143 1 75.1872 23.3209 51.5752
18144 2 74.3267 23.4007 51.0721
18145 2 75.0713 22.6802 52.3342
18146 1 56.7579 14.1637 38.7336
18147 2 56.1672 14.811 38.252
18148 2 56.3494 13.2515 38.7007
18149 1 18.0445 15.9888 83.3971
18150 2 18.7529 16.6749 83.2315
18151 2 17.4722 15.8972 82.5822
18152 1 97.8331 10.5156 64.3235
18153 2 98.8261 10.6326 64.3394
18154 2 97.59 9.66651 64.7925
18155 1 12.2709 25.6784 14.7488
18156 2 11.7318 25.9944 15.5296
18157 2 12.8357 24.9013 15.0263
18158 1 3.16617 23.6921 86.2961
18159 2 2.25718 23.9657 85.9817
18160 2 3.47073 24.3142 87.0173
18161 1 57.5178 28.0901 56.0819
18162 2 57.7088 27.6033 56.9342
18163 2 56.9701 28.9035 56.2781
18164 1 69.7477 6.40445 81.0498
18165 2 68.7517 6.43325 81.1348
18166 2 70.1478 7.1673 81.5577
18167 1 22.4985 23.4652 14.0102
18168 2 23.3906 23.294 13.5921
18169 2 21.7792 23.0872 13.4273
18170 1 24.4808 16.6298 43.5792
18171 2 25.3402 16.1261 43.4911
18172 2 24.4699 17.1204 44.4505
18173 1 1.01338 24.2954 23.1797
18174 2 2.01011 24.2354 23.1255
18175 2 0.719635 25.2129 22.9118
18176 1 107.365 29.1237 31.4865
18177 2 107.332 28.2934 32.0427
18178 2 107.91 28.9532 30.6654
18179 1 26.2407 5.77027 25.1996
18180 2 25.7681 6.42803 24.6131
18181 2 27.2147 5.76129 24.9731
18182 1 11.0249 4.71449 36.4925
18183 2 11.3414 3.7746 36.3643
18184 2 10.0739 4.7067 36.8017
18185 1 10.2964 26.6394 16.7963
18186 2 9.72608 27.1073 17.4714
18187 2 10.941 26.0357 17.2654
18188 1 50.7455 18.234 81.8293
18189 2 50.2879 18.3228 80.9446
18190 2 51.6944 17.9523 81.687
18191 1 104.843 12.0351 27.2587
18192 2 105.124 11.9888 28.2174
18193 2 105.075 11.1763 26.8017
18194 1 117.189 3.08145 56.6548
18195 2 118.037 3.13234 56.127
18196 2 117.283 3.62502 57.489
18197 1 34.4489 21.545 83.7114
18198 2 34.6917 20.5853 83.8531
18199 2 34.2721 21.7042 82.7402
18200 1 109.102 13.6424 57.1677
18201 2 108.394 12.9396 57.0976
18202 2 109.695 13.4413 57.9471
18203 1 84.6116 15.719 78.8203
18204 2 83.8068 16.1575 78.4202
18205 2 85.4373 16.0754 78.3831
18206 1 54.2447 10.3768 69.5141
18207 2 54.6271 10.0405 70.3748
18208 2 54.9859 10.6857 68.9182
18209 1 41.7925 26.8618 31.6758
18210 2 41.8525 26.834 30.678
18211 2 41.9066 27.8041 31.9905
18212 1 77.7825 17.7448 74.4571
18213 2 78.2663 18.2154 73.7192
18214 2 76.8465 18.0917 74.5164
18215 1 66.7437 7.45155 60.6001
18216 2 67.7057 7.19 60.6783
18217 2 66.5914 8.31122 61.0877
18218 1 58.0772 26.27 57.9943
18219 2 59.0183 26.0215 58.2234
18220 2 57.4616 25.5299 58.2653
18221 1 63.461 19.4344 89.6795
18222 2 62.6079 19.7496 90.0953
18223 2 63.7559 20.0909 88.9852
18224 1 118.158 28.2204 27.6012
18225 2 117.488 27.7108 27.0607
18226 2 117.952 28.1129 28.5739
18227 1 98.2216 10.344 53.7462
18228 2 98.4432 11.3178 53.6963
18229 2 97.6343 10.0958 52.9758
18230 1 100.049 17.7485 79.9503
18231 2 100.808 18.3948 79.8718
18232 2 99.1904 18.2525 80.0424
18233 1 94.0489 18.0936 27.8389
18234 2 93.9989 18.7247 28.613
18235 2 93.1824 18.1089 27.3399
18236 1 11.6051 17.416 89.958
18237 2 12.047 18.2958 89.7831
18238 2 12.0357 16.7093 89.3965
18239 1 86.5524 10.9431 88.3066
18240 2 85.6961 11.0843 87.8097
18241 2 86.6552 11.6543 89.0021
18242 1 72.6176 6.03974 76.3054
18243 2 73.3647 5.58664 76.7918
18244 2 72.9707 6.84334 75.8263
18245 1 102.845 22.8024 46.7601
18246 2 103.536 22.1276 47.0205
18247 2 101.982 22.5886 47.2163
18248 1 56.5622 0.530048 53.3713
18249 2 57.2695 1.12521 52.9897
18250 2 56.6538 0.499404 54.3666
18251 1 40.0645 25.8548 54.8135
18252 2 39.0867 25.6577 54.7421
18253 2 40.5774 24.9965 54.8273
18254 1 61.1429 8.84469 35.0675
18255 2 60.4945 8.85552 34.3063
18256 2 61.3727 9.78379 35.323
18257 1 87.0744 11.2761 67.8863
18258 2 86.7507 12.0671 67.3671
18259 2 87.2252 11.5416 68.8386
18260 1 78.3589 12.1935 59.0932
18261 2 78.9422 11.8825 59.8435
18262 2 78.822 12.9246 58.592
18263 1 15.9168 3.89994 19.251
18264 2 15.4358 4.56794 19.8189
18265 2 16.79 4.2843 18.9515
18266 1 9.34784 19.0714 63.7272
18267 2 10.1264 19.3883 63.1855
18268 2 8.70224 18.5911 63.1335
18269 1 95.1658 13.522 23.7096
18270 2 94.6438 13.7413 22.8853
18271 2 95.5806 14.3561 24.0733
18272 1 118.829 24.9148 82.0014
18273 2 118.016 25.2658 81.5378
18274 2 119.299 24.2649 81.4039
18275 1 72.0254 26.8701 39.8337
18276 2 72.8073 26.3799 40.2188
18277 2 72.0482 26.8028 38.8362
18278 1 97.0361 14.094 90.7488
18279 2 96.6416 14.0516 91.6667
18280 2 97.5775 13.2703 90.5803
18281 1 84.9655 6.81336 41.18
18282 2 85.7306 7.45652 41.1482
18283 2 85.1899 6.05863 41.7964
18284 1 82.1344 10.8798 58.6655
18285 2 81.8354 11.1546 57.7517
18286 2 81.3401 10.81 59.2691
18287 1 10.0935 21.021 68.4231
18288 2 9.72568 20.6229 67.5827
18289 2 10.6746 20.3497 68.8833
18290 1 16.997 27.2398 68.7552
18291 2 17.4402 28.0168 69.2022
18292 2 16.0667 27.4939 68.4903
18293 1 38.7685 3.2776 83.3858
18294 2 37.8665 3.59627 83.0945
18295 2 38.7601 2.28083 83.4657
18296 1 0.934252 6.52209 10.5202
18297 2 0.514256 6.56823 9.61387
18298 2 1.57282 7.28367 10.6308
18299 1 115.092 23.4707 86.9596
18300 2 115.848 22.9797 87.3921
18301 2 114.224 23.1294 87.3197
18302 1 83.9633 21.2188 47.4462
18303 2 83.2454 20.7111 46.9698
18304 2 84.8548 20.9695 47.068
18305 1 58.8625 14.2704 53.246
18306 2 59.087 13.6412 52.5019
18307 2 58.4655 13.7579 54.0075
18308 1 13.319 12.0422 49.9637
18309 2 13.2614 11.7727 50.925
18310 2 13.1386 13.0223 49.8809
18311 1 92.3459 20.9906 52.9383
18312 2 92.2207 21.8382 52.4227
18313 2 93.3228 20.7986 53.032
18314 1 7.0782 19.6139 26.8943
18315 2 7.04298 20.5823 27.1409
18316 2 6.55345 19.464 26.0564
18317 1 33.7029 16.1755 41.7719
18318 2 34.4645 15.6092 42.087
18319 2 34.0579 17.0282 41.3887
18320 1 34.9366 13.9918 12.6039
18321 2 34.1355 14.4139 12.1795
18322 2 35.6033 13.7564 11.8966
18323 1 118.023 17.0816 70.1986
18324 2 118.374 16.2085 69.8606
18325 2 117.024 17.0803 70.1495
18326 1 90.2461 8.5026 69.76
18327 2 90.9461 9.1652 69.4936
18328 2 90.3887 7.64811 69.2605
18329 1 10.1878 15.0874 18.7174
18330 2 9.79235 15.1235 17.7996
18331 2 9.96494 15.9288 19.2097
18332 1 0.783884 11.6169 69.7019
18333 2 1.39821 11.2757 70.4133
18334 2 0.104669 12.2257 70.1119
18335 1 24.2988 5.84639 59.4174
18336 2 24.9661 5.15225 59.6875
18337 2 24.5268 6.71608 59.8552
18338 1 17.776 24.2052 22.1014
18339 2 18.1033 23.6993 21.3033
18340 2 17.5142 25.13 21.8255
18341 1 57.6495 21.1415 47.098
18342 2 57.8458 20.169 46.973
18343 2 57.1277 21.2706 47.9413
18344 1 64.7568 7.21563 39.819
18345 2 65.1249 6.9711 38.922
18346 2 65.1231 6.59308 40.5106
18347 1 82.9106 6.50362 85.8812
18348 2 83.647 6.60389 85.2121
18349 2 83.1878 6.9206 86.7468
18350 1 110.071 13.5424 50.8533
18351 2 110.212 14.395 51.3566
18352 2 109.504 13.7201 50.0488
18353 1 25.6116 15.5651 88.7089
18354 2 26.3606 16.0271 88.2341
18355 2 25.0445 15.0794 88.0437
18356 1 17.6151 9.50731 51.7038
18357 2 16.6278 9.4485 51.5564
18358 2 18.0725 9.6814 50.8317
18359 1 5.14349 8.75255 10.9442
18360 2 5.39464 7.80427 11.1383
18361 2 5.90631 9.21318 10.4904
18362 1 8.60413 25.8244 48.1607
18363 2 8.45331 25.0974 48.8305
18364 2 7.75527 26.3359 48.0271
18365 1 19.5871 7.57037 18.3662
18366 2 19.9696 7.15677 19.1924
18367 2 20.1518 7.3246 17.5783
18368 1 36.3144 7.67052 58.4322
18369 2 36.5961 8.35951 57.7644
18370 2 35.4329 7.28422 58.1609
18371 1 7.59931 17.9809 52.5169
18372 2 7.11152 17.1143 52.4123
18373 2 8.58393 17.8082 52.5431
18374 1 119.721 12.4347 23.9202
18375 2 0.564483 12.9709 23.8804
18376 2 119.938 11.4643 23.8141
18377 1 104.251 4.96798 68.696
18378 2 104.759 4.15293 68.976
18379 2 103.92 4.84916 67.76
18380 1 31.0704 9.10542 15.5818
18381 2 31.3515 10.0192 15.2885
18382 2 30.1503 9.14859 15.971
18383 1 107.566 5.17298 33.3838
18384 2 107.514 6.11285 33.7213
18385 2 108.338 4.70617 33.8164
18386 1 48.116 23.0992 87.7111
18387 2 47.4603 23.2134 88.4574
18388 2 48.3905 23.9975 87.3681
18389 1 26.9924 26.783 26.8025
18390 2 26.2949 27.0949 26.1573
18391 2 27.7053 27.4794 26.8852
18392 1 26.0067 3.24352 20.4961
18393 2 25.1002 3.34226 20.0857
18394 2 26.6138 3.95289 20.1381
18395 1 25.277 25.9726 16.7513
18396 2 25.2811 26.6804 17.4576
18397 2 25.6241 25.1168 17.1349
18398 1 108.599 24.8644 54.2725
18399 2 109.249 24.7573 53.5202
18400 2 108.358 23.9642 54.6349
18401 1 2.51825 6.47854 49.3562
18402 2 3.37419 6.8206 49.744
18403 2 2.52267 5.47863 49.3689
18404 1 40.4074 12.5216 86.2008
18405 2 41.2467 13.0193 86.4195
18406 2 40.4775 12.1386 85.2797
18407 1 19.8284 10.824 28.1206
18408 2 20.3404 11.6705 27.9746
18409 2 20.4676 10.0646 28.2421
18410 1 77.2071 1.67786 51.6483
18411 2 76.9011 1.34271 52.5394
18412 2 77.4869 2.63442 51.7301
18413 1 108.359 10.9753 75.1919
18414 2 107.946 11.6982 74.6379
18415 2 109.301 11.2252 75.4183
18416 1 92.6695 6.0306 31.7139
18417 2 92.9648 6.20474 30.7745
18418 2 91.849 5.45893 31.7048
18419 1 89.3859 14.2622 59.8435
18420 2 90.3649 14.1544 60.0165
18421 2 89.0979 15.1795 60.1184
18422 1 28.1867 15.4259 71.5293
18423 2 28.9681 15.6847 70.9615
18424 2 27.5111 14.9472 70.9685
18425 1 17.9919 20.2373 53.0748
18426 2 18.9543 19.9659 53.0897
18427 2 17.5879 20.0826 53.9764
18428 1 26.2308 23.7015 45.1351
18429 2 25.6093 22.9362 45.303
18430 2 27.1321 23.3496 44.8826
18431 1 77.4173 28.314 59.4458
18432 2 77.5371 29.2794 59.6775
18433 2 76.4658 28.0492 59.6027
18434 1 115.381 1.28691 61.1749
18435 2 115.159 1.62366 60.2599
18436 2 115.249 2.02059 61.8414
18437 1 21.1451 10.6094 51.0456
18438 2 20.9423 10.5903 52.0246
18439 2 20.2901 10.5848 50.5276
18440 1 112.007 29.9377 39.7606
18441 2 111.346 0.683498 39.6735
18442 2 111.728 29.1758 39.1759
18443 1 86.2403 12.1686 70.5076
18444 2 86.2418 12.2218 71.5062
18445 2 85.44 11.6526 70.2025
18446 1 93.0543 11.0006 84.9761
18447 2 93.1183 10.4621 85.8162
18448 2 93.4643 10.4896 84.2206
18449 1 68.2242 23.3998 45.003
18450 2 68.4733 24.1944 45.5568
18451 2 67.7927 22.7103 45.5846
18452 1 104.988 26.4866 83.8696
18453 2 105.189 27.4631 83.7912
18454 2 104.691 26.2812 84.8021
18455 1 16.2367 17.5465 84.7805
18456 2 16.7931 16.9172 84.2379
18457 2 16.7108 17.7587 85.635
18458 1 16.4854 19.4937 82.9867
18459 2 16.4581 18.7176 83.6167
18460 2 16.6359 20.3369 83.5029
18461 1 44.5077 7.61351 79.5757
18462 2 44.7391 7.95978 78.6666
18463 2 45.2486 7.03027 79.9088
18464 1 74.3509 12.3112 55.2356
18465 2 74.255 12.0891 54.2653
18466 2 74.8405 11.5731 55.6997
18467 1 18.8334 24.6843 25.4475
18468 2 18.7382 25.6787 25.4018
18469 2 19.2597 24.3513 24.6064
18470 1 41.818 2.41852 27.7716
18471 2 41.1577 3.16861 27.7345
18472 2 41.3825 1.57513 27.457
18473 1 4.8633 23.0072 55.9108
18474 2 5.39358 23.7026 56.3958
18475 2 4.04945 22.7765 56.4441
18476 1 55.4721 11.2773 90.133
18477 2 54.6071 11.0024 90.5529
18478 2 55.8855 10.4902 89.6753
18479 1 5.99727 29.3803 42.4605
18480 2 6.71254 28.7823 42.8221
18481 2 6.17597 0.322623 42.7435
18482 1 116.507 2.48455 27.108
18483 2 116.795 3.44201 27.0979
18484 2 116.699 2.08792 28.0055
18485 1 80.9297 24.3445 39.9293
18486 2 81.3274 23.5707 39.4362
18487 2 80.3513 24.0053 40.6712
18488 1 52.5663 7.27954 34.0091
18489 2 51.7707 7.43156 33.4227
18490 2 52.8428 6.32012 33.9536
18491 1 96.8676 14.5102 56.3521
18492 2 97.6543 14.9895 56.7411
18493 2 96.9182 14.5418 55.3539
18494 1 88.465 9.68468 71.3971
18495 2 88.6379 10.3873 72.0874
18496 2 89.1229 9.78206 70.6504
18497 1 91.935 7.62735 66.7781
18498 2 92.6898 7.80953 67.4082
18499 2 92.2305 6.96966 66.0853
18500 1 52.7865 1.52109 36.3051
18501 2 53.3984 1.10629 35.6316
18502 2 52.6195 0.872542 37.0477
18503 1 64.5221 18.2175 68.9246
18504 2 64.5938 18.1934 67.9275
18505 2 65.1738 17.571 69.3214
18506 1 95.218 3.98994 50.9113
18507 2 95.0066 3.44423 50.1004
18508 2 94.6214 4.79205 50.938
18509 1 117.58 18.6603 20.3107
18510 2 118.499 19.0268 20.1636
18511 2 117.409 18.5744 21.2921
18512 1 2.97062 26.8829 71.2866
18513 2 3.77608 27.3893 70.9786
18514 2 2.75786 26.162 70.627
18515 1 24.4001 17.0905 36.9194
18516 2 23.9621 16.3218 37.3854
18517 2 24.4665 17.8665 37.5467
18518 1 43.0625 0.912194 36.8255
18519 2 42.2757 0.941735 37.442
18520 2 42.7752 0.559377 35.935
18521 1 27.5887 5.35575 35.7457
18522 2 27.0913 4.49484 35.6389
18523 2 28.0986 5.55231 34.9083
18524 1 39.4882 12.9874 28.7431
18525 2 38.9589 13.7766 28.4316
18526 2 39.4305 12.2576 28.0619
18527 1 32.8554 2.29068 42.068
18528 2 32.0645 1.9836 41.5387
18529 2 32.7578 1.99137 43.0172
18530 1 21.9098 26.7152 62.8421
18531 2 20.9487 26.4838 62.6913
18532 2 22.031 27.7046 62.7619
18533 1 102.493 6.72184 63.4084
18534 2 102.265 5.76906 63.609
18535 2 102.736 7.19221 64.2567
18536 1 17.6219 11.692 42.6722
18537 2 18.2905 12.3332 42.2954
18538 2 18.1002 10.935 43.1173
18539 1 3.50329 7.35072 27.1376
18540 2 2.89901 7.76609 26.4577
18541 2 3.064 6.53892 27.5223
18542 1 43.4185 22.0291 39.3414
18543 2 44.3017 22.2232 38.9145
18544 2 43.4861 22.1752 40.3284
18545 1 25.6362 26.1656 21.4986
18546 2 25.6337 26.7313 20.674
18547 2 25.6523 25.1997 21.2402
18548 1 16.3347 22.5932 39.9205
18549 2 17.3022 22.4185 40.103
18550 2 16.0312 22.0231 39.157
18551 1 97.2661 28.6331 64.1726
18552 2 96.6598 28.8005 63.3952
18553 2 97.9172 29.3875 64.256
18554 1 19.8589 8.24964 89.8351
18555 2 20.5858 7.71603 90.2675
18556 2 19.9188 9.20091 90.1376
18557 1 80.8465 10.4292 40.5991
18558 2 81.2795 10.0745 41.4277
18559 2 81.5386 10.8588 40.0191
18560 1 112.419 18.7118 65.6392
18561 2 111.698 18.4194 65.0107
18562 2 113.261 18.212 65.4364
18563 1 82.1119 24.522 76.1705
18564 2 81.4459 25.2056 75.8721
18565 2 81.6702 23.8755 76.7925
18566 1 10.4313 17.4064 32.1232
18567 2 10.5771 17.1316 31.1728
18568 2 11.2626 17.8344 32.4777
18569 1 70.9217 26.4926 87.8412
18570 2 71.6583 27.0215 88.2628
18571 2 70.4566 25.9516 88.5419
18572 1 37.122 17.3355 70.5667
18573 2 37.0176 16.8429 69.7027
18574 2 36.2192 17.5417 70.944
18575 1 66.7883 3.56661 80.4105
18576 2 66.6949 2.89957 81.1496
18577 2 66.5079 4.46878 80.7383
18578 1 111.275 25.3637 27.1717
18579 2 111.403 25.2729 28.1593
18580 2 110.439 25.8822 26.9904
18581 1 51.2451 29.1193 73.0626
18582 2 50.9873 28.3967 73.704
18583 2 52.1889 29.3993 73.2377
18584 1 52.2914 24.932 76.1037
18585 2 51.9742 25.7341 75.5978
18586 2 51.7368 24.8169 76.9278
18587 1 93.8576 2.66716 73.6064
18588 2 94.4652 2.62324 74.3995
18589 2 94.0204 3.51908 73.1086
18590 1 13.5088 21.5109 16.0392
18591 2 13.8129 22.334 16.5189
18592 2 13.9662 20.7108 16.4273
18593 1 78.2696 1.23264 90.5507
18594 2 78.1788 2.20961 90.7438
18595 2 79.2248 0.95825 90.6624
18596 1 101.275 29.6051 48.268
18597 2 101.305 29.8233 47.2925
18598 2 102.127 29.8978 48.7012
18599 1 45.001 21.846 68.4264
18600 2 44.0318 21.6138 68.5084
18601 2 45.2099 22.6204 69.0236
18602 1 3.30936 14.6508 36.6543
18603 2 3.33221 13.7793 36.1646
18604 2 4.13862 14.7455 37.2051
18605 1 87.2613 17.2687 85.1358
18606 2 86.4731 17.7681 84.776
18607 2 87.2991 16.3605 84.7191
18608 1 5.7337 1.80283 67.0981
18609 2 5.44896 1.07033 66.4798
18610 2 4.92684 2.29218 67.429
18611 1 48.6025 27.3344 46.5659
18612 2 47.7428 27.7316 46.887
18613 2 49.0471 27.9687 45.9335
18614 1 49.3502 14.7216 52.2729
18615 2 48.777 15.3785 51.7831
18616 2 48.7921 13.945 52.5652
18617 1 78.1931 14.7901 52.1717
18618 2 77.8431 14.2847 51.383
18619 2 77.6281 15.6007 52.3257
18620 1 75.8519 17.4737 63.6791
18621 2 75.3367 16.6248 63.5611
18622 2 75.8496 17.7335 64.6448
18623 1 24.3507 28.9932 62.715
18624 2 24.3729 28.1296 62.2113
18625 2 23.4307 29.3823 62.6691
18626 1 51.8951 9.92541 53.3707
18627 2 52.672 10.3871 53.7988
18628 2 51.0986 10.5299 53.3856
18629 1 117.266 1.24608 81.0396
18630 2 117.984 0.865104 80.4563
18631 2 116.371 0.966835 80.6923
18632 1 111.804 7.56922 90.6715
18633 2 112.5 8.27645 90.7947
18634 2 111.22 7.53143 91.4824
18635 1 18.7314 29.2484 36.0744
18636 2 19.0574 29.1467 35.1345
18637 2 19.5025 29.4651 36.6731
18638 1 118.703 10.6154 68.4733
18639 2 119.612 10.6514 68.8884
18640 2 118.007 10.6754 69.1889
18641 1 8.46214 25.0837 11.7079
18642 2 8.81851 25.627 12.468
18643 2 8.22354 25.689 10.9485
18644 1 36.8074 13.4625 20.3396
18645 2 36.598 13.8586 19.4456
18646 2 36.6732 12.4722 20.3051
18647 1 84.1387 14.381 67.6612
18648 2 83.3948 14.6689 67.0581
18649 2 83.7567 13.9898 68.4984
18650 1 21.9072 8.97267 62.7317
18651 2 22.4216 8.90867 61.8766
18652 2 21.6653 9.92747 62.9046
18653 1 63.3951 20.942 40.8916
18654 2 63.0308 21.3647 40.0618
18655 2 63.1219 21.4815 41.688
18656 1 2.58164 2.73306 60.3744
18657 2 2.83027 3.19069 61.2281
18658 2 2.08838 3.37262 59.7848
18659 1 24.4757 3.41489 82.7122
18660 2 24.8466 4.13613 82.1272
18661 2 24.1993 3.8067 83.5898
18662 1 92.2997 2.70736 84.8327
18663 2 91.8589 1.81125 84.8853
18664 2 93.2287 2.64379 85.1972
18665 1 37.7683 9.98469 64.6312
18666 2 37.3449 9.11783 64.3681
18667 2 37.2511 10.3936 65.3831
18668 1 66.9433 27.2564 83.9239
18669 2 67.8988 27.2877 83.6304
18670 2 66.9027 27.2076 84.9219
18671 1 116.123 11.83 83.9545
18672 2 117.056 11.5401 84.1683
18673 2 115.544 11.7122 84.7614
18674 1 18.8655 8.58055 56.9457
18675 2 19.2763 8.42535 57.8442
18676 2 19.1872 7.88163 56.3069
18677 1 82.8834 15.9813 72.6829
18678 2 82.6664 15.0586 72.3643
18679 2 83.0901 15.9562 73.6609
18680 1 38.272 0.0574173 37.9754
18681 2 38.214 29.1038 38.2707
18682 2 37.4078 0.520485 38.1723
18683 1 81.9606 29.7998 54.6323
18684 2 82.396 28.9022 54.7005
18685 2 81.0118 29.7344 54.9413
18686 1 116.219 19.7547 79.3074
18687 2 115.64 18.9777 79.5546
18688 2 116.803 19.503 78.536
18689 1 0.200093 15.0547 82.2282
18690 2 1.14366 15.3009 82.4497
18691 2 119.609 15.2636 83.0076
18692 1 83.8171 23.1981 60.0838
18693 2 83.0415 22.5738 59.9914
18694 2 83.5032 24.0646 60.4719
18695 1 89.1684 22.1103 38.597
18696 2 89.708 22.0273 37.7592
18697 2 88.627 21.2798 38.7284
18698 1 58.6565 5.60336 64.1342
18699 2 58.9336 5.22928 65.0192
18700 2 59.4583 5.96718 63.6602
18701 1 2.20974 6.53044 81.2123
18702 2 2.71851 6.05478 80.4947
18703 2 2.29158 6.02388 82.0706
18704 1 99.8223 29.8729 22.7546
18705 2 100.355 0.715022 22.8403
18706 2 100.107 29.2253 23.4616
18707 1 51.2764 10.1056 67.3437
18708 2 50.5942 10.7395 67.708
18709 2 51.8124 10.5639 66.6347
18710 1 38.1036 20.2416 55.2563
18711 2 38.3433 21.2125 55.2581
18712 2 38.5057 19.8006 54.4539
18713 1 42.0777 3.67345 81.545
18714 2 43.0229 3.53656 81.2488
18715 2 41.9739 3.35359 82.4868
18716 1 74.0679 16.1361 40.6019
18717 2 73.7109 15.9928 39.6788
18718 2 74.9429 16.6174 40.5499
18719 1 52.2423 14.5597 83.8876
18720 2 51.7863 13.6725 83.9586
18721 2 52.3343 14.811 82.924
18722 1 70.897 29.1123 76.6275
18723 2 71.2872 28.3355 77.1219
18724 2 71.5918 29.824 76.5233
18725 1 83.8151 26.5654 92.5009
18726 2 84.6819 27.0406 92.652
18727 2 83.7785 26.2301 91.5595
18728 1 91.098 13.7603 28.6507
18729 2 90.6638 13.5368 27.7781
18730 2 91.9731 13.2814 28.7199
18731 1 98.284 19.1496 23.8921
18732 2 97.4105 19.5578 24.1573
18733 2 98.7279 19.7277 23.2075
18734 1 45.0064 15.455 38.944
18735 2 45.3501 16.1784 38.3452
18736 2 45.605 14.6565 38.8796
18737 1 71.9514 13.7567 44.4793
18738 2 72.6114 14.3375 44.9558
18739 2 71.9458 12.8475 44.8956
18740 1 103.23 16.6921 25.9033
18741 2 103.558 17.4444 26.4746
18742 2 103.124 15.8701 26.4628
18743 1 10.9709 27.117 79.9264
18744 2 10.3651 26.6217 80.549
18745 2 10.9273 28.0957 80.1273
18746 1 26.3218 27.3817 72.1062
18747 2 26.64 27.855 71.2848
18748 2 27.0601 27.3506 72.7801
18749 1 67.8132 16.1592 81.7861
18750 2 67.9394 16.6538 82.646
18751 2 68.5978 16.3243 81.1884
18752 1 99.0807 24.3567 46.9431
18753 2 99.1886 24.9858 47.7129
18754 2 98.2045 24.5283 46.4928
18755 1 56.6586 14.4144 46.3125
18756 2 56.8291 14.3384 45.3301
18757 2 55.9186 13.7936 46.5714
18758 1 42.4502 9.61976 87.3363
18759 2 41.7588 9.86159 86.6555
18760 2 42.0124 9.15305 88.1047
18761 1 86.1891 11.8736 52.5176
18762 2 85.4932 12.3101 51.9473
18763 2 85.7691 11.1423 53.0549
18764 1 119.282 0.437108 66.8471
18765 2 119.493 29.8341 67.6164
18766 2 0.0415145 1.07149 66.7027
18767 1 63.4905 28.4447 75.0005
18768 2 62.4993 28.457 74.869
18769 2 63.8421 27.5304 74.7993
18770 1 23.5107 14.2614 82.5284
18771 2 24.3046 13.9746 81.9922
18772 2 22.6743 14.0643 82.0169
18773 1 22.4028 20.6309 30.8044
18774 2 21.5769 20.3844 31.3114
18775 2 22.4998 21.6261 30.7888
18776 1 51.0867 1.27191 65.656
18777 2 52.0651 1.42036 65.5121
18778 2 50.9555 0.559081 66.3449
18779 1 13.0447 1.47042 90.3384
18780 2 12.1165 1.27254 90.6534
18781 2 13.034 2.28754 89.762
18782 1 99.7423 6.67717 60.3449
18783 2 99.1797 6.10329 60.9401
18784 2 100.635 6.82365 60.7703
18785 1 56.5981 3.09038 86.1377
18786 2 56.0109 2.98716 85.3349
18787 2 56.2267 2.55166 86.8939
18788 1 12.1794 17.5156 25.7636
18789 2 12.3161 17.6692 24.7849
18790 2 11.6849 18.2908 26.1567
18791 1 67.4446 19.7606 64.5522
18792 2 66.4485 19.7883 64.6369
18793 2 67.7261 18.8598 64.2218
18794 1 62.9169 10.0254 52.4677
18795 2 62.3813 9.18566 52.3787
18796 2 63.7396 9.9574 51.9033
18797 1 55.3266 17.4448 64.6164
18798 2 55.2447 16.8083 65.3834
18799 2 54.532 18.0518 64.6007
18800 1 46.5285 29.338 57.5794
18801 2 47.2619 28.9009 57.0588
18802 2 46.1609 0.106797 57.0561
18803 1 102.556 24.2715 86.8156
18804 2 103.447 24.7254 86.7957
18805 2 101.846 24.9185 86.5377
18806 1 40.789 27.3951 83.1357
18807 2 40.0775 26.8688 83.6012
18808 2 41.6152 27.4097 83.6989
18809 1 86.7764 6.08306 68.8693
18810 2 87.0586 5.38689 69.5293
18811 2 86.2708 6.80494 69.3419
18812 1 103.347 17.8531 17.6676
18813 2 104.335 17.6959 17.6408
18814 2 102.928 17.2271 18.3252
18815 1 78.7033 6.07561 48.5725
18816 2 78.036 5.46883 49.0045
18817 2 79.4128 6.31625 49.2348
18818 1 2.23697 27.3789 73.8628
18819 2 2.51439 28.3205 74.0536
18820 2 2.59766 27.0989 72.9732
18821 1 40.3349 18.7774 80.4623
18822 2 40.4056 18.2282 79.6296
18823 2 40.0198 19.6974 80.2291
18824 1 75.722 2.46548 78.7646
18825 2 75.6101 3.18803 78.0824
18826 2 74.8307 2.23472 79.155
18827 1 80.0368 17.7438 66.8763
18828 2 80.9759 18.0874 66.888
18829 2 79.4062 18.5029 66.7145
18830 1 1.25003 0.612235 21.9016
18831 2 1.90584 29.876 22.0686
18832 2 0.323669 0.280053 22.0791
18833 1 94.1109 15.46 55.2667
18834 2 94.6929 16.236 55.0237
18835 2 94.5093 14.9754 56.0454
18836 1 102.681 18.9014 20.6919
18837 2 103.113 18.0057 20.795
18838 2 103.236 19.4724 20.0877
18839 1 105.446 10.346 35.8523
18840 2 105.936 11.1819 36.099
18841 2 106.041 9.55551 35.9967
18842 1 11.0161 2.07006 64.8504
18843 2 11.2152 2.18837 63.8776
18844 2 10.9592 1.09452 65.0627
18845 1 22.1888 10.2062 16.4771
18846 2 22.1979 10.718 15.6181
18847 2 21.6803 10.7217 17.1668
18848 1 34.6875 20.2187 69.9008
18849 2 35.606 20.3571 69.5304
18850 2 34.6683 19.3753 70.4378
18851 1 22.7498 20.7127 11.2839
18852 2 22.229 21.5005 11.6127
18853 2 23.718 20.9553 11.2223
18854 1 77.6223 9.71219 88.9039
18855 2 77.7096 8.79389 88.5177
18856 2 76.6584 9.90755 89.0847
18857 1 93.325 6.37258 62.8861
18858 2 93.1461 7.33993 62.7065
18859 2 93.8582 5.98683 62.1331
18860 1 110.81 13.9979 22.1899
18861 2 110.497 14.7102 21.5616
18862 2 110.449 13.1128 21.8969
18863 1 59.6954 20.5593 37.2521
18864 2 58.9693 20.2663 36.63
18865 2 59.478 20.2619 38.1817
18866 1 101.66 26.552 82.0208
18867 2 100.942 25.8599 82.0971
18868 2 101.472 27.2985 82.6591
18869 1 41.1007 14.0384 42.1082
18870 2 42.0663 13.805 41.9933
18871 2 40.5627 13.5935 41.3923
18872 1 105.882 22.1952 76.3805
18873 2 106.599 22.1982 77.0781
18874 2 105.705 21.2552 76.089
18875 1 43.5954 19.1043 75.4415
18876 2 43.3042 18.9813 74.4928
18877 2 44.1482 19.9344 75.5155
18878 1 25.6501 19.8879 45.0235
18879 2 25.4544 20.6022 45.6955
18880 2 25.4477 18.9926 45.4203
18881 1 27.7111 0.285559 50.5668
18882 2 26.8143 0.0688112 50.9525
18883 2 27.5951 0.684374 49.6571
18884 1 9.56581 3.42418 13.7908
18885 2 10.5422 3.21554 13.8465
18886 2 9.04137 2.57299 13.8116
18887 1 55.5933 3.1934 54.9448
18888 2 55.7296 2.30818 55.3895
18889 2 55.7091 3.9252 55.6164
18890 1 34.699 15.7725 77.1009
18891 2 34.3786 16.1498 77.9698
18892 2 34.7866 16.5087 76.4299
18893 1 14.1113 15.7651 17.2289
18894 2 13.5347 16.4739 16.8225
18895 2 15.0532 16.0956 17.289
18896 1 72.9297 18.0929 62.0869
18897 2 72.9748 17.3265 62.7277
18898 2 72.2827 18.7748 62.4278
18899 1 24.6988 3.73356 45.8722
18900 2 23.7437 3.54359 45.6451
18901 2 25.2943 3.13544 45.3358
18902 1 88.5355 5.99936 87.8026
18903 2 88.207 5.05892 87.8903
18904 2 89.4037 6.09588 88.2893
18905 1 17.4024 12.588 26.0819
18906 2 16.5328 12.4223 25.6167
18907 2 17.2306 12.8003 27.0439
18908 1 107.263 1.49561 80.901
18909 2 106.777 1.19344 80.0811
18910 2 108.08 2.00821 80.6344
18911 1 109.636 21.756 20.9395
18912 2 108.763 21.5862 20.4819
18913 2 109.951 22.6798 20.723
18914 1 52.4045 18.7322 29.5514
18915 2 52.5107 19.0895 28.6235
18916 2 51.4577 18.442 29.6905
18917 1 81.22 28.9037 67.2635
18918 2 82.1254 28.7097 66.8858
18919 2 80.6451 29.3153 66.5564
18920 1 54.8278 26.8859 70.3247
18921 2 54.0813 27.4585 70.6635
18922 2 55.0666 27.1653 69.3947
18923 1 3.56971 4.81726 75.8094
18924 2 3.55984 3.96004 75.2946
18925 2 4.46416 4.93704 76.2403
18926 1 78.5954 20.3856 90.3435
18927 2 79.451 20.89 90.4599
18928 2 78.763 19.4091 90.479
18929 1 24.4503 8.72525 26.707
18930 2 24.9058 8.11824 26.0558
18931 2 24.8531 8.60356 27.6141
18932 1 118.632 28.6907 36.5518
18933 2 118.023 27.9573 36.854
18934 2 118.946 29.2117 37.3456
18935 1 47.5771 20.3391 56.2314
18936 2 46.8621 19.8281 56.7084
18937 2 47.5255 21.304 56.489
18938 1 83.1727 6.58351 72.606
18939 2 83.7228 5.804 72.3065
18940 2 82.4526 6.26586 73.2229
18941 1 22.1719 10.3867 38.5387
18942 2 22.4878 10.4052 37.5901
18943 2 21.4659 9.68601 38.6414
18944 1 27.7015 1.86873 79.9443
18945 2 28.4671 1.29229 79.6587
18946 2 27.4823 1.68143 80.9018
18947 1 108.716 26.4414 91.908
18948 2 108.281 25.6108 91.5603
18949 2 109.696 26.4122 91.7106
18950 1 56.7424 1.92802 78.7882
18951 2 57.0757 2.82969 79.0638
18952 2 56.7833 1.30463 79.5691
18953 1 83.1672 25.8304 53.8366
18954 2 83.852 25.1043 53.8986
18955 2 82.2908 25.439 53.5561
18956 1 27.8446 13.8452 62.1554
18957 2 27.8105 13.9953 61.1673
18958 2 27.2029 13.12 62.4047
18959 1 97.6141 1.98293 46.8123
18960 2 96.7533 2.49133 46.8329
18961 2 98.2348 2.40519 46.1516
18962 1 15.8845 28.3738 79.1816
18963 2 16.1311 27.5154 79.6314
18964 2 15.0803 28.7654 79.6288
18965 1 84.0381 21.3911 29.922
18966 2 84.1878 21.9783 30.7175
18967 2 84.5502 20.5396 30.0352
18968 1 85.2092 7.87011 45.1922
18969 2 84.6292 7.74647 44.3871
18970 2 85.6397 6.99933 45.4298
18971 1 11.2679 19.0224 83.9009
18972 2 10.7998 19.3703 84.7132
18973 2 11.4771 18.0526 84.0264
18974 1 102.43 27.0252 28.8172
18975 2 101.905 27.0344 29.6682
18976 2 101.972 27.5965 28.1365
18977 1 89.2307 8.17332 78.4454
18978 2 88.8152 9.06179 78.2507
18979 2 90.0014 8.29571 79.0708
18980 1 109.061 20.6149 64.383
18981 2 109.579 19.7598 64.3582
18982 2 109.622 21.332 64.7978
18983 1 17.0965 5.60889 10.7882
18984 2 17.1184 6.60095 10.6644
18985 2 18.0229 5.2738 10.9596
18986 1 119.368 11.0523 33.6735
18987 2 119.039 11.8132 33.114
18988 2 118.825 10.2355 33.4773
18989 1 53.5405 26.6545 74.1943
18990 2 54.1004 26.6619 75.0228
18991 2 52.5776 26.5518 74.4436
18992 1 47.3856 8.15718 36.4522
18993 2 47.4122 7.50782 35.6922
18994 2 48.293 8.22149 36.8675
18995 1 47.9915 0.156311 42.7832
18996 2 47.2282 29.7766 42.2605
18997 2 47.7929 1.10732 43.0201
18998 1 106.772 17.7615 64.3212
18999 2 105.826 17.6628 64.6292
19000 2 107.349 18.0247 65.0948
19001 1 111.879 11.3403 22.4825
19002 2 111.562 10.9778 23.3588
19003 2 112.62 10.7667 22.1331
19004 1 17.0946 26.1542 42.6076
19005 2 16.3531 25.7228 43.1215
19006 2 17.3866 26.9864 43.079
19007 1 90.8579 1.28323 61.5209
19008 2 91.2978 0.430037 61.8012
19009 2 90.5514 1.20424 60.5724
19010 1 59.3067 26.8274 80.9503
19011 2 59.3942 26.1355 80.2336
19012 2 59.3358 26.3845 81.8464
19013 1 91.7747 27.5922 78.207
19014 2 91.6538 26.6614 77.862
19015 2 91.4645 28.2463 77.517
19016 1 97.7952 13.4825 26.3215
19017 2 98.4985 12.7967 26.1346
19018 2 98.157 14.3935 26.1236
19019 1 102.294 24.3229 69.8943
19020 2 102.955 24.2927 69.1443
19021 2 102.366 25.2012 70.3669
19022 1 102.58 25.9971 19.0903
19023 2 103.519 25.9187 19.4244
19024 2 102.196 25.0833 18.9572
19025 1 36.72 1.16717 33.3039
19026 2 36.759 1.91374 33.968
19027 2 37.6357 0.786032 33.1766
19028 1 10.9132 10.5919 54.7171
19029 2 11.4791 11.0645 54.0415
19030 2 10.8767 11.1322 55.5578
19031 1 37.044 23.6211 76.1772
19032 2 36.892 23.1334 77.0369
19033 2 37.8078 24.2573 76.2855
19034 1 89.6109 9.84201 48.2064
19035 2 90.3173 10.4735 47.8866
19036 2 89.0332 9.57053 47.4366
19037 1 7.46287 18.0831 59.2033
19038 2 7.71287 17.9952 60.1675
19039 2 6.63601 18.6397 59.1227
19040 1 71.3317 22.3224 41.1023
19041 2 72.0765 22.8227 41.5438
19042 2 70.7923 21.8464 41.7968
19043 1 24.3237 13.4858 42.8302
19044 2 23.8905 13.6508 43.7162
19045 2 24.9932 14.2057 42.6473
19046 1 20.862 26.8592 36.8421
19047 2 20.9873 27.7969 37.1663
19048 2 20.8908 26.8454 35.8426
19049 1 51.6477 20.36 62.3824
19050 2 52.3628 19.7255 62.0889
19051 2 51.7141 21.2054 61.8525
19052 1 79.8642 11.1288 60.9033
19053 2 80.6667 11.3363 61.4626
19054 2 79.4155 10.3076 61.2559
19055 1 23.5412 26.6602 28.614
19056 2 23.6182 25.945 29.3087
19057 2 24.142 27.4231 28.853
19058 1 102.691 17.5589 54.624
19059 2 103.657 17.5848 54.8794
19060 2 102.183 17.0195 55.2955
19061 1 76.5549 16.9677 52.2071
19062 2 75.6397 16.5655 52.2347
19063 2 76.6756 17.5757 52.9918
19064 1 86.8753 6.09915 35.1181
19065 2 87.0316 5.64204 34.2425
19066 2 86.152 5.62308 35.6182
19067 1 38.4249 11.5117 78.853
19068 2 38.5237 11.3435 77.8722
19069 2 37.7058 12.1899 79.0041
19070 1 20.9115 7.93493 40.9777
19071 2 20.5841 8.08259 40.0444
19072 2 21.7658 7.41562 40.9529
19073 1 113.777 23.7498 33.2469
19074 2 113.635 23.491 34.2023
19075 2 112.91 23.6881 32.7522
19076 1 115.813 25.7522 51.4836
19077 2 115.985 24.7957 51.2476
19078 2 116.582 26.314 51.1772
19079 1 51.589 13.9033 59.9746
19080 2 52.4772 13.5046 59.7461
19081 2 50.8776 13.2064 59.884
19082 1 0.125922 28.5699 64.198
19083 2 119.178 28.4085 63.922
19084 2 0.467692 29.3957 63.7495
19085 1 112.219 6.5247 20.956
19086 2 111.814 6.70049 21.8534
19087 2 111.604 5.94452 20.4213
19088 1 1.83414 15.1213 87.4014
19089 2 1.12109 15.8223 87.4174
19090 2 1.56074 14.3817 86.7864
19091 1 109.358 23.2771 15.7392
19092 2 108.987 23.4671 16.6479
19093 2 110.071 23.9448 15.5244
19094 1 100.245 25.3809 40.4398
19095 2 101.212 25.4524 40.1969
19096 2 99.8205 26.2848 40.3874
19097 1 93.6333 27.2784 63.8495
19098 2 92.9307 27.8932 63.4912
19099 2 93.6761 26.4552 63.2834
19100 1 67.066 18.4133 74.6305
19101 2 67.2513 19.2065 74.0504
19102 2 67.3247 18.6224 75.5736
19103 1 5.25079 20.8607 90.587
19104 2 5.87806 20.0831 90.5426
19105 2 4.74211 20.928 89.7287
19106 1 95.3289 12.2429 48.4396
19107 2 94.5175 12.6748 48.8333
19108 2 96.15 12.6887 48.796
19109 1 82.4995 16.2177 81.7428
19110 2 81.8108 15.8707 82.3794
19111 2 82.0732 16.8649 81.1108
19112 1 3.49231 11.9705 14.9028
19113 2 4.1695 12.648 14.6157
19114 2 2.6006 12.2061 14.5163
19115 1 72.4336 29.7908 59.3557
19116 2 72.063 29.9825 60.2645
19117 2 71.6859 29.5623 58.7323
19118 1 25.3856 19.8358 22.6986
19119 2 24.9519 20.0779 21.8306
19120 2 26.0015 20.5717 22.9801
19121 1 31.3855 27.9189 61.1411
19122 2 31.6319 27.0983 61.6568
19123 2 31.7856 28.7223 61.582
19124 1 109.706 17.0192 90.675
19125 2 109.596 16.8637 91.6566
19126 2 109.865 16.1457 90.215
19127 1 30.7151 26.6153 52.1508
19128 2 29.974 26.4943 52.8111
19129 2 30.9651 25.7278 51.7638
19130 1 34.473 24.5275 19.4181
19131 2 33.8741 24.2218 18.6778
19132 2 34.043 24.3279 20.2986
19133 1 41.0702 11.873 47.9287
19134 2 41.9478 11.4432 47.7164
19135 2 40.5787 12.0645 47.0791
19136 1 27.9002 8.6769 24.5404
19137 2 28.4912 8.10466 23.9718
19138 2 28.1867 8.60599 25.4958
19139 1 42.0307 8.01666 26.4472
19140 2 41.587 8.567 25.7399
19141 2 41.6754 8.27805 27.3447
19142 1 117.823 19.184 77.3288
19143 2 117.977 18.4425 76.6758
19144 2 117.552 20.011 76.8361
19145 1 96.8274 10.0319 83.1049
19146 2 97.1293 9.4607 83.8681
19147 2 95.8751 9.81947 82.8858
19148 1 43.601 21.8244 77.0507
19149 2 43.3874 22.3746 77.858
19150 2 44.3015 21.1496 77.2831
19151 1 25.6261 25.5364 56.0685
19152 2 24.635 25.5771 55.9418
19153 2 26.0722 25.4391 55.1789
19154 1 108.864 0.521146 17.2886
19155 2 108.146 29.8273 17.3431
19156 2 109.295 0.484034 16.3873
19157 1 67.2321 6.73346 78.6093
19158 2 67.1035 6.45736 79.5618
19159 2 68.202 6.67412 78.3731
19160 1 19.2094 21.852 30.7229
19161 2 19.9583 22.5135 30.6836
19162 2 19.4185 21.0761 30.1277
19163 1 38.9897 0.280705 65.8905
19164 2 38.4411 29.7855 66.5643
19165 2 38.4492 0.424479 65.0615
19166 1 53.1101 25.7364 46.5257
19167 2 53.0083 24.966 47.1552
19168 2 52.9647 25.4218 45.5877
19169 1 80.5165 15.5357 78.7926
19170 2 81.1228 16.2599 78.4642
19171 2 80.1805 15.0042 78.0151
19172 1 10.6187 19.2463 73.5045
19173 2 10.9604 19.4844 72.5954
19174 2 10.2712 18.3086 73.4949
19175 1 82.1391 25.4044 50.4284
19176 2 81.3347 25.6135 50.9845
19177 2 82.2227 24.4136 50.3224
19178 1 100.612 9.02703 21.8639
19179 2 100.421 9.88566 21.3881
19180 2 101.484 9.10118 22.3487
19181 1 54.4025 14.0629 65.1628
19182 2 53.8595 13.5597 65.835
19183 2 54.9423 14.7644 65.6282
19184 1 96.2832 25.7773 31.935
19185 2 95.8839 25.098 31.3192
19186 2 96.8326 25.3145 32.6306
19187 1 119.133 29.2633 11.6007
19188 2 119.851 29.8644 11.9524
19189 2 119.127 28.4106 12.1232
19190 1 108.77 26.3211 14.2209
19191 2 109.495 26.8967 13.8419
19192 2 107.959 26.3795 13.6387
19193 1 13.1701 3.90042 62.9926
19194 2 12.5858 4.68557 63.1977
19195 2 12.6058 3.13971 62.6719
19196 1 62.9086 11.0224 82.4735
19197 2 62.8247 10.0292 82.3934
19198 2 63.5635 11.2443 83.1959
19199 1 22.1783 3.92426 47.7066
19200 2 22.2258 3.82006 46.7132
19201 2 22.1424 3.02143 48.1351
19202 1 9.33785 5.04117 53.3012
19203 2 8.50678 4.71661 53.7529
19204 2 9.1642 5.15092 52.3226
19205 1 100.095 26.4245 71.3931
19206 2 99.5152 26.3181 70.5852
19207 2 101.023 26.6634 71.1082
19208 1 57.2456 27.5489 88.4991
19209 2 56.9485 28.4836 88.3038
19210 2 56.9053 26.9353 87.7866
19211 1 39.184 15.5646 73.2256
19212 2 39.6469 14.9748 72.5639
19213 2 38.2133 15.3269 73.2621
19214 1 45.635 8.10384 88.786
19215 2 44.9808 8.30947 89.5138
19216 2 45.3325 7.29286 88.2852
19217 1 52.9798 24.633 44.0624
19218 2 53.7347 23.9776 44.0862
19219 2 52.8739 24.9859 43.1327
19220 1 83.4412 24.487 73.7074
19221 2 84.3743 24.1303 73.7515
19222 2 82.9075 24.1195 74.4689
19223 1 100.661 17.0696 82.7267
19224 2 100.613 16.105 82.4671
19225 2 99.735 17.4309 82.839
19226 1 66.6571 1.90446 68.0811
19227 2 66.6021 2.66009 67.4284
19228 2 65.8171 1.36363 68.0364
19229 1 112.3 29.7908 49.5354
19230 2 113.18 29.9509 49.9816
19231 2 112.453 29.4959 48.5922
19232 1 109.887 15.2049 64.3281
19233 2 110.128 14.8263 63.4345
19234 2 109.994 16.199 64.3088
19235 1 75.1543 11.3372 63.0706
19236 2 75.394 10.6955 62.3421
19237 2 75.7962 12.104 63.064
19238 1 17.608 5.43408 49.0685
19239 2 17.8625 4.76364 48.3715
19240 2 16.6136 5.44494 49.1732
19241 1 39.3537 7.70244 58.4899
19242 2 39.4771 8.42265 57.8072
19243 2 38.4457 7.29664 58.3858
19244 1 106.58 17.9078 32.6957
19245 2 107.18 18.5835 32.2671
19246 2 107.11 17.0919 32.928
19247 1 34.0959 11.5743 88.19
19248 2 33.5216 10.8494 87.8096
19249 2 34.1209 11.4914 89.1863
19250 1 30.835 24.1532 71.0689
19251 2 30.1434 23.944 70.3776
19252 2 31.4192 23.3537 71.2085
19253 1 5.06844 25.7029 69.3056
19254 2 4.08022 25.552 69.331
19255 2 5.2639 26.6644 69.4988
19256 1 35.1247 21.5369 36.1777
19257 2 35.9072 20.916 36.1325
19258 2 34.5113 21.2472 36.9125
19259 1 39.9301 16.8586 29.5986
19260 2 39.5516 16.2073 28.9408
19261 2 39.3305 17.6565 29.6604
19262 1 33.4895 27.4345 72.3561
19263 2 32.6929 27.3034 71.766
19264 2 33.1858 27.5936 73.2955
19265 1 34.1541 4.54858 40.6757
19266 2 33.3662 4.27515 40.124
19267 2 34.1275 4.07173 41.5543
19268 1 114.595 17.1247 79.6491
19269 2 115.125 16.3388 79.9688
19270 2 114.709 17.2231 78.6605
19271 1 37.0715 26.5512 58.9079
19272 2 37.7751 27.2399 59.0828
19273 2 36.2648 26.75 59.4644
19274 1 74.8489 2.83405 41.9408
19275 2 74.0879 2.23862 41.6833
19276 2 75.595 2.72427 41.284
19277 1 28.9862 25.1496 31.2607
19278 2 29.2315 24.1804 31.284
19279 2 29.0116 25.5223 32.1883
19280 1 34.1209 11.9831 40.6356
19281 2 33.8995 11.1254 41.0996
19282 2 34.8737 11.8309 39.9952
19283 1 113.802 2.72915 58.0926
19284 2 113.984 3.19405 58.9591
19285 2 113.748 1.74289 58.2485
19286 1 15.5652 3.7332 78.089
19287 2 14.6205 3.44898 78.2524
19288 2 16.1555 2.92657 78.0588
19289 1 32.8801 21.8504 71.3033
19290 2 32.6372 22.0873 72.244
19291 2 33.5669 21.1236 71.3094
19292 1 33.3404 25.9031 59.1178
19293 2 34.0867 25.7228 59.7585
19294 2 33.433 26.8284 58.75
19295 1 106.74 22.1469 10.4704
19296 2 106.797 22.5014 9.53709
19297 2 107.165 22.7971 11.1003
19298 1 56.2391 0.971321 90.0042
19299 2 56.2758 0.651442 89.0574
19300 2 56.3857 0.199382 90.6227
19301 1 101.851 1.03104 28.255
19302 2 101.34 0.422881 27.6474
19303 2 101.235 1.72614 28.6257
19304 1 14.4845 11.383 27.5267
19305 2 14.6102 12.0224 26.7681
19306 2 15.207 11.5228 28.2037
19307 1 31.1849 15.6263 19.8235
19308 2 30.4506 15.8821 19.1947
19309 2 32.0632 15.6759 19.3479
19310 1 6.16123 24.5811 71.4318
19311 2 5.73156 24.9554 70.61
19312 2 7.11564 24.8768 71.473
19313 1 2.0387 20.7632 61.3908
19314 2 1.24695 20.1552 61.3325
19315 2 1.72902 21.7141 61.3967
19316 1 21.1684 9.99095 86.0653
19317 2 21.332 9.2589 86.7265
19318 2 21.9967 10.1449 85.5266
19319 1 30.9886 14.2754 50.1428
19320 2 30.7242 13.3239 49.9855
19321 2 31.6007 14.3252 50.932
19322 1 10.8394 4.25647 75.0996
19323 2 10.2784 4.76637 75.7517
19324 2 11.2459 3.46543 75.5568
19325 1 4.10414 10.0642 36.0576
19326 2 4.18012 9.47649 35.2521
19327 2 4.01039 11.0166 35.7676
19328 1 90.1994 13.3328 26.1663
19329 2 90.5415 14.2405 25.9231
19330 2 89.2092 13.3022 26.0302
19331 1 65.4824 23.1241 51.7476
19332 2 66.1767 23.8255 51.9086
19333 2 65.79 22.5115 51.0195
19334 1 16.3192 13.0294 32.6117
19335 2 15.9937 12.6786 31.7336
19336 2 15.6806 13.7195 32.9523
19337 1 61.5518 21.9401 69.0349
19338 2 61.3048 21.7653 68.0818
19339 2 60.9612 22.6565 69.4063
19340 1 23.2937 28.0747 81.8399
19341 2 23.4075 28.9193 82.3631
19342 2 22.9443 28.2918 80.9284
19343 1 109.105 8.10794 26.7562
19344 2 108.413 8.50015 26.1506
19345 2 109.653 7.4417 26.2495
19346 1 116.384 26.4124 47.5359
19347 2 115.504 26.8228 47.7744
19348 2 117.115 27.0782 47.688
19349 1 102.182 7.39606 45.6669
19350 2 102.665 6.69335 46.1887
19351 2 102.794 7.77779 44.9746
19352 1 50.0698 17.1678 68.8349
19353 2 50.3538 18.1117 69.003
19354 2 50.2187 16.6229 69.6601
19355 1 9.42343 7.90666 37.0333
19356 2 9.96819 8.7092 37.2766
19357 2 8.61042 8.19631 36.5282
19358 1 107.034 12.8628 73.833
19359 2 106.852 13.6692 74.3955
19360 2 107.414 13.1489 72.9534
19361 1 35.5293 18.3631 41.8031
19362 2 36.3312 18.949 41.6867
19363 2 34.7376 18.7911 41.3672
19364 1 68.914 27.0839 81.9599
19365 2 68.7962 28.0068 81.5935
19366 2 69.8857 26.9105 82.1204
19367 1 79.1515 12.2411 88.0175
19368 2 79.9768 12.635 88.4222
19369 2 78.3988 12.298 88.6734
19370 1 119.418 13.5838 71.3495
19371 2 0.118698 14.0351 71.9023
19372 2 118.538 13.6341 71.8212
19373 1 117.994 14.2967 78.1778
19374 2 118.6 14.2113 78.9689
19375 2 117.374 13.5126 78.1463
19376 1 30.2667 29.0328 75.9625
19377 2 29.3433 29.2315 75.634
19378 2 30.7588 29.8903 76.1126
19379 1 113.083 0.309131 61.7705
19380 2 112.664 0.876807 62.4792
19381 2 113.958 0.708734 61.4972
19382 1 44.3344 15.1365 28.0518
19383 2 44.7232 14.7576 27.212
19384 2 43.5535 15.7185 27.8246
19385 1 6.08323 9.22809 21.0955
19386 2 6.91188 8.66859 21.1127
19387 2 6.31432 10.1732 21.3264
19388 1 43.9258 11.3442 50.1328
19389 2 44.7657 10.907 50.4544
19390 2 43.9124 11.3451 49.1328
19391 1 113.409 4.79665 45.183
19392 2 113.538 5.77682 45.3331
19393 2 114.241 4.40748 44.787
19394 1 107.739 12.4798 29.0427
19395 2 106.819 12.4413 29.4341
19396 2 107.991 13.4332 28.8763
19397 1 87.2006 4.02784 71.2178
19398 2 88.1328 4.37298 71.1085
19399 2 87.101 3.61863 72.1248
19400 1 29.9746 2.33748 18.6819
19401 2 29.9671 2.96013 19.4644
19402 2 30.852 1.85918 18.645
19403 1 116.154 25.6955 44.9451
19404 2 116.366 25.5922 45.9169
19405 2 115.293 25.2291 44.74
19406 1 108.823 11.9717 87.1628
19407 2 108.93 11.7179 88.1242
19408 2 109.42 12.7461 86.9542
19409 1 15.3509 18.6794 62.6405
19410 2 14.4277 18.873 62.9723
19411 2 16.021 19.0571 63.2795
19412 1 60.8127 20.1613 53.1301
19413 2 61.4272 20.296 53.9074
19414 2 60.3452 19.2822 53.2232
19415 1 70.3625 18.1889 75.6223
19416 2 71.339 18.0942 75.8159
19417 2 70.1759 19.1153 75.2951
19418 1 19.4589 14.4731 22.3273
19419 2 19.584 13.5864 21.8823
19420 2 19.4268 14.3469 23.3188
19421 1 47.6381 3.0728 56.3548
19422 2 47.8287 3.56353 55.5046
19423 2 46.8753 2.44221 56.2118
19424 1 21.5151 4.45593 54.7601
19425 2 21.8458 3.51349 54.8096
19426 2 21.4107 4.72266 53.802
19427 1 18.2814 10.5414 77.1312
19428 2 17.862 11.4065 76.8562
19429 2 19.1887 10.4646 76.7177
19430 1 19.375 28.6093 90.7322
19431 2 18.6637 28.1752 90.1793
19432 2 19.3544 28.2317 91.658
19433 1 51.9062 22.9964 88.3378
19434 2 51.3145 23.7434 88.6409
19435 2 52.1776 22.4451 89.1267
19436 1 55.6811 27.6686 81.5794
19437 2 56.0614 28.5118 81.1995
19438 2 55.8931 26.9036 80.9713
19439 1 81.6791 17.0956 86.5676
19440 2 82.4658 17.1779 85.9557
19441 2 81.4687 16.1287 86.7118
19442 1 42.2644 22.2222 68.439
19443 2 41.3156 22.3335 68.7347
19444 2 42.4731 22.8943 67.7285
19445 1 4.03408 23.5632 65.6344
19446 2 4.56238 23.4905 66.4803
19447 2 3.51487 22.7204 65.4922
19448 1 86.4668 4.952 89.9193
19449 2 86.9107 5.81589 89.6814
19450 2 87.1489 4.31408 90.2768
19451 1 32.2514 5.11434 79.4959
19452 2 31.9278 6.05286 79.3759
19453 2 31.7266 4.5025 78.9041
19454 1 9.32719 21.3071 76.1085
19455 2 10.2541 20.963 76.2584
19456 2 8.66448 20.6104 76.3829
19457 1 35.2314 24.1477 47.9681
19458 2 34.5773 24.8442 47.673
19459 2 34.8461 23.6313 48.7328
19460 1 59.4378 12.049 66.2926
19461 2 58.8525 11.8416 65.5088
19462 2 58.8795 12.1028 67.1205
19463 1 116.832 0.429598 10.3478
19464 2 117.638 29.9745 10.7253
19465 2 116.437 29.8624 9.62522
19466 1 96.0759 6.64542 68.3942
19467 2 95.2698 7.03143 68.8427
19468 2 96.1785 5.68694 68.6603
19469 1 12.512 13.2004 24.9519
19470 2 13.4728 13.0028 25.1466
19471 2 12.2463 12.7537 24.0976
19472 1 44.4217 17.9025 33.7902
19473 2 44.2931 16.9491 34.0629
19474 2 43.5509 18.2791 33.4741
19475 1 8.98835 16.7331 23.3465
19476 2 9.14296 15.8213 22.9662
19477 2 8.16058 17.1255 22.9455
19478 1 10.5057 6.33565 66.3085
19479 2 10.1519 6.44239 67.2377
19480 2 11.1993 7.03444 66.1336
19481 1 112.994 6.54897 14.8595
19482 2 112.574 5.9443 15.5366
19483 2 113.112 7.46009 15.2543
19484 1 21.5133 1.39397 48.9998
19485 2 21.6363 1.50344 49.9861
19486 2 20.5369 1.39035 48.784
19487 1 40.5201 29.8132 85.0131
19488 2 41.4494 29.7333 85.3739
19489 2 39.9644 0.357726 85.6413
19490 1 75.101 9.05338 33.279
19491 2 75.8546 9.50175 32.7982
19492 2 75.4089 8.76442 34.1855
19493 1 104.939 11.9842 84.1124
19494 2 105.036 12.8422 84.6166
19495 2 105.682 11.3638 84.3626
19496 1 42.5805 29.069 58.8677
19497 2 43.0465 29.873 58.4984
19498 2 41.9214 29.3558 59.563
19499 1 96.9855 9.21752 66.8502
19500 2 97.0742 10.0739 67.3588
19501 2 96.0395 8.89702 66.8996
19502 1 59.6957 3.83978 82.8046
19503 2 59.9337 3.66146 81.8498
19504 2 60.3163 4.52833 83.1798
19505 1 2.38605 12.5271 67.5116
19506 2 1.67558 12.1569 68.1101
19507 2 2.33998 12.0754 66.6206
19508 1 105.291 10.8861 48.1513
19509 2 105.48 11.826 47.8663
19510 2 104.312 10.7025 48.0684
19511 1 72.4746 26.1865 64.9871
19512 2 73.1941 26.5319 65.5896
19513 2 72.0762 25.3595 65.3837
19514 1 66.2151 16.1224 73.7699
19515 2 65.9267 16.3934 72.8515
19516 2 66.5942 16.9149 74.2477
19517 1 6.0385 7.15309 63.877
19518 2 5.5075 7.40597 63.0682
19519 2 5.63036 6.3467 64.3049
19520 1 2.7475 0.561776 58.9924
19521 2 3.43655 0.611252 58.2694
19522 2 2.73852 1.42116 59.5036
19523 1 4.3578 23.3735 27.2882
19524 2 4.22382 22.9623 26.3865
19525 2 5.11145 22.912 27.7563
19526 1 63.5297 0.462407 76.9285
19527 2 62.7268 1.02142 77.1356
19528 2 63.3717 29.9527 76.0828
19529 1 12.6903 21.8376 84.0246
19530 2 11.9854 21.7689 84.7306
19531 2 12.5332 22.6584 83.4755
19532 1 101.898 25.0146 24.5387
19533 2 102.291 24.1498 24.2256
19534 2 102.234 25.7606 23.9636
19535 1 24.9102 22.3636 50.2802
19536 2 24.0042 22.4513 49.8662
19537 2 25.5993 22.2821 49.5601
19538 1 50.8372 22.5889 77.6315
19539 2 50.2086 22.26 78.3363
19540 2 51.1117 21.8253 77.0471
19541 1 22.4839 2.70349 90.0635
19542 2 23.092 3.20455 89.4476
19543 2 22.951 1.88622 90.4009
19544 1 2.07954 7.06126 77.789
19545 2 1.91454 6.54987 76.9457
19546 2 2.10711 6.42827 78.5627
19547 1 83.4985 4.43397 77.9377
19548 2 83.0446 3.56648 77.7342
19549 2 83.2003 4.76415 78.8333
19550 1 119.033 1.72897 48.5838
19551 2 118.651 2.6037 48.8823
19552 2 118.367 1.25301 48.0098
19553 1 20.13 29.2083 81.1503
19554 2 20.0471 28.4508 80.5027
19555 2 20.2647 0.0626911 80.6484
19556 1 62.3782 19.9214 63.1989
19557 2 62.0247 20.7822 63.5652
19558 2 63.1865 19.645 63.7186
19559 1 89.2208 2.26814 42.9862
19560 2 89.1428 2.85274 42.1786
19561 2 88.3724 1.75318 43.1082
19562 1 109.185 26.14 34.1953
19563 2 109.365 26.5416 35.0931
19564 2 108.46 26.6562 33.7393
19565 1 15.1978 20.3454 73.6461
19566 2 15.523 20.1384 72.7234
19567 2 15.6915 21.1382 74.0035
19568 1 71.568 2.84633 41.5598
19569 2 71.9964 3.15432 42.4092
19570 2 72.1826 2.21542 41.0862
19571 1 13.8576 16.0047 65.8516
19572 2 13.7588 15.3392 65.1118
19573 2 14.8059 16.3193 65.8926
19574 1 113.238 4.67316 39.4476
19575 2 113.672 4.91483 38.5799
19576 2 112.291 4.39707 39.281
19577 1 115.453 18.9073 71.0804
19578 2 115.319 19.4618 71.9018
19579 2 116.173 19.3131 70.518
19580 1 52.3226 2.07769 57.3197
19581 2 53.1631 2.19981 57.8475
19582 2 52.4489 1.33868 56.6579
19583 1 108.439 16.9054 70.0761
19584 2 108.468 16.9133 71.0756
19585 2 108.654 15.9874 69.7436
19586 1 19.1123 29.6611 73.4409
19587 2 20.0514 29.5039 73.7464
19588 2 19.1204 0.00484474 72.5019
19589 1 89.3072 19.6146 26.7345
19590 2 88.7662 19.0583 26.1036
19591 2 90.2708 19.3571 26.6635
19592 1 29.0664 12.6008 90.1176
19593 2 30.0482 12.5704 90.3049
19594 2 28.9096 13.0344 89.2303
19595 1 109.108 24.9544 38.7799
19596 2 108.813 24.1688 38.2361
19597 2 110.008 25.2579 38.4666
19598 1 72.5158 18.6531 83.4681
19599 2 72.1838 19.0571 82.6157
19600 2 71.7552 18.5577 84.1103
19601 1 107.67 4.71902 36.9034
19602 2 108.392 4.60624 36.2213
19603 2 107.227 3.83776 37.0688
19604 1 12.4743 14.4378 62.6269
19605 2 11.9917 14.8246 63.4127
19606 2 13.288 14.9859 62.4327
19607 1 101.12 10.1705 53.1056
19608 2 100.267 10.6915 53.1117
19609 2 101.882 10.7759 53.336
19610 1 19.9538 21.3015 87.1464
19611 2 20.1859 21.0577 86.2048
19612 2 20.7882 21.339 87.6964
19613 1 73.1159 12.5265 33.4588
19614 2 73.2284 12.7397 34.4294
19615 2 73.8957 12.8858 32.9461
19616 1 67.0346 1.50935 37.8296
19617 2 67.6124 1.69384 37.0346
19618 2 67.3861 2.01011 38.6205
19619 1 12.1964 18.0684 86.6834
19620 2 12.3519 17.1633 87.0791
19621 2 13.0639 18.5631 86.6317
19622 1 6.19251 22.0805 64.4642
19623 2 7.12103 22.2622 64.7879
19624 2 5.54324 22.6335 64.9863
19625 1 31.1248 21.2532 33.458
19626 2 31.794 21.4532 34.1737
19627 2 30.2298 21.092 33.8742
19628 1 17.4153 19.6491 80.1264
19629 2 16.6978 20.1233 80.6367
19630 2 17.249 18.6635 80.1555
19631 1 6.21239 2.74644 79.2321
19632 2 5.30795 2.32426 79.2932
19633 2 6.32618 3.1615 78.3294
19634 1 18.2282 23.0731 52.8375
19635 2 18.2876 22.7267 51.9013
19636 2 18.9094 23.7931 52.9703
19637 1 115.098 12.6978 19.3715
19638 2 115.812 13.1514 18.8381
19639 2 115.164 11.7083 19.2428
19640 1 66.5025 24.0513 79.4151
19641 2 67.0962 24.0069 80.2185
19642 2 65.5791 24.3121 79.697
19643 1 88.0162 0.519816 57.6401
19644 2 88.1193 0.377892 56.6556
19645 2 88.9157 0.665341 58.052
19646 1 21.2613 23.9441 73.1503
19647 2 20.2984 24.2131 73.1689
19648 2 21.3388 23.0058 72.8133
19649 1 8.50082 21.0554 44.3655
19650 2 7.7943 21.1329 43.6621
19651 2 8.44964 20.1519 44.7912
19652 1 115.472 9.37655 57.5844
19653 2 115.596 8.7054 58.3154
19654 2 114.637 9.16667 57.0764
19655 1 72.7277 19.6305 72.0008
19656 2 72.5321 18.6963 72.2993
19657 2 73.5393 19.6306 71.4165
19658 1 97.7325 1.55877 27.3155
19659 2 98.1189 1.24957 26.4465
19660 2 98.2761 1.19307 28.0709
19661 1 67.0826 23.5998 58.706
19662 2 66.9984 24.19 57.9031
19663 2 67.7577 23.9861 59.3344
19664 1 102.207 24.3646 15.7426
19665 2 102.004 24.2688 16.7169
19666 2 101.613 23.7563 15.2166
19667 1 88.1614 25.2795 58.4436
19668 2 88.987 24.7165 58.48
19669 2 88.2886 26.0946 59.0088
19670 1 8.43555 9.838 73.0175
19671 2 7.91896 9.87443 73.8729
19672 2 9.33519 9.43613 73.1882
19673 1 3.84533 3.7429 82.2136
19674 2 4.12767 4.29687 81.4304
19675 2 3.53707 4.34249 82.9522
19676 1 69.3238 13.2706 49.5745
19677 2 69.6684 13.7068 48.7432
19678 2 68.8553 13.9509 50.1382
19679 1 91.6024 23.5355 29.0432
19680 2 90.9637 23.2422 28.3319
19681 2 92.3435 22.8687 29.1214
19682 1 21.9843 16.6345 85.1248
19683 2 21.4679 16.8369 84.2927
19684 2 21.3888 16.7415 85.921
19685 1 45.3679 26.4141 83.9001
19686 2 44.468 26.756 84.1705
19687 2 45.7903 25.9399 84.6726
19688 1 26.0542 25.616 12.0675
19689 2 26.0172 24.6784 11.7218
19690 2 25.1304 25.9978 12.0952
19691 1 41.3512 23.9889 27.4987
19692 2 41.1673 23.8152 28.4662
19693 2 41.9465 24.7875 27.4107
19694 1 91.6509 7.38268 82.5008
19695 2 91.3417 7.781 81.6372
19696 2 92.6328 7.53932 82.6075
19697 1 83.6023 28.0844 63.0043
19698 2 84.5417 28.2351 62.6964
19699 2 83.0246 27.8662 62.2177
19700 1 33.304 28.2196 74.9474
19701 2 33.2916 28.8447 75.7279
19702 2 32.6415 27.4857 75.0976
19703 1 56.0789 10.5528 54.9959
19704 2 55.3361 10.0209 55.4025
19705 2 55.7006 11.2072 54.3412
19706 1 114.389 8.78109 90.2436
19707 2 114.146 9.2054 89.3713
19708 2 114.444 7.78937 90.1279
19709 1 98.6045 1.36572 71.841
19710 2 99.0059 1.94153 71.1287
19711 2 99.0765 1.52938 72.7073
19712 1 106.907 28.0354 80.5205
19713 2 107.087 28.6619 81.2788
19714 2 107.593 27.3079 80.5189
19715 1 105.637 25.758 24.648
19716 2 106.197 25.4771 23.8682
19717 2 105.223 24.9511 25.0686
19718 1 77.0517 25.4301 74.1852
19719 2 77.9094 25.1075 74.5854
19720 2 77.2443 26.156 73.5249
19721 1 116.656 17.1928 36.9166
19722 2 116.704 16.3494 36.3814
19723 2 116.797 17.9784 36.3142
19724 1 84.3306 23.973 83.9831
19725 2 84.1516 24.9191 83.7131
19726 2 83.5912 23.3865 83.6527
19727 1 88.8123 4.01615 51.7458
19728 2 88.1912 3.79332 50.9944
19729 2 89.6478 4.42426 51.3778
19730 1 77.7732 3.92582 90.3463
19731 2 76.8945 3.66917 89.9438
19732 2 77.7888 4.91193 90.5117
19733 1 13.4281 21.6158 58.7885
19734 2 13.2804 21.728 57.8058
19735 2 12.995 22.3719 59.2792
19736 1 99.6186 19.9127 69.2526
19737 2 99.2823 19.1156 69.7542
19738 2 99.0952 20.7211 69.5219
19739 1 70.7134 21.1651 49.7792
19740 2 71.526 21.6227 50.1402
19741 2 70.3532 21.6866 49.0057
19742 1 53.7709 12.7933 44.4313
19743 2 54.0809 13.5905 43.9133
19744 2 54.3034 12.7157 45.2741
19745 1 109.412 0.400566 40.5659
19746 2 110.048 29.9069 41.1591
19747 2 109.09 1.22337 41.0341
19748 1 98.4629 6.30049 38.0074
19749 2 99.0818 5.5556 37.7581
19750 2 98.8563 7.17238 37.7157
19751 1 28.1372 4.08326 17.3108
19752 2 28.3596 3.21269 17.7498
19753 2 28.0696 4.79918 18.0057
19754 1 49.4298 8.33679 40.7356
19755 2 50.0608 7.64319 41.0829
19756 2 49.1038 8.90072 41.4943
19757 1 115.214 2.58514 64.5848
19758 2 114.287 2.69892 64.2283
19759 2 115.171 2.21833 65.5141
19760 1 22.0903 13.9905 57.9826
19761 2 21.9862 13.0451 57.6735
19762 2 22.2081 14.0054 58.9755
19763 1 31.683 23.7845 18.9268
19764 2 31.4335 24.7007 18.6133
19765 2 31.9436 23.8218 19.8916
19766 1 82.173 13.2282 72.3211
19767 2 81.2568 13.4588 72.6488
19768 2 82.3177 12.2421 72.4022
19769 1 32.3625 21.7853 53.424
19770 2 31.5428 22.187 53.8323
19771 2 33.0439 22.5012 53.2715
19772 1 33.2056 28.7378 58.5748
19773 2 32.4901 28.2045 58.1235
19774 2 33.0712 29.7092 58.3787
19775 1 112.677 3.51669 90.2716
19776 2 112.74 4.49261 90.4804
19777 2 113.592 3.15447 90.0918
19778 1 67.2288 29.195 61.4263
19779 2 66.9041 28.5798 60.7079
19780 2 67.8804 28.711 62.0104
19781 1 36.7062 16.6565 49.9734
19782 2 37.6009 16.2137 49.9145
19783 2 36.6576 17.4 49.3065
19784 1 24.5023 6.27754 45.024
19785 2 24.8063 5.36005 45.2805
19786 2 23.713 6.20873 44.4139
19787 1 44.7866 4.96884 47.0412
19788 2 44.5946 5.72454 46.4151
19789 2 44.9955 4.14467 46.5148
19790 1 2.37918 16.4821 52.6472
19791 2 1.57551 17.0615 52.5114
19792 2 2.84927 16.7556 53.4864
19793 1 102.585 29.9289 38.4831
19794 2 103.429 0.235558 38.0434
19795 2 101.803 0.389261 38.0618
19796 1 115.771 3.91183 53.9226
19797 2 116.101 4.74947 53.4873
19798 2 116.07 3.11964 53.3906
19799 1 35.8401 18.3296 37.987
19800 2 35.6244 17.411 38.3181
19801 2 36.7887 18.356 37.6716
19802 1 74.3888 20.804 69.1008
19803 2 74.7013 20.2848 69.8963
19804 2 74.5276 20.2609 68.2727
19805 1 29.8353 21.7182 84.4206
19806 2 30.1042 22.1339 83.5518
19807 2 29.5642 20.7682 84.2658
19808 1 18.4189 13.3738 84.0124
19809 2 18.3476 14.2781 83.5917
19810 2 17.5027 13.0229 84.2058
19811 1 62.2842 12.8007 44.0999
19812 2 62.0743 11.9123 44.5083
19813 2 63.2462 12.8234 43.8277
19814 1 3.24232 17.5744 77.3394
19815 2 3.54892 16.6999 76.9634
19816 2 2.24571 17.6315 77.2803
19817 1 80.5015 22.2205 90.5267
19818 2 81.3963 22.5944 90.7709
19819 2 79.8567 22.9701 90.3769
19820 1 117.383 15.1795 22.3594
19821 2 117.453 15.3139 21.3709
19822 2 117.312 16.0682 22.8124
19823 1 81.1431 19.0991 82.4899
19824 2 80.3376 18.6233 82.8432
19825 2 81.373 18.7392 81.5857
19826 1 80.238 3.31669 38.4939
19827 2 80.6585 4.19581 38.2696
19828 2 80.1221 2.77982 37.6582
19829 1 34.4246 0.232845 36.9127
19830 2 34.7913 1.01442 37.4173
19831 2 35.1548 29.8105 36.3757
19832 1 77.445 6.60964 90.389
19833 2 77.379 7.45825 90.9138
19834 2 77.7142 6.81922 89.4489
19835 1 36.2277 19.4662 60.8399
19836 2 36.218 20.4557 60.9845
19837 2 36.5729 19.0127 61.6616
19838 1 31.9191 27.1926 14.0426
19839 2 32.2066 26.9831 13.108
19840 2 32.6392 26.9219 14.6815
19841 1 103.63 15.5993 83.8643
19842 2 102.935 15.113 83.3346
19843 2 104.005 14.9889 84.5621
19844 1 39.735 21.8805 20.8002
19845 2 40.5231 22.3834 21.155
19846 2 39.1577 22.4987 20.2668
19847 1 35.5396 10.9341 54.2908
19848 2 35.6368 10.1291 54.8762
19849 2 35.3896 11.7432 54.859
19850 1 0.524193 18.8042 42.9421
19851 2 119.99 18.9232 42.1054
19852 2 1.05764 19.6317 43.1173
19853 1 114.239 14.458 13.4181
19854 2 114.727 14.6544 14.2687
19855 2 113.395 14.9939 13.3864
19856 1 33.8582 9.01422 90.7369
19857 2 33.9409 9.9914 90.9325
19858 2 34.7649 8.59278 90.7548
19859 1 56.8929 28.0086 59.4255
19860 2 57.49 27.3314 58.9955
19861 2 56.0241 28.0482 58.9319
19862 1 8.86309 27.2006 19.1522
19863 2 9.61108 27.8064 19.4232
19864 2 8.27015 27.0304 19.9392
19865 1 116.166 18.8081 74.0369
19866 2 115.721 17.9563 73.7613
19867 2 117.134 18.7739 73.7873
19868 1 72.7281 23.6141 88.4581
19869 2 72.78 22.7585 88.9732
19870 2 71.7848 23.9461 88.4577
19871 1 54.7246 2.84154 73.6269
19872 2 55.4703 3.08337 73.006
19873 2 54.1466 3.64279 73.7816
19874 1 44.9322 16.3661 73.998
19875 2 45.5795 15.9318 73.3716
19876 2 44.5159 17.1578 73.551
19877 1 61.3606 6.98683 67.3705
19878 2 60.9588 6.52244 68.1598
19879 2 60.6969 7.00825 66.6229
19880 1 8.32675 17.4175 61.7313
19881 2 9.30856 17.2553 61.8302
19882 2 7.85108 16.5418 61.6479
19883 1 115.499 29.0058 21.8467
19884 2 116.265 28.4284 22.1295
19885 2 115.087 28.6304 21.0162
19886 1 79.0935 11.3856 68.8975
19887 2 79.7365 12.1515 68.9021
19888 2 79.4715 10.6299 69.4323
19889 1 104.407 21.442 33.7443
19890 2 103.748 22.0183 34.2274
19891 2 104.953 20.9314 34.4085
19892 1 1.20007 21.8824 54.6721
19893 2 1.15493 20.8837 54.6501
19894 2 1.50501 22.1824 55.576
19895 1 53.0267 4.25589 52.3722
19896 2 52.8577 5.20579 52.1092
19897 2 52.4081 4.00065 53.1153
19898 1 113.504 3.91193 19.947
19899 2 113.819 3.57124 20.8331
19900 2 112.656 4.42604 20.0694
19901 1 24.5586 4.09432 75.5993
19902 2 25.5334 4.19065 75.3983
19903 2 24.2896 4.77628 76.2795
19904 1 42.8419 24.2133 50.2305
19905 2 42.1775 23.6623 49.7256
19906 2 43.1733 23.6958 51.0194
19907 1 96.298 15.4856 50.1959
19908 2 96.5658 16.3099 50.6948
19909 2 97.0772 15.1475 49.6681
19910 1 38.1907 13.6486 90.5791
19911 2 37.8454 14.047 91.4289
19912 2 38.919 14.2271 90.2117
19913 1 83.6251 2.51052 73.443
19914 2 82.6857 2.55079 73.1026
19915 2 83.6429 2.78248 74.4051
19916 1 114.11 11.7239 76.2182
19917 2 113.572 10.9827 76.619
19918 2 113.632 12.0895 75.4199
19919 1 44.6308 2.40363 64.479
19920 2 44.0278 1.69133 64.8382
19921 2 45.457 1.9831 64.104
19922 1 34.1019 12.8353 62.8703
19923 2 35.0378 12.487 62.818
19924 2 33.4775 12.0828 63.0799
19925 1 104.065 16.3712 14.2273
19926 2 103.295 15.9582 14.7122
19927 2 104.412 17.1479 14.753
19928 1 96.9819 19.9708 62.8512
19929 2 97.3565 19.8165 61.9369
19930 2 97.0224 20.9462 63.0677
19931 1 78.4933 25.3996 38.9199
19932 2 79.2606 25.8692 38.4831
19933 2 78.7144 25.2203 39.8785
19934 1 9.71091 10.7112 78.8225
19935 2 10.3992 9.98823 78.8824
19936 2 9.66368 11.0494 77.8826
19937 1 87.6067 23.369 69.7829
19938 2 87.828 22.5129 69.3159
19939 2 88.3193 24.0449 69.5952
19940 1 33.9852 5.40909 18.5817
19941 2 34.6577 6.00904 19.015
19942 2 33.9015 4.5649 19.1111
19943 1 11.2411 6.79903 81.1963
19944 2 10.526 6.50712 80.5612
19945 2 10.9044 6.72357 82.1349
19946 1 88.6779 14.1373 29.6197
19947 2 88.3713 15.0804 29.4912
19948 2 89.5714 14.0155 29.1874
19949 1 4.95646 4.98532 65.649
19950 2 5.15222 5.42668 66.5247
19951 2 5.66861 4.3126 65.4483
19952 1 45.5977 14.2678 66.5667
19953 2 45.0079 13.4752 66.412
19954 2 45.3644 14.9892 65.9146
19955 1 81.0126 23.1928 47.5185
19956 2 81.8221 23.0141 46.9592
19957 2 80.2074 23.2555 46.9288
19958 1 1.91724 20.7722 67.6519
19959 2 0.938599 20.5959 67.7576
19960 2 2.25988 20.2808 66.8512
19961 1 23.4318 6.93295 79.6713
19962 2 23.5869 6.59596 78.7426
19963 2 24.1277 6.55679 80.283
19964 1 7.49564 15.5766 13.659
19965 2 7.44989 15.7414 12.6738
19966 2 6.79882 14.9077 13.9178
19967 1 80.9063 8.80038 83.8489
19968 2 80.4894 9.25552 84.6357
19969 2 81.872 8.6236 84.0392
19970 1 22.4941 17.6864 64.0036
19971 2 22.0854 18.0544 64.8388
19972 2 21.8812 17.853 63.2312
19973 1 110.678 28.4734 69.5156
19974 2 110.439 28.8357 68.6147
19975 2 110.618 29.2044 70.1953
19976 1 85.5198 26.3277 72.4911
19977 2 85.5646 26.4052 71.4951
19978 2 86.4273 26.1082 72.8494
19979 1 71.3954 28.8167 34.0543
19980 2 70.5849 29.1068 34.5632
19981 2 71.2006 27.9594 33.5777
19982 1 101.911 19.3068 33.4831
19983 2 101.46 19.1397 34.3597
19984 2 101.805 20.2688 33.2316
19985 1 6.99968 2.89013 24.2888
19986 2 7.69929 2.67922 24.9715
19987 2 6.8741 3.88077 24.2353
19988 1 13.1866 0.721542 49.8776
19989 2 12.3294 0.222856 50.006
19990 2 13.5894 0.470772 48.9973
19991 1 106.449 4.17001 24.0253
19992 2 106.431 3.29227 24.5041
19993 2 107.288 4.66044 24.2605
19994 1 112.301 16.0646 56.8764
19995 2 112.178 17.0561 56.9171
19996 2 112.437 15.7842 55.9261
19997 1 73.2329 26.5508 72.5059
19998 2 72.9265 27.2983 73.0952
19999 2 72.827 26.6542 71.5979
20000 1 61.2649 1.77474 43.1279
20001 2 60.9618 2.5907 43.6202
20002 2 62.2609 1.70356 43.182
20003 1 111.002 2.71905 10.7725
20004 2 110.533 2.66987 11.6544
20005 2 111.367 1.81802 10.5384
20006 1 38.7411 10.9465 48.9643
20007 2 38.3499 11.7882 49.3365
20008 2 39.5842 11.1605 48.4711
20009 1 78.0294 18.3438 32.5464
20010 2 77.9398 17.5474 31.9483
20011 2 78.9943 18.5942 32.6257
20012 1 117.998 14.793 35.1427
20013 2 118.089 15.0402 34.1781
20014 2 117.332 14.0522 35.2351
20015 1 17.0481 2.42495 21.1532
20016 2 16.6403 2.91761 20.3845
20017 2 17.9953 2.72192 21.2746
20018 1 65.6161 0.22028 50.3734
20019 2 66.3875 29.7972 49.898
20020 2 65.1972 0.909155 49.7819
20021 1 16.1182 22.1478 76.5945
20022 2 17.0468 21.9721 76.9214
20023 2 16.1501 22.7917 75.83
20024 1 99.1152 24.2192 85.0635
20025 2 99.1776 23.2265 84.9607
20026 2 99.5142 24.6631 84.2611
20027 1 12.5971 29.4618 54.0223
20028 2 13.5597 29.6938 53.8825
20029 2 12.3311 28.7423 53.3806
20030 1 8.50247 12.1454 49.0438
20031 2 8.7245 12.1287 50.0187
20032 2 7.52221 12.3056 48.9279
20033 1 20.1256 14.6753 30.3899
20034 2 19.6683 13.7972 30.5305
20035 2 20.9729 14.5317 29.8786
20036 1 16.0961 14.489 77.6356
20037 2 15.5965 14.3662 78.4931
20038 2 16.1137 15.4598 77.3962
20039 1 58.5934 29.85 69.4385
20040 2 59.0412 0.00275328 68.5575
20041 2 58.2848 0.724956 69.8116
20042 1 3.22183 29.4607 61.8685
20043 2 3.08479 29.2436 60.902
20044 2 2.44813 29.9993 62.2021
20045 1 89.8377 15.3095 56.1766
20046 2 88.948 15.2854 55.7208
20047 2 89.7344 15.7064 57.0886
20048 1 14.2747 17.6091 78.7539
20049 2 14.3685 18.5325 79.1262
20050 2 15.1355 17.3331 78.3262
20051 1 34.4534 15.7413 27.2881
20052 2 34.0734 14.8164 27.2953
20053 2 35.4463 15.6946 27.3976
20054 1 74.3336 11.2419 65.7996
20055 2 74.6368 11.4317 64.8658
20056 2 74.8567 10.4745 66.1704
20057 1 41.2069 1.91614 47.3352
20058 2 40.3447 2.25343 47.7133
20059 2 41.0218 1.37277 46.5164
20060 1 37.6287 16.0212 44.0145
20061 2 38.3116 15.3623 44.3299
20062 2 37.7378 16.8799 44.5154
20063 1 103.613 0.820362 30.104
20064 2 103.851 1.75635 30.3633
20065 2 102.919 0.840189 29.3839
20066 1 39.829 25.3415 58.4502
20067 2 38.9498 24.9196 58.2288
20068 2 40.5449 24.9391 57.8797
20069 1 56.6698 15.4734 73.4154
20070 2 56.5892 14.7007 74.0451
20071 2 57.385 15.2822 72.7431
20072 1 21.9065 23.2236 82.4913
20073 2 21.6333 22.4771 83.0979
20074 2 22.0143 22.8743 81.5605
20075 1 92.2571 11.3939 26.2224
20076 2 91.4674 11.9203 25.9075
20077 2 91.9425 10.5609 26.6774
20078 1 32.608 13.7627 37.1905
20079 2 33.5174 13.7008 36.7792
20080 2 32.6969 13.9024 38.1767
20081 1 71.0363 22.1469 77.1277
20082 2 70.6634 21.6155 76.367
20083 2 70.5457 21.9157 77.9679
20084 1 117.089 16.379 50.0709
20085 2 117.312 16.1967 49.1134
20086 2 117.438 15.6361 50.642
20087 1 100.397 22.0991 47.6821
20088 2 100.385 21.4723 46.903
20089 2 99.7901 22.8722 47.4971
20090 1 86.9444 21.3473 83.4364
20091 2 86.7836 20.369 83.3058
20092 2 87.6233 21.6648 82.7744
20093 1 14.5045 11.8152 65.2038
20094 2 13.701 12.1851 65.6704
20095 2 14.226 11.0646 64.6048
20096 1 90.4484 3.87354 53.9866
20097 2 89.7808 3.53536 54.6499
20098 2 90.0233 3.92581 53.0829
20099 1 54.4649 22.8978 80.9475
20100 2 54.5603 23.7305 81.493
20101 2 53.9697 23.1068 80.1042
20102 1 117.827 23.4392 71.4623
20103 2 118.538 22.8884 71.8993
20104 2 116.958 22.9448 71.4896
20105 1 62.0357 18.1032 41.3997
20106 2 62.027 17.4217 42.1314
20107 2 62.0443 19.0202 41.7984
20108 1 76.0992 8.02792 44.5151
20109 2 75.8508 8.99481 44.5734
20110 2 76.6546 7.77809 45.3083
20111 1 72.3474 29.7887 70.8265
20112 2 72.8814 0.283276 71.5122
20113 2 71.9949 0.434486 70.1492
20114 1 111.874 7.95523 65.7072
20115 2 111.604 8.86477 65.3917
20116 2 112.807 7.99078 66.0666
20117 1 20.0358 17.0413 37.9348
20118 2 20.5493 17.3847 38.7212
20119 2 19.0564 17.1579 38.0997
20120 1 79.684 15.6278 74.8597
20121 2 79.5035 14.9794 75.5993
20122 2 80.1262 16.4437 75.2321
20123 1 15.7852 26.0062 80.9986
20124 2 14.7929 25.8972 80.9401
20125 2 16.2324 25.1983 80.6147
20126 1 109.471 27.7247 9.2345
20127 2 109.415 27.2031 10.0859
20128 2 109.844 27.1433 8.51149
20129 1 80.8639 8.07937 52.4456
20130 2 79.9214 8.4016 52.5343
20131 2 81.3955 8.38232 53.2366
20132 1 110.481 22.5147 65.7959
20133 2 110.832 22.2981 66.707
20134 2 111.2 22.9535 65.2573
20135 1 66.1398 4.38119 47.6411
20136 2 66.4974 5.23667 48.0156
20137 2 65.7844 3.81467 48.3846
20138 1 64.0779 22.4165 46.0725
20139 2 63.9121 23.3876 45.901
20140 2 64.8864 22.3138 46.652
20141 1 64.3771 28.1886 90.968
20142 2 64.8839 28.9735 90.6115
20143 2 63.4546 28.1843 90.582
20144 1 104.535 18.3556 27.3645
20145 2 105.154 18.896 26.7941
20146 2 105.059 17.9008 28.0852
20147 1 96.4561 21.3046 50.0841
20148 2 95.9644 21.9075 50.7122
20149 2 96.5456 21.7518 49.1941
20150 1 53.3945 8.92834 65.0826
20151 2 54.3501 9.2181 65.1355
20152 2 52.9596 9.35677 64.2905
20153 1 8.62157 2.53885 88.7762
20154 2 8.15155 1.86379 88.2076
20155 2 9.24157 3.07972 88.2079
20156 1 20.2377 2.02381 75.2022
20157 2 19.6022 2.37814 74.5162
20158 2 21.109 1.80004 74.7654
20159 1 91.0902 27.9935 38.0171
20160 2 91.1969 27.0087 38.1537
20161 2 91.2526 28.2162 37.0558
20162 1 31.8227 28.5998 18.6938
20163 2 32.234 29.5109 18.6648
20164 2 31.3615 28.4146 17.826
20165 1 49.9467 17.3254 30.9458
20166 2 50.2574 17.9878 31.6276
20167 2 48.9566 17.208 31.0221
20168 1 114.417 19.6429 61.6213
20169 2 113.506 19.9105 61.9346
20170 2 115.008 20.4489 61.5877
20171 1 69.7959 22.6649 47.6324
20172 2 69.3658 23.5582 47.7627
20173 2 69.1108 22.0078 47.3181
20174 1 12.9801 28.5524 76.8437
20175 2 12.6993 29.3081 77.4354
20176 2 13.9465 28.3482 76.9997
20177 1 4.55134 19.863 33.1166
20178 2 4.34502 20.6232 33.7326
20179 2 4.72953 20.2168 32.1985
20180 1 60.3053 23.0724 87.5706
20181 2 59.8188 22.7126 88.3668
20182 2 59.6803 23.6256 87.02
20183 1 7.75674 26.7178 36.143
20184 2 7.77095 26.253 37.0283
20185 2 7.34481 26.1172 35.4578
20186 1 114.942 27.1924 62.767
20187 2 115.535 26.3871 62.7839
20188 2 114.066 26.97 63.1933
20189 1 92.6934 14.6099 62.6682
20190 2 92.4996 14.3417 61.7246
20191 2 91.9046 14.3957 63.2443
20192 1 59.4811 12.4933 51.1785
20193 2 59.3587 11.879 51.958
20194 2 59.6374 11.9545 50.3507
20195 1 8.70824 26.4244 92.0429
20196 2 9.69521 26.5803 92.0035
20197 2 8.39847 26.0288 91.1783
20198 1 43.815 3.58499 36.1844
20199 2 43.3973 2.69317 36.3583
20200 2 44.5843 3.72016 36.8088
20201 1 81.6259 20.2416 50.2727
20202 2 80.8715 19.8617 49.7375
20203 2 82.3521 19.5592 50.3563
20204 1 103.806 28.5941 21.6408
20205 2 104.591 28.2746 21.1104
20206 2 103.255 29.2131 21.0809
20207 1 80.1591 12.3342 35.0572
20208 2 80.4812 11.8957 34.2182
20209 2 79.7409 11.6482 35.6526
20210 1 5.8926 13.4856 64.0356
20211 2 6.71902 13.8753 64.4419
20212 2 6.12289 12.6351 63.5626
20213 1 8.86364 26.6174 76.384
20214 2 8.29577 27.0385 75.6768
20215 2 8.32717 26.5079 77.2208
20216 1 95.0686 11.0357 72.0534
20217 2 94.5686 11.8957 71.9509
20218 2 94.6738 10.3463 71.446
20219 1 7.07861 12.7716 16.1834
20220 2 7.78989 12.7345 15.4814
20221 2 6.33907 13.3711 15.8771
20222 1 43.5487 18.9313 61.2575
20223 2 43.4168 18.4677 62.1337
20224 2 44.1668 18.3925 60.6851
20225 1 118.66 0.964933 18.5733
20226 2 117.86 0.365506 18.5751
20227 2 119.132 0.889296 17.6945
20228 1 113.777 29.6003 24.9873
20229 2 114.756 29.778 24.8824
20230 2 113.362 29.4784 24.0858
20231 1 81.1893 27.0201 93.4071
20232 2 82.14 26.8559 93.144
20233 2 81.0147 26.6069 94.3009
20234 1 51.0306 23.8372 67.6708
20235 2 51.7444 24.108 67.0249
20236 2 50.8131 22.8698 67.5409
20237 1 61.8825 5.53918 53.9533
20238 2 61.7845 4.64362 54.3873
20239 2 62.8533 5.74884 53.8371
20240 1 37.3306 20.9736 38.9768
20241 2 36.431 20.7263 38.6168
20242 2 37.5888 20.3314 39.6986
20243 1 102.916 25.5177 73.4018
20244 2 103.076 26.3112 73.989
20245 2 102.847 25.8159 72.4498
20246 1 118.668 11.2291 84.6466
20247 2 119.299 11.9196 84.9998
20248 2 119.189 10.4666 84.2628
20249 1 97.434 26.2242 87.7841
20250 2 98.2596 26.7833 87.7079
20251 2 97.6496 25.3755 88.267
20252 1 33.3308 24.301 88.6616
20253 2 33.7652 24.8109 87.9191
20254 2 32.5558 24.824 89.0162
20255 1 16.685 25.2863 64.9958
20256 2 16.7688 25.2539 63.9998
20257 2 15.7952 24.9198 65.2676
20258 1 27.2058 19.1506 65.2873
20259 2 27.304 19.7551 66.0778
20260 2 26.5813 19.5657 64.6257
20261 1 117.859 22.8167 90.6064
20262 2 117.913 21.8559 90.8783
20263 2 118.782 23.1854 90.5
20264 1 102.216 20.3511 69.7109
20265 2 101.888 21.1454 70.2223
20266 2 101.442 19.8953 69.2709
20267 1 37.8468 16.8212 86.0323
20268 2 38.6014 17.389 86.3612
20269 2 37.5064 17.188 85.1665
20270 1 60.7302 21.3623 50.3664
20271 2 60.1278 22.1532 50.2592
20272 2 60.1832 20.5534 50.5821
20273 1 85.7002 3.26724 40.3649
20274 2 85.5172 3.78097 41.2031
20275 2 84.9481 3.40284 39.7199
20276 1 74.8067 9.4694 68.5958
20277 2 75.4081 9.22386 67.8355
20278 2 74.7664 8.7116 69.247
20279 1 95.7353 19.8557 21.8384
20280 2 96.3885 20.5285 21.4911
20281 2 95.0695 20.3115 22.4291
20282 1 22.983 25.9951 52.1036
20283 2 22.0582 25.8995 51.7355
20284 2 23.3418 25.0927 52.3421
20285 1 63.3625 11.6336 32.8993
20286 2 62.8586 12.4029 32.5064
20287 2 62.7346 10.8727 33.063
20288 1 58.7925 7.27124 40.6672
20289 2 58.5881 8.04377 40.0661
20290 2 58.3224 7.39537 41.5411
20291 1 84.6675 8.68875 79.6392
20292 2 84.5807 9.01002 80.5822
20293 2 84.8723 7.70996 79.6381
20294 1 81.4989 21.8398 86.407
20295 2 80.5166 21.9865 86.5238
20296 2 81.6603 21.313 85.5725
20297 1 30.9104 15.8545 77.4193
20298 2 30.809 15.1292 76.7384
20299 2 31.4766 15.5254 78.1751
20300 1 46.0576 9.77926 54.7869
20301 2 45.7905 10.0025 55.7243
20302 2 46.9074 9.25224 54.799
20303 1 53.8404 29.8898 56.2668
20304 2 54.771 0.210613 56.0906
20305 2 53.8291 29.3438 57.1046
20306 1 13.2617 2.13277 37.3957
20307 2 14.1576 1.81647 37.0838
20308 2 12.6235 2.1385 36.6258
20309 1 80.659 2.51766 81.9235
20310 2 80.8122 3.31938 81.3458
20311 2 80.505 1.71557 81.3465
20312 1 11.2268 25.0486 88.9975
20313 2 10.2931 24.7127 89.122
20314 2 11.3014 25.5049 88.1108
20315 1 4.92072 12.7606 41.3609
20316 2 4.14591 12.4061 40.8375
20317 2 5.60521 13.1315 40.7333
20318 1 109.039 7.38596 64.6591
20319 2 108.988 7.67478 63.7031
20320 2 109.327 6.42919 64.7033
20321 1 57.0695 5.90382 86.9799
20322 2 56.7552 6.51175 87.7091
20323 2 56.8153 4.96174 87.1987
20324 1 105.857 12.4749 87.7834
20325 2 106.747 12.2371 87.3943
20326 2 105.417 13.1665 87.2107
20327 1 108.28 29.1099 76.0111
20328 2 108.099 0.0808261 75.8551
20329 2 109.232 28.99 76.2925
20330 1 91.9198 5.18482 72.8421
20331 2 91.3786 5.11118 73.6798
20332 2 92.8881 5.06061 73.0588
20333 1 41.1289 27.5869 69.9698
20334 2 41.9585 28.1123 69.7807
20335 2 41.3407 26.6099 69.9466
20336 1 41.5357 11.8166 83.9231
20337 2 41.6933 11.2828 83.0923
20338 2 42.0686 12.6618 83.8822
20339 1 3.32252 1.98853 44.5491
20340 2 2.39337 2.07384 44.1894
20341 2 3.29946 1.49406 45.418
20342 1 3.63209 3.98668 33.5858
20343 2 3.51143 2.99924 33.4839
20344 2 3.44203 4.4375 32.7137
20345 1 106.129 21.6068 69.9067
20346 2 106.351 22.1524 69.0985
20347 2 106.29 22.1508 70.7303
20348 1 1.84088 6.24815 65.452
20349 2 2.00389 5.34833 65.0474
20350 2 1.82337 6.16723 66.4486
20351 1 103.223 17.0294 49.2108
20352 2 103.234 17.8691 48.6679
20353 2 104.07 16.9626 49.7383
20354 1 84.7784 1.97421 48.4993
20355 2 84.7153 2.54934 47.6837
20356 2 84.5319 2.51148 49.3059
20357 1 115.06 29.8385 48.8474
20358 2 114.868 28.8573 48.8277
20359 2 115.922 0.0190094 48.3733
20360 1 66.0152 15.6042 79.6028
20361 2 66.6423 16.0534 80.2392
20362 2 65.4154 14.9837 80.1081
20363 1 98.4885 26.7198 14.5571
20364 2 98.4636 25.8937 15.1201
20365 2 97.7011 26.7269 13.9406
20366 1 16.0644 29.8237 66.5472
20367 2 15.8821 0.805181 66.4886
20368 2 15.4253 29.4039 67.1917
20369 1 115.688 28.3934 8.97999
20370 2 116.115 27.4949 9.08096
20371 2 114.707 28.3174 9.15552
20372 1 94.8355 19.9389 33.6539
20373 2 94.2394 20.1189 32.8714
20374 2 95.7665 19.7679 33.3314
20375 1 95.6016 16.2232 35.5664
20376 2 94.632 15.9944 35.4794
20377 2 95.9596 16.5017 34.6751
20378 1 8.07948 7.95323 32.6893
20379 2 9.07416 7.92315 32.7877
20380 2 7.65466 7.94999 33.5945
20381 1 12.2423 16.2032 51.3103
20382 2 12.0152 15.4178 50.7344
20383 2 11.4803 16.8507 51.3065
20384 1 101.198 18.5746 36.3161
20385 2 100.963 17.6876 35.9188
20386 2 100.361 19.0838 36.5139
20387 1 18.3602 3.51391 73.6864
20388 2 19.0629 4.22152 73.6115
20389 2 17.4736 3.89568 73.4255
20390 1 11.4687 19.9527 70.9328
20391 2 10.8464 19.1857 70.7771
20392 2 12.1734 19.9596 70.2233
20393 1 11.5111 7.42808 90.563
20394 2 10.8008 7.96727 90.1105
20395 2 11.2628 7.28694 91.5213
20396 1 23.1624 17.9939 23.0742
20397 2 23.9867 18.5285 23.2605
20398 2 23.3557 17.3211 22.36
20399 1 92.4184 2.76173 51.784
20400 2 92.2137 3.6506 51.3741
20401 2 93.0513 2.26042 51.194
20402 1 93.342 6.18776 48.1305
20403 2 92.9496 6.25387 49.0479
20404 2 92.6364 6.38832 47.4509
20405 1 17.4356 8.27531 16.3434
20406 2 17.9433 8.3839 17.1981
20407 2 18.0781 8.14295 15.5887
20408 1 108.841 14.1784 83.4548
20409 2 108.387 15.0614 83.3362
20410 2 109.064 14.0451 84.4206
20411 1 34.0768 20.4332 77.0388
20412 2 34.406 19.6569 76.5012
20413 2 34.5588 20.4606 77.9145
20414 1 45.524 11.6546 30.977
20415 2 45.2667 11.5895 30.0129
20416 2 45.9576 12.5395 31.1473
20417 1 44.6059 5.37025 28.8552
20418 2 45.2785 5.39301 29.5948
20419 2 44.8508 4.65204 28.2039
20420 1 44.04 6.65149 66.9317
20421 2 44.3635 6.23948 67.7835
20422 2 43.5919 5.95359 66.373
20423 1 116.327 18.5936 63.7246
20424 2 115.945 18.6507 62.8023
20425 2 115.634 18.2381 64.3514
20426 1 27.0941 12.2799 20.5027
20427 2 27.6376 12.6141 19.7327
20428 2 26.2929 11.7909 20.1577
20429 1 76.2819 18.5306 36.0513
20430 2 77.0773 18.2279 36.5763
20431 2 76.276 19.5293 36.0012
20432 1 23.5062 0.750086 41.885
20433 2 23.4105 0.157116 42.6845
20434 2 24.2608 0.423274 41.316
20435 1 57.7114 19.9658 75.1573
20436 2 57.7335 20.4996 74.3119
20437 2 57.7084 20.5851 75.9425
20438 1 45.7047 7.55385 70.0704
20439 2 44.9951 7.33769 70.741
20440 2 46.5408 7.05421 70.297
20441 1 14.9075 28.3165 73.3524
20442 2 14.0314 28.6681 73.0225
20443 2 15.5343 29.0794 73.5112
20444 1 7.09409 22.2074 16.1295
20445 2 6.56541 21.4055 15.8512
20446 2 7.30058 22.1479 17.1062
20447 1 113.185 5.11371 70.4166
20448 2 113.271 4.65057 69.5345
20449 2 113.881 4.76626 71.0447
20450 1 37.1809 7.25527 46.9261
20451 2 37.2879 6.30083 47.2047
20452 2 36.2129 7.44962 46.7673
20453 1 101.879 4.45702 27.225
20454 2 100.897 4.30946 27.1149
20455 2 102.175 4.09009 28.107
20456 1 84.3286 16.5886 61.0274
20457 2 85.2107 17.0557 60.9653
20458 2 83.6359 17.1182 60.5378
20459 1 114.986 8.04858 36.3493
20460 2 115.279 7.10069 36.4738
20461 2 114.721 8.43421 37.233
20462 1 7.42524 26.7836 54.7787
20463 2 8.3347 26.4869 54.4874
20464 2 6.91914 26.0005 55.1402
20465 1 9.24245 29.4381 78.2061
20466 2 8.98515 29.5568 77.2471
20467 2 10.1559 29.8166 78.3555
20468 1 50.5105 23.278 74.6999
20469 2 50.7764 22.3315 74.8823
20470 2 51.1047 23.8963 75.2144
20471 1 52.8562 24.1461 48.5583
20472 2 53.3495 24.1463 49.4281
20473 2 52.3096 23.3119 48.4852
20474 1 68.6322 1.88776 62.3994
20475 2 68.0705 1.07106 62.2672
20476 2 69.5878 1.67099 62.1996
20477 1 1.89538 5.49179 28.1906
20478 2 1.54011 5.16152 27.3161
20479 2 1.59105 4.88473 28.9246
20480 1 17.971 13.6631 61.7266
20481 2 17.3775 14.1223 61.0656
20482 2 17.4133 13.1198 62.3541
20483 1 12.6788 23.212 79.7461
20484 2 12.7555 23.4415 80.7164
20485 2 12.1991 22.3402 79.6467
20486 1 90.0487 18.2106 64.2437
20487 2 90.2437 17.4189 64.8226
20488 2 90.8535 18.8029 64.2068
20489 1 58.4766 8.6648 48.4844
20490 2 58.7613 7.94388 49.1163
20491 2 57.7036 9.16442 48.8753
20492 1 111.692 17.4847 28.8016
20493 2 110.777 17.6046 28.4144
20494 2 112.296 18.2034 28.458
20495 1 45.9682 10.142 51.5444
20496 2 45.7045 9.42186 52.1861
20497 2 46.6101 10.7665 51.9894
20498 1 108.711 5.44714 89.3158
20499 2 108.923 4.81496 90.061
20500 2 109.506 6.02433 89.1316
20501 1 3.79796 18.9034 50.4769
20502 2 4.23591 19.654 50.9717
20503 2 4.21136 18.8156 49.5706
20504 1 67.7415 9.15271 69.6
20505 2 66.9378 8.91071 69.0564
20506 2 68.1879 8.31876 69.9245
20507 1 83.0053 12.4873 41.7982
20508 2 83.0674 12.222 40.836
20509 2 83.5902 11.8901 42.347
20510 1 74.9514 7.74006 86.9116
20511 2 75.9499 7.76391 86.9621
20512 2 74.6238 6.84438 87.2123
20513 1 79.5386 0.686603 53.4815
20514 2 80.1796 0.157882 52.9251
20515 2 79.615 1.65586 53.2476
20516 1 19.4702 23.2369 14.8679
20517 2 19.785 22.828 14.0114
20518 2 19.7811 24.186 14.9183
20519 1 24.3474 20.4374 72.9596
20520 2 25.1482 20.9292 73.3014
20521 2 24.3462 20.4566 71.9598
20522 1 88.6094 4.26895 57.9639
20523 2 88.7293 3.63536 58.7282
20524 2 88.3867 3.75417 57.136
20525 1 0.827614 19.17 31.2122
20526 2 0.830016 20.1664 31.2977
20527 2 1.6811 18.8018 31.5809
20528 1 47.9189 7.97198 79.3679
20529 2 48.1776 7.14507 79.8672
20530 2 48.6634 8.63779 79.4173
20531 1 19.5816 5.07236 40.7728
20532 2 19.4557 5.40321 41.7081
20533 2 19.9341 4.13681 40.7949
20534 1 51.9982 3.53948 79.2321
20535 2 51.9113 3.57304 80.2278
20536 2 52.2091 2.60439 78.9473
20537 1 25.1242 29.2255 54.4693
20538 2 25.1284 29.482 53.5027
20539 2 26.0234 28.8692 54.7234
20540 1 112.39 17.8232 12.4913
20541 2 111.652 18.0297 11.849
20542 2 112.158 17.003 13.0139
20543 1 76.9776 3.32471 46.899
20544 2 76.9882 3.90549 47.713
20545 2 77.024 2.36441 47.1741
20546 1 119.241 24.2424 66.9352
20547 2 118.43 23.672 66.8032
20548 2 119.937 23.7224 67.4297
20549 1 69.6462 10.9648 69.0072
20550 2 68.9413 10.3397 69.3424
20551 2 70.3039 11.1481 69.7378
20552 1 84.2428 4.7169 54.7963
20553 2 84.8549 5.0699 54.0887
20554 2 83.5243 4.16632 54.3712
20555 1 41.8772 28.4141 45.1424
20556 2 42.8192 28.2918 45.4547
20557 2 41.6187 27.6476 44.5545
20558 1 30.2385 10.1169 47.8192
20559 2 30.1582 10.5853 48.699
20560 2 29.6368 10.5557 47.1518
20561 1 112.699 10.5511 69.7437
20562 2 113.19 9.96172 70.3855
20563 2 113.348 10.9553 69.0992
20564 1 91.6194 9.86646 89.0104
20565 2 90.7963 10.3836 88.7759
20566 2 92.2824 9.93939 88.2654
20567 1 49.851 8.8167 62.8117
20568 2 50.3441 9.47521 63.3802
20569 2 48.9533 8.63591 63.2136
20570 1 16.839 3.23473 59.1682
20571 2 16.5651 2.78123 60.0163
20572 2 17.1506 2.5498 58.5096
20573 1 66.7361 19.408 71.0898
20574 2 67.4428 19.5145 71.7892
20575 2 66.5937 18.4355 70.9052
20576 1 31.8208 18.3087 76.641
20577 2 31.6021 17.3892 76.9677
20578 2 32.7766 18.3399 76.3486
20579 1 55.8701 18.5191 41.3477
20580 2 55.4706 18.7708 42.2292
20581 2 56.8537 18.3749 41.4564
20582 1 76.8367 4.02784 32.3991
20583 2 76.4749 3.1962 31.9778
20584 2 76.195 4.78106 32.2544
20585 1 110.98 25.6164 88.1275
20586 2 110.872 25.9826 89.0517
20587 2 111.951 25.4699 87.9384
20588 1 106.451 12.5685 90.4517
20589 2 105.769 11.9428 90.829
20590 2 106.312 12.6586 89.4656
20591 1 93.0557 4.75024 41.2735
20592 2 93.5917 5.52374 40.9352
20593 2 93.6006 3.91414 41.2104
20594 1 94.7647 25.2169 89.9405
20595 2 95.2537 24.4144 90.2824
20596 2 95.2878 26.042 90.1542
20597 1 28.9356 12.6622 79.0634
20598 2 29.1122 12.1781 78.2065
20599 2 29.7507 12.625 79.6414
20600 1 5.91116 27.6082 30.4182
20601 2 6.33178 27.7246 31.318
20602 2 5.01204 27.1833 30.5231
20603 1 28.2522 1.81795 85.7787
20604 2 27.5486 2.50104 85.5831
20605 2 27.8726 1.1092 86.3733
20606 1 9.26152 19.658 66.2441
20607 2 8.29477 19.5937 66.4916
20608 2 9.37014 19.4597 65.27
20609 1 89.128 13.8517 90.4873
20610 2 89.9962 14.3282 90.6263
20611 2 88.3713 14.4902 90.6276
20612 1 22.7902 14.721 74.0085
20613 2 22.5355 15.2153 74.8397
20614 2 22.4993 15.2439 73.2073
20615 1 50.1636 2.98589 36.7755
20616 2 49.2184 2.66084 36.7441
20617 2 50.7865 2.20623 36.7114
20618 1 3.16147 22.7513 76.0676
20619 2 2.16522 22.756 76.1539
20620 2 3.56134 22.2695 76.8474
20621 1 58.2005 18.5744 48.3789
20622 2 58.9899 18.2593 47.8521
20623 2 58.4658 18.6988 49.3349
20624 1 39.5813 7.90187 63.3118
20625 2 39.3425 7.13519 63.9078
20626 2 39.372 8.76257 63.7759
20627 1 62.9955 1.24887 60.3721
20628 2 63.3344 1.19293 61.3112
20629 2 61.9956 1.25984 60.3786
20630 1 70.2587 29.4191 57.8431
20631 2 69.721 28.7611 57.3159
20632 2 69.6653 29.8841 58.5002
20633 1 36.5478 4.52546 22.7931
20634 2 37.0018 4.15773 23.6047
20635 2 35.5649 4.59518 22.9639
20636 1 96.0588 24.3858 22.7902
20637 2 96.9728 24.1194 22.4841
20638 2 95.4428 23.601 22.7224
20639 1 95.2626 17.0341 78.0273
20640 2 94.4522 16.5743 78.3903
20641 2 95.9737 16.3568 77.8387
20642 1 8.90197 7.80569 11.5955
20643 2 9.61035 7.09988 11.5902
20644 2 8.00082 7.37326 11.6262
20645 1 30.3229 3.03589 44.4902
20646 2 30.0978 2.17928 44.9545
20647 2 30.6432 3.70451 45.1613
20648 1 0.294746 22.9042 58.4514
20649 2 1.06925 22.5449 57.9308
20650 2 0.596882 23.6794 59.0061
20651 1 99.9335 14.9974 44.6487
20652 2 99.9399 14.4403 45.4791
20653 2 99.3105 14.5917 43.9799
20654 1 35.3214 24.2719 27.451
20655 2 34.7224 23.4855 27.6022
20656 2 35.9299 24.3834 28.2366
20657 1 57.8636 4.92179 44.1787
20658 2 57.7947 4.16835 44.8326
20659 2 58.341 4.60816 43.3579
20660 1 38.9665 12.5957 46.1295
20661 2 38.7644 13.283 46.8272
20662 2 39.4747 13.0207 45.3804
20663 1 95.9677 6.26959 45.8477
20664 2 96.5515 6.86813 46.3963
20665 2 95.1908 6.79227 45.4966
20666 1 16.5145 3.35019 28.2454
20667 2 15.5825 3.70707 28.1823
20668 2 16.852 3.46271 29.18
20669 1 118.772 14.3573 11.3324
20670 2 119.436 13.7373 10.9143
20671 2 118.81 14.2642 12.3273
20672 1 67.6933 20.8147 80.2023
20673 2 68.3854 21.4967 79.9659
20674 2 68.1156 20.0831 80.7376
20675 1 41.8663 3.7836 49.3718
20676 2 41.6346 3.05048 48.7324
20677 2 41.6893 3.47814 50.3074
20678 1 63.2577 28.6939 46.3589
20679 2 63.0686 29.1679 47.2189
20680 2 64.2266 28.4497 46.3191
20681 1 77.3012 12.8629 90.1571
20682 2 76.9393 12.5964 91.0505
20683 2 76.5741 13.2844 89.6152
20684 1 34.0051 27.4114 20.2804
20685 2 34.2298 26.7442 19.5703
20686 2 33.3817 28.0984 19.907
20687 1 103.172 5.22009 11.6466
20688 2 102.925 5.66067 12.5097
20689 2 103.919 5.72625 11.2156
20690 1 52.832 22.3232 69.6346
20691 2 51.8493 22.3842 69.4593
20692 2 53.242 23.2317 69.5535
20693 1 95.3663 26.3517 52.8191
20694 2 96.203 26.6667 52.3711
20695 2 95.569 26.1019 53.766
20696 1 0.858309 25.1479 60.0913
20697 2 1.33881 25.8636 59.5843
20698 2 1.51385 24.6339 60.6445
20699 1 58.5878 24.7113 47.5188
20700 2 57.7785 24.1956 47.2375
20701 2 59.3494 24.4956 46.9077
20702 1 96.9119 0.122337 55.6932
20703 2 97.4026 0.955578 55.4383
20704 2 97.1904 29.3741 55.091
20705 1 78.1152 11.4849 66.3406
20706 2 78.4358 11.2638 67.2617
20707 2 77.3296 10.9092 66.114
20708 1 39.9918 23.4187 61.7617
20709 2 40.347 22.9761 62.5851
20710 2 39.0631 23.094 61.5829
20711 1 105.961 23.2667 35.9267
20712 2 106.135 22.7161 36.7432
20713 2 105.095 22.9857 35.5133
20714 1 86.6398 1.08901 62.7204
20715 2 86.1787 1.70453 62.0812
20716 2 86.5531 0.146723 62.397
20717 1 85.4928 29.0016 67.3587
20718 2 86.1119 28.2166 67.382
20719 2 85.0987 29.1424 68.2669
20720 1 66.2842 23.1775 66.7381
20721 2 66.1638 23.4416 67.695
20722 2 66.265 23.9946 66.1619
20723 1 18.3651 17.4032 72.5271
20724 2 19.1551 17.8095 72.9863
20725 2 17.5582 17.4918 73.111
20726 1 46.67 5.63231 62.062
20727 2 46.4966 6.3333 62.7537
20728 2 47.652 5.57813 61.8811
20729 1 109.727 24.4502 85.9232
20730 2 108.799 24.814 86.0068
20731 2 110.196 24.5292 86.8026
20732 1 34.2952 23.4455 40.763
20733 2 34.5971 23.8578 39.9035
20734 2 35.0224 23.5256 41.4447
20735 1 85.7116 23.3567 63.0323
20736 2 84.9514 23.9561 63.2829
20737 2 85.366 22.4342 62.8605
20738 1 14.9254 3.49726 31.4494
20739 2 14.5679 3.77598 32.3408
20740 2 15.7962 3.95882 31.2803
20741 1 5.18048 25.7175 28.3786
20742 2 4.60304 26.0993 29.1003
20743 2 4.82079 24.827 28.1001
20744 1 48.6494 10.6188 70.4183
20745 2 49.4845 11.103 70.1571
20746 2 47.9309 11.2823 70.6271
20747 1 71.2209 0.489832 55.6118
20748 2 70.7974 0.283781 56.4939
20749 2 71.676 29.6713 55.2612
20750 1 15.7923 6.44152 36.7047
20751 2 15.0043 6.11546 37.2269
20752 2 16.2706 5.66154 36.3011
20753 1 41.996 2.6758 84.1326
20754 2 41.3589 2.90683 84.868
20755 2 42.8792 3.11072 84.3079
20756 1 80.8517 12.0443 77.9548
20757 2 80.313 12.8699 77.7873
20758 2 80.237 11.2715 78.1125
20759 1 58.0194 0.230421 65.9459
20760 2 57.1557 0.00132551 66.3949
20761 2 58.771 0.128673 66.5976
20762 1 92.9414 17.0402 39.8531
20763 2 93.3855 17.4912 39.0789
20764 2 91.9789 16.8767 39.6362
20765 1 107.718 3.29785 46.7565
20766 2 107.759 2.80245 45.8888
20767 2 106.843 3.1143 47.2044
20768 1 88.0594 2.45853 45.9746
20769 2 88.7433 2.49299 45.2459
20770 2 87.1571 2.66264 45.5948
20771 1 31.0148 5.02715 46.3751
20772 2 30.5545 5.9043 46.5119
20773 2 31.9971 5.17969 46.2656
20774 1 56.2872 14.4571 87.0101
20775 2 55.7751 15.1061 86.4474
20776 2 56.908 14.957 87.614
20777 1 25.4013 0.335569 39.9625
20778 2 25.9261 1.16718 39.7809
20779 2 24.7679 0.169448 39.2068
20780 1 104.569 27.8032 87.8235
20781 2 103.574 27.8716 87.8936
20782 2 104.81 27.0074 87.268
20783 1 115.98 4.0137 69.1472
20784 2 115.915 3.86501 70.134
20785 2 115.073 3.91716 68.7358
20786 1 79.8333 21.1031 39.7301
20787 2 80.0343 20.7877 40.6576
20788 2 78.9666 20.7088 39.4245
20789 1 46.5549 13.232 59.1554
20790 2 46.6204 14.1018 59.6445
20791 2 46.459 12.4857 59.814
20792 1 91.5835 11.4641 47.4647
20793 2 92.271 11.2168 46.7819
20794 2 92.0289 11.6121 48.3477
20795 1 16.2119 0.732054 73.594
20796 2 15.2847 0.826301 73.9565
20797 2 16.3679 1.42754 72.8926
20798 1 13.4268 25.667 74.5743
20799 2 14.2863 25.6657 75.0853
20800 2 13.6214 25.7169 73.5947
20801 1 34.5051 28.4101 55.1891
20802 2 34.4957 29.4064 55.1027
20803 2 33.6269 28.0987 55.5521
20804 1 96.3208 22.0734 47.4454
20805 2 96.1621 23.0551 47.5508
20806 2 96.286 21.8324 46.4754
20807 1 106.854 24.6575 51.1812
20808 2 106.641 24.3223 50.2635
20809 2 106.807 25.6564 51.1904
20810 1 16.5319 29.3528 41.6086
20811 2 16.1432 28.5621 41.1355
20812 2 16.4643 0.159115 41.021
20813 1 114.077 25.9445 80.3086
20814 2 115.053 26.071 80.4825
20815 2 113.635 26.8375 80.222
20816 1 55.4198 25.8243 56.5314
20817 2 55.1915 26.499 57.2333
20818 2 56.4085 25.8207 56.3816
20819 1 1.32597 13.3262 74.4359
20820 2 1.80861 12.5616 74.0088
20821 2 1.32425 14.1088 73.8133
20822 1 31.5039 8.07291 30.3066
20823 2 32.392 7.67491 30.0767
20824 2 31.4825 9.02988 30.0172
20825 1 17.5407 18.1848 30.9938
20826 2 16.7869 18.5844 30.472
20827 2 17.2957 18.1537 31.9628
20828 1 73.8281 18.9965 43.8649
20829 2 74.8208 19.075 43.7728
20830 2 73.5731 18.0307 43.9128
20831 1 78.5614 3.2928 60.4172
20832 2 79.5412 3.44478 60.5473
20833 2 78.3852 2.31254 60.3276
20834 1 103.987 12.2658 66.3242
20835 2 103.62 13.1787 66.1464
20836 2 103.241 11.65 66.5778
20837 1 72.4589 14.3882 55.915
20838 2 72.395 15.131 55.2485
20839 2 73.2179 13.7849 55.6701
20840 1 11.8535 5.92898 53.3432
20841 2 12.0816 6.05738 54.3083
20842 2 10.9537 5.4993 53.2677
20843 1 41.4766 23.3735 22.4563
20844 2 40.6207 23.8393 22.6808
20845 2 42.1935 23.6714 23.0866
20846 1 69.2173 21.6273 53.1885
20847 2 68.7535 21.1242 52.4593
20848 2 69.6094 20.9805 53.8425
20849 1 116.452 26.4572 54.3185
20850 2 116.624 27.4318 54.1758
20851 2 116.387 25.997 53.433
20852 1 89.1585 2.11294 84.2268
20853 2 89.8005 1.36402 84.3908
20854 2 89.4313 2.61171 83.4041
20855 1 94.8329 12.6617 56.5501
20856 2 95.8284 12.7432 56.5978
20857 2 94.5885 11.7487 56.2235
20858 1 117.922 3.5084 37.3322
20859 2 118.668 3.96918 36.8517
20860 2 117.978 3.71317 38.3094
20861 1 32.8664 16.9522 64.593
20862 2 33.2314 17.8562 64.8155
20863 2 32.3752 16.9959 63.7231
20864 1 103.05 24.7783 56.2788
20865 2 102.288 24.176 56.0397
20866 2 103.914 24.3199 56.0732
20867 1 115.027 2.33288 89.6845
20868 2 115.559 3.13616 89.4172
20869 2 115.633 1.54109 89.7591
20870 1 53.1 6.80962 70.2094
20871 2 54.0921 6.6897 70.2469
20872 2 52.7986 7.34265 71
20873 1 31.4118 13.5114 43.062
20874 2 30.9742 13.17 42.2302
20875 2 30.7778 13.4277 43.8308
20876 1 10.3611 26.2395 35.4673
20877 2 10.8554 26.9513 35.9664
20878 2 9.38863 26.2866 35.6953
20879 1 29.3728 28.4424 27.1995
20880 2 29.4742 28.7052 26.24
20881 2 30.0464 27.7387 27.4254
20882 1 21.8706 1.33901 19.5385
20883 2 21.5423 0.448235 19.2242
20884 2 21.9733 1.32443 20.5331
20885 1 47.7109 21.4406 38.7079
20886 2 47.0648 22.1979 38.6131
20887 2 47.225 20.6252 39.0225
20888 1 9.42668 19.9818 11.1497
20889 2 9.05447 20.8655 11.4334
20890 2 10.4152 19.9725 11.3007
20891 1 73.9365 13.2634 67.6831
20892 2 73.0414 13.6801 67.5248
20893 2 74.1512 12.6391 66.932
20894 1 106.279 24.8752 28.8873
20895 2 106.613 25.1929 29.7748
20896 2 107.056 24.6969 28.2833
20897 1 119.024 26.8305 93.3186
20898 2 119.057 25.8318 93.2812
20899 2 119.949 27.1988 93.2294
20900 1 67.5828 27.2148 78.8797
20901 2 67.0609 26.7527 79.5967
20902 2 67.0088 27.3252 78.0683
20903 1 11.7473 17.4197 43.3283
20904 2 11.9781 16.7163 42.6561
20905 2 10.8861 17.1818 43.7775
20906 1 41.1778 20.6145 66.4475
20907 2 41.3825 19.6737 66.1771
20908 2 41.7566 20.8724 67.2212
20909 1 86.3733 11.8406 48.399
20910 2 85.7732 12.6016 48.6454
20911 2 87.1949 11.8661 48.9685
20912 1 89.4316 23.0385 87.9498
20913 2 89.3349 22.0589 87.7739
20914 2 89.0064 23.2632 88.8266
20915 1 32.0794 8.4516 54.0619
20916 2 32.3702 7.80741 53.3544
20917 2 31.3159 8.06027 54.5756
20918 1 71.7798 5.63605 83.9557
20919 2 71.6859 4.64048 83.9504
20920 2 70.9269 6.04962 84.2742
20921 1 5.33666 0.669834 72.5834
20922 2 5.21539 0.141622 71.743
20923 2 6.30275 0.903171 72.6939
20924 1 76.3541 24.3913 78.3103
20925 2 76.7329 23.8723 79.0765
20926 2 75.3851 24.1687 78.2035
20927 1 19.6573 5.31844 36.0024
20928 2 19.7058 5.65493 36.9429
20929 2 18.7488 4.93709 35.8313
20930 1 108.159 28.8319 71.4946
20931 2 108.481 27.9054 71.3005
20932 2 108.92 29.4745 71.4089
20933 1 96.3604 5.61541 59.3628
20934 2 95.711 5.2607 60.0354
20935 2 96.615 6.5512 59.6066
20936 1 1.95381 28.9265 11.4494
20937 2 2.6768 29.1559 10.7977
20938 2 1.39814 29.738 11.63
20939 1 68.3849 14.9673 35.791
20940 2 67.3886 15.0506 35.7744
20941 2 68.6702 14.2508 35.1544
20942 1 119.953 3.5434 57.9221
20943 2 0.349956 4.2615 58.4935
20944 2 0.0610698 3.78632 56.9581
20945 1 94.3338 7.39022 82.6646
20946 2 95.2685 7.08038 82.8386
20947 2 94.3173 8.38889 82.6158
20948 1 3.43307 2.15405 80.0571
20949 2 2.90072 1.52584 80.6245
20950 2 4.05789 2.67799 80.6359
20951 1 63.0889 9.85501 42.3463
20952 2 63.6159 9.0457 42.6058
20953 2 63.2201 10.5718 43.0311
20954 1 50.6421 24.3203 60.2686
20955 2 50.2843 24.3458 59.3351
20956 2 51.3506 23.6177 60.3349
20957 1 110.744 21.9154 68.4545
20958 2 110.283 22.6739 68.9153
20959 2 110.173 21.0966 68.5075
20960 1 110.029 29.451 53.968
20961 2 109.504 29.0952 53.1944
20962 2 110.483 0.301026 53.7002
20963 1 99.6893 16.8822 23.2218
20964 2 99.0599 17.6556 23.2971
20965 2 99.4043 16.1581 23.8498
20966 1 114.965 29.8106 30.6784
20967 2 114.906 28.8775 30.3241
20968 2 114.062 0.237884 30.6466
20969 1 76.1185 25.4343 71.0201
20970 2 75.9138 25.3363 70.0461
20971 2 76.9774 24.9665 71.2288
20972 1 85.4063 20.8235 64.0137
20973 2 85.1016 20.9684 64.9551
20974 2 86.3866 20.626 64.0073
20975 1 63.7688 1.88002 88.4863
20976 2 64.3559 2.08845 87.704
20977 2 64.2141 1.19612 89.0643
20978 1 31.3163 8.95152 81.2908
20979 2 31.4808 8.2514 80.596
20980 2 31.8215 9.78136 81.0539
20981 1 13.2833 3.14003 39.9242
20982 2 13.3031 2.64981 39.0528
20983 2 12.3525 3.13297 40.2895
20984 1 35.2394 23.3507 85.5802
20985 2 34.9271 22.597 85.0019
20986 2 34.4503 23.7925 86.0069
20987 1 10.6525 20.5107 36.4363
20988 2 11.2969 19.895 35.9829
20989 2 9.71675 20.2242 36.2306
20990 1 78.1449 24.1397 35.8509
20991 2 78.5192 23.2125 35.8471
20992 2 78.0338 24.4504 36.7949
20993 1 24.1539 1.93952 85.5798
20994 2 24.1207 2.91644 85.3688
20995 2 24.2083 1.41647 84.7292
20996 1 97.0374 7.21799 29.8832
20997 2 96.3792 7.95259 29.7186
20998 2 96.5961 6.48479 30.4006
20999 1 87.1614 8.59329 67.3303
21000 2 87.4137 9.51799 67.6154
21001 2 87.926 7.97173 67.5006
21002 1 57.0285 24.8219 34.3879
21003 2 57.6443 24.1345 34.7729
21004 2 56.1832 24.8483 34.9214
21005 1 116.479 11.6756 88.6762
21006 2 116.064 11.6006 87.7697
21007 2 117.311 12.2265 88.6167
21008 1 53.8148 26.5619 84.1187
21009 2 53.6977 27.3861 83.5646
21010 2 54.0136 25.7845 83.5219
21011 1 96.0189 26.7816 57.7848
21012 2 96.8093 27.3695 57.9572
21013 2 95.4654 26.7154 58.6151
21014 1 7.43983 19.9007 80.0835
21015 2 6.5294 19.4973 79.9921
21016 2 7.8937 19.9046 79.1925
21017 1 73.7107 18.0101 91.0023
21018 2 74.5206 18.5966 91.0026
21019 2 73.3964 17.8752 91.942
21020 1 68.6025 27.512 45.8374
21021 2 68.2241 27.3453 44.9269
21022 2 68.7909 26.6379 46.2852
21023 1 75.6216 15.9025 35.7556
21024 2 76.2085 16.6873 35.9544
21025 2 75.9884 15.4021 34.9713
21026 1 91.3972 25.2004 91.0743
21027 2 91.4433 25.0727 90.0836
21028 2 92.3185 25.1519 91.4599
21029 1 14.3515 16.5619 29.6517
21030 2 14.4418 16.0652 30.5149
21031 2 14.8275 17.4386 29.7203
21032 1 39.4028 8.66158 54.1726
21033 2 39.6057 8.75434 55.1474
21034 2 39.615 9.51957 53.7048
21035 1 94.5626 0.579892 52.662
21036 2 93.8538 0.0736392 53.1532
21037 2 94.8363 1.37714 53.2
21038 1 53.0945 23.047 63.1806
21039 2 52.681 22.8182 62.2993
21040 2 53.7604 23.7825 63.0554
21041 1 46.8683 0.0707602 35.0657
21042 2 47.3103 29.2886 34.6265
21043 2 46.0625 29.7589 35.569
21044 1 27.9357 7.8622 65.1223
21045 2 28.0737 7.15925 65.82
21046 2 27.7749 7.42601 64.2369
21047 1 81.4139 24.0576 64.4964
21048 2 81.4528 23.1737 64.0304
21049 2 80.7208 24.6331 64.0623
21050 1 97.5123 10.1737 79.3989
21051 2 97.348 10.547 78.4859
21052 2 98.3303 9.59865 79.3817
21053 1 7.86523 5.36844 83.8361
21054 2 8.84629 5.55092 83.9011
21055 2 7.36117 6.2299 83.8978
21056 1 68.5078 28.8083 70.3196
21057 2 68.4852 29.5621 69.6629
21058 2 67.5854 28.6424 70.6684
21059 1 89.1063 25.0514 83.8722
21060 2 88.4728 24.5182 84.433
21061 2 88.8698 26.0211 83.9327
21062 1 50.916 11.7143 84.4335
21063 2 50.4325 12.1788 83.6916
21064 2 50.2899 11.5683 85.1994
21065 1 50.0694 4.91076 50.2213
21066 2 50.4814 5.74777 49.8612
21067 2 49.1594 4.78985 49.8248
21068 1 61.7827 14.6278 79.6998
21069 2 62.6026 14.66 80.2714
21070 2 62.0483 14.5205 78.7417
21071 1 45.6497 10.1405 44.5831
21072 2 46.2189 10.8495 44.9995
21073 2 44.7016 10.4557 44.5419
21074 1 76.498 23.7941 32.7622
21075 2 77.2968 23.3593 32.3464
21076 2 75.8746 23.0901 33.1023
21077 1 112.433 27.1755 74.2185
21078 2 111.838 27.8027 74.7211
21079 2 111.874 26.5104 73.7234
21080 1 10.3723 14.6216 27.9756
21081 2 11.1241 14.1541 28.4406
21082 2 10.4171 15.6012 28.171
21083 1 6.54026 17.9385 34.4841
21084 2 6.35129 17.9744 35.4654
21085 2 5.92541 18.5635 34.0031
21086 1 32.0705 6.55862 75.5351
21087 2 32.2931 6.02971 74.7162
21088 2 31.089 6.74897 75.5524
21089 1 48.1428 25.183 35.3103
21090 2 47.9285 26.1583 35.2563
21091 2 48.9768 25.0542 35.8469
21092 1 54.9975 6.93381 49.7507
21093 2 55.7114 6.24577 49.8805
21094 2 55.4013 7.84715 49.8032
21095 1 9.92886 23.2452 81.8996
21096 2 10.8872 23.5279 81.9409
21097 2 9.55618 23.194 82.8262
21098 1 37.1901 3.33599 68.7607
21099 2 36.4663 3.84722 69.2241
21100 2 38.0811 3.70108 69.0304
21101 1 90.9037 18.8117 54.5523
21102 2 90.1297 19.129 55.1002
21103 2 91.1553 19.5179 53.8904
21104 1 57.2559 28.3917 71.4556
21105 2 57.523 28.9406 70.6635
21106 2 56.2835 28.5294 71.6439
21107 1 29.1117 18.3941 16.8453
21108 2 28.5125 18.9755 16.2949
21109 2 29.0084 17.442 16.5575
21110 1 11.1497 28.8089 10.3443
21111 2 12.0897 29.1413 10.4213
21112 2 10.5183 29.5835 10.38
21113 1 23.3647 19.9706 47.8703
21114 2 23.0883 19.2917 47.19
21115 2 23.7895 20.75 47.4099
21116 1 94.3775 15.9436 30.8659
21117 2 93.478 16.3694 30.9632
21118 2 94.3638 15.0359 31.2852
21119 1 35.1323 7.26896 81.5752
21120 2 35.9447 7.14737 81.0049
21121 2 35.3969 7.25492 82.5395
21122 1 38.2491 0.466851 75.8641
21123 2 38.9352 1.0667 75.4524
21124 2 37.5595 1.0204 76.331
21125 1 52.0412 12.9961 31.241
21126 2 52.846 12.9039 30.6547
21127 2 51.8838 13.9631 31.4414
21128 1 97.7265 29.2658 57.9751
21129 2 97.4917 29.6443 57.0797
21130 2 98.6605 29.531 58.2145
21131 1 0.209798 9.50123 42.9367
21132 2 119.437 8.92159 43.1946
21133 2 1.04855 9.13827 43.3426
21134 1 74.8984 6.19718 33.0648
21135 2 75.054 7.18059 32.9716
21136 2 73.9259 6.00031 32.9404
21137 1 95.4462 3.83892 46.6887
21138 2 95.1397 3.47432 45.8095
21139 2 95.6897 4.80307 46.5831
21140 1 86.4771 15.1737 51.9481
21141 2 86.7926 15.584 52.8037
21142 2 85.4866 15.2869 51.8694
21143 1 1.55836 12.3048 20.9231
21144 2 2.09982 12.8262 21.5826
21145 2 2.11569 11.566 20.5442
21146 1 109.79 6.56915 40.4126
21147 2 109.696 5.74299 40.9681
21148 2 110.598 6.48751 39.8282
21149 1 76.4491 27.4952 45.2042
21150 2 76.8984 27.0795 45.995
21151 2 75.4604 27.3631 45.2751
21152 1 97.5356 8.93937 35.2724
21153 2 96.6233 8.62807 35.5386
21154 2 98.0819 9.11043 36.0924
21155 1 61.7363 16.291 69.7968
21156 2 62.5511 16.0214 69.2835
21157 2 61.9586 16.3456 70.7702
21158 1 118.496 11.5202 51.7581
21159 2 118.233 12.4847 51.7802
21160 2 117.729 10.9731 51.4227
21161 1 18.154 21.7813 78.5403
21162 2 17.8165 21.0292 79.1063
21163 2 17.7776 22.6452 78.8749
21164 1 57.7489 18.4216 36.638
21165 2 58.027 17.4611 36.6475
21166 2 57.0247 18.5522 35.9609
21167 1 104.439 22.8137 64.1973
21168 2 105.27 23.1722 63.7733
21169 2 103.747 23.5349 64.2368
21170 1 23.3952 9.41333 84.6958
21171 2 23.5332 10.4004 84.6145
21172 2 24.099 8.93413 84.1713
21173 1 81.1058 15.1631 46.2095
21174 2 80.7851 16.0452 45.8642
21175 2 81.755 15.3131 46.9551
21176 1 111.123 25.1997 14.8231
21177 2 110.202 25.511 14.591
21178 2 111.541 24.7692 14.0231
21179 1 60.3327 8.79429 71.582
21180 2 61.0321 8.15492 71.9014
21181 2 59.856 9.18697 72.3685
21182 1 47.5584 18.1614 87.3844
21183 2 47.0356 17.8091 86.6082
21184 2 46.9468 18.2979 88.1638
21185 1 4.41342 29.2147 9.82074
21186 2 5.06864 28.744 10.4116
21187 2 4.89966 29.8599 9.23136
21188 1 104.438 8.97779 13.5375
21189 2 105.223 8.36058 13.5871
21190 2 103.593 8.44246 13.5264
21191 1 17.353 8.96716 63.1816
21192 2 17.7182 9.07993 62.2576
21193 2 17.7663 9.6461 63.7885
21194 1 85.9957 29.9199 49.9869
21195 2 85.4393 0.626596 49.5498
21196 2 86.7159 0.351291 50.5303
21197 1 40.1842 27.7891 48.937
21198 2 39.6833 27.6815 49.7958
21199 2 41.125 28.0663 49.1324
21200 1 48.7357 5.55238 80.3286
21201 2 49.2559 4.90499 79.7716
21202 2 48.9031 5.36851 81.2971
21203 1 38.6983 26.9842 88.7038
21204 2 38.4332 27.9413 88.5875
21205 2 39.6628 26.9347 88.9632
21206 1 89.5153 19.0393 78.9746
21207 2 89.216 19.9063 78.5762
21208 2 89.843 19.1962 79.9063
21209 1 12.2832 7.44975 21.13
21210 2 12.0771 7.13166 22.0554
21211 2 12.1178 6.70933 20.4785
21212 1 104.972 12.353 63.3822
21213 2 104.84 13.3306 63.5458
21214 2 105.816 12.2125 62.865
21215 1 0.368952 22.7703 75.9852
21216 2 0.338209 21.7978 75.7542
21217 2 0.166746 23.313 75.17
21218 1 92.8907 27.5488 72.0926
21219 2 93.5582 26.873 71.78
21220 2 92.3733 27.8933 71.3093
21221 1 105.605 13.627 78.6156
21222 2 104.926 13.2271 77.9997
21223 2 106.43 13.8554 78.099
21224 1 27.7506 14.6015 36.8293
21225 2 27.3984 14.0607 37.5932
21226 2 28.6657 14.2793 36.5869
21227 1 35.4056 27.4216 22.9483
21228 2 34.9154 27.8835 22.2091
21229 2 36.3876 27.5819 22.848
21230 1 43.7219 2.15989 45.2645
21231 2 43.4593 1.71077 46.1185
21232 2 44.6967 2.38157 45.2905
21233 1 109.009 4.2754 68.6996
21234 2 109.474 5.04233 68.2572
21235 2 109.668 3.75303 69.2403
21236 1 34.3787 3.00871 72.7629
21237 2 35.2101 3.54653 72.6229
21238 2 34.62 2.11362 73.1379
21239 1 26.9662 4.48332 85.2694
21240 2 26.0188 4.43681 84.9527
21241 2 27.2673 5.43684 85.2811
21242 1 92.5282 22.5632 41.9367
21243 2 91.8441 23.0468 42.4829
21244 2 93.4426 22.873 42.1974
21245 1 62.3946 26.8326 42.7859
21246 2 62.5404 26.2884 43.6121
21247 2 63.0209 26.5252 42.0695
21248 1 108.651 5.29015 59.723
21249 2 109.155 5.62472 60.5194
21250 2 109.288 5.13157 58.9683
21251 1 24.0496 13.8412 22.4335
21252 2 23.8192 14.7286 22.0341
21253 2 23.9199 13.1238 21.7489
21254 1 60.7897 24.2856 45.8985
21255 2 61.6688 24.435 45.4459
21256 2 60.6168 23.3037 45.975
21257 1 69.1502 0.260654 90.0671
21258 2 70.0486 0.0273404 90.4391
21259 2 69.0345 29.8224 89.1757
21260 1 101.334 5.10092 78.0808
21261 2 100.39 4.81256 77.9189
21262 2 101.911 4.79533 77.323
21263 1 63.8354 12.9616 72.338
21264 2 63.4473 12.7227 73.2281
21265 2 64.1965 12.1384 71.9
21266 1 85.3685 14.9692 83.8265
21267 2 84.8146 14.6419 84.592
21268 2 86.3256 14.7222 83.9781
21269 1 23.2824 9.64247 30.9876
21270 2 22.645 9.53737 30.2243
21271 2 24.1098 10.1055 30.6697
21272 1 110.585 4.3049 32.5868
21273 2 111.537 4.60106 32.6567
21274 2 110.289 3.9232 33.4626
21275 1 26.5891 1.40424 69.6881
21276 2 26.7226 1.07758 70.6238
21277 2 25.9092 0.832252 69.2292
21278 1 34.8781 1.00433 56.3668
21279 2 34.0624 1.14727 56.9274
21280 2 35.6312 0.694458 56.9471
21281 1 54.6963 3.07913 58.9099
21282 2 54.3807 3.57874 59.7166
21283 2 54.9419 3.72882 58.1904
21284 1 47.1886 23.0685 42.4253
21285 2 46.2997 23.0618 41.9673
21286 2 47.4283 24.0069 42.6741
21287 1 14.348 19.4501 86.4564
21288 2 13.7447 20.1885 86.7576
21289 2 15.0249 19.2616 87.168
21290 1 4.25106 19.208 62.4461
21291 2 3.93508 18.6092 61.7102
21292 2 3.78321 20.0896 62.3826
21293 1 111.995 22.6575 39.1989
21294 2 112.008 23.6563 39.2469
21295 2 112.752 22.3417 38.6264
21296 1 57.3249 24.0124 76.0029
21297 2 57.2731 23.5481 75.1188
21298 2 57.5214 23.3434 76.7197
21299 1 34.5021 11.4764 57.4794
21300 2 35.3607 11.3117 57.965
21301 2 34.6275 12.2211 56.8238
21302 1 61.8591 17.9402 55.7555
21303 2 60.9978 18.307 56.1072
21304 2 62.46 18.6949 55.4921
21305 1 14.1266 11.1788 78.2263
21306 2 13.8763 10.2131 78.1573
21307 2 14.3589 11.5285 77.3187
21308 1 18.7011 5.11793 82.6869
21309 2 18.9821 4.92666 83.6274
21310 2 18.9191 4.33253 82.1076
21311 1 63.6277 19.8251 50.4472
21312 2 64.3209 19.7272 51.1614
21313 2 63.9708 19.4328 49.5938
21314 1 79.5621 19.2185 48.4641
21315 2 79.5359 18.2623 48.1726
21316 2 79.4778 19.8132 47.6646
21317 1 102.514 18.7148 58.2704
21318 2 101.8 18.0144 58.276
21319 2 102.118 19.5912 57.9953
21320 1 71.7444 12.6417 90.8141
21321 2 71.3148 11.7643 90.6002
21322 2 72.7137 12.4984 91.0135
21323 1 3.47994 26.8173 45.1688
21324 2 3.13337 27.7085 44.876
21325 2 4.47933 26.8406 45.195
21326 1 33.7247 8.57429 79.6022
21327 2 32.966 7.94141 79.4478
21328 2 34.2841 8.24475 80.3628
21329 1 75.0987 5.01952 38.9178
21330 2 74.1688 4.65266 38.8907
21331 2 75.7386 4.28868 39.1553
21332 1 114.666 21.3026 65.1146
21333 2 114.491 21.261 64.1309
21334 2 115.214 22.1129 65.3217
21335 1 14.6322 2.44125 66.3622
21336 2 15.0174 3.00587 67.0922
21337 2 15.2313 2.47649 65.5623
21338 1 28.0213 26.2031 43.0298
21339 2 27.2911 26.7026 42.5637
21340 2 28.2503 25.3822 42.5065
21341 1 33.7311 16.7392 73.4436
21342 2 33.8857 17.1371 74.3479
21343 2 34.1661 17.3118 72.7487
21344 1 64.2038 3.66664 65.3185
21345 2 63.673 2.99969 65.8414
21346 2 64.9878 3.968 65.8613
21347 1 106.59 10.1627 38.9022
21348 2 105.858 9.78141 39.4675
21349 2 106.896 9.47448 38.2444
21350 1 108.603 19.4381 59.3022
21351 2 108.773 20.2294 58.7149
21352 2 109.286 19.4116 60.0317
21353 1 96.7709 7.99632 71.0605
21354 2 95.8404 8.35265 70.9756
21355 2 97.4151 8.75846 71.1241
21356 1 40.8144 3.86843 38.8453
21357 2 40.3578 4.43215 39.5336
21358 2 40.6636 2.90186 39.0526
21359 1 89.8258 8.62537 86.9131
21360 2 89.5623 8.5407 87.8741
21361 2 90.1831 7.75013 86.5871
21362 1 56.713 19.8353 65.8516
21363 2 56.2792 20.6392 65.4447
21364 2 56.0673 19.0717 65.8506
21365 1 88.4813 22.8725 46.1608
21366 2 89.3569 22.4327 45.9612
21367 2 88.1716 23.3789 45.3561
21368 1 93.8206 12.9258 28.881
21369 2 94.6933 12.7451 29.3346
21370 2 93.8469 13.8307 28.4562
21371 1 112.907 27.7658 13.7096
21372 2 111.957 28.0781 13.7419
21373 2 113.009 27.0834 12.9857
21374 1 18.3472 23.6978 34.0629
21375 2 17.9748 24.6015 33.8518
21376 2 18.5536 23.6422 35.0398
21377 1 86.4055 11.1793 30.1589
21378 2 86.39 12.0239 29.6237
21379 2 86.4331 10.3935 29.541
21380 1 115.131 7.34037 54.5835
21381 2 115.005 6.77928 55.4015
21382 2 115.549 6.78822 53.8619
21383 1 104.35 29.1961 52.3423
21384 2 103.497 28.7079 52.5288
21385 2 105.002 28.5744 51.9087
21386 1 33.4364 11.4493 34.6585
21387 2 32.6079 11.766 34.1967
21388 2 33.188 10.9938 35.5134
21389 1 107.985 29.8823 48.1476
21390 2 107.399 0.193141 47.3991
21391 2 107.71 28.9617 48.4254
21392 1 65.7517 13.1613 86.1748
21393 2 65.2956 12.768 85.3765
21394 2 65.1342 13.8036 86.6287
21395 1 13.5031 15.9869 32.2044
21396 2 12.6933 15.4066 32.2903
21397 2 13.2445 16.9428 32.3436
21398 1 18.5405 13.8495 71.3905
21399 2 17.5938 13.7077 71.1011
21400 2 18.643 13.5682 72.3447
21401 1 94.5702 23.1719 84.8113
21402 2 94.4568 22.3097 85.3049
21403 2 94.2174 23.0724 83.881
21404 1 20.9573 23.2872 36.686
21405 2 21.2503 23.6931 35.8203
21406 2 21.7159 23.3077 37.3373
21407 1 42.3948 25.2057 70.2269
21408 2 41.9809 24.2983 70.1546
21409 2 43.3853 25.1304 70.1119
21410 1 55.4109 9.11282 62.4754
21411 2 55.6 9.25648 63.4468
21412 2 54.8243 9.84889 62.1376
21413 1 106.535 18.0193 86.9119
21414 2 106.406 17.0761 86.6057
21415 2 107.214 18.0417 87.6454
21416 1 3.23355 5.76205 40.5171
21417 2 3.78879 5.02268 40.8979
21418 2 2.3175 5.41842 40.3103
21419 1 91.5166 22.3243 45.3549
21420 2 91.209 22.803 44.5326
21421 2 91.7479 21.3793 45.1237
21422 1 109.553 8.07423 56.0123
21423 2 109.115 7.79818 55.1565
21424 2 110.393 7.5477 56.142
21425 1 59.7923 18.129 33.58
21426 2 59.7815 19.1279 33.6253
21427 2 58.8535 17.787 33.5399
21428 1 94.3472 2.44796 48.6434
21429 2 93.4382 2.11082 48.3986
21430 2 94.7217 2.97891 47.8832
21431 1 53.3001 5.5267 55.6227
21432 2 54.1768 5.1497 55.9215
21433 2 52.7413 4.79786 55.227
21434 1 25.0686 26.7523 60.7427
21435 2 24.3478 27.0736 60.1285
21436 2 24.9405 25.7775 60.9257
21437 1 25.0348 24.6872 79.5967
21438 2 25.7885 24.3783 79.0167
21439 2 24.1851 24.6827 79.0696
21440 1 36.9915 27.4282 65.0497
21441 2 36.1885 27.1998 64.4992
21442 2 36.7002 27.7033 65.9659
21443 1 76.4163 8.24554 72.5369
21444 2 76.7188 7.93005 71.6374
21445 2 75.4179 8.21397 72.5828
21446 1 117.328 22.931 42.6714
21447 2 116.731 22.4223 43.2919
21448 2 118.157 22.3996 42.4958
21449 1 37.1762 7.51655 34.7693
21450 2 37.5618 7.71865 35.6696
21451 2 36.9809 6.5381 34.7024
21452 1 1.31291 10.1235 18.1709
21453 2 0.993562 9.48401 18.8703
21454 2 0.853726 9.92663 17.3047
21455 1 70.4851 4.89915 71.8526
21456 2 71.2099 4.4118 71.3657
21457 2 70.2473 5.73083 71.3508
21458 1 106.926 11.9904 42.2519
21459 2 107.843 11.6083 42.1371
21460 2 106.883 12.8899 41.8171
21461 1 112.788 8.03723 47.0835
21462 2 112.704 8.8621 46.5243
21463 2 113.498 7.44574 46.7016
21464 1 99.5126 17.3068 65.8311
21465 2 100.058 16.9224 65.0864
21466 2 100.019 17.2278 66.69
21467 1 80.7495 4.51416 70.6182
21468 2 80.5543 5.46426 70.8615
21469 2 81.2392 4.07157 71.3694
21470 1 64.9113 8.19625 81.6648
21471 2 64.1912 7.5073 81.5821
21472 2 65.7067 7.91307 81.129
21473 1 111.399 27.2585 38.8204
21474 2 110.66 27.236 38.1475
21475 2 112.079 26.5614 38.5922
21476 1 48.1771 3.66117 48.1525
21477 2 47.3804 4.24017 48.3258
21478 2 47.9336 2.94687 47.4964
21479 1 70.1516 21.4786 43.3158
21480 2 70.8835 21.2729 43.9655
21481 2 69.5078 22.121 43.7315
21482 1 16.6946 16.6894 17.5153
21483 2 16.8402 16.5376 18.493
21484 2 16.9086 15.8519 17.0125
21485 1 118.414 7.84908 22.6557
21486 2 118.032 7.10131 22.1125
21487 2 119.084 7.48348 23.3017
21488 1 62.8266 23.8815 65.4962
21489 2 63.5748 23.2618 65.2591
21490 2 62.3013 23.495 66.2543
21491 1 31.1885 1.69856 85.7464
21492 2 30.842 1.45503 84.8405
21493 2 30.4377 2.04619 86.3081
21494 1 23.2213 27.5972 69.3371
21495 2 23.9309 28.2954 69.4323
21496 2 22.5834 27.8664 68.6156
21497 1 93.6574 14.5328 40.8738
21498 2 93.6359 15.2741 40.203
21499 2 93.3139 14.8673 41.7514
21500 1 20.3849 0.690057 87.181
21501 2 19.4861 0.281621 87.3403
21502 2 20.3019 1.42752 86.5108
21503 1 70.758 20.5813 70.4925
21504 2 70.5415 19.8275 69.8721
21505 2 71.6047 20.3762 70.9835
21506 1 117.269 28.7378 53.1774
21507 2 117.693 28.4181 52.3299
21508 2 116.311 28.9653 53.0057
21509 1 36.5751 5.53551 29.1459
21510 2 35.8796 5.32211 28.4597
21511 2 36.232 5.29545 30.054
21512 1 24.2443 28.6478 73.9379
21513 2 24.727 28.5479 73.0679
21514 2 23.6738 29.4685 73.9103
21515 1 95.3213 29.0363 80.8102
21516 2 95.4104 29.5955 81.6344
21517 2 94.8454 29.5588 80.1027
21518 1 87.6556 3.50789 87.611
21519 2 87.7885 2.85536 88.357
21520 2 86.6817 3.71544 87.5192
21521 1 118.963 22.4738 23.8347
21522 2 119.491 23.2215 23.432
21523 2 118.579 22.7701 24.7094
21524 1 22.5674 20.5759 40.9484
21525 2 22.7747 19.6394 41.2311
21526 2 22.5131 21.1635 41.7557
21527 1 30.1388 12.0522 82.3874
21528 2 30.5809 11.8968 81.504
21529 2 29.6172 12.9048 82.3537
21530 1 115.841 27.3418 26.5775
21531 2 115.069 26.77 26.3015
21532 2 115.876 28.157 25.9993
21533 1 39.2621 0.882262 35.6096
21534 2 39.1699 0.508207 36.5324
21535 2 38.7311 1.72658 35.5376
21536 1 10.0872 23.6295 71.7078
21537 2 9.92768 23.2327 72.6117
21538 2 9.62245 24.5128 71.6449
21539 1 119.04 12.5501 27.5246
21540 2 119.935 12.132 27.3656
21541 2 118.357 12.1035 26.9477
21542 1 13.8347 14.5047 39.0751
21543 2 13.9353 14.5291 38.0804
21544 2 14.1602 13.625 39.4216
21545 1 109.734 17.636 33.0603
21546 2 109.242 18.4827 32.8582
21547 2 109.152 16.8523 32.8443
21548 1 98.5193 22.785 24.2759
21549 2 97.8487 22.166 24.6846
21550 2 98.4874 22.7004 23.28
21551 1 79.3521 28.8644 76.4708
21552 2 79.793 29.561 75.9048
21553 2 79.7879 27.9789 76.3094
21554 1 28.8615 21.254 19.1488
21555 2 28.7591 21.8182 19.9681
21556 2 28.9132 21.8432 18.3426
21557 1 116.448 27.9526 38.0197
21558 2 116.447 27.7192 38.9921
21559 2 115.612 28.4539 37.7961
21560 1 5.048 11.919 75.846
21561 2 5.89081 11.3816 75.8159
21562 2 4.34491 11.4674 75.2967
21563 1 45.039 5.07593 42.1024
21564 2 44.1521 5.40587 42.4257
21565 2 45.4049 4.41126 42.7538
21566 1 5.14141 14.6413 46.7723
21567 2 5.96215 14.8611 46.245
21568 2 5.36402 13.9552 47.4649
21569 1 61.1088 21.6503 56.479
21570 2 61.8462 21.1961 55.9791
21571 2 60.3223 21.0361 56.5438
21572 1 12.1804 26.326 60.2757
21573 2 12.1254 25.3398 60.1192
21574 2 12.8944 26.5173 60.9491
21575 1 102.838 2.59408 67.7087
21576 2 102.225 2.21545 67.0153
21577 2 102.816 2.0161 68.5245
21578 1 11.3876 23.9675 74.7591
21579 2 11.6991 23.0377 74.563
21580 2 12.1328 24.6118 74.5871
21581 1 36.9605 18.1222 83.9441
21582 2 37.3368 17.7484 83.0964
21583 2 36.0414 18.4772 83.7728
21584 1 16.4516 16.2676 66.482
21585 2 17.227 16.3823 65.861
21586 2 16.5024 16.9527 67.2087
21587 1 35.6813 15.8374 39.2564
21588 2 35.9481 14.8738 39.238
21589 2 35.8179 16.2036 40.1769
21590 1 114.077 20.7848 40.6845
21591 2 114.401 21.3723 39.9428
21592 2 114.721 20.0319 40.8186
21593 1 46.152 19.382 46.6328
21594 2 46.4625 19.6958 45.7355
21595 2 46.7861 19.7034 47.3361
21596 1 107.056 20.2902 22.1673
21597 2 107.638 20.2416 22.979
21598 2 106.786 21.2397 22.0071
21599 1 32.2257 7.56736 51.1787
21600 2 32.2053 8.09114 50.3271
21601 2 31.2909 7.3453 51.4559
21602 1 94.0122 27.5215 68.8763
21603 2 93.0852 27.872 69.0097
21604 2 94.2481 26.9077 69.6296
21605 1 71.3521 20.8238 32.9526
21606 2 71.9578 20.7326 33.743
21607 2 70.8305 19.979 32.8331
21608 1 9.97769 3.90612 56.9165
21609 2 9.1662 3.3841 56.6539
21610 2 9.70071 4.71169 57.4403
21611 1 115.713 17.3609 12.5072
21612 2 116.006 16.4637 12.1768
21613 2 114.742 17.3274 12.7465
21614 1 84.0834 24.1951 36.9433
21615 2 84.2414 23.2315 37.1592
21616 2 83.1056 24.3949 37.0068
21617 1 52.1135 17.4283 46.6094
21618 2 52.5406 17.8346 45.8016
21619 2 51.1619 17.1998 46.404
21620 1 22.525 26.6002 48.5915
21621 2 23.4497 26.5674 48.971
21622 2 21.8595 26.4433 49.3212
21623 1 0.171561 29.8061 70.5328
21624 2 0.422349 29.1957 69.7815
21625 2 119.281 0.218964 70.3437
21626 1 69.4241 7.05514 84.7046
21627 2 69.8436 7.71734 85.3255
21628 2 68.7095 6.55044 85.1889
21629 1 3.67324 8.22538 39.4721
21630 2 3.54825 7.25621 39.6844
21631 2 2.95769 8.52314 38.8402
21632 1 77.1678 11.383 32.4578
21633 2 77.693 10.6322 32.0571
21634 2 77.3006 11.3908 33.4489
21635 1 9.91045 9.23172 83.1169
21636 2 10.1221 8.34038 83.5179
21637 2 10.2753 9.95565 83.7024
21638 1 0.847887 3.17251 41.527
21639 2 0.801851 3.74976 40.7117
21640 2 119.927 2.87088 41.7742
21641 1 59.6469 12.2658 82.2019
21642 2 59.3423 12.8009 81.4139
21643 2 59.9326 11.3571 81.8974
21644 1 34.1503 17.4461 88.415
21645 2 33.1805 17.2327 88.5339
21646 2 34.2484 18.2006 87.7661
21647 1 64.4387 13.1165 90.2315
21648 2 65.1112 13.8265 90.4405
21649 2 64.1962 13.162 89.2624
21650 1 58.756 20.7541 84.7373
21651 2 58.665 19.8838 84.2534
21652 2 59.5165 20.6979 85.3842
21653 1 9.08559 17.7812 49.2454
21654 2 9.73237 18.2535 48.6465
21655 2 9.41229 17.8253 50.1895
21656 1 33.8885 12.5621 24.9426
21657 2 33.6831 12.6491 25.9174
21658 2 34.7024 13.1004 24.724
21659 1 108.351 23.159 24.8084
21660 2 109.308 23.231 24.5284
21661 2 107.763 23.5108 24.0798
21662 1 23.3767 14.9116 11.7875
21663 2 23.3017 15.8077 11.3501
21664 2 23.5995 15.0306 12.7551
21665 1 74.6777 27.9975 59.8894
21666 2 73.9308 28.5145 59.4714
21667 2 74.3187 27.4383 60.6367
21668 1 63.513 13.1318 36.657
21669 2 63.8963 12.6205 37.4261
21670 2 64.1975 13.7718 36.3078
21671 1 32.6223 27.0515 84.604
21672 2 32.8169 26.6374 83.7148
21673 2 31.8967 27.7322 84.503
21674 1 31.9506 17.4916 16.6394
21675 2 31.1593 18.0656 16.4288
21676 2 31.6824 16.5288 16.6055
21677 1 5.07208 18.2192 74.2863
21678 2 5.94143 17.7909 74.5329
21679 2 4.34226 17.5365 74.3217
21680 1 118.886 16.2259 42.2819
21681 2 119.422 17.0632 42.3944
21682 2 117.916 16.4571 42.214
21683 1 110.297 20.1487 13.1294
21684 2 110.674 20.8884 12.5721
21685 2 109.306 20.2582 13.202
21686 1 53.3116 15.1114 52.2201
21687 2 52.752 14.4778 51.6859
21688 2 53.5869 14.673 53.0757
21689 1 21.2494 16.9527 49.059
21690 2 21.2798 17.2914 48.1186
21691 2 20.9923 17.6984 49.6737
21692 1 11.3675 14.9303 15.1247
21693 2 11.9923 15.7042 15.0213
21694 2 10.4321 15.2686 15.2277
21695 1 93.1609 6.52911 79.234
21696 2 92.5289 7.16303 79.6797
21697 2 93.3908 5.78856 79.8654
21698 1 26.0032 13.4248 38.7758
21699 2 25.3647 13.1099 38.0735
21700 2 26.1047 12.7174 39.4754
21701 1 112.803 28.7342 46.7441
21702 2 113.293 27.9291 47.0786
21703 2 112.355 28.5158 45.8769
21704 1 76.0801 22.9464 87.718
21705 2 76.5882 23.8059 87.7741
21706 2 75.4504 22.8803 88.492
21707 1 100.169 25.0021 43.7493
21708 2 100.529 25.6111 43.0426
21709 2 99.2818 25.3419 44.0618
21710 1 52.7495 23.7623 54.8361
21711 2 52.2906 24.1223 54.0238
21712 2 52.3058 22.9125 55.1205
21713 1 53.6996 23.533 33.5913
21714 2 54.1395 22.7261 33.1971
21715 2 52.8274 23.2693 34.0033
21716 1 55.9828 9.33061 71.6476
21717 2 55.7401 8.44183 71.2589
21718 2 56.7484 9.21935 72.2813
21719 1 95.8534 0.973153 83.0667
21720 2 94.8609 0.854333 83.0933
21721 2 96.273 0.437353 83.7994
21722 1 112.428 25.722 47.1939
21723 2 113.165 26.197 47.6747
21724 2 112.697 25.5646 46.2437
21725 1 15.3428 17.1935 44.3697
21726 2 16.3153 17.3136 44.5691
21727 2 15.212 16.355 43.8409
21728 1 111.556 8.30872 31.1742
21729 2 111.961 9.00672 30.5836
21730 2 110.563 8.42426 31.1943
21731 1 84.639 29.6593 72.7622
21732 2 85.4473 0.192386 72.5124
21733 2 83.858 0.272862 72.879
21734 1 72.6357 7.71909 36.0807
21735 2 72.0731 7.98521 36.8635
21736 2 73.5864 7.97877 36.2499
21737 1 17.6844 28.7644 12.5028
21738 2 18.0084 28.0814 11.8482
21739 2 17.6694 28.3662 13.42
21740 1 7.17803 24.039 26.0576
21741 2 7.03245 23.3551 26.7725
21742 2 7.94524 24.6281 26.3111
21743 1 99.6232 22.9779 58.0428
21744 2 98.8767 22.3365 57.8655
21745 2 100.183 23.0735 57.2198
21746 1 64.2361 14.1138 64.5482
21747 2 63.2953 14.3403 64.2959
21748 2 64.2493 13.2416 65.0372
21749 1 70.9818 0.935204 80.258
21750 2 70.5918 1.84253 80.4151
21751 2 71.9342 1.02751 79.9675
21752 1 18.6343 13.3859 36.4522
21753 2 18.6137 12.6114 35.8199
21754 2 18.489 13.0582 37.3857
21755 1 109.042 7.13029 77.4295
21756 2 108.71 6.23458 77.7254
21757 2 110.035 7.16986 77.537
21758 1 26.9248 7.12781 37.439
21759 2 26.8305 6.62283 38.2969
21760 2 27.3204 6.52976 36.742
21761 1 47.5257 17.3086 90.042
21762 2 48.4193 17.0435 90.4044
21763 2 46.8218 16.7049 90.4163
21764 1 100.093 28.8267 36.2549
21765 2 100.435 29.4229 36.981
21766 2 99.2589 28.3695 36.5645
21767 1 81.7855 18.5754 79.8541
21768 2 82.0685 18.0117 79.0781
21769 2 82.2813 19.4436 79.8338
21770 1 70.0166 6.90592 67.5459
21771 2 69.1303 6.95118 67.085
21772 2 69.8921 7.06893 68.5246
21773 1 102.581 22.4575 40.0031
21774 2 101.612 22.2178 40.0549
21775 2 102.677 23.4518 39.9551
21776 1 27.0581 5.85479 90.1564
21777 2 26.9183 5.04211 89.5907
21778 2 26.1713 6.24204 90.4085
21779 1 15.0636 3.01381 41.8703
21780 2 14.8435 2.51815 42.7105
21781 2 14.2386 3.10803 41.3131
21782 1 71.5749 27.6847 46.275
21783 2 71.2247 27.1542 47.047
21784 2 70.8611 27.773 45.5802
21785 1 27.9958 28.1022 78.5972
21786 2 27.2265 28.3934 79.1659
21787 2 27.7337 27.2934 78.0707
21788 1 47.8826 21.4712 67.4782
21789 2 48.8602 21.4105 67.2765
21790 2 47.7519 21.9192 68.3626
21791 1 105.517 8.85937 27.2397
21792 2 106.14 9.09 26.492
21793 2 105.476 7.86573 27.3444
21794 1 31.2187 19.2043 42.4993
21795 2 31.5573 19.5758 43.3638
21796 2 31.968 19.1622 41.8384
21797 1 40.2315 21.5744 35.7963
21798 2 39.4312 21.1674 36.2365
21799 2 40.1213 21.5357 34.8031
21800 1 31.3212 19.4255 90.6792
21801 2 30.5163 18.8345 90.7316
21802 2 31.1052 20.2354 90.1338
21803 1 103.866 14.6761 58.3527
21804 2 104.304 14.8558 57.4719
21805 2 102.884 14.8509 58.2785
21806 1 101.502 27.1673 21.3128
21807 2 101.698 26.6898 20.4563
21808 2 102.319 27.659 21.6147
21809 1 85.1338 20.0078 60.5932
21810 2 84.2351 20.1534 60.1795
21811 2 85.46 19.0899 60.3673
21812 1 11.8218 11.2036 26.8988
21813 2 12.622 11.3459 27.4814
21814 2 11.7287 11.9729 26.2666
21815 1 23.7844 25.0327 64.0116
21816 2 23.374 24.6883 64.856
21817 2 23.135 25.6345 63.5468
21818 1 18.1992 22.9337 49.6823
21819 2 17.6984 23.7917 49.7959
21820 2 17.9878 22.5403 48.7876
21821 1 101.24 9.86625 59.4847
21822 2 101.911 9.34811 58.954
21823 2 101.685 10.2638 60.2871
21824 1 97.289 2.81521 79.4534
21825 2 96.5157 3.35602 79.7845
21826 2 97.8468 3.37285 78.8387
21827 1 23.3284 21.5562 24.607
21828 2 22.828 21.1158 23.8616
21829 2 22.7031 21.7399 25.3654
21830 1 34.4691 24.8084 23.6247
21831 2 33.8007 24.2627 23.1194
21832 2 34.7837 25.5648 23.0512
21833 1 7.4142 16.9095 27.9834
21834 2 7.58536 17.8337 27.642
21835 2 6.84267 16.9573 28.8026
21836 1 119.084 7.79164 46.1981
21837 2 119.8 8.4791 46.3221
21838 2 118.483 7.78877 46.9969
21839 1 89.7045 17.1151 88.8096
21840 2 88.8886 17.6522 88.5951
21841 2 90.0768 17.4113 89.6892
21842 1 117.093 11.2778 37.4885
21843 2 117.626 10.4323 37.514
21844 2 116.6 11.3873 38.3517
21845 1 11.4807 7.36923 26.7882
21846 2 11.604 6.56037 27.3631
21847 2 11.6864 7.13696 25.8376
21848 1 30.1104 10.9079 64.7943
21849 2 31.1074 10.8325 64.7763
21850 2 29.7414 10.6644 63.8973
21851 1 19.9025 26.5189 11.582
21852 2 20.2588 27.0277 12.3657
21853 2 19.0627 26.0447 11.8464
21854 1 21.2082 12.9832 81.2844
21855 2 20.9397 12.3084 81.9718
21856 2 20.4008 13.2776 80.7731
21857 1 74.0427 3.08976 62.1553
21858 2 73.2143 2.55226 61.9974
21859 2 74.3635 3.4702 61.288
21860 1 94.2715 4.62617 70.2407
21861 2 95.201 4.32731 70.0245
21862 2 94.2202 4.88365 71.2056
21863 1 20.6675 17.0175 61.5973
21864 2 20.0912 16.4832 62.2158
21865 2 20.2081 17.8768 61.3726
21866 1 116.082 20.5571 25.9825
21867 2 115.334 20.3525 26.6142
21868 2 115.734 20.5611 25.0448
21869 1 68.0494 12.2673 72.0835
21870 2 68.3224 13.0493 71.5232
21871 2 67.1883 11.8941 71.738
21872 1 114.409 18.1334 16.3549
21873 2 115.15 18.286 15.7008
21874 2 113.928 18.9943 16.5207
21875 1 65.7543 6.86891 50.8028
21876 2 66.2566 6.62169 49.9742
21877 2 65.3873 7.79413 50.7066
21878 1 100.082 16.1363 28.1518
21879 2 100.525 16.1049 27.2557
21880 2 100.284 15.2949 28.653
21881 1 81.8492 26.4223 80.89
21882 2 82.3976 26.9384 80.232
21883 2 82.067 26.7271 81.8172
21884 1 52.7528 18.5041 64.6496
21885 2 52.5527 17.5687 64.9411
21886 2 51.9403 18.9012 64.2228
21887 1 109.964 4.9911 74.3083
21888 2 110.322 4.43247 75.0563
21889 2 109.916 5.94669 74.5991
21890 1 85.9544 9.14695 77.0621
21891 2 85.746 9.03925 78.0342
21892 2 86.0532 10.1188 76.8481
21893 1 52.164 21.3456 38.1013
21894 2 52.4543 21.5545 39.0351
21895 2 51.8316 20.4034 38.0585
21896 1 7.08183 27.1082 32.765
21897 2 7.69577 27.8354 33.072
21898 2 6.73261 26.6097 33.5585
21899 1 63.756 1.57041 45.1281
21900 2 63.5256 0.780688 44.5595
21901 2 64.6076 1.38977 45.6202
21902 1 66.1985 16.2341 44.282
21903 2 65.8715 15.8966 43.3993
21904 2 66.3166 15.4649 44.91
21905 1 90.0962 18.5975 68.5736
21906 2 90.1711 17.6027 68.5053
21907 2 90.8899 19.0222 68.1379
21908 1 12.6841 4.1305 43.8458
21909 2 12.969 5.0553 44.0979
21910 2 11.9604 4.18068 43.1575
21911 1 47.5383 2.53353 32.0588
21912 2 47.1016 2.52792 32.9584
21913 2 47.8681 3.45513 31.8541
21914 1 107.818 16.5992 79.4678
21915 2 108.614 16.3646 80.0259
21916 2 108.024 17.4075 78.9162
21917 1 98.4034 21.1752 88.0555
21918 2 98.6763 20.3821 87.511
21919 2 97.6342 21.6353 87.612
21920 1 24.4956 9.36513 76.1739
21921 2 24.803 8.41769 76.2626
21922 2 24.4101 9.5985 75.2053
21923 1 108.018 6.00236 80.8891
21924 2 107.473 6.33148 81.6605
21925 2 108.989 6.04082 81.1259
21926 1 114.998 23.5002 24.0872
21927 2 114.889 22.5096 24.1687
21928 2 114.751 23.9352 24.9531
21929 1 11.9115 15.9303 21.6482
21930 2 11.1967 15.3014 21.9537
21931 2 12.0868 16.608 22.3624
21932 1 8.84355 25.9985 61.812
21933 2 8.88325 26.9562 62.0971
21934 2 9.33342 25.8875 60.9473
21935 1 76.0938 21.436 74.7744
21936 2 76.9843 21.0261 74.9719
21937 2 75.6447 21.6867 75.632
21938 1 9.6098 17.2367 20.2112
21939 2 10.1948 16.9918 20.9843
21940 2 8.70015 17.4823 20.5462
21941 1 39.9643 24.705 73.2311
21942 2 39.8015 24.2761 74.1196
21943 2 40.1328 23.9971 72.5451
21944 1 36.3467 18.3687 53.4438
21945 2 37.05 18.7362 54.0523
21946 2 36.5455 17.4088 53.2459
21947 1 69.4557 15.911 74.4633
21948 2 69.9221 16.522 75.103
21949 2 70.0641 15.1555 74.2204
21950 1 75.5816 14.8366 65.2832
21951 2 75.1919 14.6631 66.1876
21952 2 74.8476 14.871 64.6049
21953 1 49.4958 24.9623 47.5051
21954 2 49.7324 25.0481 48.4729
21955 2 49.1388 25.8345 47.1706
21956 1 104.771 19.5962 75.6314
21957 2 104.267 18.7334 75.594
21958 2 105.266 19.7304 74.773
21959 1 60.1264 29.7796 50.1114
21960 2 60.5313 29.5829 51.0044
21961 2 60.8428 29.7815 49.4137
21962 1 23.1885 24.5543 87.8226
21963 2 22.4952 23.9082 87.5033
21964 2 22.9203 25.4836 87.5687
21965 1 36.665 21.9523 33.3137
21966 2 36.5283 21.0548 33.733
21967 2 37.131 22.5552 33.9613
21968 1 14.5734 1.6264 75.7531
21969 2 13.5851 1.49541 75.8317
21970 2 14.76 2.52629 75.3589
21971 1 108.6 22.399 37.4619
21972 2 109.265 21.9889 38.0861
21973 2 107.689 22.0356 37.6593
21974 1 94.3987 16.3275 85.7576
21975 2 94.2571 15.5514 85.1431
21976 2 95.3731 16.4158 85.964
21977 1 17.9909 15.217 32.3368
21978 2 18.6354 14.5416 31.9784
21979 2 17.262 14.7494 32.8369
21980 1 30.8596 11.7341 22.0165
21981 2 30.2461 11.9525 22.7754
21982 2 31.7241 12.2224 22.1357
21983 1 115.92 3.58594 83.6931
21984 2 116.424 4.41207 83.4414
21985 2 114.955 3.81175 83.8255
21986 1 24.36 18.7511 38.8736
21987 2 24.7718 19.493 39.4027
21988 2 23.5143 18.4547 39.3174
21989 1 21.6596 16.9148 72.5527
21990 2 21.0081 17.4235 73.1154
21991 2 21.2802 16.7875 71.6362
21992 1 93.2255 1.14767 68.548
21993 2 92.5073 1.10867 67.8532
21994 2 92.827 0.977327 69.4492
21995 1 69.5204 18.2673 62.2857
21996 2 70.18 19.0019 62.445
21997 2 69.2565 17.8608 63.1604
21998 1 107.087 3.16854 17.8596
21999 2 106.418 2.52854 17.4807
22000 2 106.737 4.10193 17.78
22001 1 17.9931 17.5393 42.0384
22002 2 17.8825 17.5141 43.032
22003 2 17.6759 18.4213 41.69
22004 1 37.9633 6.20445 65.4873
22005 2 37.5523 6.89688 64.8943
22006 2 37.5654 5.31046 65.2812
22007 1 13.5381 10.0876 42.8605
22008 2 13.899 11.0154 42.7665
22009 2 13.2376 9.75465 41.9667
22010 1 10.3253 2.2706 71.5368
22011 2 9.60508 2.10132 72.2096
22012 2 10.4995 1.434 71.0174
22013 1 82.3644 24.8562 56.647
22014 2 82.0411 25.8024 56.6648
22015 2 81.5934 24.2438 56.4723
22016 1 50.8946 1.34028 38.977
22017 2 50.6971 0.776926 39.7792
22018 2 50.6014 2.2806 39.1496
22019 1 30.8564 26.89 70.786
22020 2 31.1358 25.9407 70.93
22021 2 30.7861 27.0715 69.8051
22022 1 75.3239 19.6815 31.046
22023 2 74.352 19.449 31.0086
22024 2 75.7708 19.3829 30.2027
22025 1 66.3687 24.2624 47.8335
22026 2 66.477 23.2689 47.7987
22027 2 67.2158 24.7008 47.5333
22028 1 81.418 25.1143 37.3033
22029 2 81.4618 24.7543 38.2352
22030 2 80.8358 25.9272 37.287
22031 1 13.8108 27.13 86.5866
22032 2 14.2709 26.798 87.4101
22033 2 13.034 26.5364 86.3765
22034 1 97.786 17.0977 37.5142
22035 2 98.4075 16.4417 37.9425
22036 2 96.8402 16.8238 37.6889
22037 1 9.42675 28.4549 62.6625
22038 2 9.73387 29.0127 61.8915
22039 2 9.45039 29.0015 63.4996
22040 1 73.8591 11.26 81.9992
22041 2 74.7967 11.038 82.2669
22042 2 73.7661 11.1728 81.0074
22043 1 36.0176 8.97793 40.7799
22044 2 36.2497 9.62108 41.5097
22045 2 35.9081 9.47552 39.9195
22046 1 63.1674 8.52998 85.5167
22047 2 63.4883 7.82465 86.1487
22048 2 62.1824 8.42888 85.3767
22049 1 59.6443 16.6217 57.8349
22050 2 59.7546 17.0689 58.7225
22051 2 60.4524 16.0662 57.6388
22052 1 90.6027 26.5777 49.8015
22053 2 90.0679 25.9466 49.2397
22054 2 90.4985 26.3355 50.7661
22055 1 114.367 5.78045 77.6921
22056 2 114.543 4.90353 78.1394
22057 2 114.241 5.63471 76.7108
22058 1 46.8007 18.7498 81.8594
22059 2 46.851 17.7689 81.6715
22060 2 46.1967 19.1863 81.1926
22061 1 88.2202 20.1355 48.249
22062 2 87.4588 20.4915 47.7071
22063 2 88.6364 19.3619 47.7711
22064 1 105.481 25.1037 89.1225
22065 2 105.216 25.2198 88.1651
22066 2 105.639 24.1342 89.3092
22067 1 106.655 26.2857 12.7228
22068 2 106.058 26.1311 13.5098
22069 2 106.849 25.4128 12.2754
22070 1 7.2494 3.96539 67.6841
22071 2 6.74379 4.82789 67.7056
22072 2 6.60973 3.2071 67.5583
22073 1 7.14596 3.78015 54.3563
22074 2 6.92176 3.44073 53.4428
22075 2 7.62436 3.06701 54.8687
22076 1 34.734 18.381 21.4695
22077 2 35.0676 19.1344 20.9029
22078 2 34.9937 18.54 22.422
22079 1 112.131 21.7859 42.2371
22080 2 111.179 21.5848 42.0049
22081 2 112.734 21.3743 41.5544
22082 1 19.8883 20.146 90.375
22083 2 20.2546 20.196 91.3041
22084 2 20.5647 20.5025 89.7304
22085 1 16.6475 8.38326 85.0558
22086 2 16.8024 7.8045 85.8565
22087 2 15.9608 9.07683 85.2738
22088 1 100.541 3.6497 16.7882
22089 2 100.858 4.38066 16.1836
22090 2 101.26 3.42763 17.4471
22091 1 86.5986 11.2047 32.7424
22092 2 86.6814 11.1498 31.7473
22093 2 87.4769 11.4766 33.1355
22094 1 105.626 3.1895 89.2969
22095 2 105.142 3.58128 88.5143
22096 2 106.612 3.24846 89.1426
22097 1 14.4654 14.5349 75.2247
22098 2 15.1074 14.2387 75.9318
22099 2 14.9363 14.5776 74.3435
22100 1 108.117 15.6517 42.5376
22101 2 107.686 16.061 41.7332
22102 2 108.628 14.8371 42.2637
22103 1 8.50485 10.6818 34.4508
22104 2 9.36279 10.2367 34.1943
22105 2 7.95189 10.051 34.9952
22106 1 94.2334 0.66023 56.1825
22107 2 95.0959 0.54646 55.6893
22108 2 93.508 0.165508 55.7039
22109 1 49.8591 8.06506 70.2606
22110 2 49.3598 8.93015 70.2124
22111 2 50.7567 8.22078 70.673
22112 1 114.278 17.6091 90.2499
22113 2 114.895 17.2609 89.5439
22114 2 114.12 16.8978 90.9348
22115 1 25.4109 28.2053 35.6102
22116 2 26.1296 28.7792 36.0027
22117 2 25.8068 27.6027 34.9172
22118 1 89.6806 9.15327 82.4405
22119 2 88.9533 8.76315 83.0052
22120 2 90.0199 8.45796 81.8069
22121 1 54.5409 19.5752 79.279
22122 2 53.8734 19.977 79.9058
22123 2 55.4463 19.5874 79.7035
22124 1 86.3661 9.22185 90.6086
22125 2 86.4257 9.55556 89.6679
22126 2 85.5093 8.72089 90.7309
22127 1 26.2421 14.1531 10.7246
22128 2 25.4247 14.6984 10.9104
22129 2 27.0574 14.7104 10.8819
22130 1 53.1558 28.7769 82.6094
22131 2 54.0078 29.2928 82.521
22132 2 52.3815 29.3732 82.3976
22133 1 79.9915 6.73363 31.9093
22134 2 80.76 6.73294 31.2694
22135 2 79.921 5.83702 32.3465
22136 1 69.6848 3.5761 80.8332
22137 2 69.6286 4.57397 80.8663
22138 2 68.9483 3.21961 80.2584
22139 1 24.7558 1.61428 60.4642
22140 2 25.0685 2.53429 60.2279
22141 2 24.0382 1.33235 59.8274
22142 1 18.4834 12.5336 53.1554
22143 2 18.3214 13.1296 53.9419
22144 2 17.644 12.456 52.6175
22145 1 53.8044 0.862572 76.9758
22146 2 52.8554 0.547372 76.9729
22147 2 54.393 0.151387 76.5914
22148 1 113.148 8.3097 33.2996
22149 2 112.66 8.29113 32.427
22150 2 113.664 7.46032 33.4112
22151 1 119.203 6.15703 49.2507
22152 2 118.912 7.08441 49.0152
22153 2 0.182702 6.15533 49.4496
22154 1 52.6322 4.23653 67.5516
22155 2 52.8023 3.52423 66.8707
22156 2 52.737 5.13569 67.1267
22157 1 2.99064 17.782 45.7265
22158 2 3.24212 18.6941 45.4029
22159 2 2.2404 17.8564 46.3835
22160 1 56.9053 11.7958 60.8752
22161 2 57.2059 11.2492 60.0936
22162 2 56.1022 11.3692 61.2911
22163 1 17.2664 26.6511 20.9573
22164 2 16.3418 26.4956 20.6096
22165 2 17.9236 26.5599 20.2091
22166 1 94.6721 12.4126 76.6419
22167 2 94.0022 12.7595 77.2982
22168 2 94.7637 13.0601 75.8853
22169 1 100.779 28.2578 64.478
22170 2 100.662 27.6672 63.6795
22171 2 100.188 29.0598 64.3884
22172 1 101.763 2.17407 89.7782
22173 2 102.405 2.03887 90.5328
22174 2 102.22 1.97542 88.9115
22175 1 8.50818 24.5431 88.7982
22176 2 7.75991 25.01 88.3269
22177 2 8.14054 24.007 89.5581
22178 1 52.3089 26.7899 30.7097
22179 2 52.334 27.6976 30.2908
22180 2 53.1138 26.2692 30.4252
22181 1 35.4038 26.5738 40.5216
22182 2 36.0885 25.8462 40.5636
22183 2 35.8497 27.4591 40.6538
22184 1 68.155 24.219 75.0934
22185 2 68.7787 24.7059 74.4818
22186 2 67.3427 23.9352 74.584
22187 1 5.55297 10.9707 46.2024
22188 2 4.63755 11.2873 45.9539
22189 2 5.82473 11.3852 47.0709
22190 1 44.8047 16.8271 49.0508
22191 2 45.2562 15.9392 49.1391
22192 2 43.8406 16.737 49.3004
22193 1 41.982 16.8343 71.3368
22194 2 42.5019 17.464 71.9142
22195 2 41.0756 17.217 71.1583
22196 1 1.20747 7.6513 54.524
22197 2 2.18748 7.64969 54.325
22198 2 1.06783 7.58668 55.5121
22199 1 101.084 4.54827 59.0774
22200 2 100.23 5.03506 59.2642
22201 2 101.056 4.1704 58.152
22202 1 67.9076 4.70073 62.4466
22203 2 67.9674 5.55212 62.9677
22204 2 68.7539 4.56489 61.9316
22205 1 8.8222 23.4483 53.9516
22206 2 8.96927 23.8611 53.0528
22207 2 9.68993 23.4109 54.4473
22208 1 101.13 15.4135 90.6417
22209 2 102.049 15.0563 90.8097
22210 2 100.648 14.8081 90.0086
22211 1 81.3306 9.16331 33.0232
22212 2 81.2692 8.97485 34.0033
22213 2 80.4119 9.29387 32.6506
22214 1 14.3558 8.65443 54.9617
22215 2 13.5278 8.90888 55.4613
22216 2 14.7646 9.4718 54.5557
22217 1 60.2777 0.16966 67.5146
22218 2 60.9539 29.4339 67.5521
22219 2 60.745 1.04644 67.4012
22220 1 59.8555 29.6823 55.2539
22221 2 60.2958 29.9207 54.3883
22222 2 59.2967 28.8624 55.1289
22223 1 40.9319 23.5207 79.9492
22224 2 40.4509 22.6623 79.7708
22225 2 41.902 23.4103 79.733
22226 1 6.79629 9.2707 89.8661
22227 2 6.63301 8.29235 89.739
22228 2 6.44988 9.77224 89.0734
22229 1 49.4147 19.2518 42.4741
22230 2 49.5486 19.7941 41.6447
22231 2 48.5952 18.6873 42.3746
22232 1 84.6473 7.67155 69.5233
22233 2 84.907 8.63126 69.4159
22234 2 83.656 7.5817 69.4273
22235 1 98.6699 9.02657 32.6343
22236 2 98.1153 9.44587 31.9156
22237 2 98.2963 9.2712 33.529
22238 1 19.476 28.9972 33.5778
22239 2 18.7392 28.7076 32.9669
22240 2 19.9456 28.1915 33.9389
22241 1 98.4924 12.5806 17.5735
22242 2 98.3483 11.6319 17.2918
22243 2 99.4607 12.7243 17.7777
22244 1 118.903 22.8908 10.4342
22245 2 119.712 22.3216 10.5791
22246 2 119.05 23.7899 10.8466
22247 1 106.611 17.6944 28.9775
22248 2 106.83 16.8008 29.3691
22249 2 107.13 18.4036 29.4541
22250 1 31.0593 20.6749 74.023
22251 2 31.5697 19.9019 73.6463
22252 2 31.6019 21.5097 73.93
22253 1 81.7984 13.1634 85.0562
22254 2 81.7857 12.5932 84.2348
22255 2 81.5748 14.1066 84.8106
22256 1 36.2573 13.1169 87.827
22257 2 35.479 12.4976 87.9307
22258 2 36.4469 13.2541 86.8548
22259 1 7.38495 11.8676 83.8571
22260 2 6.92018 12.5614 84.4072
22261 2 8.34681 11.8182 84.1261
22262 1 2.70255 11.9367 39.1969
22263 2 3.41385 11.7245 38.5268
22264 2 1.83211 12.0784 38.7255
22265 1 47.1089 28.3251 85.2755
22266 2 47.0457 27.7211 84.4811
22267 2 48.0373 28.6906 85.3433
22268 1 92.322 5.6007 55.2047
22269 2 91.7236 5.09241 54.5854
22270 2 92.8627 4.95825 55.7478
22271 1 66.3527 21.8547 88.2964
22272 2 66.315 22.7925 87.9514
22273 2 65.5917 21.3289 87.9164
22274 1 40.0118 20.8675 77.0814
22275 2 39.7943 21.0597 78.0383
22276 2 40.7599 20.2054 77.0361
22277 1 46.8503 28.8077 62.3002
22278 2 47.274 28.2294 62.9974
22279 2 46.8368 29.7561 62.617
22280 1 111.946 5.44117 11.0637
22281 2 111.73 5.92022 10.213
22282 2 111.556 4.52112 11.0368
22283 1 65.0837 25.2742 43.0142
22284 2 64.6827 25.35 42.1012
22285 2 64.3684 25.3912 43.7031
22286 1 19.8781 5.81113 76.0364
22287 2 19.9129 5.98019 75.0514
22288 2 18.9404 5.93152 76.3623
22289 1 38.4834 27.5417 38.265
22290 2 38.0718 27.1826 37.4273
22291 2 38.9671 26.8068 38.7403
22292 1 55.1678 2.45467 42.1981
22293 2 55.4905 1.84777 41.4717
22294 2 54.3576 2.94935 41.8838
22295 1 59.621 9.47121 44.4078
22296 2 59.9553 8.57716 44.1096
22297 2 59.6202 10.1024 43.6322
22298 1 102.786 0.93871 79.302
22299 2 101.935 1.36188 79.612
22300 2 103.043 0.205649 79.9319
22301 1 39.4731 29.0805 41.4843
22302 2 39.1937 28.2178 41.0627
22303 2 38.7031 29.7186 41.4794
22304 1 9.68775 9.51534 45.1951
22305 2 9.48367 10.0332 46.0259
22306 2 8.91436 9.57875 44.5644
22307 1 28.8465 13.4585 32.6659
22308 2 29.6529 12.8671 32.6742
22309 2 29.1302 14.4106 32.7796
22310 1 16.7311 3.37827 23.6124
22311 2 16.23 2.55804 23.8883
22312 2 16.8065 3.40322 22.6156
22313 1 11.8095 29.9087 34.267
22314 2 11.6373 0.77509 34.7358
22315 2 11.7854 29.1605 34.93
22316 1 70.0126 16.4614 89.414
22317 2 70.1201 16.2536 88.4418
22318 2 69.9256 17.4501 89.5359
22319 1 41.0265 16.846 74.7855
22320 2 40.2905 16.5935 74.1574
22321 2 41.8488 16.322 74.5634
22322 1 93.8763 0.539623 45.7504
22323 2 93.9295 0.475521 44.7539
22324 2 93.0146 0.975062 46.0109
22325 1 17.2057 19.9971 40.8899
22326 2 16.6468 20.1849 40.0822
22327 2 17.9576 20.6549 40.9352
22328 1 97.1725 23.7913 79.1222
22329 2 96.7314 22.9275 78.8784
22330 2 98.1568 23.6463 79.2224
22331 1 93.3579 29.4697 28.6186
22332 2 93.4104 28.6498 29.1887
22333 2 93.0199 29.223 27.7103
22334 1 75.6715 16.2962 89.7126
22335 2 75.069 16.6774 90.4138
22336 2 75.6224 15.2977 89.7379
22337 1 74.8838 16.2689 68.2779
22338 2 75.3939 16.385 69.1301
22339 2 75.1997 16.9392 67.6064
22340 1 90.6669 2.3731 56.8619
22341 2 89.8971 2.43175 56.2264
22342 2 90.3757 1.90438 57.6959
22343 1 43.2501 29.2053 69.6235
22344 2 43.9237 28.8304 70.2605
22345 2 42.9112 0.0788878 69.9727
22346 1 4.38762 14.6844 86.7418
22347 2 4.80619 14.0823 87.4218
22348 2 3.46226 14.9253 87.0345
22349 1 99.7606 4.84085 84.357
22350 2 100.633 4.35214 84.3783
22351 2 99.8935 5.74217 83.9448
22352 1 16.213 23.9053 15.0586
22353 2 15.4065 23.9959 15.6428
22354 2 17.004 24.3101 15.5173
22355 1 28.376 17.6439 34.3711
22356 2 28.7118 17.0371 33.6507
22357 2 29.1125 18.2539 34.6634
22358 1 44.4765 12.833 90.6715
22359 2 44.631 12.2269 89.8913
22360 2 43.7123 12.4873 91.2159
22361 1 114.636 13.5562 70.0605
22362 2 115.182 14.3199 69.7161
22363 2 114.947 12.7059 69.6357
22364 1 55.2439 5.13079 78.9129
22365 2 55.0978 4.58326 78.089
22366 2 54.9096 4.62862 79.7105
22367 1 31.6617 0.0559727 33.7256
22368 2 31.51 0.950299 33.3046
22369 2 30.8155 29.5241 33.6923
22370 1 79.3833 15.0433 85.9249
22371 2 79.725 15.2516 85.0085
22372 2 78.9302 14.1519 85.9171
22373 1 94.703 18.3314 47.2052
22374 2 94.1423 19.0819 46.8554
22375 2 94.9184 17.7007 46.4596
22376 1 108.007 26.0508 70.6371
22377 2 108.44 25.1939 70.3576
22378 2 107.448 26.4019 69.8862
22379 1 119.172 4.05387 62.9298
22380 2 119.921 4.5401 62.4783
22381 2 118.303 4.31614 62.5103
22382 1 79.0872 4.74501 58.1952
22383 2 78.9301 4.27451 59.0635
22384 2 80.049 4.65512 57.9366
22385 1 8.2915 14.036 40.6406
22386 2 8.68139 14.4302 41.4728
22387 2 7.66802 14.6951 40.22
22388 1 68.9711 2.05119 35.5263
22389 2 68.8193 2.51479 34.6534
22390 2 69.0831 1.07023 35.3677
22391 1 115.441 9.09664 41.6889
22392 2 114.938 9.53593 42.4332
22393 2 115.268 8.11187 41.7053
22394 1 66.2076 23.2069 62.5897
22395 2 66.4829 24.0875 62.9755
22396 2 67.0018 22.7608 62.1772
22397 1 114.874 20.6023 48.1508
22398 2 114.169 21.1013 48.6553
22399 2 114.478 19.771 47.7601
22400 1 65.6703 21.717 54.2411
22401 2 65.6635 22.0703 53.3056
22402 2 64.7302 21.6237 54.5689
22403 1 116.304 10.6418 47.7466
22404 2 116.24 10.6638 48.7443
22405 2 117.259 10.7462 47.4714
22406 1 92.9556 29.9446 83.2459
22407 2 93.2284 28.9839 83.299
22408 2 92.4725 0.10682 82.3856
22409 1 66.0669 21.1287 58.0352
22410 2 66.2027 22.0698 58.3449
22411 2 66.8704 20.8275 57.5219
22412 1 18.8831 1.58016 25.5489
22413 2 19.1648 2.34883 24.9746
22414 2 19.6894 1.056 25.8231
22415 1 89.1902 20.4369 44.0113
22416 2 89.9347 19.7693 44.0098
22417 2 88.3294 19.9756 44.2267
22418 1 24.0892 1.61566 76.1291
22419 2 23.4513 1.21365 75.4723
22420 2 24.232 2.58027 75.9075
22421 1 70.3404 10.3844 42.2412
22422 2 70.1751 10.8517 41.3726
22423 2 70.0696 10.9804 42.9971
22424 1 37.1793 7.97344 70.7726
22425 2 37.6019 7.39977 71.4743
22426 2 36.5465 7.42263 70.2283
22427 1 60.3156 2.01086 59.9137
22428 2 59.8695 2.85922 60.1989
22429 2 60.8861 2.18754 59.1117
22430 1 31.7243 25.1534 76.34
22431 2 31.4399 24.2315 76.0771
22432 2 32.6345 25.1165 76.7527
22433 1 31.9519 15.4369 80.0091
22434 2 32.0242 15.215 80.9815
22435 2 32.7246 16.0118 79.7401
22436 1 83.2996 13.3121 82.5028
22437 2 84.2933 13.3204 82.6144
22438 2 82.9161 14.1605 82.8677
22439 1 17.3271 16.6328 39.4057
22440 2 17.434 16.6478 40.3999
22441 2 16.3949 16.9045 39.1666
22442 1 117.187 5.13017 61.6156
22443 2 117.484 5.88024 62.2066
22444 2 116.244 4.88201 61.8397
22445 1 87.1159 1.50141 68.3787
22446 2 86.2569 2.01049 68.3237
22447 2 87.8809 2.11686 68.1888
22448 1 44.0536 18.864 69.9491
22449 2 43.4128 18.5256 69.26
22450 2 43.6974 18.6645 70.862
22451 1 8.29364 22.1957 11.9595
22452 2 7.56131 21.8111 11.3976
22453 2 8.22923 23.1936 11.9537
22454 1 4.63683 22.6715 45.1146
22455 2 3.72539 23.0297 45.3171
22456 2 4.56341 21.7165 44.8271
22457 1 2.81589 21.4634 64.2871
22458 2 2.54541 20.6696 64.8319
22459 2 2.18499 21.5709 63.5187
22460 1 36.2233 18.3662 79.9568
22461 2 37.0877 17.9963 80.2974
22462 2 35.6064 17.6137 79.7265
22463 1 88.4161 19.6623 36.6305
22464 2 87.7702 19.2443 35.9917
22465 2 88.0498 19.6064 37.5593
22466 1 42.0026 19.3175 33.0573
22467 2 41.9761 18.9925 32.1119
22468 2 41.2641 19.9756 33.2043
22469 1 107.015 15.418 86.055
22470 2 106.89 15.8158 85.146
22471 2 106.21 14.8752 86.2946
22472 1 45.6237 20.6007 77.9009
22473 2 45.9905 19.8131 77.4057
22474 2 45.3833 20.3265 78.8321
22475 1 117.053 14.6101 83.1551
22476 2 117.01 13.6479 83.4242
22477 2 117.444 15.1481 83.9017
22478 1 21.821 3.65725 14.2251
22479 2 21.4541 3.43329 13.3221
22480 2 22.6659 4.18182 14.1208
22481 1 75.4285 13.8735 40.4129
22482 2 76.3579 14.1212 40.6864
22483 2 74.8657 14.6984 40.3598
22484 1 25.2342 8.89617 36.444
22485 2 25.9552 8.35162 36.8726
22486 2 25.6469 9.6314 35.9063
22487 1 17.882 25.5014 91.0855
22488 2 17.6231 26.3219 90.5759
22489 2 17.2536 24.7569 90.86
22490 1 28.4685 24.9147 37.6162
22491 2 28.7402 25.5152 38.3682
22492 2 28.1529 24.0405 37.9851
22493 1 24.2122 28.8871 14.5021
22494 2 24.1514 29.8805 14.4047
22495 2 23.5235 28.5736 15.1559
22496 1 26.4587 14.9753 81.6257
22497 2 26.3978 15.874 81.1913
22498 2 27.4094 14.7882 81.8727
22499 1 62.2345 18.272 45.1447
22500 2 62.1989 17.3813 44.6915
22501 2 61.6463 18.9176 44.6576
22502 1 62.0308 16.5955 90.7202
22503 2 62.0832 16.9449 91.6557
22504 2 61.6876 15.6564 90.7339
22505 1 33.4471 24.5962 56.5548
22506 2 32.829 25.1392 55.9864
22507 2 33.5711 25.0481 57.4382
22508 1 50.2218 16.0296 38.6288
22509 2 50.6341 15.4263 37.9461
22510 2 50.5017 16.9732 38.4523
22511 1 1.17075 6.82192 21.5448
22512 2 0.400262 7.24866 21.0713
22513 2 2.02855 7.16022 21.1579
22514 1 59.0307 18.7395 68.9456
22515 2 58.3991 17.9737 68.8249
22516 2 58.8568 19.1792 69.8268
22517 1 70.7144 16.1734 39.0717
22518 2 71.0291 16.8498 39.7377
22519 2 71.4482 15.9808 38.4201
22520 1 50.1485 1.03045 75.2128
22521 2 51.0424 1.27847 74.8396
22522 2 49.4486 1.63387 74.8306
22523 1 116.174 16.9708 29.9761
22524 2 115.924 16.1174 29.5187
22525 2 116.559 16.7665 30.8763
22526 1 10.8477 7.92109 60.3148
22527 2 10.1119 7.43348 60.7847
22528 2 10.4608 8.66928 59.7759
22529 1 50.7731 25.4532 53.6639
22530 2 51.2933 25.921 52.9493
22531 2 49.9312 25.96 53.8492
22532 1 37.4095 26.001 86.5997
22533 2 38.0361 26.0411 87.378
22534 2 36.5994 26.5537 86.7952
22535 1 46.6037 12.3377 71.7851
22536 2 47.1317 12.1424 72.6116
22537 2 46.0094 11.5605 71.5779
22538 1 79.848 14.438 58.4679
22539 2 80.2508 14.4415 57.5526
22540 2 78.9216 14.8122 58.4257
22541 1 51.0184 3.51345 45.7474
22542 2 50.9184 2.51845 45.7473
22543 2 50.2962 3.92103 45.1885
22544 1 0.335868 15.8846 90.6339
22545 2 0.259444 14.8913 90.7203
22546 2 1.27657 16.1645 90.8256
22547 1 100.524 1.92967 41.0891
22548 2 100.009 1.86356 41.9435
22549 2 100.314 2.79782 40.6394
22550 1 99.6448 19.3175 31.8319
22551 2 99.9906 20.1354 31.3721
22552 2 98.7897 19.5359 32.3021
22553 1 112.124 10.4001 45.8037
22554 2 112.724 10.3868 45.0034
22555 2 111.174 10.2957 45.5102
22556 1 96.0701 25.1347 65.3122
22557 2 96.7183 25.2091 64.5544
22558 2 96.2845 25.8252 66.0031
22559 1 5.73259 13.2645 34.3415
22560 2 5.05234 12.9894 35.0208
22561 2 5.59875 12.7363 33.503
22562 1 58.4706 21.3004 62.5116
22563 2 58.9569 21.0701 61.6688
22564 2 57.4939 21.3936 62.318
22565 1 62.9627 8.5596 48.4605
22566 2 62.1685 8.79852 47.9018
22567 2 63.2347 9.35053 49.0086
22568 1 118.496 27.5452 51.11
22569 2 119.179 27.0448 51.6413
22570 2 118.629 27.3595 50.1364
22571 1 97.0782 12.6413 81.3596
22572 2 97.0519 13.5469 81.7829
22573 2 96.9339 11.9418 82.0596
22574 1 92.1766 20.4307 34.4974
22575 2 93.1322 20.2388 34.7206
22576 2 92.0832 20.5534 33.5094
22577 1 52.3721 9.96357 60.0252
22578 2 53.0782 10.3505 60.6182
22579 2 51.5756 9.7125 60.5754
22580 1 55.3447 5.70708 41.6566
22581 2 54.9596 6.57048 41.9826
22582 2 54.6042 5.09865 41.371
22583 1 39.1236 17.494 41.9408
22584 2 38.7506 18.2857 41.457
22585 2 38.4422 17.1453 42.5844
22586 1 18.2826 7.5026 81.7481
22587 2 18.3185 6.57373 82.1167
22588 2 18.1476 7.46327 80.758
22589 1 76.0155 18.1222 54.9243
22590 2 75.7485 17.5632 55.7092
22591 2 75.5931 19.0255 54.9992
22592 1 5.51813 17.0263 71.0437
22593 2 5.79907 16.9694 70.0857
22594 2 4.60174 17.4227 71.0993
22595 1 60.675 11.9881 33.3015
22596 2 60.5559 11.803 34.277
22597 2 59.8096 12.3061 32.9144
22598 1 82.8289 10.8623 81.3069
22599 2 83.5047 10.2509 81.7186
22600 2 82.9582 11.7887 81.6606
22601 1 39.7909 4.04288 27.4089
22602 2 38.8814 3.8008 27.0707
22603 2 39.9713 5.00785 27.2184
22604 1 105.927 24.9283 38.4901
22605 2 105.282 24.2876 38.9061
22606 2 105.919 24.812 37.4969
22607 1 47.0019 2.83535 90.7652
22608 2 47.9587 2.77409 90.4811
22609 2 46.8286 3.73749 91.1603
22610 1 97.7576 13.9001 22.2509
22611 2 97.182 14.5847 22.6982
22612 2 97.5802 13.9071 21.2668
22613 1 72.4687 15.2085 77.2735
22614 2 72.7433 14.8539 76.3798
22615 2 72.7575 16.1623 77.3568
22616 1 104.056 13.0725 11.6769
22617 2 103.627 13.6773 12.3482
22618 2 103.349 12.5489 11.2009
22619 1 26.999 14.7548 21.8084
22620 2 27.9164 14.8583 22.1926
22621 2 26.8427 13.7957 21.5724
22622 1 94.9163 17.886 54.9369
22623 2 95.3074 17.9979 54.0234
22624 2 95.0252 18.736 55.4525
22625 1 77.0475 13.3584 50.2682
22626 2 76.1884 13.0627 50.686
22627 2 77.2669 12.7597 49.4979
22628 1 73.7046 27.0806 44.75
22629 2 73.6172 27.606 43.9036
22630 2 72.9193 27.2667 45.3404
22631 1 113.223 9.22056 21.3544
22632 2 112.912 8.27714 21.2411
22633 2 113.974 9.4021 20.7193
22634 1 119.025 29.4871 82.5391
22635 2 119.373 0.0586939 83.2824
22636 2 119.253 29.9075 81.6609
22637 1 80.6962 20.244 32.5296
22638 2 81.2216 19.4302 32.2814
22639 2 80.7471 20.385 33.5183
22640 1 19.6009 11.7123 11.2473
22641 2 20.4044 11.8509 10.6683
22642 2 19.5412 10.7492 11.5095
22643 1 88.1064 27.4336 60.3688
22644 2 87.6915 27.9373 61.1265
22645 2 88.7892 28.0098 59.9197
22646 1 42.3993 7.68479 63.048
22647 2 42.6614 8.39961 62.3996
22648 2 41.4115 7.71847 63.1999
22649 1 50.0085 27.0149 60.7079
22650 2 50.3224 26.0815 60.5337
22651 2 50.3164 27.3065 61.6136
22652 1 63.7918 1.10284 81.3822
22653 2 62.8338 1.28906 81.1644
22654 2 64.1539 1.84126 81.9511
22655 1 33.039 27.6965 44.8112
22656 2 33.1769 26.996 45.5114
22657 2 32.1849 28.1844 44.9916
22658 1 13.7673 13.9446 90.6892
22659 2 14.6365 13.5439 90.9787
22660 2 13.4946 13.5507 89.8114
22661 1 9.04134 22.5982 41.4289
22662 2 8.37514 23.0679 40.8495
22663 2 9.7105 23.2585 41.7699
22664 1 28.4993 24.7694 83.4344
22665 2 29.4641 24.5916 83.2406
22666 2 27.9943 23.9063 83.4321
22667 1 86.7665 28.2006 31.6808
22668 2 86.5889 27.6931 32.5239
22669 2 86.9152 27.5575 30.9297
22670 1 21.3221 13.5178 78.0236
22671 2 20.6068 13.7769 77.3747
22672 2 21.681 14.338 78.4691
22673 1 32.9147 10.2968 20.6331
22674 2 33.5632 9.79079 21.2018
22675 2 32.2517 10.7635 21.2184
22676 1 58.1365 12.4023 35.6588
22677 2 58.0077 13.0833 34.9379
22678 2 58.2566 11.4992 35.2466
22679 1 33.7577 15.3298 54.9892
22680 2 34.0599 14.4354 55.319
22681 2 34.5512 15.861 54.6921
22682 1 96.1728 2.74364 65.8957
22683 2 96.7344 2.58548 65.0836
22684 2 95.2057 2.71258 65.6435
22685 1 57.2939 17.3593 60.9618
22686 2 58.1659 17.7297 60.6415
22687 2 56.5493 17.7357 60.4106
22688 1 50.0276 16.7872 90.412
22689 2 49.9648 17.3755 91.2182
22690 2 50.9602 16.4365 90.3271
22691 1 7.40126 7.98098 26.7688
22692 2 7.35634 7.1177 27.2715
22693 2 7.09076 8.7266 27.3584
22694 1 47.3126 23.3001 62.5008
22695 2 47.5413 23.9616 61.7866
22696 2 47.6393 23.6368 63.384
22697 1 20.7415 11.5147 60.6207
22698 2 21.3154 12.3226 60.7548
22699 2 20.9998 11.0602 59.7682
22700 1 37.2963 25.1073 61.9007
22701 2 37.3037 24.1388 61.6517
22702 2 36.4684 25.5376 61.5409
22703 1 84.5634 13.8372 48.8063
22704 2 84.1282 14.7153 49.0054
22705 2 84.2887 13.1654 49.4942
22706 1 18.7551 11.1579 38.3967
22707 2 19.278 11.7269 39.0314
22708 2 19.3104 10.3752 38.1157
22709 1 59 2.5123 63.4157
22710 2 58.7046 3.20708 62.7599
22711 2 59.0748 2.92233 64.3247
22712 1 62.7127 12.9924 74.9978
22713 2 62.598 11.9997 74.9606
22714 2 62.6326 13.3019 75.9453
22715 1 6.62245 11.1097 66.0253
22716 2 6.61684 10.9099 65.0455
22717 2 7.5607 11.0676 66.3687
22718 1 46.4468 23.4413 48.456
22719 2 47.4261 23.2973 48.3139
22720 2 46.311 24.1647 49.1329
22721 1 33.7324 23.5676 66.6432
22722 2 33.3795 24.4871 66.4701
22723 2 33.6895 23.0301 65.801
22724 1 110.19 20.2949 36.2599
22725 2 110.796 20.4198 35.4739
22726 2 109.586 21.0873 36.3446
22727 1 7.01696 29.7341 62.7479
22728 2 7.82195 29.1711 62.5607
22729 2 7.29586 0.687976 62.8591
22730 1 86.6589 9.44937 37.7616
22731 2 87.0226 8.51796 37.7468
22732 2 87.1033 9.99201 37.0487
22733 1 57.6127 11.6813 64.2535
22734 2 56.9884 10.9896 64.6165
22735 2 57.0996 12.3335 63.6956
22736 1 115.914 15.1497 63.1839
22737 2 115.465 15.0606 62.2947
22738 2 115.348 15.7111 63.788
22739 1 99.7809 20.1976 66.3927
22740 2 99.6925 19.9784 67.3643
22741 2 99.3951 19.4539 65.8467
22742 1 76.4899 22.0809 62.7816
22743 2 76.8197 22.4436 61.91
22744 2 77.2642 21.7416 63.3158
22745 1 4.03437 23.6418 51.5775
22746 2 4.13554 23.9334 50.6263
22747 2 4.44554 22.7378 51.6945
22748 1 118.406 25.5881 26.0372
22749 2 118.072 25.8231 26.95
22750 2 118.025 24.7058 25.76
22751 1 87.6022 29.9371 81.6787
22752 2 88.1203 29.342 82.2932
22753 2 86.7392 0.194588 82.1133
22754 1 4.63413 18.7432 47.6548
22755 2 5.07577 17.9078 47.9819
22756 2 4.1113 18.5414 46.8265
22757 1 63.5842 26.2061 66.7927
22758 2 63.1525 25.4538 66.2949
22759 2 64.5754 26.1631 66.6676
22760 1 77.9632 25.6353 87.0622
22761 2 78.5 25.2613 86.3059
22762 2 77.7095 26.5802 86.8555
22763 1 40.6053 7.77065 38.4409
22764 2 41.4188 7.77884 39.0225
22765 2 40.6607 7.00413 37.8011
22766 1 43.3009 24.0402 24.6397
22767 2 44.2134 24.2084 24.2668
22768 2 43.0781 24.7498 25.3082
22769 1 23.9501 6.82454 29.4676
22770 2 24.7979 7.28137 29.1981
22771 2 23.1951 7.47965 29.4397
22772 1 32.3206 26.3551 49.2536
22773 2 32.9438 26.4724 50.0268
22774 2 32.832 26.0242 48.4606
22775 1 33.5701 11.9291 52.3095
22776 2 33.2224 12.8648 52.3684
22777 2 34.146 11.7369 53.1041
22778 1 31.2247 28.7147 87.4287
22779 2 30.5832 28.9166 88.1687
22780 2 32.1177 28.4844 87.8153
22781 1 75.5644 11.4203 58.9314
22782 2 76.456 11.8641 59.0213
22783 2 75.489 11.0043 58.0251
22784 1 90.5129 11.5043 77.9622
22785 2 89.908 11.4864 77.1661
22786 2 89.9941 11.2576 78.7807
22787 1 80.5293 16.7831 50.7864
22788 2 79.9501 16.6138 49.989
22789 2 81.3458 17.2868 50.5044
22790 1 106.757 23.356 86.2933
22791 2 106.152 24.1498 86.2289
22792 2 106.888 23.1142 87.2547
22793 1 88.2051 22.0495 71.9733
22794 2 87.7814 22.6031 71.2563
22795 2 88.6037 21.2271 71.5676
22796 1 119.196 2.88335 24.0781
22797 2 118.93 1.94436 24.2966
22798 2 119.724 3.26539 24.8365
22799 1 35.6389 28.0818 43.8174
22800 2 34.7777 28.3845 44.2257
22801 2 35.6324 27.086 43.7257
22802 1 61.0306 4.31726 75.921
22803 2 61.1867 5.20284 76.3584
22804 2 60.0473 4.14948 75.8497
22805 1 8.08679 14.8483 65.2353
22806 2 8.11543 14.5715 66.1958
22807 2 9.01417 14.8502 64.8611
22808 1 33.4752 28.6488 38.9274
22809 2 33.993 27.849 39.2313
22810 2 33.7568 28.8956 38.0002
22811 1 1.08801 29.2233 84.7101
22812 2 1.41714 28.6783 85.4812
22813 2 1.31533 0.185374 84.8607
22814 1 11.4074 14.084 47.3398
22815 2 12.1887 14.6603 47.1004
22816 2 11.2659 14.1086 48.3295
22817 1 7.50516 28.6261 49.382
22818 2 7.8695 28.0894 50.1431
22819 2 6.94418 28.0388 48.7985
22820 1 104.295 13.3961 75.9478
22821 2 104.786 14.1582 75.5251
22822 2 103.62 13.7516 76.5936
22823 1 101.482 7.34884 68.0609
22824 2 102.078 7.94128 68.6032
22825 2 101.701 7.45492 67.0907
22826 1 9.60044 29.2246 28.4936
22827 2 10.2172 28.6433 27.9628
22828 2 9.99421 0.140005 28.5767
22829 1 28.6925 2.81112 51.3299
22830 2 28.4526 1.87762 51.5964
22831 2 29.2283 2.78951 50.4859
22832 1 99.3936 10.773 87.1772
22833 2 98.9565 11.4554 86.5913
22834 2 100.179 11.1845 87.6393
22835 1 118.579 9.02843 37.691
22836 2 119.319 8.59602 37.1758
22837 2 118.075 8.33057 38.2003
22838 1 24.7294 25.2925 71.9668
22839 2 25.1228 24.6031 71.3586
22840 2 25.2875 26.1217 71.9358
22841 1 97.8784 10.2771 50.8564
22842 2 96.9758 10.1795 51.2756
22843 2 98.3322 11.0874 51.2272
22844 1 50.8969 27.8113 63.117
22845 2 50.3124 27.6312 63.9081
22846 2 51.3717 28.682 63.2447
22847 1 6.83083 27.7877 71.7585
22848 2 6.22061 28.1501 71.0541
22849 2 7.44097 27.107 71.353
22850 1 42.356 6.67021 29.3687
22851 2 42.3957 7.22273 30.2012
22852 2 43.2656 6.62385 28.9557
22853 1 59.701 9.87253 81.1111
22854 2 59.7389 9.31544 80.2816
22855 2 60.2668 9.4526 81.8207
22856 1 87.1051 17.6432 79.2229
22857 2 86.5647 18.2993 79.7497
22858 2 87.9981 18.0404 79.0116
22859 1 34.6845 17.3379 30.7274
22860 2 35.1627 16.6445 31.2664
22861 2 35.3189 17.7456 30.0707
22862 1 4.29563 9.35297 15.232
22863 2 3.90412 10.2731 15.2333
22864 2 4.13069 8.9193 16.1178
22865 1 38.0908 25.0996 52.3486
22866 2 37.7479 25.3284 53.2597
22867 2 38.2109 25.9383 51.8174
22868 1 24.026 14.7061 86.6013
22869 2 24.4208 13.8009 86.4442
22870 2 23.4688 14.968 85.8132
22871 1 108.574 15.6917 23.9611
22872 2 108.362 15.5942 22.9888
22873 2 108.169 16.5375 24.3077
22874 1 14.5883 11.8222 35.4971
22875 2 14.6804 12.7784 35.7749
22876 2 14.0656 11.7712 34.6461
22877 1 31.2889 21.1266 26.4991
22878 2 32.0438 21.5684 26.9839
22879 2 31.6481 20.6153 25.7184
22880 1 45.8405 21.416 30.0856
22881 2 46.1535 21.0239 30.9506
22882 2 46.4265 22.1876 29.838
22883 1 15.247 24.3557 43.766
22884 2 15.1123 24.3688 44.7568
22885 2 15.376 23.4126 43.4596
22886 1 102.777 26.5017 44.4545
22887 2 102.912 26.0332 45.3276
22888 2 102.978 25.872 43.704
22889 1 91.3095 9.14016 27.3257
22890 2 90.7312 9.59204 28.0049
22891 2 92.1064 8.74081 27.7791
22892 1 83.0614 2.47025 90.4237
22893 2 83.1874 3.32402 89.9185
22894 2 83.9234 1.96362 90.4422
22895 1 58.7928 28.1362 39.4901
22896 2 59.0199 28.2684 40.4549
22897 2 58.4541 28.9953 39.1066
22898 1 48.037 17.2493 36.5003
22899 2 47.2582 17.2922 37.1262
22900 2 48.8555 17.5898 36.9628
22901 1 32.9728 20.3941 24.3113
22902 2 32.4596 19.9281 23.5906
22903 2 33.6962 19.7915 24.6483
22904 1 8.16387 13.445 90.0655
22905 2 8.2803 14.3828 90.3925
22906 2 7.19392 13.2683 89.8983
22907 1 108.801 23.4432 75.9946
22908 2 108.773 22.7029 76.6662
22909 2 107.87 23.7477 75.7947
22910 1 107.137 8.23116 42.8268
22911 2 106.536 7.43282 42.877
22912 2 107.08 8.74503 43.6828
22913 1 75.8108 25.3746 64.4222
22914 2 75.9408 25.8259 65.3051
22915 2 76.6997 25.1068 64.0507
22916 1 50.4216 3.12266 62.6521
22917 2 49.5552 2.81246 62.2608
22918 2 50.7426 2.45429 63.3231
22919 1 28.4073 11.1218 41.553
22920 2 29.1443 11.6667 41.1531
22921 2 27.6332 11.0929 40.9205
22922 1 85.1889 17.5161 46.5372
22923 2 85.6674 18.2974 46.1365
22924 2 85.0779 16.8026 45.8453
22925 1 36.6857 23.4064 22.5029
22926 2 36.8166 22.5444 22.9927
22927 2 35.8186 23.8195 22.7813
22928 1 102.926 9.56285 72.2435
22929 2 103.042 10.5023 72.5657
22930 2 102.612 9.57258 71.2943
22931 1 98.0561 2.09128 60.4756
22932 2 98.2275 3.07622 60.4984
22933 2 98.8823 1.6026 60.756
22934 1 42.8258 11.8561 70.7845
22935 2 42.2589 11.5213 71.5371
22936 2 42.9613 12.8421 70.8822
22937 1 28.5031 1.54819 23.9776
22938 2 27.5348 1.35208 24.1327
22939 2 29.0262 0.69688 24.0179
22940 1 20.7887 10.2694 75.7849
22941 2 21.3575 9.53707 75.4106
22942 2 21.0264 11.1347 75.3436
22943 1 36.3223 11.6602 59.875
22944 2 36.6943 11.7187 60.8014
22945 2 37.0289 11.9163 59.2153
22946 1 36.0798 17.2291 65.5667
22947 2 36.2745 17.6022 64.6596
22948 2 36.9392 17.0062 66.0268
22949 1 64.5698 14.9998 69.37
22950 2 65.1801 15.4896 69.9927
22951 2 65.1085 14.5676 68.6469
22952 1 23.3502 3.60351 18.7855
22953 2 23.0214 4.47153 18.4135
22954 2 22.5695 3.03239 19.039
22955 1 105.771 15.2639 82.1373
22956 2 106.551 15.6976 82.5889
22957 2 104.982 15.2756 82.7509
22958 1 108.472 24.198 90.3936
22959 2 109.306 23.6632 90.5321
22960 2 107.692 23.5802 90.3012
22961 1 109.197 10.2035 57.7305
22962 2 108.584 10.9032 57.3626
22963 2 109.445 9.56248 57.0042
22964 1 114.328 18.6165 38.0914
22965 2 115.268 18.2807 38.0252
22966 2 113.892 18.5671 37.1927
22967 1 57.959 16.2776 39.922
22968 2 57.7404 15.3258 39.7069
22969 2 58.8306 16.3172 40.4107
22970 1 21.956 7.90037 75.037
22971 2 22.7151 7.26027 75.156
22972 2 21.6428 7.87325 74.0878
22973 1 54.9714 18.4443 56.8986
22974 2 54.7337 19.2588 56.3693
22975 2 55.0533 18.6871 57.8652
22976 1 7.32574 28.0045 74.6344
22977 2 7.37387 28.443 73.7369
22978 2 7.22404 28.7037 75.342
22979 1 101.061 12.8416 59.6887
22980 2 101.141 12.0202 59.1239
22981 2 100.974 13.6444 59.0989
22982 1 88.0489 5.74618 79.5267
22983 2 87.8446 5.70625 80.5048
22984 2 88.3604 6.66612 79.2885
22985 1 94.4678 5.81268 53.3828
22986 2 94.0924 5.9784 54.2947
22987 2 95.4504 5.99855 53.3881
22988 1 35.4674 10.0091 36.992
22989 2 34.4856 10.0913 36.8208
22990 2 35.7345 10.6473 37.714
22991 1 101.786 29.7897 45.3543
22992 2 101.034 29.7206 44.6986
22993 2 102.43 29.0398 45.2031
22994 1 14.9558 12.9401 17.7047
22995 2 14.4793 12.3691 17.0362
22996 2 14.6266 13.8816 17.6337
22997 1 103.007 17.4238 76.0541
22998 2 102.779 17.2755 75.0918
22999 2 102.343 18.0512 76.4611
23000 1 54.1136 28.3284 86.5979
23001 2 54.6762 27.772 85.9864
23002 2 54.6841 28.6985 87.3311
23003 1 107.294 14.5623 64.095
23004 2 108.224 14.929 64.1283
23005 2 106.646 15.3104 63.9547
23006 1 27.4258 17.9813 87.7628
23007 2 27.7913 17.7958 86.8507
23008 2 27.2034 18.953 87.8415
23009 1 49.5147 27.8613 65.5391
23010 2 48.9909 27.0361 65.7504
23011 2 49.755 28.3303 66.389
23012 1 95.0368 25.4045 80.4495
23013 2 95.6671 24.7324 80.0608
23014 2 94.109 25.0315 80.4471
23015 1 111.192 8.3792 58.747
23016 2 111.497 7.95138 59.598
23017 2 111.415 7.7826 57.9758
23018 1 31.7686 25.6796 54.639
23019 2 31.4911 26.5397 55.0669
23020 2 31.6488 25.7462 53.6484
23021 1 111.988 11.1684 19.19
23022 2 112.813 10.6648 19.4457
23023 2 111.579 10.7486 18.3797
23024 1 83.835 25.3503 63.8388
23025 2 83.8675 26.3066 63.5483
23026 2 82.9256 24.977 63.6556
23027 1 114.981 3.30677 78.5408
23028 2 114.998 3.19374 79.5342
23029 2 115.04 2.41005 78.1022
23030 1 89.1162 10.8484 80.2422
23031 2 88.1981 11.1036 80.5455
23032 2 89.3901 9.99675 80.6891
23033 1 101.233 29.7853 81.4577
23034 2 101.012 29.2578 82.2782
23035 2 102.026 0.366434 81.6384
23036 1 108.443 5.31204 24.8459
23037 2 109.28 5.41186 24.3088
23038 2 108.678 5.18425 25.8094
23039 1 0.700136 11.7075 56.2991
23040 2 1.43714 11.6946 56.9748
23041 2 0.435285 12.6537 56.1129
23042 1 29.4349 20.7699 56.476
23043 2 28.8582 21.53 56.1765
23044 2 29.515 20.101 55.7369
23045 1 91.5669 5.34534 60.3907
23046 2 91.4633 6.29875 60.674
23047 2 92.5337 5.14967 60.2263
23048 1 114.751 28.3925 90.6064
23049 2 114.337 27.7981 91.2959
23050 2 115.747 28.3175 90.6559
23051 1 47.9759 20.9409 53.3739
23052 2 48.701 20.2549 53.3141
23053 2 47.5975 20.9461 54.2995
23054 1 54.3118 27.6501 53.212
23055 2 54.1389 27.0791 52.4095
23056 2 53.9562 28.5704 53.0492
23057 1 75.4278 0.216075 61.3928
23058 2 75.1654 29.4405 60.8186
23059 2 76.3376 0.53486 61.1269
23060 1 12.0649 16.4053 71.3474
23061 2 12.7722 17.1122 71.3582
23062 2 11.2756 16.7314 70.8271
23063 1 57.6714 11.5474 47.4428
23064 2 57.4787 11.1954 46.5268
23065 2 57.2052 10.9811 48.1224
23066 1 50.4259 21.5208 81.6356
23067 2 50.0088 21.2872 80.7573
23068 2 49.8183 21.2398 82.3785
23069 1 2.4164 23.67 19.087
23070 2 1.67183 23.0031 19.0593
23071 2 3.03232 23.4508 19.8437
23072 1 109.988 5.01647 64.494
23073 2 110.235 4.61662 63.6114
23074 2 110.518 4.57661 65.2192
23075 1 107.488 3.23708 61.5769
23076 2 107.392 2.59126 60.8195
23077 2 107.867 4.09736 61.2352
23078 1 76.9127 12.0964 36.3925
23079 2 76.0876 11.5542 36.2336
23080 2 77.7057 11.4893 36.4436
23081 1 70.0514 11.1902 73.3952
23082 2 69.3687 11.6298 72.8115
23083 2 69.9968 10.198 73.2828
23084 1 99.5405 24.0468 67.9811
23085 2 99.1854 24.9439 68.2438
23086 2 99.4198 23.4055 68.7388
23087 1 8.08719 27.6069 25.1786
23088 2 8.58781 27.2712 24.3807
23089 2 8.47931 28.4775 25.476
23090 1 9.93022 2.57355 22.0967
23091 2 9.92651 1.60686 22.3526
23092 2 8.98905 2.9061 22.0367
23093 1 93.2741 28.5358 89.6353
23094 2 94.2337 28.3709 89.4073
23095 2 92.6917 28.1774 88.9056
23096 1 92.6588 28.2438 46.4207
23097 2 93.1554 28.9538 45.9214
23098 2 92.4314 27.4953 45.7977
23099 1 70.7647 13.8979 73.336
23100 2 71.1986 14.5023 72.6679
23101 2 70.5462 13.0238 72.9022
23102 1 2.33302 6.44277 74.1439
23103 2 1.40178 6.42814 74.508
23104 2 2.94792 5.98017 74.7826
23105 1 101.201 17.8754 40.5713
23106 2 101.044 18.8184 40.8649
23107 2 101.822 17.4253 41.213
23108 1 41.2501 18.4219 86.4446
23109 2 40.3736 18.3219 86.9155
23110 2 41.8528 17.6652 86.698
23111 1 99.9922 13.471 37.4167
23112 2 100.928 13.3092 37.7292
23113 2 99.5373 12.5946 37.2588
23114 1 110.558 20.597 88.1231
23115 2 111.25 21.3022 87.9716
23116 2 109.936 20.5675 87.3408
23117 1 38.3027 29.54 47.961
23118 2 39.0279 28.9879 48.3725
23119 2 38.5314 0.509517 48.0488
23120 1 67.9144 1.97471 86.8955
23121 2 67.9843 1.00603 87.1337
23122 2 68.6839 2.23045 86.3103
23123 1 39.3558 23.2563 31.9272
23124 2 39.4897 22.3735 32.3775
23125 2 39.8176 23.2514 31.0402
23126 1 72.2472 13.4326 39.9576
23127 2 71.4312 12.8584 40.0252
23128 2 72.2751 13.8674 39.0576
23129 1 52.5122 8.69657 72.2007
23130 2 52.7073 8.77609 73.1782
23131 2 52.0927 9.54369 71.8745
23132 1 22.9902 4.48895 28.155
23133 2 22.964 5.42427 27.8021
23134 2 22.2133 4.34166 28.7671
23135 1 61.4618 4.69 61.1369
23136 2 60.4854 4.50037 61.2402
23137 2 61.7488 5.34879 61.8323
23138 1 35.4774 14.145 15.2717
23139 2 35.2203 15.0979 15.4329
23140 2 35.4727 13.9602 14.2889
23141 1 66.1783 22.967 74.0211
23142 2 66.496 22.7569 73.0965
23143 2 65.3713 22.4146 74.2297
23144 1 74.2086 23.3465 63.2545
23145 2 75.0273 22.7982 63.0841
23146 2 74.4362 24.104 63.8665
23147 1 28.9272 28.3593 29.7664
23148 2 28.3668 28.8324 30.4463
23149 2 28.8485 28.8269 28.886
23150 1 51.7484 18.3205 43.9244
23151 2 51.1918 18.9838 43.4241
23152 2 52.7155 18.4802 43.7265
23153 1 7.35677 17.041 75.5467
23154 2 7.36111 17.6185 76.3631
23155 2 8.28646 16.9669 75.1859
23156 1 107.448 13.1024 18.3227
23157 2 107.71 13.9147 17.8019
23158 2 107.012 13.3814 19.1785
23159 1 44.8157 24.9897 60.8611
23160 2 44.5097 25.8869 60.5428
23161 2 45.6906 24.7645 60.4323
23162 1 8.00258 28.494 43.9925
23163 2 8.80358 28.5625 44.5873
23164 2 7.4024 27.7662 44.3242
23165 1 41.7084 13.9922 79.7539
23166 2 41.2771 14.8651 79.5258
23167 2 42.3169 14.1158 80.5378
23168 1 90.9734 6.55689 85.0528
23169 2 91.8178 6.77314 85.5428
23170 2 90.8967 7.14295 84.2462
23171 1 56.1636 26.1772 79.29
23172 2 57.0327 25.6843 79.2496
23173 2 55.8526 26.381 78.3617
23174 1 73.7344 20.7431 64.2989
23175 2 72.867 20.357 63.9851
23176 2 73.7169 21.7366 64.187
23177 1 49.1422 25.6335 86.9647
23178 2 49.7337 25.3385 87.7151
23179 2 49.6121 25.49 86.0937
23180 1 30.3696 14.8448 86.3346
23181 2 30.4647 14.9829 87.3205
23182 2 30.8977 15.5408 85.8481
23183 1 3.20165 14.0564 44.813
23184 2 2.95825 13.0899 44.8937
23185 2 3.90683 14.2799 45.4859
23186 1 88.1767 29.2982 54.8726
23187 2 88.7595 28.675 55.3942
23188 2 87.2991 28.8565 54.6864
23189 1 11.6329 22.7816 38.8907
23190 2 12.0981 23.6503 38.7203
23191 2 11.9113 22.4237 39.782
23192 1 112.041 20.8195 29.152
23193 2 112.773 21.3807 29.5386
23194 2 112.366 20.3762 28.3169
23195 1 44.1002 26.7498 42.2624
23196 2 43.1556 26.8814 42.563
23197 2 44.1129 26.172 41.4464
23198 1 27.3638 24.6291 14.5742
23199 2 27.0762 23.7165 14.8648
23200 2 26.9188 24.8588 13.7086
23201 1 69.5366 3.83708 77.942
23202 2 69.3257 4.80638 77.8156
23203 2 70.5201 3.7258 78.0846
23204 1 101.598 8.54253 41.0964
23205 2 100.942 8.10741 41.7132
23206 2 102.059 7.84186 40.5515
23207 1 104.124 20.8088 54.93
23208 2 104.334 19.86 55.1662
23209 2 104.617 21.0619 54.0975
23210 1 102.873 18.2001 81.5003
23211 2 102.267 17.5018 81.8808
23212 2 102.355 18.7896 80.8806
23213 1 62.5678 19.4214 37.7663
23214 2 62.5818 20.346 38.1472
23215 2 63.1326 19.3921 36.9417
23216 1 118.089 28.272 86.3033
23217 2 118.687 28.8968 85.8014
23218 2 118.532 28.0007 87.1578
23219 1 76.1503 18.8667 41.3941
23220 2 76.7315 18.3648 42.0347
23221 2 76.633 18.9819 40.526
23222 1 114.944 3.30097 13.0097
23223 2 113.979 3.03897 12.9866
23224 2 115.372 2.92389 13.8309
23225 1 55.792 10.7397 41.6039
23226 2 55.5335 10.9289 40.6566
23227 2 55.3457 9.89862 41.9096
23228 1 59.6698 20.5607 60.159
23229 2 59.5871 19.5683 60.2494
23230 2 59.0416 20.8844 59.4515
23231 1 90.9976 21.5893 59.939
23232 2 91.2641 21.6776 60.8988
23233 2 91.8152 21.4708 59.3756
23234 1 52.625 2.73969 50.0356
23235 2 52.5719 1.82314 50.432
23236 2 52.8347 3.40219 50.7547
23237 1 30.4237 18.9543 35.6282
23238 2 31.0641 18.4029 35.0937
23239 2 30.6447 18.8732 36.6001
23240 1 22.2753 17.7146 53.1408
23241 2 22.8364 18.4015 53.6026
23242 2 21.6458 18.1678 52.5096
23243 1 75.4163 13.4948 78.6853
23244 2 74.8742 12.658 78.7624
23245 2 76.3842 13.2779 78.8125
23246 1 113.428 10.2587 30.039
23247 2 113.829 9.85868 29.2147
23248 2 114.123 10.7899 30.5234
23249 1 75.866 23.4535 54.7474
23250 2 76.5847 23.7215 55.389
23251 2 75.1529 24.1544 54.7339
23252 1 27.9538 21.5772 89.5864
23253 2 27.9016 22.5123 89.937
23254 2 27.1875 21.4107 88.9658
23255 1 42.0559 13.2875 29.4123
23256 2 41.1103 13.1317 29.1268
23257 2 42.6721 13.0791 28.6527
23258 1 117.425 0.36333 56.1765
23259 2 117.124 1.30981 56.2917
23260 2 117.18 29.8342 56.9889
23261 1 113.987 16.2902 43.6064
23262 2 114.784 16.7138 43.175
23263 2 113.216 16.3033 42.9691
23264 1 95.4374 26.6232 45.3997
23265 2 96.3154 26.2159 45.1481
23266 2 95.5623 27.2221 46.1908
23267 1 114.27 8.7956 38.9168
23268 2 113.324 9.0275 38.6889
23269 2 114.444 9.01268 39.8773
23270 1 30.0454 25.1214 16.6088
23271 2 29.5182 24.8763 15.7952
23272 2 30.7167 25.8237 16.372
23273 1 16.9426 9.30132 73.311
23274 2 17.8544 9.4637 72.9338
23275 2 17.0102 9.1652 74.2994
23276 1 27.1211 7.68358 40.6787
23277 2 26.6773 8.48455 40.2768
23278 2 26.4393 7.12919 41.156
23279 1 43.6405 4.938 38.8034
23280 2 42.8233 4.48749 38.4438
23281 2 43.4282 5.89123 39.0185
23282 1 37.5962 3.67276 62.028
23283 2 36.9975 3.23319 62.6976
23284 2 38.5285 3.70936 62.3879
23285 1 20.7964 8.04991 72.5709
23286 2 20.3263 8.92922 72.4947
23287 2 20.1249 7.32525 72.7257
23288 1 18.8294 27.1945 56.879
23289 2 19.7488 26.8256 57.0156
23290 2 18.8683 28.1938 56.8764
23291 1 49.2449 11.8965 31.8361
23292 2 50.1705 12.224 31.6463
23293 2 49.004 12.1087 32.7831
23294 1 19.2456 10.18 72.3595
23295 2 18.89 10.63 71.5403
23296 2 19.193 10.8093 73.1349
23297 1 26.3576 22.4093 63.9482
23298 2 25.7085 21.6664 64.1117
23299 2 27.2888 22.0775 64.0987
23300 1 83.9461 29.4701 85.5785
23301 2 82.9512 29.5513 85.6381
23302 2 84.2663 29.9052 84.7369
23303 1 13.2604 23.7464 61.9974
23304 2 13.0445 23.8631 61.028
23305 2 14.1766 23.3568 62.0903
23306 1 80.8452 2.50866 77.3565
23307 2 80.5966 2.17102 76.4486
23308 2 81.7043 2.08638 77.6454
23309 1 30.2954 3.66227 36.0554
23310 2 30.2742 4.56934 35.635
23311 2 29.6716 3.05321 35.5656
23312 1 77.4451 3.94573 73.1246
23313 2 78.1497 4.63097 73.3087
23314 2 77.6246 3.51198 72.2416
23315 1 12.4884 20.0404 10.9191
23316 2 13.4441 20.2138 10.6813
23317 2 12.295 19.0633 10.8309
23318 1 119.297 28.1375 15.7429
23319 2 119.71 29.0104 16.002
23320 2 119.314 28.0432 14.7475
23321 1 59.7566 10.5625 90.483
23322 2 60.6433 10.1007 90.4595
23323 2 59.0276 9.89139 90.3478
23324 1 87.5364 25.0791 33.7548
23325 2 87.0809 24.1899 33.7109
23326 2 86.8507 25.8065 33.7285
23327 1 46.5976 4.53519 36.2779
23328 2 47.2315 5.12452 35.777
23329 2 47.1133 3.83802 36.7758
23330 1 62.8348 15.7903 37.1513
23331 2 62.4586 16.2439 36.3434
23332 2 63.0621 14.8429 36.9262
23333 1 45.8493 19.7303 72.2897
23334 2 45.0437 19.1967 72.5473
23335 2 46.6764 19.2246 72.5348
23336 1 44.8044 9.11315 85.4705
23337 2 45.0141 10.0056 85.0709
23338 2 43.8665 9.11535 85.8174
23339 1 24.6228 5.52194 65.2946
23340 2 25.1633 5.88268 66.0547
23341 2 24.739 6.11007 64.4942
23342 1 29.064 11.712 10.9133
23343 2 28.9848 12.0627 11.8464
23344 2 28.1785 11.7834 10.4542
23345 1 4.31516 7.16112 61.9458
23346 2 4.69984 7.10625 61.0243
23347 2 3.6262 6.44578 62.0625
23348 1 114.091 24.8347 36.2927
23349 2 113.241 25.2664 35.9892
23350 2 114.129 23.8964 35.9489
23351 1 67.5787 26.2642 43.5115
23352 2 66.794 25.6761 43.3157
23353 2 68.4166 25.7185 43.4946
23354 1 83.7581 9.45072 37.7213
23355 2 83.3782 10.0163 38.4533
23356 2 84.6699 9.1346 37.9835
23357 1 28.9805 22.0227 15.9199
23358 2 27.9861 21.9222 15.8889
23359 2 29.2457 22.8616 15.4445
23360 1 32.6099 8.05415 59.2334
23361 2 33.3485 8.51528 59.725
23362 2 32.9958 7.4976 58.4976
23363 1 32.9267 14.681 52.1632
23364 2 32.9295 14.8962 53.1398
23365 2 33.4333 15.385 51.6653
23366 1 114.96 28.6681 75.7378
23367 2 115.037 29.2429 76.5524
23368 2 114.016 28.6851 75.406
23369 1 38.6135 23.8506 83.1106
23370 2 38.4365 24.8159 83.3027
23371 2 39.3629 23.5277 83.6887
23372 1 85.7923 1.75026 31.9939
23373 2 85.1824 1.19141 31.4321
23374 2 85.5454 2.71436 31.8963
23375 1 11.8399 20.1798 22.3104
23376 2 12.0724 19.2407 22.5633
23377 2 11.6227 20.7029 23.1345
23378 1 116.062 10.2959 28.7027
23379 2 115.753 11.2053 28.4245
23380 2 116.165 9.71674 27.894
23381 1 37.2291 12.7642 71.7315
23382 2 38.1675 13.0923 71.6227
23383 2 36.6712 13.4821 72.1478
23384 1 22.2256 25.2413 60.3972
23385 2 21.2727 25.2295 60.0943
23386 2 22.2767 25.6181 61.3221
23387 1 31.0226 25.4859 79.9062
23388 2 31.4025 26.0132 80.6663
23389 2 31.7044 24.8304 79.5816
23390 1 3.84065 10.7604 20.5692
23391 2 4.66433 10.1995 20.486
23392 2 3.79034 11.1439 21.4914
23393 1 60.1121 8.3688 65.3473
23394 2 60.1046 9.05692 64.6217
23395 2 59.1752 8.07655 65.5391
23396 1 44.0735 20.2279 48.3625
23397 2 44.3414 19.7801 49.2156
23398 2 44.6787 19.9287 47.6248
23399 1 100.245 25.672 54.6148
23400 2 100.575 24.7984 54.9731
23401 2 100.54 25.7749 53.6648
23402 1 119.075 15.204 84.8734
23403 2 118.556 15.691 85.5756
23404 2 119.645 14.5047 85.3051
23405 1 37.2192 27.2457 76.4141
23406 2 37.6803 26.384 76.6259
23407 2 36.3966 27.3305 76.9763
23408 1 23.1722 12.6024 52.5179
23409 2 22.3788 12.2942 51.9931
23410 2 23.2676 12.0399 53.3392
23411 1 33.8771 13.0804 69.9481
23412 2 33.0511 13.5561 69.6455
23413 2 33.7997 12.1073 69.7312
23414 1 17.6957 22.3637 10.7439
23415 2 17.1217 22.4383 9.9284
23416 2 18.4311 23.0397 10.6968
23417 1 26.5338 29.2749 24.0493
23418 2 27.3139 28.9274 23.5291
23419 2 25.9268 28.5164 24.2864
23420 1 42.2291 21.9325 86.573
23421 2 43.0903 21.5184 86.2783
23422 2 41.8653 22.5042 85.8376
23423 1 27.6017 12.4216 87.7662
23424 2 26.7683 12.6709 87.2729
23425 2 28.31 12.1571 87.1117
23426 1 3.5881 15.951 48.7692
23427 2 4.07838 15.2798 48.2133
23428 2 3.72682 15.7465 49.7382
23429 1 21.6189 4.76357 72.3799
23430 2 20.8492 5.25164 72.7913
23431 2 21.3975 3.79098 72.3091
23432 1 16.4813 23.2766 25.5532
23433 2 17.1624 23.988 25.3801
23434 2 16.8061 22.6745 26.2825
23435 1 66.18 7.05325 73.1609
23436 2 66.4679 6.36076 73.8224
23437 2 66.0619 7.9303 73.6265
23438 1 67.6318 23.3692 38.8166
23439 2 68.3132 22.9229 39.3967
23440 2 66.8962 22.7241 38.6097
23441 1 29.8398 4.63867 75.4635
23442 2 29.8469 5.63858 75.4519
23443 2 30.2977 4.31161 76.2901
23444 1 92.9173 11.3216 60.7499
23445 2 92.8914 12.28 60.4655
23446 2 93.688 10.8633 60.3072
23447 1 75.9746 2.87919 88.5692
23448 2 75.1663 3.366 88.238
23449 2 76.6645 2.84796 87.846
23450 1 29.4335 4.04824 69.1701
23451 2 30.0428 4.03698 68.3772
23452 2 28.8325 4.8458 69.1173
23453 1 110.438 2.23348 57.945
23454 2 110.598 1.81439 58.8387
23455 2 110.538 3.22574 58.0196
23456 1 85.8412 6.32364 62.9988
23457 2 84.9195 6.42485 63.3732
23458 2 85.7844 6.15051 62.0155
23459 1 45.3425 25.8657 37.0915
23460 2 45.4934 26.3572 37.9493
23461 2 44.5401 26.2421 36.6284
23462 1 7.10991 29.5708 56.9919
23463 2 7.23199 0.543797 56.7962
23464 2 6.94607 29.4455 57.9704
23465 1 92.681 27.5252 58.2105
23466 2 92.3965 26.6922 58.685
23467 2 92.9185 27.3052 57.2643
23468 1 2.83022 24.5639 35.3948
23469 2 3.02816 23.6014 35.2097
23470 2 3.35373 24.8646 36.192
23471 1 44.8474 24.9827 30.774
23472 2 45.7423 24.9616 31.2199
23473 2 44.8227 25.7316 30.1117
23474 1 23.1757 0.18694 79.3139
23475 2 23.3783 1.10358 79.6585
23476 2 22.3878 0.22838 78.6996
23477 1 18.4336 11.0845 69.1353
23478 2 18.2133 10.1137 69.0399
23479 2 18.89 11.4058 68.3056
23480 1 21.5314 25.374 40.1253
23481 2 22.1524 25.2896 40.9046
23482 2 22.0216 25.1509 39.2827
23483 1 49.1516 16.4427 73.0405
23484 2 49.6771 16.122 72.2525
23485 2 48.8437 17.3799 72.8767
23486 1 110.188 0.494868 14.9167
23487 2 110.16 1.29592 14.3187
23488 2 110.175 29.6636 14.361
23489 1 31.8204 0.177647 49.8211
23490 2 32.6819 0.683789 49.8609
23491 2 31.7319 29.6055 50.6365
23492 1 27.8161 2.05842 47.128
23493 2 26.9247 1.63556 47.2913
23494 2 28.3262 1.51429 46.4619
23495 1 1.77201 21.1293 43.7238
23496 2 2.49048 20.731 44.294
23497 2 1.20273 21.735 44.2797
23498 1 16.1214 28.8528 44.3011
23499 2 15.3212 28.2643 44.1858
23500 2 16.3138 29.326 43.4413
23501 1 39.9603 15.1503 65.1037
23502 2 40.3389 15.8519 64.5001
23503 2 40.6255 14.412 65.215
23504 1 114.581 24.2396 21.3656
23505 2 114.741 23.7333 22.213
23506 2 114.419 23.5955 20.6181
23507 1 30.5733 5.93016 88.8005
23508 2 30.2415 6.48368 88.0366
23509 2 30.2371 6.31356 89.6607
23510 1 53.0101 16.4846 79.5924
23511 2 53.081 15.7542 80.2717
23512 2 52.1886 17.0265 79.7701
23513 1 28.0306 6.80535 54.4021
23514 2 27.8133 7.76252 54.2109
23515 2 28.8693 6.75594 54.9445
23516 1 89.5138 7.58386 49.6136
23517 2 89.7348 8.5054 49.2944
23518 2 89.0292 7.64077 50.4865
23519 1 107.447 26.6332 59.9006
23520 2 107.305 26.3319 58.9577
23521 2 106.888 27.4429 60.0795
23522 1 105.823 9.4728 16.7592
23523 2 105.649 9.90212 17.6455
23524 2 106.724 9.03979 16.7696
23525 1 26.8869 5.53005 57.3477
23526 2 27.0203 4.78599 56.693
23527 2 26.3257 5.20693 58.1096
23528 1 107.357 10.4745 85.301
23529 2 106.859 9.82369 85.8735
23530 2 107.861 11.1127 85.8831
23531 1 27.7951 28.753 48.0957
23532 2 27.4902 28.0623 47.44
23533 2 28.7353 28.5563 48.374
23534 1 78.5848 8.93535 85.862
23535 2 78.3181 8.37704 86.6476
23536 2 78.3772 8.44251 85.017
23537 1 103.635 15.3797 71.8811
23538 2 103.999 15.2732 70.9557
23539 2 104.252 15.9561 72.4173
23540 1 104.389 21.0587 14.1887
23541 2 103.685 20.5295 13.7157
23542 2 105.293 20.7606 13.881
23543 1 25.3269 9.85028 81.4046
23544 2 25.5571 9.32705 82.2251
23545 2 24.5585 10.459 81.6021
23546 1 66.6247 7.40348 53.2917
23547 2 66.4396 6.92104 52.4355
23548 2 67.6129 7.47265 53.4283
23549 1 105.793 21.5791 27.5299
23550 2 105.158 21.2787 28.2411
23551 2 106.4 22.2823 27.9006
23552 1 30.435 9.62285 58.8444
23553 2 30.1413 10.2015 59.6052
23554 2 31.1338 8.98241 59.1632
23555 1 116.736 14.5012 59.7357
23556 2 116.917 14.8251 58.8071
23557 2 115.788 14.7037 59.9805
23558 1 68.7848 25.6252 65.3862
23559 2 68.0057 26.0427 65.8539
23560 2 69.0124 26.1618 64.5736
23561 1 25.4379 23.6799 35.7681
23562 2 24.5532 23.8635 35.3397
23563 2 26.0679 24.4299 35.5666
23564 1 112.36 3.13915 13.9656
23565 2 111.379 3.07668 13.7827
23566 2 112.509 3.64514 14.8152
23567 1 115.863 7.73845 59.5198
23568 2 115.31 7.62087 60.3447
23569 2 116.832 7.68825 59.7585
23570 1 75.9269 9.30134 61.3843
23571 2 76.9125 9.33193 61.5501
23572 2 75.5698 8.40927 61.6612
23573 1 5.6296 8.42981 45.6037
23574 2 5.58236 9.42777 45.6465
23575 2 5.40654 8.12493 44.6778
23576 1 49.1499 15.5784 41.0491
23577 2 48.3821 16.1449 41.3482
23578 2 49.363 15.7834 40.0938
23579 1 116.48 15.3946 89.0251
23580 2 115.829 14.8104 89.5107
23581 2 117.043 14.8338 88.418
23582 1 66.9989 22.3862 71.393
23583 2 66.7232 21.4288 71.307
23584 2 66.6927 22.8948 70.5882
23585 1 94.7832 9.71999 80.0448
23586 2 95.4884 10.3604 79.7408
23587 2 94.6994 9.76443 81.0403
23588 1 6.46563 17.9543 14.8317
23589 2 6.59262 17.9071 15.8224
23590 2 6.21424 17.0508 14.4844
23591 1 33.1384 19.7528 64.6002
23592 2 32.2001 19.5788 64.8989
23593 2 33.2002 20.6736 64.2151
23594 1 88.9919 1.70898 75.194
23595 2 89.3464 2.17082 76.007
23596 2 88.2832 2.27432 74.7719
23597 1 31.5588 6.17085 14.8262
23598 2 31.6149 7.15316 15.0049
23599 2 32.028 5.67219 15.5551
23600 1 62.043 25.2116 79.3218
23601 2 62.7195 24.7773 79.9165
23602 2 61.5761 24.5117 78.7813
23603 1 40.8833 9.50589 29.0996
23604 2 40.1133 9.16442 29.6385
23605 2 40.5403 10.0681 28.3471
23606 1 13.8468 15.4689 11.3448
23607 2 13.2959 16.2201 10.9812
23608 2 13.3237 14.6181 11.2963
23609 1 34.0147 24.9586 77.3506
23610 2 33.7 24.5967 78.2281
23611 2 34.5641 25.7795 77.5063
23612 1 75.4937 16.7737 70.9842
23613 2 76.4041 16.5286 71.3174
23614 2 75.3777 17.7659 71.0309
23615 1 105.12 5.27959 57.2133
23616 2 105.018 4.32429 57.4906
23617 2 104.537 5.46125 56.4214
23618 1 99.124 27.0657 80.5103
23619 2 99.4057 26.2018 80.9279
23620 2 98.6899 27.6439 81.2011
23621 1 47.737 28.9315 50.2079
23622 2 48.7187 29.1041 50.2877
23623 2 47.4323 28.3757 50.9813
23624 1 42.7787 0.266901 25.5981
23625 2 41.8012 0.296639 25.8072
23626 2 43.0374 29.3344 25.3461
23627 1 63.5828 5.04973 44.6981
23628 2 63.7242 6.00493 44.4381
23629 2 62.9679 4.61309 44.0414
23630 1 85.9612 10.4466 74.4341
23631 2 86.2757 10.7941 73.5507
23632 2 86.202 11.0981 75.1535
23633 1 29.6279 19.6516 38.0865
23634 2 28.7896 19.8619 37.5835
23635 2 29.4214 19.5774 39.0622
23636 1 20.2672 27.9204 70.3458
23637 2 20.9588 27.9841 69.6263
23638 2 19.5165 28.5493 70.1432
23639 1 41.3897 3.03069 64.6027
23640 2 41.8557 2.14659 64.5688
23641 2 41.9182 3.66476 65.1671
23642 1 98.9395 2.89309 81.8237
23643 2 99.8791 3.00035 81.4987
23644 2 98.3045 3.0692 81.0715
23645 1 95.6581 11.2103 38.7569
23646 2 95.372 10.2975 39.048
23647 2 95.506 11.3096 37.7735
23648 1 35.3189 0.42824 81.623
23649 2 36.1908 0.22647 82.0693
23650 2 34.5992 0.497964 82.3138
23651 1 95.3387 0.738395 32.1819
23652 2 95.4476 1.48715 31.5281
23653 2 94.3735 0.647547 32.427
23654 1 20.1333 20.8804 36.7376
23655 2 20.1635 20.7611 37.73
23656 2 20.5643 21.7489 36.493
23657 1 88.3643 2.96707 60.4958
23658 2 88.9611 2.17277 60.382
23659 2 88.8221 3.64893 61.0663
23660 1 36.1439 11.5344 83.9889
23661 2 36.4382 12.4129 84.3654
23662 2 35.5665 11.6918 83.1877
23663 1 104.173 10.9464 89.7622
23664 2 104.292 11.3924 88.8751
23665 2 103.51 10.2022 89.6748
23666 1 82.3125 17.8538 64.6599
23667 2 82.2466 18.5022 63.9014
23668 2 82.4709 18.3527 65.512
23669 1 35.9474 5.43078 70.118
23670 2 36.3471 4.97368 70.9126
23671 2 35.0418 5.78179 70.356
23672 1 114.803 11.1017 68.1962
23673 2 114.959 10.8149 67.251
23674 2 115.612 10.8919 68.7461
23675 1 102.921 21.0236 50.8988
23676 2 103.028 20.0683 51.1747
23677 2 102.02 21.1521 50.4852
23678 1 40.0456 17.9594 38.9817
23679 2 39.6423 17.9317 38.067
23680 2 40.2936 18.9013 39.2082
23681 1 112.733 5.56586 86.957
23682 2 112.127 4.89579 86.528
23683 2 113.027 6.23466 86.2741
23684 1 73.6089 17.0907 74.883
23685 2 73.5415 17.3652 75.8423
23686 2 74.2798 17.668 74.4175
23687 1 50.8615 28.8376 54.2176
23688 2 50.1617 28.1383 54.3641
23689 2 50.609 29.6702 54.7106
23690 1 21.765 10.7913 13.7423
23691 2 22.5997 10.7202 13.1963
23692 2 21.1243 10.0747 13.4666
23693 1 115.385 14.5162 66.4555
23694 2 114.778 14.904 65.7616
23695 2 115.287 13.5211 66.4659
23696 1 107.944 16.6828 14.7006
23697 2 107.235 17.3869 14.7296
23698 2 108.374 16.6798 13.7977
23699 1 38.6073 14.7865 76.6456
23700 2 37.9953 14.0802 76.2897
23701 2 39.3246 14.3595 77.1961
23702 1 20.1822 6.2243 56.2336
23703 2 20.0561 5.83292 57.1451
23704 2 20.7218 5.59622 55.6729
23705 1 112.891 15.2982 53.8727
23706 2 112.772 15.4456 52.8908
23707 2 113.444 14.478 54.0218
23708 1 118.603 6.42115 42.0893
23709 2 117.914 5.69956 42.0218
23710 2 118.307 7.10241 42.7591
23711 1 117.815 15.9323 19.7443
23712 2 117.679 16.9228 19.7283
23713 2 117.321 15.5154 18.9818
23714 1 86.9763 14.3951 81.1655
23715 2 87.6891 14.9882 81.5398
23716 2 86.9686 13.528 81.6637
23717 1 41.1385 1.49587 56.7659
23718 2 42.0829 1.76762 56.9513
23719 2 40.5158 2.07185 57.2955
23720 1 112.888 11.6337 84.3683
23721 2 111.998 11.3276 84.7068
23722 2 113.558 11.5923 85.109
23723 1 6.29857 9.78443 60.9009
23724 2 6.48363 10.653 60.4412
23725 2 6.43616 9.89241 61.8855
23726 1 40.6724 10.3134 21.6954
23727 2 40.235 9.79528 22.4304
23728 2 40.6553 11.288 21.9188
23729 1 24.4634 20.4693 20.2642
23730 2 24.3129 21.3998 19.9302
23731 2 23.5944 19.9747 20.2761
23732 1 109.903 9.51235 48.527
23733 2 110.679 9.28484 47.9385
23734 2 109.519 8.67301 48.9122
23735 1 1.74358 10.394 83.2909
23736 2 0.868877 9.91273 83.3477
23737 2 2.08139 10.3616 82.3503
23738 1 66.8662 16.3397 40.5035
23739 2 67.3646 15.5317 40.8178
23740 2 66.0632 16.4821 41.0822
23741 1 62.1388 13.2268 53.7286
23742 2 62.384 13.0034 54.672
23743 2 61.6793 12.4438 53.3094
23744 1 30.6553 7.6399 65.3036
23745 2 31.1439 7.80986 64.4478
23746 2 29.7006 7.92007 65.2036
23747 1 65.9327 9.40513 43.7745
23748 2 65.2652 8.67058 43.8964
23749 2 66.4669 9.5127 44.613
23750 1 5.0522 9.21543 73.9446
23751 2 4.26057 9.82502 73.9862
23752 2 5.61556 9.34454 74.7607
23753 1 2.24433 23.8938 29.0239
23754 2 2.85277 24.0947 29.7916
23755 2 2.77011 23.8929 28.1733
23756 1 86.6607 5.17176 84.5556
23757 2 86.9497 5.17644 83.5983
23758 2 85.7045 4.88479 84.6137
23759 1 96.9438 10.9881 76.8487
23760 2 96.2084 11.6654 76.8277
23761 2 97.1561 10.6975 75.9157
23762 1 24.8964 5.43227 31.4907
23763 2 25.4173 6.09136 32.0332
23764 2 24.2928 5.92164 30.8613
23765 1 64.8801 16.9978 66.1034
23766 2 65.8577 17.1123 66.2803
23767 2 64.7058 16.0659 65.7854
23768 1 2.1499 27.9022 32.4797
23769 2 2.68096 27.3837 31.8095
23770 2 1.85528 28.7675 32.0741
23771 1 114.49 3.13934 48.8146
23772 2 115.441 3.38652 48.6305
23773 2 114.038 3.88914 49.2982
23774 1 117.771 25.5335 28.8915
23775 2 117.737 26.4013 29.3872
23776 2 116.918 25.0324 29.0386
23777 1 95.9114 9.00848 87.4665
23778 2 96.0478 9.4473 88.3547
23779 2 94.9468 9.06833 87.2097
23780 1 79.1245 11.3951 55.4966
23781 2 80.115 11.4798 55.6049
23782 2 78.7029 12.299 55.5684
23783 1 8.17756 9.53289 85.7155
23784 2 8.6279 10.3729 85.4129
23785 2 7.49003 9.75387 86.4072
23786 1 30.4323 28.173 48.5581
23787 2 30.8072 29.0888 48.702
23788 2 31.1628 27.496 48.6478
23789 1 45.6831 15.8478 64.1847
23790 2 46.1585 16.5557 63.6624
23791 2 45.7296 14.9803 63.6894
23792 1 113.055 4.51167 24.5648
23793 2 113.77 4.57227 23.8673
23794 2 112.186 4.82074 24.1793
23795 1 85.1617 18.348 66.733
23796 2 85.6828 19.1942 66.844
23797 2 84.208 18.5683 66.5279
23798 1 13.7647 11.4257 15.4285
23799 2 12.7701 11.437 15.5321
23800 2 14.127 10.5639 15.7836
23801 1 55.5137 22.7526 88.4294
23802 2 55.8617 22.1269 87.7313
23803 2 56.2634 23.0337 89.0286
23804 1 6.99066 1.37473 35.8185
23805 2 6.10933 1.15101 35.4023
23806 2 6.91476 2.23917 36.3155
23807 1 22.3302 10.4162 22.7337
23808 2 21.7113 10.964 23.2966
23809 2 22.0237 9.46428 22.7311
23810 1 109.332 27.2529 26.5119
23811 2 109.441 27.3236 25.5204
23812 2 108.368 27.3713 26.7504
23813 1 30.349 21.0785 88.3295
23814 2 29.544 21.2394 88.9005
23815 2 30.0591 20.7635 87.4258
23816 1 7.85537 20.487 35.7432
23817 2 7.5969 20.4292 36.7075
23818 2 7.42181 21.2874 35.3293
23819 1 6.89785 14.3928 27.1042
23820 2 6.30014 13.821 27.6662
23821 2 7.12457 15.2292 27.6031
23822 1 48.0789 6.1437 70.5524
23823 2 48.2877 5.77749 71.4592
23824 2 48.5034 7.04336 70.4504
23825 1 82.4304 6.05983 59.9871
23826 2 81.6898 6.48828 60.5047
23827 2 82.0689 5.69252 59.1301
23828 1 42.3365 5.60665 87.781
23829 2 42.04 6.29083 88.4474
23830 2 43.3282 5.49233 87.8394
23831 1 50.9503 21.9415 85.7554
23832 2 51.3986 21.9899 86.648
23833 2 50.5608 22.8343 85.5292
23834 1 41.9024 28.0605 77.7124
23835 2 42.4029 27.2211 77.9243
23836 2 41.7267 28.566 78.5571
23837 1 97.4426 16.6329 90.0947
23838 2 98.3593 16.849 90.4307
23839 2 97.2212 15.6834 90.3171
23840 1 10.6185 23.077 19.081
23841 2 11.1107 22.2698 18.7552
23842 2 11.0799 23.9025 18.7557
23843 1 35.0155 4.33658 48.0706
23844 2 36.0014 4.50375 48.0781
23845 2 34.8445 3.35494 47.9861
23846 1 33.2309 13.927 75.8462
23847 2 33.7022 14.73 76.2109
23848 2 32.2435 14.0843 75.8617
23849 1 105.482 0.952017 16.8295
23850 2 105.848 0.0404129 17.015
23851 2 104.507 0.881936 16.6146
23852 1 92.3383 18.6191 59.1741
23853 2 92.9319 18.1738 59.8444
23854 2 92.7557 19.4781 58.8777
23855 1 13.3744 9.4255 82.2626
23856 2 13.1195 8.79956 82.9997
23857 2 12.6743 9.40256 81.5489
23858 1 1.80871 0.226404 47.1091
23859 2 2.04768 29.8977 46.1954
23860 2 2.27467 29.6691 47.7963
23861 1 5.89455 23.1722 87.2621
23862 2 6.06692 24.1089 86.9574
23863 2 6.71197 22.6166 87.1102
23864 1 13.126 19.6091 64.4308
23865 2 12.2931 19.5237 63.884
23866 2 13.5705 20.4814 64.2271
23867 1 110.899 0.0461485 27.7506
23868 2 110.043 29.8236 28.2159
23869 2 111.537 0.45372 28.404
23870 1 23.0192 11.1047 55.0756
23871 2 22.745 11.326 56.0115
23872 2 22.8409 10.1373 54.8959
23873 1 60.6902 25.0264 71.762
23874 2 60.2762 24.6503 70.933
23875 2 61.5593 25.4639 71.5315
23876 1 103.242 10.5931 37.4654
23877 2 103.956 10.5453 36.7671
23878 2 103.179 11.5283 37.814
23879 1 67.5661 25.8445 68.3385
23880 2 67.1537 26.0973 67.4633
23881 2 67.1378 25.0076 68.6794
23882 1 20.0262 12.8828 40.2943
23883 2 19.8469 13.7775 40.7035
23884 2 20.9051 12.9043 39.8178
23885 1 33.9872 11.0672 17.1377
23886 2 33.7556 11.1442 16.1679
23887 2 34.6392 10.3199 17.2663
23888 1 54.905 19.6857 88.965
23889 2 55.8361 19.8252 89.302
23890 2 54.9382 19.2647 88.0586
23891 1 18.1268 5.6596 13.9482
23892 2 17.71 5.40997 14.8223
23893 2 18.4706 6.59729 13.9987
23894 1 66.7648 5.50271 56.6946
23895 2 67.291 6.34433 56.8161
23896 2 65.7878 5.71606 56.7044
23897 1 113.661 26.5673 24.8876
23898 2 114.43 26.2868 24.313
23899 2 112.802 26.3355 24.4314
23900 1 19.7865 19.625 58.2313
23901 2 19.7265 18.6861 58.5701
23902 2 19.9094 19.614 57.2389
23903 1 107.282 12.0611 33.077
23904 2 106.298 12.233 33.0342
23905 2 107.767 12.7679 32.5616
23906 1 49.7779 21.1069 40.418
23907 2 50.651 21.5706 40.2671
23908 2 49.0815 21.5052 39.821
23909 1 106.552 9.34956 32.3784
23910 2 106.778 10.2733 32.6875
23911 2 106.981 8.68052 32.9848
23912 1 18.3074 13.5267 80.3544
23913 2 18.5627 13.9601 79.4901
23914 2 17.6165 14.0838 80.8153
23915 1 106.351 10.2986 81.403
23916 2 106.876 10.6763 82.1656
23917 2 106.953 10.1695 80.6152
23918 1 29.383 1.56214 31.3691
23919 2 29.298 2.18929 30.5948
23920 2 28.4846 1.18326 31.5913
23921 1 102.565 1.65605 33.8332
23922 2 102.515 2.13433 32.9565
23923 2 102.61 0.670005 33.6729
23924 1 41.084 10.6307 64.6903
23925 2 41.302 11.5977 64.5585
23926 2 40.2205 10.5485 65.1879
23927 1 13.752 24.3086 90.3127
23928 2 13.1577 24.7308 90.9972
23929 2 13.2217 24.1079 89.489
23930 1 37.7689 10.2576 57.2613
23931 2 38.6086 9.85132 56.901
23932 2 37.9656 11.1729 57.6127
23933 1 11.5629 16.859 46.5467
23934 2 11.3945 17.5418 47.2576
23935 2 10.8101 16.8706 45.8885
23936 1 52.75 26.105 41.7341
23937 2 53.6294 25.7387 41.4301
23938 2 52.8258 27.0944 41.8577
23939 1 30.2015 9.71615 78.4798
23940 2 30.5262 8.81234 78.7585
23941 2 30.4291 10.3849 79.1875
23942 1 25.2967 26.4302 37.9564
23943 2 26.238 26.2199 38.2204
23944 2 25.3009 27.0216 37.15
23945 1 100.326 21.2524 50.3056
23946 2 100.35 21.5006 49.3372
23947 2 99.7132 20.473 50.4352
23948 1 116.061 24.7827 41.0677
23949 2 116.756 24.2776 41.5799
23950 2 116.454 25.6372 40.7274
23951 1 51.4582 11.356 34.6394
23952 2 51.6269 10.631 33.9717
23953 2 50.8788 11.004 35.3744
23954 1 64.9523 11.9916 43.5152
23955 2 65.1771 11.0258 43.6441
23956 2 65.7639 12.5489 43.6906
23957 1 107.106 22.8344 13.985
23958 2 107.879 22.9324 14.6109
23959 2 107.156 21.9461 13.5285
23960 1 93.0538 22.4382 74.7181
23961 2 93.8388 22.6831 75.2872
23962 2 93.3698 22.1957 73.8009
23963 1 24.6831 1.8775 51.7412
23964 2 25.0851 0.971022 51.8703
23965 2 23.7188 1.8552 52.0053
23966 1 58.8729 20.345 71.0228
23967 2 59.76 20.2531 71.4752
23968 2 58.8419 21.2103 70.5225
23969 1 119.002 23.1327 39.7687
23970 2 119.683 22.5858 40.2558
23971 2 119.251 24.0997 39.8219
23972 1 4.38994 24.1987 78.926
23973 2 4.40958 24.9784 78.3002
23974 2 4.45459 23.3492 78.4024
23975 1 20.5955 29.8104 78.0783
23976 2 19.9175 0.522512 77.8961
23977 2 20.1356 28.9934 78.4262
23978 1 83.9919 4.99937 88.6463
23979 2 84.8526 5.33728 89.0272
23980 2 84.1634 4.58218 87.7538
23981 1 55.5501 11.9454 78.4322
23982 2 55.6548 12.8279 77.9735
23983 2 56.3177 11.3514 78.1914
23984 1 17.994 16.1552 29.0773
23985 2 17.464 16.8231 29.5999
23986 2 18.7156 15.7756 29.6563
23987 1 59.0125 18.7285 56.026
23988 2 59.1071 17.9611 56.6602
23989 2 58.9373 18.3811 55.0913
23990 1 57.0775 6.08319 73.2762
23991 2 56.2695 6.2892 72.7243
23992 2 57.5667 6.93111 73.4804
23993 1 38.1096 27.2355 22.9048
23994 2 38.8398 26.5648 23.035
23995 2 38.2114 27.6696 22.0098
23996 1 96.176 26.4478 40.1328
23997 2 96.2153 27.3922 40.4591
23998 2 96.3996 25.8262 40.8836
23999 1 89.5506 10.3215 29.3752
24000 2 89.815 9.49391 29.8704
24001 2 90.2614 11.0164 29.484
24002 1 1.16376 25.2466 32.4501
24003 2 1.21218 26.1738 32.8215
24004 2 2.04897 24.7955 32.5636
24005 1 39.796 23.0796 68.7918
24006 2 39.0081 22.5808 68.4306
24007 2 39.8094 23.0046 69.7889
24008 1 114.266 9.28577 71.365
24009 2 114.592 8.89992 72.2281
24010 2 114.949 9.13024 70.6513
24011 1 16.2549 9.84651 39.4841
24012 2 15.4449 10.348 39.788
24013 2 17.0777 10.3281 39.7859
24014 1 109.791 22.2877 49.4258
24015 2 109.456 22.9521 48.7576
24016 2 110.773 22.1511 49.2967
24017 1 94.5978 3.24344 38.4393
24018 2 93.9686 2.86146 37.7624
24019 2 94.4931 2.7541 39.3051
24020 1 75.9872 17.4636 58.9403
24021 2 76.4903 16.7505 58.4522
24022 2 76.4545 17.6727 59.7994
24023 1 109.456 9.377 45.0212
24024 2 108.533 9.05105 45.2251
24025 2 109.416 10.0561 44.2883
24026 1 25.1347 10.7835 19.2231
24027 2 25.5217 10.6084 18.3179
24028 2 25.0643 9.92306 19.7277
24029 1 111.7 26.4619 17.1655
24030 2 112.481 27.038 16.9238
24031 2 111.364 25.9957 16.3472
24032 1 11.0944 9.19686 10.6127
24033 2 10.2142 8.75803 10.7934
24034 2 10.9545 10.1758 10.4642
24035 1 104.93 3.34497 19.7496
24036 2 105.061 3.61431 18.7954
24037 2 104.13 2.74993 19.8213
24038 1 55.7068 25.2049 66.8629
24039 2 55.3541 24.8783 67.7398
24040 2 55.1641 25.9868 66.5559
24041 1 75.1418 9.53582 77.7836
24042 2 74.4103 10.1391 78.1012
24043 2 75.8147 9.41494 78.5134
24044 1 12.6482 28.3456 69.6704
24045 2 13.472 28.2807 69.1073
24046 2 12.387 29.3057 69.7696
24047 1 0.619897 4.21893 30.0842
24048 2 1.33555 4.55439 30.6968
24049 2 119.738 4.24547 30.5554
24050 1 112.789 16.0143 75.0932
24051 2 113.552 16.1378 74.4586
24052 2 112.287 16.8748 75.183
24053 1 14.1453 17.815 70.8075
24054 2 13.8711 18.5505 70.1879
24055 2 14.7057 18.1921 71.5449
24056 1 113.309 22.3754 13.6776
24057 2 113.418 22.6434 14.6348
24058 2 112.769 23.0664 13.1971
24059 1 31.7051 9.8433 74.8873
24060 2 31.8385 8.95814 74.4416
24061 2 30.7406 9.95374 75.1271
24062 1 93.242 3.41771 90.1861
24063 2 93.9022 2.95814 90.7801
24064 2 93.7212 4.0646 89.5929
24065 1 109.8 27.5961 66.2005
24066 2 109.693 26.6128 66.3483
24067 2 108.913 27.996 65.9673
24068 1 43.1261 9.80462 41.3991
24069 2 43.8994 10.3957 41.1695
24070 2 42.6908 10.1355 42.2364
24071 1 54.7727 15.8449 49.7697
24072 2 54.3742 15.6911 50.6739
24073 2 54.6876 16.8115 49.528
24074 1 6.50983 12.0608 52.3743
24075 2 6.58947 11.765 53.3262
24076 2 6.64285 13.0505 52.3205
24077 1 90.249 28.7136 58.9255
24078 2 91.2373 28.5664 58.8871
24079 2 90.0598 29.694 58.9798
24080 1 26.676 0.773112 83.7856
24081 2 27.3148 1.00999 84.5176
24082 2 27.0435 0.00761192 83.2573
24083 1 5.81636 11.7999 79.0981
24084 2 5.35136 11.3771 79.8759
24085 2 5.16681 11.9222 78.3477
24086 1 20.2745 24.9769 28.6671
24087 2 19.6896 24.234 28.3415
24088 2 21.0251 24.5975 29.2081
24089 1 24.9057 26.4625 91.9799
24090 2 25.8381 26.7473 92.2025
24091 2 24.3223 27.27 91.893
24092 1 58.6992 0.470139 87.1086
24093 2 58.8036 0.859893 86.1936
24094 2 57.7268 0.369652 87.3191
24095 1 96.9695 27.3776 48.9304
24096 2 96.5715 27.5086 49.8384
24097 2 97.9407 27.157 49.0207
24098 1 69.9416 18.608 43.346
24099 2 70.392 18.3058 42.5059
24100 2 69.81 19.5989 43.3156
24101 1 11.7503 1.46749 76.0046
24102 2 11.7621 1.07757 76.9253
24103 2 11.295 0.833135 75.3798
24104 1 86.0755 5.87859 73.9536
24105 2 86.0195 6.5037 73.175
24106 2 86.3548 4.97298 73.6345
24107 1 111.821 13.8654 34.5176
24108 2 111.657 14.3703 33.6701
24109 2 112.496 14.3529 35.0708
24110 1 18.7775 25.0836 78.1116
24111 2 17.957 24.8343 78.626
24112 2 19.1277 25.9585 78.4462
24113 1 44.862 11.6624 81.9742
24114 2 43.9744 11.2543 82.188
24115 2 45.4536 11.6139 82.7789
24116 1 102.005 15.6591 79.9287
24117 2 102.238 15.1236 80.7405
24118 2 101.064 15.9887 80.0056
24119 1 105.523 21.3282 84.9096
24120 2 104.602 21.7006 84.7906
24121 2 106.022 21.8802 85.5776
24122 1 28.195 24.0981 35.1415
24123 2 28.1347 24.384 36.0979
24124 2 28.4389 24.884 34.5734
24125 1 102.571 10.5458 44.0162
24126 2 103.422 10.0259 43.9471
24127 2 101.799 9.95533 43.7788
24128 1 43.3236 25.8294 78.1458
24129 2 44.2257 26.2574 78.0908
24130 2 43.3847 24.9914 78.688
24131 1 118.986 5.98233 87.8559
24132 2 118.101 5.57534 88.0837
24133 2 119.719 5.4276 88.2489
24134 1 35.8808 10.8031 20.0764
24135 2 35.6008 10.1066 20.737
24136 2 36.2994 10.3609 19.2831
24137 1 20.7123 19.5384 44.5882
24138 2 19.9459 19.3859 45.2122
24139 2 21.1102 20.4391 44.7628
24140 1 62.6968 9.55657 90.4739
24141 2 62.1716 9.49914 89.6249
24142 2 63.0108 8.64346 90.734
24143 1 46.6584 13.9857 31.817
24144 2 47.436 13.3817 31.6421
24145 2 46.6685 14.2732 32.7747
24146 1 114.517 7.63976 28.9787
24147 2 114.94 7.88302 29.8514
24148 2 115.052 8.02913 28.2288
24149 1 22.2235 22.3321 75.6131
24150 2 21.4245 22.2298 76.2056
24151 2 23.0546 22.1577 76.1411
24152 1 81.8594 5.41166 34.6448
24153 2 82.5363 4.69608 34.4725
24154 2 81.058 5.25854 34.0665
24155 1 84.5446 24.6284 66.3226
24156 2 85.188 23.8755 66.1839
24157 2 84.2194 24.9566 65.4357
24158 1 15.9365 17.5905 74.4496
24159 2 15.6224 18.5276 74.6017
24160 2 15.9815 17.1079 75.3243
24161 1 64.5642 4.3962 69.476
24162 2 64.972 5.16802 69.9639
24163 2 64.9852 4.3129 68.5728
24164 1 66.1934 6.50106 37.6455
24165 2 65.3635 6.19319 37.1802
24166 2 66.9636 5.92684 37.3679
24167 1 71.0624 3.22226 83.3675
24168 2 70.2977 3.48923 82.781
24169 2 70.712 2.76221 84.1833
24170 1 40.9493 27.584 35.1786
24171 2 40.2911 27.4426 34.4391
24172 2 40.5055 27.41 36.0576
24173 1 9.84127 19.7436 59.6832
24174 2 9.23146 18.9582 59.577
24175 2 10.5254 19.542 60.3842
24176 1 53.9463 26.7517 91.9875
24177 2 53.4533 26.0214 91.5146
24178 2 53.2933 27.3408 92.4635
24179 1 8.41386 13.6309 20.7288
24180 2 8.4691 14.178 19.8935
24181 2 9.25001 13.7534 21.2634
24182 1 85.7234 29.58 59.2517
24183 2 85.5333 29.2953 60.1913
24184 2 86.4521 29.0102 58.8717
24185 1 11.1759 23.0999 28.5159
24186 2 11.8059 23.8697 28.6178
24187 2 11.083 22.8712 27.5469
24188 1 15.7926 17.9621 53.7921
24189 2 16.2599 18.6472 54.3509
24190 2 15.1552 17.4446 54.363
24191 1 60.6361 3.4472 45.7116
24192 2 59.7662 2.98404 45.5423
24193 2 60.5101 4.43541 45.6247
24194 1 103.489 29.6529 73.2944
24195 2 104.08 29.1277 72.6822
24196 2 103.911 0.53869 73.4867
24197 1 3.65673 17.3931 60.5588
24198 2 3.42982 16.7804 59.8019
24199 2 4.16246 16.8869 61.2574
24200 1 117.806 7.45558 28.7068
24201 2 117.782 8.19633 29.3782
24202 2 117.402 7.77106 27.848
24203 1 108.893 15.8386 12.2182
24204 2 109.027 16.6834 11.7003
24205 2 108.138 15.3191 11.8191
24206 1 37.63 28.8209 67.7423
24207 2 37.2218 29.6888 68.0252
24208 2 36.965 28.0841 67.8649
24209 1 15.5803 25.0874 71.9472
24210 2 15.736 24.5845 71.097
24211 2 15.9904 24.5875 72.71
24212 1 6.0978 29.963 90.0126
24213 2 6.16428 0.183413 89.0395
24214 2 5.50646 0.630029 90.4658
24215 1 21.9848 5.23159 23.5251
24216 2 22.3715 5.23802 22.6029
24217 2 22.2088 6.09008 23.9865
24218 1 77.0311 1.66079 57.7064
24219 2 77.5074 1.44182 58.558
24220 2 77.3858 1.08618 56.9689
24221 1 39.3238 6.47254 26.3169
24222 2 39.4382 6.77335 27.2637
24223 2 39.1507 7.26617 25.7336
24224 1 56.7806 28.718 62.192
24225 2 56.8732 28.2493 61.3135
24226 2 55.8539 28.5864 62.5439
24227 1 110.862 19.9278 22.5951
24228 2 110.366 20.0455 23.4557
24229 2 110.546 20.6073 21.9329
24230 1 98.2976 19.49 51.0974
24231 2 97.7495 18.7173 51.4173
24232 2 97.6965 20.1829 50.6993
24233 1 85.7635 21.7442 78.0112
24234 2 85.3938 20.8688 77.6997
24235 2 85.2159 22.0841 78.7758
24236 1 105.736 11.1453 12.5077
24237 2 105.232 10.339 12.8187
24238 2 105.089 11.8631 12.2503
24239 1 57.3096 15.0527 57.3437
24240 2 56.8142 15.5734 56.6484
24241 2 58.1889 15.4927 57.5261
24242 1 103.148 25.2358 64.3038
24243 2 102.266 25.3156 64.7678
24244 2 103.351 26.0892 63.8233
24245 1 37.9227 10.2952 81.9657
24246 2 37.2579 10.1032 81.2438
24247 2 37.4572 10.3157 82.8506
24248 1 4.34402 3.7007 30.0825
24249 2 3.68962 4.29169 30.5542
24250 2 5.27454 3.96337 30.3377
24251 1 54.1196 21.1536 45.9933
24252 2 54.3321 22.0001 45.505
24253 2 53.9227 20.4286 45.3334
24254 1 42.3354 14.4041 84.1623
24255 2 42.6067 14.0994 85.0752
24256 2 41.9484 15.3244 84.2194
24257 1 98.2809 0.576933 17.1388
24258 2 97.3279 0.69912 17.4159
24259 2 98.7424 29.9736 17.7891
24260 1 100.088 10.8197 19.7643
24261 2 99.6519 10.4354 18.9503
24262 2 100.295 11.7853 19.607
24263 1 99.8677 1.12951 77.6171
24264 2 99.3387 1.96134 77.4492
24265 2 100.628 1.08152 76.9693
24266 1 111.757 17.4594 21.4179
24267 2 111.645 18.3775 21.798
24268 2 110.863 17.0923 21.1638
24269 1 22.4795 15.1313 37.4099
24270 2 21.6559 15.6893 37.3081
24271 2 22.7051 14.707 36.533
24272 1 81.326 13.0837 51.0698
24273 2 82.3219 13.0687 50.9816
24274 2 81.0282 12.3035 51.6199
24275 1 92.4903 15.7497 67.345
24276 2 93.3226 15.4021 66.9132
24277 2 91.7179 15.6355 66.7202
24278 1 49.5088 29.5783 60.1586
24279 2 50.0265 29.4184 59.3182
24280 2 49.4649 28.7318 60.6892
24281 1 115.849 23.428 68.7589
24282 2 116.155 22.7628 69.4397
24283 2 116.409 23.3435 67.9347
24284 1 63.0547 28.8819 36.4285
24285 2 62.1405 28.9155 36.0245
24286 2 63.08 29.4592 37.2446
24287 1 43.4001 18.8859 44.7336
24288 2 43.5433 18.1642 44.0563
24289 2 43.7357 19.7551 44.3705
24290 1 111.619 3.42876 65.9219
24291 2 112.072 2.97785 65.1529
24292 2 110.794 2.9207 66.1667
24293 1 24.2005 3.91027 49.9316
24294 2 24.1981 3.26474 49.1679
24295 2 24.1026 3.40949 50.7916
24296 1 9.72348 23.1679 59.3153
24297 2 9.31268 23.123 60.2259
24298 2 10.6984 23.3742 59.3993
24299 1 101.886 14.0583 86.3906
24300 2 101.507 13.5487 85.618
24301 2 102.88 14.1064 86.3025
24302 1 7.71705 11.1781 31.7935
24303 2 8.01441 10.5436 32.5069
24304 2 6.75535 11.4125 31.9356
24305 1 92.3109 17.627 86.6926
24306 2 93.2267 17.2255 86.6833
24307 2 91.6467 16.9493 86.3769
24308 1 102.498 24.9266 59.1978
24309 2 102.403 25.8748 59.501
24310 2 103.038 24.898 58.3566
24311 1 95.4142 10.2735 27.7923
24312 2 95.3756 9.80286 28.6738
24313 2 94.605 10.0392 27.2536
24314 1 12.4172 13.1058 66.3757
24315 2 12.8091 13.0742 67.2952
24316 2 12.0227 14.0101 66.2124
24317 1 71.3161 23.8839 45.5279
24318 2 72.2523 23.7825 45.8644
24319 2 70.7024 23.3126 46.0728
24320 1 60.5549 28.9801 61.876
24321 2 60.1067 28.0949 62.0012
24322 2 61.1314 28.9492 61.0594
24323 1 80.3389 0.342666 72.3258
24324 2 80.1847 0.621323 73.2737
24325 2 79.5387 0.578959 71.7745
24326 1 118.385 20.0031 90.155
24327 2 118.264 19.0698 90.4931
24328 2 118.772 19.976 89.2332
24329 1 20.0374 13.4079 51.1447
24330 2 19.5425 13.0848 51.9514
24331 2 19.5265 13.164 50.3204
24332 1 8.40703 9.80012 39.5895
24333 2 9.30259 9.79835 39.1445
24334 2 7.69245 9.6773 38.9008
24335 1 33.0668 13.2844 22.5273
24336 2 33.4098 14.1759 22.2313
24337 2 33.3746 13.1022 23.4611
24338 1 116.667 10.5429 11.255
24339 2 116.384 11.1936 11.9594
24340 2 115.903 9.93811 11.0324
24341 1 16.9314 21.181 87.0806
24342 2 17.9278 21.241 87.1402
24343 2 16.6006 20.4863 87.7193
24344 1 57.1291 19.1277 80.1666
24345 2 57.1947 18.5641 79.3432
24346 2 58.0086 19.1263 80.6425
24347 1 67.483 3.07844 70.3719
24348 2 67.3894 2.75315 69.431
24349 2 67.3001 4.06102 70.4047
24350 1 101.231 5.99179 15.557
24351 2 100.566 6.4982 16.106
24352 2 101.527 6.55677 14.7866
24353 1 65.3942 19.6277 60.286
24354 2 65.7767 18.7634 59.9595
24355 2 65.3791 20.2897 59.5366
24356 1 72.067 14.8142 61.1737
24357 2 72.6843 14.871 61.9584
24358 2 71.1638 15.1549 61.4349
24359 1 96.4992 5.84817 23.8205
24360 2 96.3269 5.31793 22.9903
24361 2 96.2088 5.32089 24.619
24362 1 99.2116 2.55477 69.216
24363 2 99.2738 1.94638 68.4248
24364 2 99.8972 3.27827 69.1348
24365 1 107.226 23.7807 68.2359
24366 2 107.919 23.7502 68.9559
24367 2 107.359 23.0105 67.6123
24368 1 101.851 10.1794 25.4211
24369 2 101.216 10.9493 25.3638
24370 2 102.171 9.94192 24.5037
24371 1 98.9941 29.3782 33.6934
24372 2 99.2884 0.233553 33.2672
24373 2 99.4338 29.2821 34.5864
24374 1 52.6333 11.5651 63.9326
24375 2 53.1731 11.6368 63.0938
24376 2 51.7751 12.066 63.8205
24377 1 73.2112 6.62012 79.911
24378 2 72.8438 7.48198 79.5614
24379 2 74.2088 6.63113 79.843
24380 1 93.7605 22.9563 32.386
24381 2 93.3633 22.1436 31.9595
24382 2 94.2802 23.4705 31.7038
24383 1 21.4756 23.9774 54.8967
24384 2 22.0945 23.2287 54.6591
24385 2 21.9912 24.7054 55.3484
24386 1 52.3176 9.41517 50.0172
24387 2 53.1472 9.97179 50.0608
24388 2 52.1466 9.14546 49.0695
24389 1 3.51335 13.3501 59.6468
24390 2 2.97571 12.5951 59.2713
24391 2 3.43719 14.1451 59.0451
24392 1 117.944 17.1008 25.0851
24393 2 118.656 16.4065 25.1917
24394 2 118.174 17.9012 25.6388
24395 1 104.755 20.3669 19.6173
24396 2 105.449 20.4433 18.9012
24397 2 104.982 20.986 20.369
24398 1 6.19432 18.1647 37.3876
24399 2 6.07666 18.9635 37.9777
24400 2 6.48557 17.383 37.939
24401 1 43.0724 19.3504 38.5199
24402 2 42.3318 19.8355 38.9848
24403 2 43.9524 19.6702 38.8709
24404 1 94.7775 6.78788 40.5476
24405 2 94.6852 7.58644 39.9528
24406 2 95.7095 6.43098 40.4843
24407 1 5.82127 0.748308 17.1799
24408 2 4.87861 0.610672 16.8758
24409 2 5.88562 0.563154 18.1605
24410 1 111.069 24.8291 43.6956
24411 2 111.955 24.7976 44.1578
24412 2 111.026 25.6395 43.1112
24413 1 78.1147 28.5979 81.628
24414 2 78.2251 27.7929 81.045
24415 2 78.2822 29.4243 81.0904
24416 1 42.2208 13.9382 75.3933
24417 2 43.0738 13.8026 75.8972
24418 2 41.4474 13.8752 76.024
24419 1 73.4518 12.6204 49.3747
24420 2 74.0051 12.9236 50.1505
24421 2 73.9858 11.991 48.8102
24422 1 59.2557 5.39401 55.3523
24423 2 59.2889 5.18481 54.375
24424 2 60.1048 5.84625 55.6254
24425 1 15.0957 4.86922 49.4144
24426 2 14.6053 5.51588 48.8302
24427 2 15.3403 4.05861 48.8823
24428 1 19.544 7.34697 49.4517
24429 2 18.7703 6.77497 49.1793
24430 2 19.2594 8.30543 49.471
24431 1 70.0927 4.72156 87.6493
24432 2 70.0373 4.10816 88.4371
24433 2 70.0704 4.18418 86.8062
24434 1 119.507 19.0698 65.5093
24435 2 0.475069 19.0209 65.263
24436 2 119.4 19.6345 66.3276
24437 1 2.92146 18.9695 16.2434
24438 2 3.03658 18.9458 17.2365
24439 2 1.94998 19.0554 16.0224
24440 1 46.401 26.781 64.3739
24441 2 45.4256 26.6129 64.2313
24442 2 46.8612 25.9178 64.5814
24443 1 50.6648 15.4821 35.1063
24444 2 50.772 15.0448 35.9992
24445 2 51.2995 16.2514 35.0336
24446 1 53.5699 11.7209 85.2208
24447 2 53.9608 10.8127 85.0708
24448 2 52.6094 11.7205 84.9427
24449 1 38.7357 10.5399 38.9756
24450 2 37.8702 10.716 39.4446
24451 2 39.2291 11.401 38.8521
24452 1 10.1457 26.5116 54.7104
24453 2 10.7546 27.0182 54.0999
24454 2 10.6259 25.7126 55.0723
24455 1 4.36238 5.20379 85.7506
24456 2 3.59025 4.95681 86.3361
24457 2 4.0506 5.28348 84.8038
24458 1 22.7944 8.29469 19.7241
24459 2 21.9709 7.83238 20.0529
24460 2 23.4839 8.30267 20.4483
24461 1 14.9972 4.7092 55.6926
24462 2 14.3132 5.15711 56.2683
24463 2 14.605 3.88125 55.2917
24464 1 33.9783 12.0149 79.8122
24465 2 32.9837 11.9958 79.7098
24466 2 34.2974 12.9624 79.7902
24467 1 101.542 4.27963 34.7302
24468 2 101.777 3.74047 33.9215
24469 2 101.308 5.21147 34.4531
24470 1 0.109869 16.2018 36.3929
24471 2 0.431578 17.0103 35.9001
24472 2 119.232 15.9083 36.0146
24473 1 23.169 23.8149 47.8249
24474 2 23.48 23.5187 46.9218
24475 2 23.4492 24.7622 47.9797
24476 1 17.7471 3.6655 38.8113
24477 2 17.8925 4.3444 39.531
24478 2 17.9767 4.06581 37.9241
24479 1 77.1545 0.893831 68.0308
24480 2 77.4644 0.819341 68.9786
24481 2 76.2584 0.459669 67.938
24482 1 96.8649 24.7976 61.6973
24483 2 97.4461 23.984 61.7161
24484 2 95.9075 24.5255 61.7936
24485 1 29.9605 2.30163 48.7954
24486 2 29.9927 1.39161 49.2088
24487 2 29.2578 2.31999 48.0842
24488 1 57.5227 24.1152 89.6239
24489 2 58.2624 23.4498 89.7245
24490 2 57.4239 24.6346 90.4728
24491 1 24.1895 5.14446 89.4565
24492 2 24.2405 6.11662 89.6852
24493 2 24.8589 4.93407 88.744
24494 1 37.7937 13.8647 81.4661
24495 2 36.8748 14.246 81.5673
24496 2 38.2513 13.8574 82.3553
24497 1 83.8048 6.81676 76.9422
24498 2 83.76 5.9343 77.4105
24499 2 82.9429 7.30709 77.0721
24500 1 118.195 12.7052 16.9739
24501 2 117.924 11.8143 17.3385
24502 2 117.592 13.4132 17.3412
24503 1 12.8513 17.3039 76.0824
24504 2 13.4755 16.5255 76.0154
24505 2 13.3798 18.1494 76.158
24506 1 91.1761 16.1573 29.9041
24507 2 90.7684 16.7282 29.1915
24508 2 90.9813 15.1953 29.7125
24509 1 112.308 0.765256 77.6976
24510 2 112.031 0.428695 78.5975
24511 2 113.287 0.970186 77.7055
24512 1 54.1751 28.8282 32.9562
24513 2 54.537 29.3297 33.7421
24514 2 54.6155 27.9321 32.9011
24515 1 22.2192 5.3629 81.7519
24516 2 22.5115 6.21884 81.3253
24517 2 21.2272 5.26978 81.6666
24518 1 75.6813 25.0329 81.7507
24519 2 76.0308 25.3383 82.6365
24520 2 76.1773 25.499 81.0181
24521 1 94.611 14.9489 66.0425
24522 2 95.1561 14.2857 65.5297
24523 2 95.0525 15.1357 66.9201
24524 1 55.2389 0.0996284 65.5518
24525 2 54.7447 29.2317 65.5014
24526 2 54.594 0.83981 65.7424
24527 1 12.925 9.48768 61.3171
24528 2 13.2184 9.95976 60.4858
24529 2 12.2665 8.77343 61.08
24530 1 63.7114 26.4891 71.5507
24531 2 63.2013 26.1361 70.7664
24532 2 63.4093 27.4207 71.7529
24533 1 27.32 7.85141 46.5714
24534 2 26.6129 7.32749 47.0464
24535 2 27.2943 8.8022 46.8802
24536 1 56.5992 26.1302 49.701
24537 2 56.2755 25.3822 50.2804
24538 2 56.2807 27.002 50.0732
24539 1 108.605 27.0021 62.1487
24540 2 108.371 26.6626 61.2378
24541 2 108.17 26.4265 62.8411
24542 1 104.557 14.7568 51.5785
24543 2 104.803 15.716 51.4396
24544 2 104.382 14.5949 52.5496
24545 1 110.376 13.1445 11.0456
24546 2 110.427 13.9148 10.41
24547 2 111.236 12.6345 11.0203
24548 1 1.93677 19.1736 28.2417
24549 2 2.65635 18.6278 27.8123
24550 2 1.39739 19.6298 27.534
24551 1 36.2796 29.6163 84.8488
24552 2 36.3324 29.0734 84.0107
24553 2 36.128 29.0102 85.6296
24554 1 23.2132 12.0931 20.5729
24555 2 23.8597 11.5331 20.0549
24556 2 22.6799 11.5076 21.1836
24557 1 30.701 28.671 45.5897
24558 2 30.6353 28.3698 46.541
24559 2 30.0961 29.454 45.4454
24560 1 92.9301 26.9579 55.6941
24561 2 93.8483 26.6098 55.5048
24562 2 92.7926 27.819 55.2047
24563 1 60.2609 18.0882 89.2132
24564 2 60.2028 17.6565 88.3131
24565 2 60.7765 17.4974 89.8336
24566 1 0.653652 17.7212 76.7405
24567 2 119.877 17.0915 76.7237
24568 2 0.454161 18.5121 76.162
24569 1 108.829 20.6358 85.9213
24570 2 108.866 19.6716 85.6585
24571 2 107.897 20.8696 86.2007
24572 1 0.306196 7.31311 40.1893
24573 2 0.928232 6.61367 39.8374
24574 2 119.69 6.90335 40.8621
24575 1 64.8968 9.61366 77.4554
24576 2 65.2177 9.29989 76.5618
24577 2 64.7752 10.6061 77.4363
24578 1 7.85352 29.1384 34.3265
24579 2 7.75885 29.8752 34.9959
24580 2 7.86239 28.2574 34.7995
24581 1 73.6946 1.56807 80.6514
24582 2 74.1713 0.796126 81.0719
24583 2 73.9022 2.40443 81.1587
24584 1 14.6657 13.9996 79.921
24585 2 15.3546 14.574 80.3631
24586 2 14.1916 13.4553 80.613
24587 1 116.899 0.637738 35.6071
24588 2 117.413 29.9623 36.1359
24589 2 117.356 1.5253 35.6663
24590 1 103.06 19.7913 10.894
24591 2 103.913 19.3618 10.5978
24592 2 102.868 20.5838 10.3153
24593 1 107.797 28.3114 56.6483
24594 2 107.609 29.1053 56.0699
24595 2 108.339 28.5959 57.4391
24596 1 11.7672 20.0266 77.2031
24597 2 12.7356 19.9133 76.9808
24598 2 11.6655 20.1666 78.188
24599 1 53.2385 17.6216 38.6759
24600 2 52.5992 18.1033 38.0765
24601 2 53.8457 17.0494 38.1245
24602 1 70.4703 15.25 66.5315
24603 2 71.0109 15.802 67.1664
24604 2 69.6014 15.7093 66.347
24605 1 17.9501 1.21909 31.2541
24606 2 17.2637 0.510282 31.4163
24607 2 17.9034 1.90157 31.9835
24608 1 67.3794 6.79836 66.4837
24609 2 67.0955 5.83991 66.5123
24610 2 66.76 7.34628 67.046
24611 1 22.4982 25.4291 42.5592
24612 2 22.638 24.45 42.7065
24613 2 23.2117 25.9431 43.0352
24614 1 83.447 16.0043 75.3823
24615 2 84.0615 15.2646 75.6566
24616 2 83.2203 16.5624 76.1805
24617 1 63.8286 26.8547 62.819
24618 2 64.6253 26.3554 63.1596
24619 2 64.0127 27.1844 61.893
24620 1 91.3255 25.0806 31.7314
24621 2 91.1234 24.3032 32.327
24622 2 91.1733 24.8188 30.7783
24623 1 16.6808 27.6664 30.7694
24624 2 16.0217 27.1876 30.1895
24625 2 16.2832 27.8128 31.6752
24626 1 103.583 19.3223 71.912
24627 2 103.051 18.8405 72.609
24628 2 103.058 19.3629 71.0619
24629 1 42.432 10.8179 79.042
24630 2 41.9836 9.99296 78.698
24631 2 42.1898 10.953 80.0027
24632 1 90.3544 22.4121 84.6203
24633 2 90.1581 22.6257 83.6633
24634 2 90.8959 21.5729 84.6702
24635 1 27.6755 22.0747 81.3951
24636 2 27.3786 21.2061 80.9985
24637 2 28.2679 22.5522 80.7462
24638 1 32.156 13.5469 46.696
24639 2 31.2856 13.6007 46.2067
24640 2 32.7357 12.8525 46.2696
24641 1 91.8228 0.541301 80.8603
24642 2 92.4908 0.367983 80.1366
24643 2 91.2477 1.31823 80.604
24644 1 45.1144 7.10124 45.1076
24645 2 45.9076 6.51668 44.9368
24646 2 45.2209 7.96154 44.609
24647 1 27.695 15.1212 47.7491
24648 2 27.8907 15.5113 46.8493
24649 2 26.9603 15.6408 48.185
24650 1 9.29114 17.778 88.7867
24651 2 10.2277 17.5952 89.0858
24652 2 9.24871 18.6797 88.3564
24653 1 26.2432 10.0158 73.7429
24654 2 25.4897 10.2925 73.1465
24655 2 26.566 9.10867 73.4731
24656 1 15.5057 18.9501 35.3374
24657 2 14.5274 19.1365 35.4272
24658 2 15.96 19.1258 36.2108
24659 1 81.159 4.50038 63.6324
24660 2 82.1098 4.29651 63.8656
24661 2 80.982 4.2283 62.6866
24662 1 119.036 14.9261 57.1841
24663 2 119.286 14.9062 56.2159
24664 2 118.116 15.3041 57.2835
24665 1 52.6985 16.211 89.9756
24666 2 52.6366 16.2755 88.9796
24667 2 53.2296 15.4012 90.2248
24668 1 31.4309 21.2563 17.2478
24669 2 30.7119 21.2436 16.5529
24670 2 31.2044 21.9318 17.9495
24671 1 92.4039 25.0322 88.4143
24672 2 93.3542 25.1227 88.7121
24673 2 92.1516 25.8248 87.8592
24674 1 64.1011 5.14157 36.561
24675 2 63.5637 5.3566 35.7456
24676 2 64.118 4.15107 36.6974
24677 1 74.542 7.648 38.6323
24678 2 74.8644 7.68629 37.6864
24679 2 74.6781 6.72558 38.9937
24680 1 80.7042 7.24714 66.9994
24681 2 80.6933 6.2905 66.7084
24682 2 81.2788 7.34167 67.8124
24683 1 39.8133 5.98436 49.1356
24684 2 38.9986 5.56196 48.7382
24685 2 39.9169 6.91178 48.7762
24686 1 8.98627 6.00606 58.0096
24687 2 8.50175 6.10185 57.1401
24688 2 8.36326 6.21572 58.7632
24689 1 106.724 6.75872 67.9391
24690 2 106.155 5.94755 68.0737
24691 2 107.308 6.62713 67.138
24692 1 110.541 7.15628 88.4034
24693 2 111.101 6.80263 87.6541
24694 2 111.136 7.51823 89.1216
24695 1 67.6877 17.0017 60.7256
24696 2 68.2303 17.347 61.4913
24697 2 67.7056 17.6658 59.9782
24698 1 10.6514 4.47109 90.6389
24699 2 10.3335 3.5341 90.7839
24700 2 11.5 4.61764 91.1472
24701 1 10.558 5.38447 22.3732
24702 2 11.4841 5.48503 22.7368
24703 2 10.5909 4.87409 21.5139
24704 1 92.0225 15.914 23.5474
24705 2 91.8801 15.259 22.8053
24706 2 92.5592 16.6877 23.2106
24707 1 56.5096 17.2684 53.0163
24708 2 56.4654 16.6569 52.2263
24709 2 57.4576 17.5477 53.169
24710 1 15.182 25.8036 29.2497
24711 2 15.5448 25.0384 29.7816
24712 2 14.202 25.6712 29.1011
24713 1 78.3158 13.9226 55.4691
24714 2 79.2375 14.3053 55.4064
24715 2 77.9132 14.166 56.3516
24716 1 40.3377 19.2813 26.6954
24717 2 40.0853 19.6681 27.5824
24718 2 41.3268 19.1372 26.6639
24719 1 102.754 11.8957 74.1683
24720 2 101.902 11.6099 74.6074
24721 2 103.238 12.5356 74.765
24722 1 85.0273 5.98294 79.7534
24723 2 84.0742 5.80195 79.9962
24724 2 85.6233 5.3514 80.2493
24725 1 76.4569 22.987 42.0632
24726 2 76.4468 23.4565 41.1803
24727 2 75.5497 23.0419 42.4803
24728 1 8.20761 5.94174 14.1026
24729 2 8.92258 5.25965 13.9491
24730 2 7.61619 5.99159 13.2978
24731 1 113.325 23.8576 72.3905
24732 2 113.253 23.8696 73.3879
24733 2 114.176 23.4055 72.1228
24734 1 93.0448 7.40956 29.209
24735 2 93.3094 6.99534 28.3381
24736 2 93.8256 7.90046 29.5954
24737 1 62.6897 15.7955 72.2405
24738 2 63.0234 16.6262 72.686
24739 2 63.3812 15.0769 72.3143
24740 1 0.0395036 10.9717 60.7102
24741 2 1.02883 11.0686 60.819
24742 2 119.583 11.2386 61.5589
24743 1 61.3717 7.22401 43.7775
24744 2 61.3971 6.24611 43.57
24745 2 62.2983 7.54886 43.9666
24746 1 50.5158 13.5964 77.8689
24747 2 50.9526 13.0344 77.1666
24748 2 50.8484 13.3208 78.7708
24749 1 39.6567 10.6564 27.0174
24750 2 38.6934 10.4819 26.8135
24751 2 40.2124 10.4348 26.216
24752 1 39.3292 26.5594 63.8601
24753 2 40.1946 26.6358 64.3553
24754 2 38.6407 27.1349 64.3014
24755 1 46.0566 15.7861 81.2349
24756 2 45.3068 16.1045 81.8149
24757 2 45.7506 15.752 80.2834
24758 1 119.269 0.147801 25.8547
24759 2 118.429 29.7455 26.2187
24760 2 119.736 0.655031 26.5786
24761 1 2.4992 27.7252 87.0345
24762 2 2.66926 28.6869 87.2494
24763 2 3.31666 27.3271 86.6183
24764 1 109.327 3.13564 80.3343
24765 2 109.145 4.08525 80.589
24766 2 110.291 3.03604 80.0887
24767 1 87.1255 15.8429 90.6692
24768 2 87.2806 16.0378 91.6377
24769 2 86.4375 16.4726 90.3085
24770 1 4.34612 8.11624 86.6533
24771 2 5.07994 8.6823 87.0289
24772 2 4.74124 7.3258 86.1852
24773 1 54.5611 6.93235 82.6719
24774 2 54.5414 7.16861 83.6434
24775 2 54.1997 6.00847 82.5462
24776 1 74.8579 12.5931 72.6512
24777 2 74.5719 13.0948 73.4676
24778 2 74.1373 11.9534 72.3837
24779 1 30.6056 4.81483 81.9619
24780 2 31.204 4.76705 81.1621
24781 2 30.4086 3.88973 82.2865
24782 1 53.0361 19.5129 40.7366
24783 2 53.5847 19.168 41.4983
24784 2 53.0122 18.8297 40.0068
24785 1 74.353 10.7456 36.1778
24786 2 74.5765 9.77757 36.292
24787 2 73.3978 10.8992 36.4305
24788 1 86.1809 22.5489 58.6698
24789 2 85.2811 22.6987 59.0796
24790 2 86.3996 21.5734 58.6932
24791 1 98.4961 22.6618 61.4777
24792 2 98.8356 22.4798 62.4005
24793 2 98.3534 21.7958 60.9982
24794 1 97.5316 12.392 44.6857
24795 2 97.111 11.5396 44.9964
24796 2 97.7514 12.32 43.7128
24797 1 6.60987 10.0724 13.8748
24798 2 5.65068 10.0483 14.1565
24799 2 6.66481 10.2668 12.8954
24800 1 54.4069 16.7318 44.6791
24801 2 54.3378 17.6212 44.2272
24802 2 54.8166 16.0699 44.0514
24803 1 64.2971 17.4869 61.9757
24804 2 63.3812 17.15 61.7579
24805 2 64.4494 18.3609 61.5143
24806 1 79.9502 19.2958 41.9477
24807 2 79.1194 18.8308 42.2537
24808 2 80.7296 18.9736 42.4849
24809 1 105.473 7.08259 11.1416
24810 2 104.846 7.85783 11.0633
24811 2 105.779 6.99599 12.0897
24812 1 60.3768 9.13411 56.6207
24813 2 59.7234 9.06513 55.8668
24814 2 60.6582 10.0873 56.7318
24815 1 102.657 4.77464 75.6544
24816 2 102.852 3.97073 75.0924
24817 2 101.668 4.90578 75.7168
24818 1 45.5886 15.335 90.1541
24819 2 45.0267 14.5348 90.3638
24820 2 46.3673 15.0573 89.5915
24821 1 100.783 6.37352 24.6125
24822 2 101.596 6.6192 25.1403
24823 2 101.042 5.75834 23.868
24824 1 84.7692 20.7603 49.8124
24825 2 85.069 19.8113 49.7146
24826 2 84.4544 21.1032 48.9273
24827 1 98.3035 1.7516 87.465
24828 2 97.5837 1.17363 87.0806
24829 2 98.2337 2.67165 87.0795
24830 1 93.8781 19.4856 49.7132
24831 2 94.3099 19.0607 48.9175
24832 2 94.5286 20.1033 50.1552
24833 1 116.449 24.5123 78.2194
24834 2 115.876 24.9645 77.5353
24835 2 116.383 25.0046 79.0873
24836 1 51.4712 19.5937 59.1304
24837 2 51.363 20.3566 58.4929
24838 2 50.6115 19.0867 59.1924
24839 1 45.0566 10.0497 57.3222
24840 2 44.3321 9.52928 56.8702
24841 2 45.0674 9.82816 58.2973
24842 1 19.8181 2.29025 40.8663
24843 2 18.8823 2.06659 41.1387
24844 2 20.4272 2.19035 41.653
24845 1 28.4403 16.18 18.576
24846 2 27.6174 15.6432 18.7626
24847 2 28.8826 15.8351 17.7481
24848 1 85.2971 11.7313 44.829
24849 2 86.2332 12.0645 44.9416
24850 2 85.2243 11.226 43.9692
24851 1 93.8395 0.764221 25.2571
24852 2 94.8174 0.658407 25.4376
24853 2 93.7105 1.21097 24.3718
24854 1 85.3978 15.3405 44.6899
24855 2 84.6041 15.2496 44.0885
24856 2 86.2298 15.3949 44.1378
24857 1 64.9821 11.3299 47.0612
24858 2 65.6736 10.7049 46.6991
24859 2 64.4705 11.7358 46.3039
24860 1 94.9279 22.3632 44.7752
24861 2 94.9701 22.7421 43.8507
24862 2 94.1381 22.7441 45.2558
24863 1 15.924 4.32022 68.2163
24864 2 16.0242 4.58645 69.175
24865 2 15.5954 5.10173 67.6859
24866 1 37.3958 10.34 43.9885
24867 2 36.4286 10.5384 43.83
24868 2 37.9129 10.5109 43.1498
24869 1 65.3463 19.4786 52.6001
24870 2 65.7021 18.5701 52.8193
24871 2 65.4986 20.0921 53.3749
24872 1 5.48451 5.98404 48.1964
24873 2 6.34103 5.92203 48.7088
24874 2 5.17844 5.06546 47.9464
24875 1 9.11417 26.3028 14.3946
24876 2 9.56723 26.312 15.286
24877 2 8.40879 25.594 14.3865
24878 1 118.381 21.5664 81.0105
24879 2 118.628 20.8467 80.3616
24880 2 118.113 21.153 81.8808
24881 1 111.118 23.921 81.9712
24882 2 110.944 24.9049 82.0105
24883 2 111.756 23.6661 82.6982
24884 1 82.9438 1.08511 77.6781
24885 2 83.8184 1.5658 77.6151
24886 2 83.0964 0.159407 78.0242
24887 1 77.8343 12.5111 62.5268
24888 2 78.2117 11.7132 62.0566
24889 2 78.5136 13.2449 62.5356
24890 1 47.4724 1.35054 79.9903
24891 2 47.9403 1.78465 79.2205
24892 2 47.8804 1.66358 80.8479
24893 1 2.30395 0.591697 14.6535
24894 2 1.59849 0.675218 15.3573
24895 2 2.99525 29.9332 14.951
24896 1 80.009 26.4038 44.4559
24897 2 80.7968 26.7926 43.9782
24898 2 79.8415 26.9188 45.2965
24899 1 101.382 3.6611 80.6136
24900 2 102.337 3.72104 80.9039
24901 2 101.297 3.99806 79.6759
24902 1 90.2231 4.74388 31.9804
24903 2 89.2525 4.92591 32.138
24904 2 90.3585 3.76443 31.8309
24905 1 70.9742 19.774 66.2981
24906 2 71.3053 19.5947 65.3717
24907 2 70.1324 19.258 66.4569
24908 1 118.725 18.6785 73.8906
24909 2 119.367 19.1548 74.4913
24910 2 118.96 17.7071 73.8553
24911 1 56.2437 9.98045 87.4556
24912 2 55.7847 9.65516 86.6289
24913 2 56.5161 9.19789 88.0154
24914 1 21.8604 26.1977 79.7704
24915 2 20.9189 26.4828 79.591
24916 2 22.192 25.6434 79.007
24917 1 110.423 0.398246 24.508
24918 2 111.056 0.091603 23.7969
24919 2 110.909 0.983883 25.1567
24920 1 102.53 15.7136 35.6298
24921 2 101.883 15.3941 34.9378
24922 2 103.14 14.964 35.8873
24923 1 53.6875 19.5344 84.6628
24924 2 53.964 20.4709 84.4469
24925 2 54.141 19.2384 85.5035
24926 1 118.16 19.8905 16.3251
24927 2 117.325 19.495 15.9417
24928 2 118.956 19.4174 15.9485
24929 1 41.796 25.8042 39.0267
24930 2 40.8825 25.4285 39.1832
24931 2 42.3988 25.539 39.7792
24932 1 23.3616 29.7188 66.5743
24933 2 22.4714 0.156919 66.4495
24934 2 23.7472 29.9925 67.4554
24935 1 86.4859 21.0704 46.3933
24936 2 86.3779 20.338 45.721
24937 2 87.318 21.5872 46.1923
24938 1 105.809 19.7685 11.3432
24939 2 106.126 20.5873 10.8649
24940 2 106.112 19.7999 12.2954
24941 1 100.2 15.9507 87.2827
24942 2 100.883 15.2717 87.0143
24943 2 99.3492 15.4873 87.5318
24944 1 115.435 25.9237 58.8983
24945 2 114.807 26.6639 59.1392
24946 2 115.947 26.1749 58.0769
24947 1 53.8512 13.1522 36.9453
24948 2 54.2063 12.2774 37.275
24949 2 54.4673 13.521 36.2493
24950 1 28.225 24.458 67.0159
24951 2 28.8065 25.2348 66.7742
24952 2 28.3456 24.24 67.9844
24953 1 88.2294 25.9169 52.8801
24954 2 87.8185 26.7128 52.4355
24955 2 89.2241 25.96 52.7875
24956 1 3.6144 17.2327 27.2408
24957 2 3.40764 17.0846 26.2737
24958 2 4.18014 16.481 27.5796
24959 1 109.718 28.5518 89.0849
24960 2 109.686 29.2497 88.3694
24961 2 109.164 28.8471 89.8636
24962 1 15.8767 1.06724 87.9533
24963 2 15.2934 0.825592 87.1778
24964 2 16.7517 0.589539 87.8739
24965 1 61.4125 28.6834 59.422
24966 2 61.2437 27.7775 59.0335
24967 2 61.9532 29.2262 58.7793
24968 1 3.18071 9.85975 43.3286
24969 2 3.68756 10.375 42.6375
24970 2 3.21758 10.3469 44.2011
24971 1 68.295 19.0976 59.0492
24972 2 68.3531 19.7506 59.8043
24973 2 68.3958 19.5826 58.1806
24974 1 54.4928 25.2964 62.5052
24975 2 55.3492 24.9727 62.1028
24976 2 54.6527 26.1641 62.9759
24977 1 29.3254 18.3228 30.9855
24978 2 29.0891 18.0989 30.04
24979 2 29.3924 17.4806 31.5206
24980 1 38.2399 5.44926 85.5384
24981 2 39.1539 5.1791 85.8412
24982 2 37.9896 4.9244 84.7249
24983 1 52.0292 21.5774 48.1937
24984 2 52.4225 21.2285 49.0444
24985 2 52.5703 21.2521 47.4183
24986 1 74.5479 15.2111 80.6372
24987 2 73.5534 15.315 80.6267
24988 2 74.8051 14.41 80.0968
24989 1 12.0904 12.3373 69.3935
24990 2 12.5576 11.4886 69.1458
24991 2 11.1134 12.1583 69.5096
24992 1 111.09 6.19505 28.1631
24993 2 111.516 6.58931 27.3487
24994 2 110.356 6.79604 28.4795
24995 1 100.673 20.3573 60.4689
24996 2 100.213 19.6885 59.885
24997 2 100.155 20.4731 61.316
24998 1 7.32615 5.57348 50.7485
24999 2 6.90026 4.73228 51.0817
25000 2 7.1213 6.32283 51.3782
25001 1 77.52 5.83276 65.2634
25002 2 77.66 6.82227 65.2991
25003 2 76.8586 5.61536 64.5455
25004 1 88.159 23.1503 52.256
25005 2 88.4159 22.6034 53.0528
25006 2 88.5329 24.0729 52.3505
25007 1 97.1356 4.12153 73.9686
25008 2 97.0284 3.51369 74.7553
25009 2 96.2549 4.54121 73.7491
25010 1 97.9211 15.2563 63.4009
25011 2 98.2466 16.0793 62.9355
25012 2 97.1498 14.8702 62.8949
25013 1 83.4671 7.79478 63.9843
25014 2 82.4729 7.76486 64.0874
25015 2 83.8984 7.68844 64.8802
25016 1 19.5371 26.8772 92.7433
25017 2 18.6826 26.4665 92.4252
25018 2 19.5788 26.8288 93.7413
25019 1 111.533 2.60742 25.7861
25020 2 110.862 3.26667 26.1262
25021 2 112.34 3.09477 25.453
25022 1 8.73236 5.65065 27.2702
25023 2 9.47225 4.98761 27.3839
25024 2 8.47565 5.70133 26.305
25025 1 117.456 8.81472 52.6285
25026 2 116.947 9.50648 52.1169
25027 2 117.058 7.91344 52.4581
25028 1 14.5296 1.35563 14.436
25029 2 13.7343 1.95014 14.3177
25030 2 14.8729 1.07571 13.5395
25031 1 115.506 25.2377 15.2677
25032 2 114.864 24.6864 15.8005
25033 2 115.627 24.8277 14.3636
25034 1 13.6263 1.74076 44.4266
25035 2 12.9712 0.998491 44.2855
25036 2 13.2057 2.61025 44.1677
25037 1 9.82052 17.6177 35.4549
25038 2 10.7806 17.4297 35.6619
25039 2 9.26374 17.4408 36.2665
25040 1 51.2803 16.8453 52.6283
25041 2 52.2123 16.4833 52.6443
25042 2 50.6426 16.1138 52.387
25043 1 78.3583 20.2346 51.2492
25044 2 77.4633 20.4493 51.6402
25045 2 78.2585 19.5118 50.5654
25046 1 68.2536 18.162 77.3044
25047 2 68.4255 17.8437 78.2367
25048 2 69.1123 18.1728 76.7922
25049 1 76.1032 4.55014 63.2561
25050 2 76.3037 5.09434 62.4415
25051 2 75.2548 4.03972 63.1155
25052 1 55.9095 20.554 34.6864
25053 2 55.4326 20.809 33.8453
25054 2 55.8007 19.573 34.847
25055 1 93.8741 29.2676 60.0417
25056 2 93.481 28.6256 59.3834
25057 2 93.4643 29.1155 60.9411
25058 1 87.0592 19.8273 57.9722
25059 2 88.0048 20.0534 57.7385
25060 2 87.0481 19.2227 58.7687
25061 1 94.6442 1.00148 36.063
25062 2 94.9939 0.204008 35.5714
25063 2 94.7064 0.839574 37.0479
25064 1 119.583 28.6498 19.9652
25065 2 119.595 29.6409 19.833
25066 2 118.855 28.4078 20.6064
25067 1 18.0888 10.7244 86.8213
25068 2 18.0181 11.1865 87.7053
25069 2 18.058 11.4027 86.0872
25070 1 112.091 25.5916 84.8165
25071 2 111.254 25.2309 85.2266
25072 2 112.62 24.8397 84.4229
25073 1 24.9565 16.0966 26.2859
25074 2 24.5599 15.3405 26.8064
25075 2 25.3092 16.7871 26.9175
25076 1 10.2035 1.58338 90.8086
25077 2 9.92347 0.773098 91.3234
25078 2 9.56662 1.73443 90.0525
25079 1 80.3779 29.857 58.7191
25080 2 79.6678 0.208485 59.3292
25081 2 80.8427 0.621812 58.273
25082 1 8.44168 3.6359 18.8609
25083 2 8.38544 3.03886 19.6612
25084 2 8.258 4.57971 19.1357
25085 1 117.671 3.52733 21.836
25086 2 118.102 3.2264 22.6865
25087 2 117.397 4.48516 21.922
25088 1 92.177 8.87698 63.3525
25089 2 91.491 8.77561 62.632
25090 2 93.0437 9.16998 62.9488
25091 1 102.43 29.3315 85.6679
25092 2 101.846 29.1597 84.8742
25093 2 102.297 28.6059 86.343
25094 1 17.7494 19.1594 37.5052
25095 2 16.9791 19.6997 37.844
25096 2 18.5909 19.4614 37.953
25097 1 34.4023 4.54835 53.8556
25098 2 33.455 4.54218 53.5353
25099 2 35.0022 4.85313 53.1159
25100 1 44.9662 19.6039 87.9779
25101 2 44.8502 19.9588 87.0502
25102 2 44.0743 19.3477 88.3507
25103 1 3.44431 26.989 24.8012
25104 2 3.3169 27.6667 24.077
25105 2 3.37099 26.0698 24.4142
25106 1 7.49658 28.3225 69.0287
25107 2 6.53432 28.5587 69.1639
25108 2 7.67293 28.1879 68.0537
25109 1 58.758 29.4402 81.6703
25110 2 58.9683 28.5481 81.2703
25111 2 57.8643 29.749 81.3447
25112 1 71.9119 2.45233 73.8818
25113 2 72.5706 2.12646 73.2036
25114 2 72.1152 2.039 74.7694
25115 1 113.976 26.6285 30.4247
25116 2 113.869 26.71 31.4157
25117 2 114.567 25.849 30.2162
25118 1 94.1987 9.30941 67.7787
25119 2 94.1049 9.16407 68.7636
25120 2 94.2855 10.2882 67.593
25121 1 110.671 0.0850198 19.0372
25122 2 110.492 29.5972 19.8915
25123 2 109.833 0.124903 18.4938
25124 1 1.86002 16.9481 63.6828
25125 2 1.84341 17.7285 64.3079
25126 2 2.80411 16.6451 63.553
25127 1 60.0427 24.8961 42.8026
25128 2 60.682 25.4891 43.292
25129 2 59.1661 24.882 43.2837
25130 1 59.9737 1.43749 37.7166
25131 2 60.6796 1.56384 38.4135
25132 2 59.1437 1.07927 38.1441
25133 1 25.6532 18.8878 51.9865
25134 2 26.1809 18.1364 52.3827
25135 2 25.1812 19.3841 52.7151
25136 1 9.76765 16.9142 68.0543
25137 2 9.84597 17.3345 68.9583
25138 2 9.27474 17.5316 67.4412
25139 1 60.6122 23.3547 58.5186
25140 2 60.8578 22.8777 57.6747
25141 2 60.6737 24.3422 58.3734
25142 1 109.998 0.265495 73.767
25143 2 110.107 0.470524 72.7944
25144 2 109.315 0.879237 74.1624
25145 1 6.67142 11.7373 21.8878
25146 2 7.33167 12.3156 21.4086
25147 2 6.57576 12.0526 22.832
25148 1 100.993 4.52273 68.19
25149 2 101.439 5.38095 67.9363
25150 2 101.608 3.75789 67.9981
25151 1 61.355 6.92941 57.648
25152 2 62.2702 6.7119 57.3086
25153 2 61.021 7.75795 57.1986
25154 1 41.4994 2.39392 30.6059
25155 2 41.8663 2.16681 29.7038
25156 2 41.5052 1.57745 31.1833
25157 1 42.8039 7.76473 76.471
25158 2 43.6188 8.17036 76.8849
25159 2 41.9879 8.22349 76.8227
25160 1 119.542 13.9094 47.5684
25161 2 119.379 13.2112 46.8713
25162 2 118.923 14.6804 47.419
25163 1 70.0945 3.49769 56.6389
25164 2 70.5821 2.63281 56.7579
25165 2 70.1636 4.03744 57.4779
25166 1 36.9899 25.2781 79.8475
25167 2 37.8669 25.755 79.7881
25168 2 36.7141 24.9727 78.9361
25169 1 19.7117 19.6841 55.4845
25170 2 20.0417 20.0628 54.6198
25171 2 18.7125 19.6458 55.4718
25172 1 50.0126 18.8016 79.0095
25173 2 49.6358 19.7137 78.8472
25174 2 49.3027 18.115 78.8524
25175 1 63.6764 15.5236 50.2475
25176 2 64.3348 15.7109 49.5186
25177 2 62.7602 15.7857 49.9446
25178 1 118.173 23.8053 46.354
25179 2 119.016 23.2775 46.2549
25180 2 117.703 23.8509 45.4725
25181 1 85.3039 8.81559 32.1067
25182 2 86.1436 8.27401 32.0664
25183 2 85.4847 9.67589 32.5834
25184 1 83.7862 14.9928 30.6985
25185 2 83.8157 14.0461 30.3777
25186 2 82.9231 15.156 31.1763
25187 1 38.8983 10.7286 87.8568
25188 2 38.2388 10.0598 87.5137
25189 2 39.3739 11.1532 87.0864
25190 1 17.4308 21.3747 32.4994
25191 2 18.2143 21.4386 31.8814
25192 2 17.4112 22.1765 33.0968
25193 1 42.0462 24.6896 83.5949
25194 2 42.2095 25.5997 83.9758
25195 2 41.6779 24.0915 84.3066
25196 1 119.656 7.84468 81.277
25197 2 0.483938 7.29719 81.401
25198 2 119.383 8.2382 82.1546
25199 1 100.262 4.80363 40.7892
25200 2 100.09 5.69246 41.2137
25201 2 101.219 4.75046 40.5043
25202 1 51.7877 1.05663 43.6087
25203 2 51.8878 0.191369 43.1174
25204 2 51.3515 0.889413 44.4928
25205 1 43.4161 0.589584 47.8174
25206 2 42.6701 1.24704 47.711
25207 2 43.0368 29.6766 47.9677
25208 1 12.3231 10.5341 90.9045
25209 2 11.3743 10.2187 90.9203
25210 2 12.4424 11.1947 90.1633
25211 1 98.6469 14.9873 69.1438
25212 2 98.9905 14.0911 68.8631
25213 2 97.6562 15.0207 69.0119
25214 1 2.08997 26.4081 66.71
25215 2 1.50481 25.8475 66.1241
25216 2 2.11442 26.016 67.6296
25217 1 93.0176 24.0598 36.0797
25218 2 93.2808 24.619 35.2935
25219 2 92.5122 24.622 36.7343
25220 1 117.485 0.307841 77.477
25221 2 117.57 29.7083 78.2727
25222 2 116.517 0.46132 77.2778
25223 1 47.9894 13.2259 86.1541
25224 2 48.5443 12.4159 86.3439
25225 2 48.2608 13.6172 85.2747
25226 1 54.0648 0.421724 79.6001
25227 2 53.9788 29.4272 79.6601
25228 2 54.1486 0.691767 78.6409
25229 1 112.03 23.1503 20.347
25230 2 112.187 22.5631 21.1412
25231 2 112.835 23.129 19.7532
25232 1 60.1668 10.836 53.4439
25233 2 61.0117 10.3978 53.137
25234 2 59.5922 10.1629 53.9093
25235 1 4.341 1.37833 56.6376
25236 2 3.46821 1.60763 56.2067
25237 2 4.78716 2.21583 56.9531
25238 1 42.2198 18.329 30.3807
25239 2 42.4993 18.8888 29.6006
25240 2 41.367 17.8547 30.1621
25241 1 18.6665 4.67366 18.6085
25242 2 19.1296 4.08229 17.9484
25243 2 19.3428 5.08376 19.2205
25244 1 27.7523 10.3208 90.6363
25245 2 26.8142 10.6645 90.5926
25246 2 28.3861 11.0905 90.7128
25247 1 40.1494 27.676 26.7433
25248 2 39.9173 28.6466 26.6784
25249 2 39.3272 27.1506 26.962
25250 1 8.45688 13.0616 24.3624
25251 2 8.98186 13.5683 23.6785
25252 2 7.68837 13.6204 24.6739
25253 1 47.3027 27.6927 72.7387
25254 2 46.4917 27.3053 72.3004
25255 2 48.066 27.0524 72.653
25256 1 80.2837 17.9252 90.1971
25257 2 80.7705 17.4423 90.9251
25258 2 79.6676 17.2907 89.7304
25259 1 54.6229 28.6875 48.4446
25260 2 54.2367 29.3337 49.1029
25261 2 55.5051 29.029 48.1206
25262 1 108.537 24.1006 18.3824
25263 2 108.151 23.39 18.9702
25264 2 107.815 24.7347 18.1069
25265 1 66.7552 22.8167 42.6889
25266 2 67.2632 23.1112 43.4983
25267 2 65.953 23.4014 42.5677
25268 1 5.32282 27.0523 19.6578
25269 2 5.61725 28.0029 19.7565
25270 2 4.60221 26.8558 20.3227
25271 1 112.117 17.6067 86.8952
25272 2 112.049 16.6172 87.023
25273 2 111.778 17.8494 85.9862
25274 1 24.4773 26.6906 43.7664
25275 2 24.8354 26.8626 42.8487
25276 2 23.8818 27.4463 44.0388
25277 1 14.9068 9.68655 51.3063
25278 2 13.971 9.33683 51.2627
25279 2 15.0514 10.1433 52.1841
25280 1 105.586 1.1792 42.4853
25281 2 106.301 1.53628 41.8843
25282 2 105.892 0.31854 42.8924
25283 1 56.2519 24.1125 59.1811
25284 2 55.7105 23.2763 59.2679
25285 2 56.5676 24.4006 60.0852
25286 1 3.68532 7.39721 20.9183
25287 2 4.01299 8.32674 20.7492
25288 2 4.43288 6.74887 20.7741
25289 1 113.866 27.6176 16.4069
25290 2 113.928 27.2959 15.462
25291 2 113.689 28.6017 16.413
25292 1 113.104 13.1016 62.7762
25293 2 113.642 12.2888 63.0009
25294 2 113.642 13.7046 62.187
25295 1 97.0427 27.4476 29.5666
25296 2 96.9495 26.8228 30.3418
25297 2 98.0065 27.5183 29.3095
25298 1 95.8227 28.1691 34.9866
25299 2 95.0283 27.6602 35.3181
25300 2 96.5199 28.2022 35.7027
25301 1 115.93 25.9071 23.2364
25302 2 116.644 26.5665 23.0019
25303 2 115.997 25.1139 22.6312
25304 1 44.5521 29.843 51.483
25305 2 43.8797 29.4502 50.8556
25306 2 45.1558 29.1204 51.8197
25307 1 72.5564 9.52539 60.9318
25308 2 72.9628 8.62533 61.0889
25309 2 71.9275 9.47632 60.1558
25310 1 104.163 13.6446 36.1762
25311 2 103.728 13.4588 37.057
25312 2 105.135 13.415 36.2296
25313 1 108.425 15.166 67.5047
25314 2 108.975 15.8124 66.9759
25315 2 108.997 14.7332 68.2012
25316 1 117.528 10.8536 40.9237
25317 2 117.065 11.723 41.0965
25318 2 116.941 10.0993 41.2176
25319 1 10.629 17.8805 79.198
25320 2 9.80437 17.7055 79.7358
25321 2 10.899 18.8376 79.3037
25322 1 35.282 1.22146 40.9496
25323 2 35.3798 1.70333 40.0789
25324 2 34.4739 1.56221 41.4302
25325 1 17.4291 28.5512 23.2208
25326 2 17.8951 28.2614 24.0568
25327 2 17.3934 27.7869 22.577
25328 1 84.1266 12.8589 78.7179
25329 2 84.627 12.4107 77.9772
25330 2 84.4348 13.8065 78.8028
25331 1 115.025 14.3057 37.099
25332 2 115.422 13.9977 36.2344
25333 2 115.757 14.4863 37.7562
25334 1 106.803 1.55919 59.5907
25335 2 105.985 2.06542 59.3155
25336 2 106.553 0.615585 59.808
25337 1 3.92043 21.7953 24.9603
25338 2 4.72901 21.9025 24.3818
25339 2 3.71934 20.8225 25.0751
25340 1 19.0128 2.06021 78.6749
25341 2 19.1853 2.40604 79.5972
25342 2 18.0488 1.80897 78.5881
25343 1 90.4342 2.64869 48.8448
25344 2 91.1605 2.11979 49.2839
25345 2 90.6547 3.62282 48.8944
25346 1 70.6142 18.2457 69.1478
25347 2 69.7986 17.686 69.0014
25348 2 71.3989 17.8142 68.7027
25349 1 24.1069 21.0083 82.0886
25350 2 24.7476 20.426 81.5882
25351 2 23.7211 20.4966 82.8563
25352 1 15.6992 11.6029 46.4108
25353 2 15.0335 12.3486 46.3818
25354 2 16.2982 11.7215 47.2026
25355 1 119.587 23.8456 87.8996
25356 2 0.353903 23.256 88.1515
25357 2 118.763 23.2899 87.7833
25358 1 3.80301 11.505 87.0314
25359 2 4.56674 10.8791 87.1893
25360 2 3.63578 12.0421 87.8582
25361 1 16.5828 25.9878 84.8283
25362 2 15.9852 25.3728 84.3138
25363 2 17.0491 25.4741 85.5485
25364 1 104.275 13.1565 33.0049
25365 2 103.578 13.3138 33.7047
25366 2 103.916 12.5313 32.3118
25367 1 96.8511 18.3271 48.6513
25368 2 96.9117 19.0306 49.3594
25369 2 95.8914 18.0948 48.4935
25370 1 63.55 15.3505 84.4367
25371 2 63.1115 16.2129 84.1836
25372 2 64.0308 15.4636 85.3061
25373 1 118.043 9.07709 55.3043
25374 2 118.431 8.20123 55.5913
25375 2 117.563 8.96019 54.4348
25376 1 106.25 6.82424 20.0132
25377 2 106.186 6.31281 19.1563
25378 2 106.264 7.80452 19.8161
25379 1 110.794 1.53551 60.6584
25380 2 111.604 1.04478 60.9781
25381 2 110.932 2.51905 60.7746
25382 1 100.275 26.1705 86.5362
25383 2 100.072 27.0015 86.0184
25384 2 99.5579 25.4927 86.3736
25385 1 15.5545 15.3975 34.0814
25386 2 14.9001 15.5243 33.336
25387 2 15.0624 15.1723 34.9223
25388 1 50.1697 12.7858 63.5912
25389 2 49.9717 13.7404 63.814
25390 2 49.4151 12.4048 63.0571
25391 1 25.0813 10.9101 46.0184
25392 2 24.7136 11.8387 46.0692
25393 2 24.4574 10.333 45.4914
25394 1 70.4963 22.3032 85.8354
25395 2 70.6968 22.0479 84.8896
25396 2 69.9697 21.5743 86.2729
25397 1 100.583 20.0602 45.4976
25398 2 101.48 19.6206 45.4418
25399 2 99.8684 19.3609 45.4938
25400 1 38.5841 19.5927 22.2603
25401 2 38.8385 20.4596 21.8315
25402 2 39.33 18.9356 22.1518
25403 1 31.8108 12.2393 90.0691
25404 2 32.0926 13.1961 90.1403
25405 2 32.4782 11.6596 90.5366
25406 1 117.542 4.39546 50.4293
25407 2 117.163 4.93374 51.182
25408 2 118.122 4.97928 49.8609
25409 1 4.32327 22.7226 17.1724
25410 2 5.25588 22.3843 17.0468
25411 2 3.98751 22.4478 18.0733
25412 1 50.5085 13.2669 72.4381
25413 2 50.7038 12.3944 71.9904
25414 2 50.3741 13.9747 71.7446
25415 1 43.9756 11.5775 65.8401
25416 2 44.1632 10.9282 65.103
25417 2 43.1869 12.1412 65.595
25418 1 71.2637 9.97149 90.2017
25419 2 71.6813 9.13673 90.5605
25420 2 70.3227 9.78 89.9225
25421 1 29.8768 27.0164 36.0479
25422 2 29.6684 26.8169 35.0904
25423 2 29.138 26.6739 36.6282
25424 1 83.6183 16.7526 37.8489
25425 2 84.1077 17.5949 37.6233
25426 2 83.0577 16.9009 38.6637
25427 1 8.9851 4.17518 61.7115
25428 2 9.1436 5.14192 61.9122
25429 2 8.18719 4.08495 61.1155
25430 1 37.3577 12.0165 23.6825
25431 2 37.0981 11.2558 24.2773
25432 2 36.6604 12.7316 23.7324
25433 1 83.9517 15.6706 63.5522
25434 2 83.9091 16.1027 62.6514
25435 2 83.7048 16.3384 64.2543
25436 1 7.6858 28.5725 16.7861
25437 2 7.08422 29.3611 16.6588
25438 2 7.9847 28.5317 17.7395
25439 1 69.8563 22.6357 79.7337
25440 2 69.7769 23.4713 79.1902
25441 2 70.6814 22.6815 80.2968
25442 1 52.2235 8.24418 84.569
25443 2 51.7106 8.25689 85.4274
25444 2 53.0872 8.73346 84.6896
25445 1 71.1862 23.9784 38.9113
25446 2 71.9028 24.666 39.0279
25447 2 71.1353 23.4076 39.7308
25448 1 23.5735 17.1913 89.6853
25449 2 24.369 16.6951 89.3375
25450 2 23.8768 18.0214 90.1531
25451 1 27.6101 7.26102 80.203
25452 2 26.7087 6.99014 80.5408
25453 2 28.0115 7.93243 80.826
25454 1 78.1057 11.5839 76.9716
25455 2 78.6175 12.4344 77.0932
25456 2 78.666 10.812 77.2718
25457 1 109.162 11.8079 54.6593
25458 2 108.996 11.6664 55.6353
25459 2 108.407 11.4159 54.1328
25460 1 50.1261 1.49585 55.2444
25461 2 49.1724 1.4693 54.945
25462 2 50.5806 2.28922 54.8394
25463 1 16.7412 9.65692 31.7561
25464 2 16.2464 9.67796 32.6248
25465 2 16.4217 10.4034 31.1724
25466 1 6.25623 3.33278 76.4259
25467 2 6.91492 3.36317 75.6741
25468 2 6.17379 4.24208 76.8337
25469 1 46.5354 20.0132 43.8121
25470 2 46.4146 19.4194 43.0167
25471 2 45.7173 20.5747 43.9362
25472 1 18.4871 9.77726 20.215
25473 2 18.2387 9.36803 21.093
25474 2 19.1448 9.18747 19.7465
25475 1 116.626 17.8914 22.8078
25476 2 116.117 18.7396 22.9529
25477 2 116.845 17.4786 23.692
25478 1 16.4842 5.66556 73.4423
25479 2 17.3952 6.04852 73.5952
25480 2 16.2001 5.8469 72.5008
25481 1 112.745 13.8977 81.818
25482 2 113.554 13.3704 81.5606
25483 2 111.994 13.6827 81.1929
25484 1 51.1663 22.12 45.2505
25485 2 50.6014 21.6937 45.957
25486 2 52.1201 22.1355 45.5507
25487 1 28.3999 0.577509 39.0065
25488 2 27.7032 1.29295 38.9536
25489 2 29.2123 0.936692 39.4659
25490 1 98.2577 28.2746 54.2415
25491 2 98.0088 28.1229 53.2849
25492 2 98.3933 27.3934 54.6944
25493 1 80.2234 17.284 44.8917
25494 2 79.4391 17.232 44.2735
25495 2 80.9618 17.7946 44.4511
25496 1 53.318 18.6073 71.5512
25497 2 52.4196 18.9634 71.8081
25498 2 53.2626 17.6157 71.4345
25499 1 96.1882 28.8851 73.9995
25500 2 96.3833 29.6481 74.6158
25501 2 96.4303 28.0245 74.4474
25502 1 12.9436 22.6266 41.5122
25503 2 12.1799 23.0646 41.9864
25504 2 13.7081 22.5119 42.1466
25505 1 65.105 3.85595 60.8363
25506 2 64.7894 4.7152 60.4337
25507 2 64.4708 3.12166 60.5942
25508 1 18.0997 26.746 38.9356
25509 2 18.4582 27.5658 38.4891
25510 2 17.1524 26.9052 39.2136
25511 1 21.0447 4.57677 64.3353
25512 2 20.9447 3.61015 64.0994
25513 2 20.7891 5.13982 63.5494
25514 1 100.502 23.4282 52.1151
25515 2 99.8648 24.1334 51.8046
25516 2 100.417 22.6213 51.5305
25517 1 45.5714 17.5442 85.5166
25518 2 44.8492 17.1783 86.1035
25519 2 45.6314 16.9975 84.6815
25520 1 52.2942 9.13568 80.7053
25521 2 51.4888 9.2367 80.1212
25522 2 52.2494 8.26003 81.1862
25523 1 47.8688 3.00757 65.0186
25524 2 47.7902 3.86489 64.5099
25525 2 47.4779 2.26235 64.4784
25526 1 110.211 10.2636 33.4586
25527 2 110.04 10.4385 32.4891
25528 2 109.706 9.44928 33.7449
25529 1 27.723 4.67685 45.764
25530 2 27.3135 3.77294 45.6405
25531 2 28.6497 4.67714 45.3882
25532 1 69.0401 3.48211 66.7799
25533 2 68.1419 3.89615 66.9278
25534 2 69.4401 3.84537 65.9385
25535 1 12.9597 9.49417 12.7389
25536 2 12.6242 9.77032 11.8382
25537 2 13.1024 10.3062 13.3048
25538 1 33.947 2.09475 50.3039
25539 2 34.627 1.81834 49.6247
25540 2 34.1146 3.04203 50.5769
25541 1 53.6699 21.9734 90.5662
25542 2 53.5783 21.0967 91.0386
25543 2 54.2373 21.8552 89.7513
25544 1 21.0093 6.51068 31.9099
25545 2 21.8521 6.43828 32.4433
25546 2 21.0527 5.88458 31.1314
25547 1 26.6679 15.0513 51.0026
25548 2 26.7673 15.5966 51.8349
25549 2 25.9908 15.4783 50.4032
25550 1 103.129 1.18075 82.6293
25551 2 103.357 1.93557 82.0139
25552 2 103.501 1.3685 83.5385
25553 1 18.0063 13.9377 46.0689
25554 2 18.6351 14.5159 45.5491
25555 2 18.0672 12.9964 45.7368
25556 1 14.9043 23.3826 18.8935
25557 2 14.7302 23.7124 17.9656
25558 2 14.4974 24.0141 19.5535
25559 1 60.4609 11.1797 77.8785
25560 2 60.9272 10.8589 78.7029
25561 2 60.308 12.1657 77.9443
25562 1 84.2662 9.78348 59.9377
25563 2 83.5884 10.365 59.4879
25564 2 84.7104 9.20134 59.2566
25565 1 112.34 15.0279 19.2157
25566 2 112.119 15.4064 18.3168
25567 2 111.715 15.4052 19.899
25568 1 34.4361 23.4411 32.7357
25569 2 33.9217 23.719 33.547
25570 2 35.0411 22.6798 32.9692
25571 1 76.5625 1.78933 31.0999
25572 2 77.1027 2.07277 30.3075
25573 2 75.5916 1.79425 30.8604
25574 1 58.6461 28.1368 64.2747
25575 2 58.2194 28.7232 64.9632
25576 2 58.1845 28.2633 63.3967
25577 1 98.2231 18.0036 28.3689
25578 2 99.0007 17.4002 28.192
25579 2 98.193 18.7213 27.6732
25580 1 97.6522 28.3261 26.9027
25581 2 97.0411 27.5421 27.0117
25582 2 98.3648 28.2932 27.6035
25583 1 32.8602 13.7829 66.8459
25584 2 32.745 14.1432 67.7716
25585 2 33.6408 13.1581 66.8262
25586 1 113.754 27.8056 60.1062
25587 2 114.293 27.7559 60.9472
25588 2 113.698 28.7566 59.8022
25589 1 46.1631 23.2075 77.9381
25590 2 46.0028 22.2301 77.8005
25591 2 45.4284 23.5901 78.4984
25592 1 75.2652 18.2699 83.9487
25593 2 75.8972 18.478 83.2021
25594 2 74.324 18.3483 83.6201
25595 1 47.4772 11.0302 64.7487
25596 2 47.3582 10.0947 64.4162
25597 2 47.5698 11.6513 63.9704
25598 1 37.4261 19.5817 67.1694
25599 2 37.9715 18.8573 67.591
25600 2 37.7309 20.4705 67.5117
25601 1 62.6675 10.1964 63.8216
25602 2 63.0887 10.7303 64.5547
25603 2 63.3685 9.92424 63.1624
25604 1 98.8699 5.61706 66.6201
25605 2 99.2906 4.91859 67.199
25606 2 99.1865 5.50437 65.6783
25607 1 29.4969 4.25422 54.8354
25608 2 30.1762 4.2682 55.5692
25609 2 28.6182 3.94669 55.2005
25610 1 119.562 10.1344 90.3446
25611 2 118.685 10.345 90.7754
25612 2 119.402 9.71862 89.4492
25613 1 28.765 28.8926 10.5761
25614 2 29.3761 29.5051 11.0776
25615 2 28.0847 29.4327 10.0807
25616 1 68.7831 21.6605 89.4427
25617 2 67.8756 21.7391 89.0302
25618 2 69.0959 20.7126 89.382
25619 1 89.8458 3.9459 82.448
25620 2 90.1019 3.61224 81.5407
25621 2 89.0741 4.57656 82.3656
25622 1 13.1806 21.3926 44.9493
25623 2 13.5575 21.6843 45.8284
25624 2 12.3174 21.869 44.7821
25625 1 8.49391 13.2924 10.5984
25626 2 9.27049 12.7889 10.9771
25627 2 7.84637 12.6489 10.1904
25628 1 64.3033 2.56947 37.3395
25629 2 65.2603 2.36525 37.5454
25630 2 63.7151 1.89481 37.7854
25631 1 96.929 24.9575 42.2658
25632 2 96.326 24.1671 42.3746
25633 2 97.2935 25.2239 43.1581
25634 1 34.694 0.184125 21.1845
25635 2 34.7542 29.6725 20.3274
25636 2 33.7511 0.484782 21.3277
25637 1 52.6476 5.01926 44.1708
25638 2 51.9736 4.75091 44.8591
25639 2 52.4576 5.95189 43.8641
25640 1 37.5858 8.42703 60.9127
25641 2 37.2194 7.99497 60.0886
25642 2 37.8135 9.38068 60.716
25643 1 117.839 12.0018 45.7319
25644 2 118.619 11.8665 45.1208
25645 2 116.989 11.9279 45.2094
25646 1 83.5889 17.1452 69.3883
25647 2 83.7766 17.8188 70.1032
25648 2 83.883 17.5071 68.5037
25649 1 79.9142 5.24549 80.052
25650 2 80.9076 5.3274 79.9712
25651 2 79.6461 4.29204 79.914
25652 1 17.6598 25.1253 67.4433
25653 2 17.0981 25.1257 66.6159
25654 2 17.4737 25.9529 67.9729
25655 1 15.4646 26.5618 48.961
25656 2 15.3461 27.1889 49.7309
25657 2 15.9898 25.7645 49.2584
25658 1 103.868 2.76381 60.7624
25659 2 103.754 1.77569 60.8648
25660 2 103.973 2.98867 59.7936
25661 1 111.379 17.8081 77.9239
25662 2 111.324 17.8828 76.9281
25663 2 112.227 18.231 78.2439
25664 1 82.9136 19.5581 62.5813
25665 2 83.9134 19.567 62.5659
25666 2 82.5639 19.8661 61.6965
25667 1 73.2784 14.8447 90.2168
25668 2 72.7594 14.0593 90.5541
25669 2 73.8934 14.5488 89.4859
25670 1 20.2529 19.9084 64.0762
25671 2 19.2651 19.7796 64.1631
25672 2 20.7197 19.4087 64.8059
25673 1 78.7961 29.9916 62.5561
25674 2 78.7641 0.201828 61.579
25675 2 79.7432 29.8244 62.8302
25676 1 118.335 25.8445 31.835
25677 2 118.232 26.5494 31.1331
25678 2 119.298 25.769 32.0932
25679 1 69.046 12.9198 53.0191
25680 2 68.4115 13.6776 53.1712
25681 2 68.602 12.0585 53.2661
25682 1 35.218 22.06 30.5276
25683 2 34.8796 22.5712 31.3177
25684 2 34.5282 22.0702 29.8037
25685 1 103.129 6.93736 79.0406
25686 2 102.419 6.39397 78.5914
25687 2 102.95 6.97154 80.0238
25688 1 10.8842 5.93099 19.1669
25689 2 11.1594 5.00754 18.8994
25690 2 9.89034 5.96544 19.2717
25691 1 37.5034 8.71942 22.2471
25692 2 37.6799 7.83686 21.8113
25693 2 36.5231 8.91493 22.2191
25694 1 53.4808 14.5839 76.3227
25695 2 53.5869 14.324 75.3629
25696 2 54.3436 14.4348 76.8058
25697 1 54.904 21.8074 59.7709
25698 2 53.9954 22.008 60.1373
25699 2 54.988 20.8244 59.6076
25700 1 89.9273 27.7741 63.1579
25701 2 89.9647 27.0004 62.5256
25702 2 90.651 28.4257 62.9305
25703 1 65.6896 29.0136 38.4604
25704 2 65.2698 28.8307 39.3495
25705 2 65.5463 29.9724 38.2151
25706 1 67.2569 29.6586 55.6277
25707 2 67.5496 28.7308 55.8588
25708 2 66.2641 29.675 55.5086
25709 1 55.3752 6.1806 36.0857
25710 2 55.2206 6.96174 35.4808
25711 2 55.0657 5.34342 35.6347
25712 1 117.393 13.5702 54.8041
25713 2 117.956 13.8845 54.0394
25714 2 116.434 13.7914 54.6256
25715 1 7.65994 22.2485 18.5662
25716 2 8.58962 22.3657 18.9155
25717 2 7.04186 22.869 19.0489
25718 1 55.4633 4.70794 65.6235
25719 2 55.5443 5.12187 64.7168
25720 2 54.97 3.8411 65.5513
25721 1 26.5418 0.89211 26.3898
25722 2 26.3843 0.184052 25.7014
25723 2 26.7735 1.75254 25.9359
25724 1 82.1567 10.2751 90.8653
25725 2 82.473 9.42091 90.4528
25726 2 82.6329 11.046 90.4423
25727 1 50.7566 12.9204 90.6749
25728 2 49.8503 13.1529 90.3221
25729 2 50.9726 13.5099 91.4532
25730 1 23.386 28.3999 90.613
25731 2 23.7762 28.3304 89.6949
25732 2 22.5087 28.8776 90.5671
25733 1 116.896 2.2404 52.213
25734 2 116.106 1.96098 51.667
25735 2 117.498 2.81468 51.6584
25736 1 90.2605 7.88619 57.0202
25737 2 90.9179 8.43601 57.5355
25738 2 89.4119 7.8048 57.5428
25739 1 62.8739 22.7937 82.9822
25740 2 62.4515 21.8999 82.8317
25741 2 63.1686 23.1748 82.1059
25742 1 110.03 29.533 85.7612
25743 2 109.336 0.0720063 86.2377
25744 2 109.584 28.8633 85.168
25745 1 39.3921 3.13106 66.7872
25746 2 39.9627 3.00918 65.9751
25747 2 38.4678 2.79973 66.5979
25748 1 26.4645 6.56267 77.0001
25749 2 26.7233 6.26135 76.0823
25750 2 25.4896 6.39294 77.144
25751 1 47.5651 4.08371 53.8485
25752 2 46.6196 4.30234 53.6072
25753 2 48.0593 3.79221 53.0295
25754 1 58.5068 25.4307 73.2665
25755 2 59.1543 25.0638 72.5986
25756 2 58.964 25.539 74.1492
25757 1 89.6602 9.83584 64.3001
25758 2 89.1931 10.533 64.844
25759 2 90.1601 10.275 63.5537
25760 1 118.812 1.24339 85.1566
25761 2 118.555 1.51324 86.0845
25762 2 119.776 1.46037 85.0015
25763 1 27.9959 15.296 74.7792
25764 2 28.7232 14.9472 75.3704
25765 2 27.5646 16.0872 75.2128
25766 1 2.94776 13.3875 89.2693
25767 2 3.93543 13.3038 89.4016
25768 2 2.73552 14.2958 88.9087
25769 1 48.5242 29.6935 77.0967
25770 2 48.5891 28.7766 76.7028
25771 2 49.204 0.28897 76.6686
25772 1 76.4633 28.5931 35.9341
25773 2 76.045 28.1004 36.6971
25774 2 75.9466 29.4302 35.7545
25775 1 103.224 12.6561 50.5891
25776 2 103.78 13.4235 50.9081
25777 2 102.337 12.9952 50.2749
25778 1 113.841 25.1886 38.9533
25779 2 114.734 24.8645 39.2649
25780 2 113.763 25.0535 37.9655
25781 1 81.3262 29.7955 51.5764
25782 2 82.1262 29.2947 51.907
25783 2 81.2434 29.6758 50.5871
25784 1 76.9672 17.9497 49.7505
25785 2 77.8112 17.4695 49.5117
25786 2 76.6439 17.6324 50.642
25787 1 29.1999 9.79298 76.1043
25788 2 29.1531 8.89674 75.6633
25789 2 29.5109 9.68397 77.0485
25790 1 44.3461 21.9835 72.0826
25791 2 44.5769 22.656 71.3795
25792 2 44.815 21.1222 71.8867
25793 1 99.3187 4.52614 26.2913
25794 2 99.8913 5.11275 25.7186
25795 2 98.5228 5.04289 26.6068
25796 1 80.4028 6.30448 46.1992
25797 2 80.1803 7.17753 45.7653
25798 2 79.6742 6.05377 46.8366
25799 1 31.7373 28.7074 23.5715
25800 2 31.9265 29.185 22.7136
25801 2 30.8657 29.0252 23.9448
25802 1 47.8013 6.92665 47.2118
25803 2 47.5795 6.29282 46.4707
25804 2 48.3219 7.69809 46.8459
25805 1 76.8799 3.33588 54.3977
25806 2 76.9197 3.6696 53.4559
25807 2 76.4979 2.41176 54.408
25808 1 24.9294 14.1233 16.5019
25809 2 25.8573 13.8036 16.3102
25810 2 24.4116 14.1752 15.648
25811 1 64.6427 6.04644 59.5694
25812 2 65.4785 6.48913 59.8939
25813 2 64.6294 6.05158 58.5695
25814 1 93.8663 19.1637 89.5214
25815 2 93.9949 18.1785 89.4083
25816 2 94.6884 19.5627 89.9276
25817 1 61.4443 5.79393 83.5419
25818 2 61.1036 6.50673 84.155
25819 2 61.9249 6.21679 82.7736
25820 1 67.1325 13.6634 46.4774
25821 2 67.8884 14.3152 46.5395
25822 2 67.0036 13.3925 45.5235
25823 1 3.59122 7.14244 53.1274
25824 2 3.98526 7.94228 53.5802
25825 2 4.07754 6.97111 52.2706
25826 1 88.9946 3.26322 36.8476
25827 2 89.7047 3.88106 36.5098
25828 2 88.2766 3.17181 36.1576
25829 1 88.432 23.5232 29.0924
25830 2 88.5801 23.002 28.2518
25831 2 88.6942 22.9662 29.8804
25832 1 25.5191 13.6897 57.6892
25833 2 25.2841 14.6395 57.4828
25834 2 25.5433 13.5602 58.6805
25835 1 2.89991 23.7357 71.9816
25836 2 2.69966 24.0529 71.0546
25837 2 2.06467 23.7626 72.5308
25838 1 21.0869 0.740207 32.1409
25839 2 20.5466 0.154144 32.7448
25840 2 20.6642 1.64501 32.0889
25841 1 2.87571 3.75607 49.1455
25842 2 3.54713 3.21614 48.6379
25843 2 2.85473 3.45194 50.0979
25844 1 49.2084 25.6117 78.653
25845 2 49.9156 25.552 79.3575
25846 2 48.3207 25.7722 79.0846
25847 1 56.9178 10.4036 44.7562
25848 2 56.2687 10.2412 44.0131
25849 2 57.7937 9.97583 44.533
25850 1 108.696 19.9924 82.498
25851 2 109.567 19.79 82.9447
25852 2 108.837 20.0685 81.5109
25853 1 61.1316 21.2969 77.1664
25854 2 60.7832 22.2079 77.3873
25855 2 61.1512 21.1792 76.1736
25856 1 40.1851 19.3203 74.3252
25857 2 40.5701 18.5298 74.8016
25858 2 40.4894 20.1606 74.7739
25859 1 36.7649 29.022 35.0926
25860 2 36.9776 28.3011 35.7521
25861 2 37.6045 29.5053 34.8446
25862 1 92.316 2.93409 36.6791
25863 2 92.0716 2.0978 36.1883
25864 2 91.6849 3.66673 36.4241
25865 1 23.6807 10.2929 90.3338
25866 2 24.3825 10.5575 89.6723
25867 2 23.1434 11.0967 90.5891
25868 1 57.9264 15.7507 81.321
25869 2 57.7756 14.8322 80.9554
25870 2 58.0243 15.7019 82.315
25871 1 74.9121 27.1994 66.7458
25872 2 74.0716 27.5627 67.1478
25873 2 75.2749 26.4741 67.3308
25874 1 113.214 20.7112 21.8542
25875 2 112.377 20.234 22.1224
25876 2 113.909 20.5908 22.5637
25877 1 100.383 0.728584 61.8661
25878 2 101.281 0.314943 61.7188
25879 2 100.038 0.464947 62.7671
25880 1 39.956 8.30496 79.9468
25881 2 40.2564 8.9038 80.6892
25882 2 40.1177 8.75564 79.0689
25883 1 40.0242 12.6863 31.3516
25884 2 39.6901 12.7211 30.4097
25885 2 40.4372 13.5648 31.5916
25886 1 69.4405 27.5596 85.4078
25887 2 69.4542 28.1414 86.221
25888 2 69.4456 28.1323 84.5881
25889 1 117.965 3.007 75.3785
25890 2 117.876 2.917 74.3866
25891 2 117.133 2.67256 75.8202
25892 1 92.5683 13.2524 68.6135
25893 2 92.8387 13.455 69.5547
25894 2 92.4798 14.1064 68.1009
25895 1 47.8688 11.0458 83.1567
25896 2 47.2704 11.1769 83.9471
25897 2 48.2838 11.9199 82.9043
25898 1 110.997 21.9811 11.0861
25899 2 111.318 22.7694 11.6109
25900 2 111.604 21.8312 10.3052
25901 1 75.2796 20.4598 59.5833
25902 2 74.6313 20.7908 58.8976
25903 2 76.1899 20.8222 59.3836
25904 1 6.92081 29.5679 28.1199
25905 2 6.68005 28.9337 28.8546
25906 2 7.91592 29.6153 28.0332
25907 1 33.9551 22.7284 49.9337
25908 2 32.9765 22.5863 49.7852
25909 2 34.1212 22.9183 50.9014
25910 1 112.424 7.06319 60.5727
25911 2 112.64 6.14551 60.2397
25912 2 113.27 7.53922 60.8125
25913 1 51.5882 29.1184 37.7799
25914 2 51.5899 0.0214432 38.2094
25915 2 50.6456 28.8019 37.673
25916 1 19.0235 19.4097 15.2513
25917 2 19.5752 18.9584 15.9527
25918 2 19.026 18.8567 14.4182
25919 1 46.6686 27.3119 69.6176
25920 2 46.9804 26.3654 69.7009
25921 2 46.0132 27.5123 70.3459
25922 1 95.1032 3.23083 44.0786
25923 2 94.5721 2.46335 43.7196
25924 2 96.0203 3.21676 43.6804
25925 1 104.784 28.0659 55.7876
25926 2 105.208 27.5326 55.0558
25927 2 104.862 29.0406 55.5783
25928 1 35.147 7.50116 38.2931
25929 2 35.4127 8.33323 37.8062
25930 2 34.1811 7.5568 38.5457
25931 1 39.8615 13.8221 71.2208
25932 2 40.0798 14.5967 70.6271
25933 2 39.7793 12.9921 70.669
25934 1 26.5622 18.3069 83.9094
25935 2 27.3843 17.8266 83.6035
25936 2 26.6933 19.2926 83.8034
25937 1 78.4146 14.3517 46.0891
25938 2 77.7813 14.888 46.647
25939 2 79.3553 14.5803 46.3398
25940 1 87.0731 22.3496 49.8271
25941 2 86.4839 21.5417 49.8237
25942 2 87.4467 22.4859 50.7446
25943 1 19.9858 6.70332 84.7033
25944 2 19.3054 7.25007 84.2153
25945 2 19.5221 6.02051 85.2679
25946 1 115.158 1.21164 45.257
25947 2 115.262 2.12061 44.8534
25948 2 115.914 1.03838 45.8882
25949 1 31.1703 0.456504 73.2397
25950 2 30.2734 0.279394 72.8346
25951 2 31.31 29.8467 74.0199
25952 1 34.071 28.0634 68.8376
25953 2 34.048 28.5773 67.9801
25954 2 33.4486 28.4861 69.4964
25955 1 15.7087 15.7038 49.2805
25956 2 15.6384 14.9449 48.6331
25957 2 15.7 15.3468 50.2146
25958 1 89.5512 21.5909 74.5059
25959 2 89.5095 20.5964 74.4101
25960 2 88.82 22.0086 73.9667
25961 1 6.22642 22.5468 34.9321
25962 2 5.23251 22.4368 34.9248
25963 2 6.46262 23.4639 34.611
25964 1 109.129 23.0828 42.5528
25965 2 109.805 23.7088 42.9423
25966 2 109.465 22.1435 42.6252
25967 1 93.1339 5.86219 65.3228
25968 2 93.8936 5.36906 65.7468
25969 2 93.3263 5.99882 64.351
25970 1 85.8339 21.6081 43.6566
25971 2 86.1845 20.6752 43.7394
25972 2 86.5168 22.2526 44.0003
25973 1 66.2932 28.6789 87.1375
25974 2 67.27 28.8904 87.1704
25975 2 65.8777 29.1435 86.3556
25976 1 7.67126 4.46415 41.7457
25977 2 8.55309 4.27198 42.1763
25978 2 7.75782 5.26359 41.1512
25979 1 61.6279 16.4719 87.0998
25980 2 62.4602 15.9186 87.0652
25981 2 61.8551 17.4277 86.9133
25982 1 17.7921 11.5246 34.367
25983 2 18.0136 10.6769 33.8849
25984 2 17.3837 12.1752 33.7268
25985 1 52.7755 12.9479 73.9591
25986 2 52.1499 13.3682 73.3018
25987 2 52.2611 12.6419 74.7602
25988 1 51.1122 0.709065 79.0298
25989 2 51.0438 0.467888 79.9979
25990 2 50.9619 29.8931 78.4716
25991 1 104.264 5.57413 65.696
25992 2 103.687 4.80969 65.4087
25993 2 103.733 6.42098 65.67
25994 1 43.5077 26.8549 35.3643
25995 2 42.5667 26.8838 35.0272
25996 2 44.1264 27.193 34.6551
25997 1 30.982 17.6403 26.2528
25998 2 30.4276 17.5146 27.0755
25999 2 30.7536 18.5161 25.8275
26000 1 101.024 6.85644 34.7474
26001 2 101.077 7.49888 33.9829
26002 2 101.754 7.05638 35.4015
26003 1 71.6877 12.9855 78.8616
26004 2 72.1773 12.116 78.9269
26005 2 72.2589 13.6548 78.3865
26006 1 64.865 15.9904 77.1899
26007 2 65.0849 16.0779 78.1615
26008 2 64.0242 15.4594 77.0849
26009 1 37.8611 16.1699 89.2168
26010 2 37.1222 16.5435 89.7776
26011 2 38.2648 16.9012 88.6671
26012 1 34.1515 25.2995 81.374
26013 2 33.4655 26.0258 81.4178
26014 2 33.8443 24.5884 80.7416
26015 1 24.4968 13.4586 45.6692
26016 2 24.3238 13.8695 46.5644
26017 2 25.4505 13.6123 45.4107
26018 1 88.9255 0.744474 34.5958
26019 2 88.4561 1.6215 34.6986
26020 2 89.8489 0.814365 34.9731
26021 1 117.513 26.7843 10.7051
26022 2 118.223 26.7026 10.0059
26023 2 117.902 27.1936 11.53
26024 1 92.0246 21.9533 70.9304
26025 2 91.9235 22.5101 70.106
26026 2 92.9825 21.9535 71.2174
26027 1 96.2718 0.793919 70.7389
26028 2 97.1832 0.907132 71.1344
26029 2 96.3545 0.595464 69.7623
26030 1 86.9521 18.5739 30.2883
26031 2 87.0457 19.1501 31.1003
26032 2 86.0229 18.2066 30.2456
26033 1 25.8402 7.15078 33.5032
26034 2 25.9903 8.12828 33.3551
26035 2 26.6943 6.65483 33.3466
26036 1 86.1399 10.3474 64.2909
26037 2 86.4681 11.0892 63.706
26038 2 85.6837 10.7324 65.0931
26039 1 0.681833 3.94416 83.1452
26040 2 0.839408 3.19271 83.7859
26041 2 1.43134 4.60267 83.2129
26042 1 119.742 27.235 77.4535
26043 2 119.19 27.5499 78.2252
26044 2 119.446 26.3189 77.1833
26045 1 115.549 5.05025 86.6126
26046 2 115.846 4.68122 87.4935
26047 2 114.55 5.03904 86.5655
26048 1 24.608 0.915644 36.051
26049 2 24.6456 0.300265 35.2636
26050 2 25.4336 1.47944 36.0731
26051 1 67.887 13.649 41.1617
26052 2 67.6077 13.4415 42.0992
26053 2 68.4952 12.9288 40.8279
26054 1 86.9746 11.5941 82.0011
26055 2 86.4021 10.7747 81.9745
26056 2 87.4217 11.6595 82.8932
26057 1 11.3467 4.29452 16.0944
26058 2 11.4942 3.84382 16.9748
26059 2 11.6254 3.68139 15.3552
26060 1 85.8331 3.19817 44.8165
26061 2 85.8715 3.78902 44.0107
26062 2 84.9732 3.35321 45.3029
26063 1 58.779 25.2773 86.2342
26064 2 59.1248 25.1254 85.3083
26065 2 57.803 25.4917 86.1945
26066 1 33.8835 15.1066 48.117
26067 2 33.0172 14.6527 47.9083
26068 2 33.8681 15.4366 49.0608
26069 1 16.4033 12.4172 51.4989
26070 2 16.2808 12.003 50.597
26071 2 16.0854 11.7825 52.2032
26072 1 68.5796 2.51985 39.7814
26073 2 69.3157 2.98791 39.2924
26074 2 68.6781 2.67916 40.7637
26075 1 104.772 12.7663 72.1377
26076 2 105.745 12.7706 72.3693
26077 2 104.395 13.6833 72.2666
26078 1 34.294 6.22867 77.3729
26079 2 33.4224 6.32878 76.8931
26080 2 34.6547 5.30851 77.2204
26081 1 45.3535 10.4129 39.3871
26082 2 46.3403 10.5511 39.3037
26083 2 45.1735 9.48771 39.7211
26084 1 89.2832 26.35 92.2897
26085 2 89.532 27.2014 92.7514
26086 2 90.11 25.9 91.952
26087 1 20.9497 18.0873 42.522
26088 2 21.0047 18.7302 43.286
26089 2 19.9982 18.0008 42.227
26090 1 44.4674 6.48671 82.7554
26091 2 44.9923 7.30332 82.5153
26092 2 43.5657 6.53169 82.3254
26093 1 64.475 1.26936 41.0027
26094 2 64.3823 2.22743 41.2739
26095 2 64.1423 1.15417 40.0667
26096 1 19.5894 4.90445 88.1829
26097 2 19.0947 4.39113 88.8841
26098 2 19.1036 4.83189 87.3118
26099 1 31.9203 4.12719 53.0978
26100 2 31.1299 4.58776 53.5018
26101 2 31.8088 4.08312 52.105
26102 1 67.6642 7.86838 57.7487
26103 2 67.3385 8.69514 58.2074
26104 2 68.0902 7.261 58.4192
26105 1 30.93 7.49501 71.0551
26106 2 30.8808 8.44698 70.753
26107 2 31.8875 7.2323 71.1745
26108 1 102.04 10.3258 66.9117
26109 2 101.975 10.1919 67.9006
26110 2 102.257 9.45474 66.471
26111 1 78.6402 1.68025 41.9766
26112 2 78.5352 1.20452 41.1033
26113 2 78.2115 2.5818 41.9187
26114 1 2.20123 28.6228 53.1024
26115 2 1.80127 28.9418 53.9616
26116 2 2.19168 27.623 53.0812
26117 1 26.1336 19.9918 80.4907
26118 2 25.9922 20.0258 79.5014
26119 2 26.2772 19.0437 80.7745
26120 1 45.6378 26.3049 55.9179
26121 2 45.8103 25.6474 55.1845
26122 2 45.1414 25.854 56.6598
26123 1 39.8537 5.53709 36.7343
26124 2 38.8781 5.46002 36.5288
26125 2 40.1009 4.86694 37.4341
26126 1 13.5575 5.50569 38.2002
26127 2 13.6968 4.75705 38.8484
26128 2 12.6086 5.50125 37.8847
26129 1 77.7401 29.7572 49.7674
26130 2 77.8703 0.436156 50.4899
26131 2 77.2665 0.179562 48.9945
26132 1 58.9931 23.3509 49.8988
26133 2 58.397 22.7954 50.4785
26134 2 58.4621 23.7299 49.1409
26135 1 28.2755 14.7871 67.0865
26136 2 28.8895 14.801 66.2973
26137 2 27.3703 14.474 66.799
26138 1 104.134 9.24031 55.2325
26139 2 103.801 10.1707 55.0795
26140 2 104.789 8.99858 54.5161
26141 1 54.1863 10.4348 82.1619
26142 2 53.3839 10.1923 81.6167
26143 2 54.4593 9.65108 82.7199
26144 1 68.3997 28.7155 42.3292
26145 2 67.9208 29.5587 42.5734
26146 2 67.8134 27.9299 42.5272
26147 1 104.843 26.9824 62.0292
26148 2 104.242 26.4286 61.4529
26149 2 104.659 27.952 61.8674
26150 1 67.0388 10.7213 52.3198
26151 2 66.3348 10.1451 51.9048
26152 2 66.7563 11.6794 52.272
26153 1 86.4292 27.3531 92.1207
26154 2 87.3202 26.9544 92.3378
26155 2 86.5434 28.0697 91.4326
26156 1 36.2984 20.1029 20.0737
26157 2 36.7629 20.9828 19.9737
26158 2 36.8446 19.5021 20.6574
26159 1 117.279 3.42512 46.5786
26160 2 117.186 2.48601 46.9093
26161 2 118.193 3.55306 46.1917
26162 1 105.628 6.43955 30.6255
26163 2 106.518 6.05803 30.8755
26164 2 105.472 6.30848 29.6464
26165 1 29.8889 13.1517 26.0442
26166 2 29.2081 12.8862 26.7269
26167 2 29.6485 12.7507 25.1602
26168 1 72.5018 21.2782 45.2784
26169 2 73.0848 21.9129 45.7856
26170 2 73.0567 20.7692 44.6203
26171 1 5.48395 29.7123 45.5113
26172 2 6.26868 0.326627 45.4288
26173 2 5.75648 28.7864 45.2495
26174 1 2.13455 28.782 90.9235
26175 2 1.62145 29.6351 90.8291
26176 2 3.09494 28.9438 90.6966
26177 1 26.2444 14.5388 69.8278
26178 2 25.424 15.0843 69.6566
26179 2 26.1637 13.6593 69.3588
26180 1 34.1699 3.49583 90.4077
26181 2 35.0048 2.98354 90.609
26182 2 33.5023 3.34499 91.1369
26183 1 16.994 19.2301 68.2679
26184 2 16.2152 19.034 67.672
26185 2 16.6651 19.4331 69.1902
26186 1 96.4174 13.0837 19.5939
26187 2 97.1188 13.1065 18.8815
26188 2 95.9544 12.1975 19.5776
26189 1 116.977 28.5867 58.5403
26190 2 117.055 27.8685 57.8489
26191 2 117.51 28.3324 59.347
26192 1 93.0007 8.23931 55.1317
26193 2 92.9492 8.60824 56.0597
26194 2 92.7034 7.28455 55.1355
26195 1 97.3261 12.7114 85.6949
26196 2 97.4059 12.2959 84.7888
26197 2 96.3596 12.8152 85.93
26198 1 39.0331 25.6529 67.0743
26199 2 38.9884 24.6614 67.1965
26200 2 38.2357 26.0778 67.5026
26201 1 118.686 2.2718 42.5478
26202 2 118.511 1.2996 42.3923
26203 2 117.856 2.79496 42.355
26204 1 83.8344 17.5219 53.8699
26205 2 83.662 18.5027 53.9612
26206 2 83.6782 17.0727 54.7495
26207 1 28.4592 11.0345 45.7315
26208 2 27.7036 11.2264 46.3577
26209 2 28.8737 11.8952 45.4356
26210 1 37.725 17.6291 33.8218
26211 2 37.7472 16.6806 33.5058
26212 2 38.0388 17.6718 34.7704
26213 1 25.7309 15.2159 18.7877
26214 2 25.6619 14.4879 18.1056
26215 2 25.1097 15.0215 19.5468
26216 1 75.0806 13.8739 46.42
26217 2 74.853 13.064 46.9607
26218 2 75.5054 14.5602 47.0104
26219 1 0.459138 16.5987 27.0162
26220 2 119.798 15.8915 26.7655
26221 2 0.902685 16.9479 26.1908
26222 1 46.0845 29.4132 41.1203
26223 2 45.859 28.6623 40.4994
26224 2 45.2418 29.8514 41.4332
26225 1 12.4201 4.21874 81.6902
26226 2 12.6015 3.96842 82.6412
26227 2 11.8968 5.07044 81.6637
26228 1 92.188 18.9316 66.7174
26229 2 92.2804 19.3296 65.8047
26230 2 91.9392 17.9664 66.6365
26231 1 28.0264 19.7223 25.6995
26232 2 27.9777 20.3052 24.8883
26233 2 28.1605 20.2911 26.511
26234 1 96.8564 16.4862 86.6513
26235 2 97.3632 16.1719 87.4541
26236 2 97.4421 16.4268 85.843
26237 1 78.3409 0.910456 39.444
26238 2 77.72 1.69245 39.3902
26239 2 78.8996 0.870853 38.6155
26240 1 37.1203 29.6628 73.5006
26241 2 37.7926 29.3177 72.8456
26242 2 37.5736 29.8634 74.3691
26243 1 34.1838 1.70717 53.8941
26244 2 34.2683 2.70181 53.8346
26245 2 34.482 1.40081 54.7981
26246 1 76.9773 19.487 44.6255
26247 2 77.0614 18.6672 44.0591
26248 2 77.715 19.5029 45.3005
26249 1 54.371 14.0717 89.8217
26250 2 54.633 13.2201 90.2757
26251 2 55.1596 14.6854 89.7836
26252 1 98.8973 16.7728 48.4155
26253 2 98.0816 17.336 48.5475
26254 2 98.6501 15.8064 48.4864
26255 1 19.8665 24.9859 53.0854
26256 2 20.6226 24.7694 53.703
26257 2 20.2312 25.2731 52.1998
26258 1 102.495 2.59672 25.1145
26259 2 101.943 2.97183 25.8589
26260 2 101.895 2.18797 24.4272
26261 1 19.9232 15.3529 44.9693
26262 2 20.3439 14.6257 44.4269
26263 2 20.5201 15.5834 45.7378
26264 1 117.626 11.8231 66.4119
26265 2 118.079 11.4567 67.2244
26266 2 116.891 11.2048 66.1329
26267 1 107.346 0.789468 55.4127
26268 2 106.357 0.647861 55.3761
26269 2 107.676 1.07288 54.5122
26270 1 89.1883 3.04738 67.6209
26271 2 89.5491 3.96593 67.4596
26272 2 89.886 2.36964 67.389
26273 1 20.7538 2.40673 38.4183
26274 2 20.7769 1.44373 38.1497
26275 2 20.008 2.55381 39.068
26276 1 26.204 29.0145 90.6829
26277 2 25.8583 28.7392 89.7858
26278 2 25.4521 29.3788 91.2324
26279 1 118.251 2.74085 10.7366
26280 2 117.939 3.59164 10.3141
26281 2 117.932 1.963 10.1953
26282 1 9.57408 17.5163 14.3271
26283 2 10.5046 17.1625 14.422
26284 2 8.94298 16.7565 14.1708
26285 1 102.43 12.403 69.2973
26286 2 102.55 11.4308 69.4987
26287 2 102.013 12.8575 70.0846
26288 1 99.7952 6.51606 90.1347
26289 2 100.789 6.45691 90.0381
26290 2 99.4024 5.59679 90.1086
26291 1 16.2829 2.65063 71.4156
26292 2 17.1291 2.21543 71.108
26293 2 16.2388 3.58345 71.058
26294 1 117.969 25.0769 74.7827
26295 2 118.332 25.8644 75.2812
26296 2 118.615 24.8091 74.0675
26297 1 65.9354 21.3865 49.1768
26298 2 65.4136 20.5415 49.0598
26299 2 66.5573 21.5041 48.4026
26300 1 23.7104 6.90441 38.0003
26301 2 24.1818 7.72203 37.6698
26302 2 22.847 7.16841 38.4304
26303 1 84.1541 27.606 88.6993
26304 2 83.946 26.7031 89.0755
26305 2 83.304 28.1151 88.5651
26306 1 4.3015 29.9854 76.7988
26307 2 3.54384 29.3347 76.7473
26308 2 4.88592 29.8808 75.9941
26309 1 56.8141 2.00939 60.5768
26310 2 57.514 2.7234 60.5932
26311 2 55.9181 2.42459 60.4195
26312 1 0.66792 25.0091 91.1446
26313 2 1.0393 25.7349 91.7237
26314 2 1.37762 24.3269 90.9689
26315 1 117.365 11.6973 25.2683
26316 2 116.708 12.4344 25.4263
26317 2 117.977 11.9509 24.5188
26318 1 80.5407 8.17964 90.7189
26319 2 80.5685 7.18269 90.7919
26320 2 81.0925 8.5828 91.4489
26321 1 8.70159 10.0387 29.5007
26322 2 8.34713 10.4748 30.3279
26323 2 7.97796 9.99233 28.8121
26324 1 97.1359 5.8859 17.1899
26325 2 98.0791 6.19176 17.0597
26326 2 96.516 6.66361 17.0859
26327 1 28.0497 24.0902 47.9169
26328 2 28.4117 24.8807 47.4228
26329 2 28.3517 23.2494 47.4676
26330 1 88.4205 29.1786 41.3257
26331 2 87.9735 29.0548 42.2116
26332 2 89.2973 28.6978 41.3246
26333 1 70.7063 2.84105 37.9513
26334 2 71.5622 3.34127 37.8198
26335 2 70.3321 2.58106 37.0611
26336 1 104.609 0.981916 90.5098
26337 2 104.948 0.655036 91.3922
26338 2 105.139 1.78088 90.2249
26339 1 77.901 5.8318 36.2386
26340 2 77.9075 5.81297 37.2384
26341 2 77.9356 6.78001 35.9229
26342 1 38.0994 26.4687 84.0251
26343 2 37.5916 27.1737 83.53
26344 2 37.6874 26.3318 84.9259
26345 1 27.2415 21.4971 23.7849
26346 2 27.6302 21.6674 22.8794
26347 2 27.5203 22.2264 24.4098
26348 1 81.3395 13.3289 88.8513
26349 2 81.0379 13.9272 89.5936
26350 2 82.334 13.2308 88.8855
26351 1 44.3179 11.1606 74.4323
26352 2 45.1408 10.6928 74.7547
26353 2 44.5603 12.0737 74.1044
26354 1 26.3642 27.1938 33.177
26355 2 27.2532 26.7721 33.3558
26356 2 26.4963 28.0543 32.685
26357 1 41.9937 20.3724 42.0382
26358 2 41.3228 20.5591 41.3206
26359 2 42.9041 20.6375 41.7205
26360 1 41.0301 28.2661 54.7468
26361 2 40.4685 27.4407 54.8053
26362 2 40.4404 29.0732 54.7751
26363 1 17.2214 20.8489 90.367
26364 2 18.0867 20.4154 90.6186
26365 2 16.8223 20.368 89.5864
26366 1 15.1467 25.5161 11.3325
26367 2 15.2974 25.5732 10.3455
26368 2 14.1714 25.6199 11.5273
26369 1 6.4686 19.8715 12.0437
26370 2 5.52624 20.1761 11.9052
26371 2 6.58154 18.9536 11.6632
26372 1 82.5969 17.4313 58.9619
26373 2 82.308 16.9354 58.1431
26374 2 82.5675 18.4149 58.7837
26375 1 56.389 0.255465 40.717
26376 2 56.647 0.137327 39.7581
26377 2 57.2135 0.349921 41.2749
26378 1 67.8875 15.9584 56.072
26379 2 67.4493 15.4882 55.3059
26380 2 67.6403 16.9272 56.0538
26381 1 17.6696 25.4149 12.5862
26382 2 16.8273 25.7309 12.1496
26383 2 17.4457 24.9352 13.4345
26384 1 24.5432 23.9006 23.8014
26385 2 23.992 23.2841 24.3637
26386 2 24.8529 23.4174 22.9825
26387 1 18.119 29.5683 87.72
26388 2 17.9243 29.0882 88.5754
26389 2 17.6492 29.1095 86.9659
26390 1 14.4418 12.1759 12.4858
26391 2 14.6282 11.9306 13.4372
26392 2 15.2919 12.1418 11.9602
26393 1 3.39363 6.20411 57.4802
26394 2 4.00952 6.45676 58.2264
26395 2 2.48911 6.59645 57.6473
26396 1 113.136 17.4261 60.7556
26397 2 113.442 18.3626 60.9262
26398 2 113.645 16.7967 61.343
26399 1 12.2811 20.2034 40.5847
26400 2 11.3557 20.0067 40.9086
26401 2 12.6185 21.0355 41.0249
26402 1 118.954 4.86133 14.9409
26403 2 118.869 5.055 13.9636
26404 2 118.809 3.88508 15.1012
26405 1 87.8068 11.3424 36.3372
26406 2 88.4069 11.6611 37.0709
26407 2 88.124 11.7108 35.4633
26408 1 27.77 26.6684 56.946
26409 2 26.8905 26.2264 56.7698
26410 2 27.8292 27.5152 56.4173
26411 1 38.7743 12.0571 55.1247
26412 2 38.0692 11.4869 55.5464
26413 2 39.3695 11.4868 54.5586
26414 1 89.0956 26.4986 78.998
26415 2 89.8105 25.8745 78.6827
26416 2 89.4161 26.9908 79.8074
26417 1 24.1182 16.0806 57.1192
26418 2 24.9277 16.4601 57.5672
26419 2 23.3035 16.5668 57.4352
26420 1 56.7771 17.0965 33.7066
26421 2 57.0789 16.3035 34.2357
26422 2 56.7171 16.8488 32.7396
26423 1 76.168 24.022 39.4886
26424 2 76.9135 24.5128 39.0378
26425 2 75.5452 24.679 39.9135
26426 1 66.8528 6.49667 45.4352
26427 2 66.6316 5.89345 46.2015
26428 2 67.8373 6.46827 45.2621
26429 1 81.5972 26.9354 69.7762
26430 2 81.8016 25.9718 69.6036
26431 2 81.3144 27.3741 68.9233
26432 1 64.4839 29.7178 58.6413
26433 2 63.7838 0.346257 58.9804
26434 2 64.3823 29.6077 57.6526
26435 1 73.3703 26.4361 69.7565
26436 2 72.9162 27.0945 69.1563
26437 2 74.2013 26.0994 69.3137
26438 1 83.7377 24.7984 87.3443
26439 2 82.8618 25.0968 86.9649
26440 2 83.6954 24.827 88.343
26441 1 104.37 14.2337 19.3467
26442 2 104.039 15.169 19.4712
26443 2 105.052 14.0254 20.0483
26444 1 8.42456 8.62634 15.2052
26445 2 7.77862 9.32124 14.8891
26446 2 8.23616 7.76064 14.7414
26447 1 81.5148 27.2932 39.7407
26448 2 81.048 27.5425 38.8922
26449 2 81.7965 26.3348 39.697
26450 1 92.3252 10.2937 30.704
26451 2 92.3706 11.2896 30.6259
26452 2 93.21 9.89923 30.456
26453 1 9.09321 14.8767 37.5425
26454 2 8.25353 15.1961 37.9818
26455 2 9.81892 15.5507 37.681
26456 1 84.8965 2.79468 67.4764
26457 2 84.1291 2.40959 67.9891
26458 2 84.5874 3.59794 66.9672
26459 1 1.44418 7.46927 85.1276
26460 2 0.743044 8.03798 84.6975
26461 2 1.75849 6.77834 84.4765
26462 1 95.0892 20.1264 52.668
26463 2 95.762 19.4337 52.4082
26464 2 95.3881 21.0218 52.3381
26465 1 22.9956 13.1524 39.1278
26466 2 23.4025 12.4436 38.5517
26467 2 22.6515 13.8937 38.5515
26468 1 93.1864 12.5269 36.4815
26469 2 93.2202 13.5055 36.6844
26470 2 94.1173 12.1681 36.414
26471 1 42.0769 11.0275 90.8573
26472 2 41.2106 10.5363 90.948
26473 2 41.9466 11.8274 90.2714
26474 1 94.4791 24.1729 68.9605
26475 2 94.4862 24.7481 69.7785
26476 2 93.6457 23.6204 68.9487
26477 1 119.934 0.330797 90.2196
26478 2 119.14 0.879714 90.4804
26479 2 119.632 29.4194 89.9401
26480 1 55.3906 2.85833 34.4498
26481 2 55.3664 2.2665 35.2555
26482 2 55.944 2.42804 33.7367
26483 1 77.9086 27.6631 56.3717
26484 2 77.7883 28.6556 56.3924
26485 2 77.54 27.2651 57.2119
26486 1 29.7004 5.88908 37.7779
26487 2 29.5235 5.0872 38.3486
26488 2 29.2649 5.76612 36.8861
26489 1 4.84817 8.03025 50.5184
26490 2 4.66131 9.01222 50.4897
26491 2 5.46237 7.78574 49.7681
26492 1 17.322 17.5241 60.7389
26493 2 16.8057 16.6693 60.6865
26494 2 17.9939 17.5536 59.9989
26495 1 13.7226 13.236 60.031
26496 2 14.3042 14.0151 60.265
26497 2 12.9408 13.553 59.4941
26498 1 117.892 27.0844 43.2937
26499 2 117.577 27.1506 42.3471
26500 2 117.289 26.4718 43.8041
26501 1 96.5925 26.815 67.5928
26502 2 97.4364 26.7616 68.1267
26503 2 95.8409 27.1049 68.1854
26504 1 64.6175 15.7275 41.8671
26505 2 64.2721 14.8586 41.5124
26506 2 63.931 16.1393 42.4663
26507 1 76.8329 4.34181 49.4662
26508 2 77.2212 4.14953 50.3675
26509 2 76.0404 4.94344 49.5662
26510 1 44.0077 0.173456 43.1698
26511 2 43.6826 0.978923 43.6653
26512 2 44.3299 29.488 43.8227
26513 1 19.3808 2.57996 28.971
26514 2 18.8499 2.09816 29.6682
26515 2 19.3022 3.56645 29.1148
26516 1 118.844 6.96339 63.2235
26517 2 119.01 7.94883 63.262
26518 2 119.631 6.50913 62.8063
26519 1 59.0651 15.9784 86.6936
26520 2 60.0604 15.8919 86.7366
26521 2 58.755 15.7998 85.7599
26522 1 23.519 8.31296 66.8002
26523 2 24.3113 8.38922 67.4055
26524 2 22.8141 8.95995 67.0908
26525 1 90.1579 4.72427 74.8244
26526 2 90.2136 4.76988 75.8218
26527 2 89.263 5.05533 74.5251
26528 1 98.4457 11.2059 37.2217
26529 2 98.6204 10.2234 37.157
26530 2 97.6057 11.4283 36.7269
26531 1 0.601827 17.5605 47.3764
26532 2 119.775 17.0347 47.576
26533 2 0.51926 18.4748 47.773
26534 1 95.787 13.0878 41.9486
26535 2 95.0232 13.6258 41.5922
26536 2 96.3787 13.6745 42.5014
26537 1 16.6519 28.5727 55.1297
26538 2 17.4315 29.101 55.4658
26539 2 16.1583 29.1068 54.4433
26540 1 83.7981 11.163 46.972
26541 2 84.3889 11.4084 47.7407
26542 2 84.3035 11.2701 46.1158
26543 1 90.4477 21.7127 31.2237
26544 2 89.9855 21.1983 30.5013
26545 2 91.412 21.4497 31.2553
26546 1 45.5347 13.0599 79.7531
26547 2 45.1417 12.8968 80.658
26548 2 45.6853 14.0404 79.6269
26549 1 2.17138 21.3365 79.4335
26550 2 3.10877 21.4625 79.1088
26551 2 2.17988 20.7959 80.2747
26552 1 60.5462 9.2736 46.9465
26553 2 60.2101 9.70814 46.1108
26554 2 59.7713 8.94065 47.4838
26555 1 51.0404 3.47758 81.7019
26556 2 50.4214 4.09004 82.1936
26557 2 50.7433 2.53121 81.8288
26558 1 80.8944 24.6163 53.217
26559 2 80.156 24.0299 53.5499
26560 2 80.7849 24.7646 52.2341
26561 1 35.8312 1.41083 47.8725
26562 2 35.7331 0.657186 47.2226
26563 2 36.7745 1.74253 47.8583
26564 1 8.45372 19.4699 29.9789
26565 2 7.79144 18.7385 30.1414
26566 2 8.14028 20.0408 29.22
26567 1 39.143 7.47193 32.3928
26568 2 38.8195 7.93233 31.5661
26569 2 38.4121 7.45979 33.0752
26570 1 111.057 28.4806 30.5776
26571 2 110.153 28.7747 30.2658
26572 2 111.008 27.5337 30.8952
26573 1 25.0193 3.10945 57.7893
26574 2 25.757 3.04751 57.1171
26575 2 25.3815 3.46834 58.6495
26576 1 37.5225 17.3548 75.3999
26577 2 37.5414 16.4019 75.0972
26578 2 36.5736 17.6533 75.5022
26579 1 8.49878 22.73 29.6121
26580 2 7.74599 22.4528 29.0151
26581 2 9.32305 22.8736 29.0645
26582 1 21.4814 0.0431231 13.7227
26583 2 22.4416 0.104455 13.9951
26584 2 21.2499 29.0896 13.5298
26585 1 61.8371 27.2492 49.2006
26586 2 62.6038 27.019 49.7999
26587 2 61.9288 28.1955 48.8906
26588 1 82.2867 19.594 46.0464
26589 2 81.8489 18.9111 46.6312
26590 2 82.2689 19.2806 45.097
26591 1 97.1078 15.5466 76.5887
26592 2 97.8074 16.1271 76.1721
26593 2 96.4923 15.2047 75.8787
26594 1 73.5853 28.123 35.59
26595 2 72.839 28.3562 34.9666
26596 2 74.0971 28.9503 35.8215
26597 1 17.7425 28.2065 77.0475
26598 2 16.874 28.3576 77.5196
26599 2 18.4342 27.9139 77.7078
26600 1 119.946 6.67765 24.9236
26601 2 0.138043 5.76891 25.2944
26602 2 0.751279 7.26028 25.0368
26603 1 87.3409 2.02993 78.5278
26604 2 86.786 2.29275 77.7385
26605 2 88.3026 2.23041 78.3408
26606 1 5.3234 3.37996 62.3101
26607 2 4.52097 3.95573 62.467
26608 2 6.02508 3.59386 62.9898
26609 1 93.4192 6.52664 58.3072
26610 2 93.2707 7.50695 58.177
26611 2 93.7302 6.35795 59.2425
26612 1 30.34 22.8022 76.2145
26613 2 30.6167 22.3778 77.0767
26614 2 30.7009 22.2687 75.4496
26615 1 63.9686 3.80345 78.1092
26616 2 63.3924 3.10239 77.6891
26617 2 63.7248 3.9011 79.074
26618 1 60.286 18.239 63.0586
26619 2 60.0817 18.2535 62.0798
26620 2 61.1737 18.67 63.2203
26621 1 115.94 10.477 74.2054
26622 2 116.131 9.62115 74.6858
26623 2 115.667 11.1763 74.8661
26624 1 76.5425 16.4033 46.9736
26625 2 77.1843 16.3337 47.7373
26626 2 75.9451 17.1934 47.1111
26627 1 16.7174 13.6356 20.3552
26628 2 16.9164 14.6144 20.3064
26629 2 16.0964 13.4594 21.1189
26630 1 102.332 17.9702 23.7264
26631 2 101.353 17.7908 23.6287
26632 2 102.715 17.3629 24.4229
26633 1 78.6238 20.7051 55.3881
26634 2 77.8016 20.2218 55.6887
26635 2 78.3856 21.643 55.1357
26636 1 97.1848 2.6822 41.7095
26637 2 97.6493 3.49786 42.0544
26638 2 97.6305 1.86512 42.0753
26639 1 62.621 2.14233 49.3182
26640 2 62.3676 1.23999 48.9695
26641 2 63.5907 2.30854 49.1391
26642 1 93.9764 12.3752 64.0384
26643 2 94.3304 11.8683 63.2524
26644 2 93.5841 13.2409 63.7276
26645 1 3.95594 21.1345 87.9552
26646 2 3.72395 20.606 87.1386
26647 2 4.38973 21.9937 87.684
26648 1 9.41998 13.2598 54.9225
26649 2 9.92038 12.8775 55.6994
26650 2 8.53476 12.8022 54.8385
26651 1 53.2302 1.38743 89.1972
26652 2 52.9825 0.82097 89.9832
26653 2 52.4156 1.8542 88.8529
26654 1 59.5726 3.7167 36.1742
26655 2 59.7656 2.80147 36.5279
26656 2 58.6398 3.97944 36.4207
26657 1 29.3498 24.2855 27.5083
26658 2 28.6841 24.2976 26.7621
26659 2 30.0665 24.9588 27.3265
26660 1 43.1196 12.1299 44.0314
26661 2 43.3848 12.734 43.2799
26662 2 43.463 12.5007 44.8943
26663 1 83.2395 1.37399 38.8877
26664 2 83.5739 2.29312 38.6796
26665 2 84.0113 0.784259 39.1253
26666 1 107.436 27.1767 48.6208
26667 2 106.831 26.9254 47.8649
26668 2 106.995 26.9514 49.4895
26669 1 113.476 9.13948 26.3295
26670 2 113.242 10.0514 25.9919
26671 2 114.47 9.03197 26.3395
26672 1 15.9241 6.88075 39.5846
26673 2 15.7939 6.35936 38.7413
26674 2 15.4635 7.76474 39.5044
26675 1 62.1055 27.9062 79.4952
26676 2 61.593 28.5163 78.8909
26677 2 61.6834 26.9996 79.4894
26678 1 24.4076 11.8486 27.8358
26679 2 24.0597 12.7829 27.9142
26680 2 25.0593 11.6727 28.5736
26681 1 65.5693 28.0542 41.1212
26682 2 64.7398 27.4964 41.1491
26683 2 65.9453 28.1388 42.044
26684 1 91.3372 10.9344 71.6115
26685 2 91.7039 11.5836 70.9451
26686 2 90.7101 11.409 72.229
26687 1 50.589 23.4214 30.3546
26688 2 50.2335 24.2942 30.6889
26689 2 51.5642 23.5136 30.1536
26690 1 4.53998 4.29265 20.7621
26691 2 5.27731 3.77666 21.1981
26692 2 4.93032 4.96445 20.1325
26693 1 95.921 20.0999 66.7302
26694 2 96.2933 19.2518 66.3534
26695 2 94.9273 20.1063 66.6185
26696 1 38.2459 8.65822 36.9484
26697 2 39.0007 8.09755 37.2889
26698 2 38.074 9.40878 37.5865
26699 1 39.9757 1.14533 78.6838
26700 2 40.6825 0.613553 79.1503
26701 2 40.3058 1.41842 77.7803
26702 1 55.1132 14.8975 35.3201
26703 2 56.0309 14.756 34.949
26704 2 55.1758 15.4046 36.1797
26705 1 28.0361 27.3485 12.5665
26706 2 27.331 26.8342 12.0783
26707 2 28.4226 28.0428 11.9594
26708 1 80.9413 7.55598 74.4775
26709 2 80.6227 8.1291 75.2325
26710 2 80.3131 6.78778 74.3541
26711 1 74.3282 7.58929 65.2266
26712 2 75.1769 8.1174 65.2536
26713 2 74.0483 7.36038 66.159
26714 1 42.522 19.4276 89.9685
26715 2 41.5454 19.4876 90.1751
26716 2 42.7872 18.4668 89.8881
26717 1 57.5187 7.659 65.826
26718 2 57.4573 6.97241 65.1016
26719 2 56.985 8.46437 65.568
26720 1 100.181 20.0516 21.535
26721 2 101.115 19.6992 21.4863
26722 2 99.7438 19.9622 20.64
26723 1 36.1354 15.8162 52.9777
26724 2 35.8788 16.0016 52.0291
26725 2 36.5188 14.8951 53.0453
26726 1 83.7006 13.332 53.8339
26727 2 83.7837 13.1884 52.8478
26728 2 84.5406 13.7482 54.1821
26729 1 9.89751 20.0194 41.7699
26730 2 9.95053 20.3318 42.7184
26731 2 9.54139 20.7565 41.1956
26732 1 103.38 5.92009 54.4921
26733 2 102.723 6.67273 54.5337
26734 2 104.177 6.20261 53.9584
26735 1 78.1237 5.20974 38.9097
26736 2 77.2119 4.81455 39.0214
26737 2 78.7937 4.4758 38.7981
26738 1 62.9652 23.1821 87.3092
26739 2 61.9726 23.0653 87.2739
26740 2 63.4105 22.3552 86.9659
26741 1 24.691 6.78447 62.8969
26742 2 25.683 6.66297 62.8611
26743 2 24.4044 7.40328 62.1655
26744 1 74.9074 10.6928 44.8226
26745 2 74.8812 10.9021 45.8001
26746 2 74.3228 11.336 44.3282
26747 1 76.756 29.0767 41.9502
26748 2 76.3866 29.4568 41.1022
26749 2 76.2301 29.4224 42.7273
26750 1 10.4888 26.79 72.7329
26751 2 11.3939 26.4713 72.4516
26752 2 9.78914 26.1866 72.3503
26753 1 113.626 23.8531 59.9061
26754 2 113.381 23.5993 60.8418
26755 2 114.192 24.6773 59.9216
26756 1 86.3743 28.6915 89.5321
26757 2 86.8969 28.824 88.6899
26758 2 85.5783 28.1164 89.3435
26759 1 93.9613 24.016 58.6487
26760 2 93.5744 23.1282 58.3995
26761 2 93.2606 24.5708 59.0973
26762 1 16.5608 9.45592 25.6423
26763 2 16.6099 9.9053 26.5343
26764 2 16.667 8.46858 25.7602
26765 1 70.2735 18.4136 50.736
26766 2 70.366 19.4088 50.7048
26767 2 69.555 18.1256 50.103
26768 1 104.363 2.43535 85.044
26769 2 104.955 1.88718 84.453
26770 2 104.684 2.37155 85.9888
26771 1 103.62 3.95116 42.4281
26772 2 103.243 4.02053 41.5044
26773 2 104.003 4.83414 42.6989
26774 1 7.48847 17.57 10.7236
26775 2 8.09161 16.8064 10.493
26776 2 8.02202 18.4146 10.7678
26777 1 21.3737 9.22399 67.8549
26778 2 20.8197 10.0552 67.8096
26779 2 21.1598 8.63781 67.0735
26780 1 29.6309 5.72684 62.5961
26781 2 28.7434 6.14214 62.7956
26782 2 29.5885 5.25734 61.7142
26783 1 11.4434 0.284987 15.0907
26784 2 12.1851 29.6664 14.8315
26785 2 11.6382 1.20257 14.7441
26786 1 85.1475 14.1543 36.2339
26787 2 85.1876 13.156 36.2769
26788 2 85.8526 14.4895 35.609
26789 1 115.24 18.0136 18.9508
26790 2 116.153 18.3005 19.2418
26791 2 115.123 18.2124 17.9778
26792 1 72.0676 11.5863 58.17
26793 2 73.0002 11.8272 57.9013
26794 2 71.8124 10.7173 57.746
26795 1 13.0783 7.11644 83.8624
26796 2 13.5088 7.15068 84.7643
26797 2 12.0853 7.06459 83.9688
26798 1 28.9396 25.0218 88.4743
26799 2 28.2807 24.9649 89.2244
26800 2 28.5856 24.5257 87.6814
26801 1 97.2207 18.8569 79.4379
26802 2 96.4247 18.5525 78.9147
26803 2 96.9154 19.3212 80.2693
26804 1 12.332 15.8516 58.8333
26805 2 12.2878 15.8798 57.8347
26806 2 13.1104 16.3947 59.148
26807 1 15.5588 26.5374 17.2108
26808 2 14.9601 25.7476 17.0777
26809 2 16.5118 26.2559 17.0986
26810 1 105.9 14.1522 40.8389
26811 2 106.244 15.0201 40.4804
26812 2 105.049 13.9123 40.3716
26813 1 12.9669 13.8413 29.4892
26814 2 12.5362 13.9792 30.3811
26815 2 13.6789 14.5301 29.3529
26816 1 116.639 13.2296 75.2047
26817 2 117.405 12.8517 75.7249
26818 2 116.988 13.7125 74.4014
26819 1 43.6804 1.68927 57.9002
26820 2 44.0878 2.41451 58.4552
26821 2 44.3228 1.41694 57.1839
26822 1 91.0722 9.95437 74.4798
26823 2 90.1744 10.3205 74.235
26824 2 90.9673 9.26799 75.1995
26825 1 63.8702 13.5275 58.9785
26826 2 63.9725 12.539 59.0905
26827 2 64.6412 13.8847 58.4513
26828 1 82.6313 10.6725 75.3339
26829 2 82.9523 11.5891 75.5723
26830 2 82.4167 10.6379 74.3578
26831 1 78.4413 24.4994 90.3846
26832 2 78.0461 25.3246 90.7882
26833 2 78.9285 24.7395 89.5449
26834 1 34.2278 18.3508 67.2564
26835 2 35.0326 18.2991 66.665
26836 2 34.3919 17.8227 68.0895
26837 1 74.1024 6.0558 53.8612
26838 2 75.0138 6.44321 54.0002
26839 2 73.4133 6.76742 53.998
26840 1 31.7079 22.9938 57.7386
26841 2 31.1837 22.3181 57.2204
26842 2 32.1514 23.6285 57.1058
26843 1 102.654 29.1038 90.0499
26844 2 103.282 29.8714 89.9213
26845 2 103.177 28.2741 90.2444
26846 1 33.9186 16.7902 85.1101
26847 2 32.9281 16.9167 85.1645
26848 2 34.3218 17.5388 84.5838
26849 1 1.78609 2.21498 90.0755
26850 2 1.15569 1.441 90.0159
26851 2 1.66603 2.80487 89.277
26852 1 116.301 14.2922 26.1726
26853 2 116.234 14.4981 27.1488
26854 2 115.581 14.7794 25.6787
26855 1 75.7457 5.58795 79.2615
26856 2 75.6362 5.4264 78.2808
26857 2 76.4936 6.23459 79.4114
26858 1 34.6985 1.82414 79.2637
26859 2 34.7825 2.75228 79.6263
26860 2 34.9216 1.16444 79.9814
26861 1 45.9861 5.25714 79.3182
26862 2 45.6342 4.43329 79.7625
26863 2 46.9394 5.39843 79.5851
26864 1 80.8901 10.7589 65.7225
26865 2 81.1634 10.7793 64.7607
26866 2 79.926 11.0127 65.8004
26867 1 10.1615 11.9237 87.7702
26868 2 10.3049 11.7502 86.7958
26869 2 10.9251 11.5437 88.2923
26870 1 92.0515 25.9906 44.3001
26871 2 92.7405 26.2827 43.6368
26872 2 91.4451 25.3177 43.8764
26873 1 107.64 7.29877 72.3303
26874 2 107.879 7.15376 73.2905
26875 2 107.82 6.46271 71.8121
26876 1 53.3041 18.5258 32.0312
26877 2 53.0609 18.7425 31.0857
26878 2 53.6518 19.3476 32.4827
26879 1 99.7785 14.1206 81.4309
26880 2 100.679 14.0585 81.8609
26881 2 99.45 13.2021 81.2111
26882 1 39.9678 8.33977 67.3614
26883 2 39.1442 7.96031 67.7831
26884 2 40.2968 7.71611 66.6523
26885 1 13.8619 0.116022 63.3096
26886 2 13.1166 0.71847 63.0242
26887 2 14.5753 0.656655 63.7555
26888 1 57.0263 23.9939 83.6163
26889 2 57.8421 24.5481 83.4512
26890 2 56.2267 24.455 83.2316
26891 1 108.059 2.66222 73.3097
26892 2 108.118 2.50651 74.2958
26893 2 108.674 3.40783 73.0527
26894 1 44.1262 14.6878 32.5237
26895 2 45.0477 14.4535 32.2139
26896 2 44.1532 14.9367 33.4918
26897 1 102.84 7.69021 26.1122
26898 2 102.817 7.71989 27.1115
26899 2 102.958 8.61628 25.7539
26900 1 36.4505 14.5077 57.7083
26901 2 35.9736 14.1735 56.8953
26902 2 37.1124 13.8223 58.0117
26903 1 12.4371 18.76 17.065
26904 2 12.5085 18.2416 16.2129
26905 2 11.5728 19.2627 17.0779
26906 1 110.059 20.5666 90.7935
26907 2 109.976 20.6995 89.8058
26908 2 110.704 21.2342 91.1663
26909 1 70.9663 29.345 40.3074
26910 2 71.3567 28.4958 39.9519
26911 2 71.704 29.9748 40.5505
26912 1 9.0812 10.7343 90.671
26913 2 8.77829 11.6539 90.4207
26914 2 8.3713 10.0725 90.4302
26915 1 28.374 6.58898 71.0985
26916 2 29.3534 6.76836 71.0058
26917 2 27.9578 6.53447 70.1908
26918 1 10.8617 27.1278 48.0802
26919 2 11.4512 26.6749 47.4113
26920 2 10.0424 26.5746 48.231
26921 1 11.7216 0.292125 38.7002
26922 2 12.4618 0.594465 38.0996
26923 2 11.597 0.957352 39.4364
26924 1 28.9821 18.3097 58.2871
26925 2 29.01 18.9964 57.5606
26926 2 28.2894 17.6221 58.0693
26927 1 18.4374 22.4392 66.8214
26928 2 19.0996 22.2476 67.5459
26929 2 18.2036 23.4114 66.8322
26930 1 99.6171 9.69214 56.0943
26931 2 99.8113 10.655 56.2821
26932 2 99.1513 9.61182 55.2131
26933 1 31.0018 0.720674 27.4007
26934 2 30.5279 29.8491 27.5263
26935 2 30.687 1.15249 26.5555
26936 1 20.6159 12.2513 17.7641
26937 2 20.2085 12.691 16.9636
26938 2 19.8912 11.8894 18.3505
26939 1 17.0594 12.8471 12.3034
26940 2 17.8882 12.3465 12.0535
26941 2 17.0396 13.7219 11.8192
26942 1 83.7043 15.8576 51.8812
26943 2 83.4372 16.373 51.0669
26944 2 83.7591 16.4768 52.6645
26945 1 27.0253 17.2191 68.4316
26946 2 27.8698 17.7106 68.2192
26947 2 27.1782 16.2358 68.3336
26948 1 18.2554 25.6525 48.8983
26949 2 18.9257 25.5415 48.1646
26950 2 18.6568 26.1933 49.6375
26951 1 97.21 8.5437 85.1809
26952 2 96.7864 7.72426 84.7948
26953 2 96.7879 8.75303 86.063
26954 1 3.21907 15.5074 55.7513
26955 2 3.26318 15.4315 56.7474
26956 2 3.00721 16.4513 55.4979
26957 1 33.1114 13.3408 84.4534
26958 2 32.4109 13.9643 84.1062
26959 2 33.5167 13.7238 85.2835
26960 1 96.0628 3.87059 21.9927
26961 2 95.459 3.11428 22.2447
26962 2 96.2739 3.81768 21.0167
26963 1 94.6704 7.91862 24.059
26964 2 95.5058 7.39472 24.2253
26965 2 94.225 7.58149 23.2295
26966 1 76.9319 1.39286 82.5206
26967 2 77.4979 1.19528 81.7202
26968 2 76.0551 0.920023 82.4338
26969 1 12.0576 17.3434 12.2611
26970 2 11.2334 16.884 11.9298
26971 2 12.1278 17.2286 13.252
26972 1 47.7244 4.17115 84.4367
26973 2 48.4757 4.61366 83.9472
26974 2 46.9759 3.98459 83.8003
26975 1 29.211 11.9016 74.5221
26976 2 29.1097 11.1317 75.1522
26977 2 29.5718 12.6921 75.0171
26978 1 85.8657 20.1765 74.2456
26979 2 86.4845 19.4948 74.6359
26980 2 84.9561 19.7762 74.1347
26981 1 52.5654 9.8152 74.8281
26982 2 53.532 9.63132 75.0065
26983 2 52.2532 10.5594 75.4186
26984 1 105.314 5.7824 35.6235
26985 2 105.399 6.09469 34.6773
26986 2 106.224 5.62505 36.0061
26987 1 56.4573 5.82996 76.2271
26988 2 56.4242 5.70307 75.2358
26989 2 56.0029 6.68736 76.4688
26990 1 2.88292 3.213 64.876
26991 2 2.52629 2.59587 65.5774
26992 2 3.47358 3.89747 65.3034
26993 1 94.8625 16.8187 88.9369
26994 2 94.4588 16.0362 88.4629
26995 2 95.7415 16.5518 89.3321
26996 1 7.45966 14.5089 60.8684
26997 2 6.693 14.1967 60.3073
26998 2 7.74639 13.772 61.4805
26999 1 113.921 18.4153 24.9512
27000 2 114.288 19.1733 24.4119
27001 2 113.91 18.6692 25.9184
27002 1 70.0217 14.6265 57.4881
27003 2 70.8357 14.7262 56.9159
27004 2 69.2139 14.9086 56.9704
27005 1 46.9743 18.3964 76.5617
27006 2 47.3834 17.4847 76.5991
27007 2 47.66 19.0572 76.2564
27008 1 76.2232 27.8259 76.4677
27009 2 76.3384 28.3438 75.62
27010 2 75.2611 27.8419 76.7399
27011 1 31.8115 3.97478 38.9394
27012 2 32.0069 2.99759 38.8562
27013 2 30.8223 4.1145 38.9818
27014 1 98.2435 15.5785 18.1925
27015 2 99.1787 15.2584 18.3441
27016 2 97.7648 14.9371 17.593
27017 1 86.8043 14.9424 62.61
27018 2 87.008 13.9634 62.6234
27019 2 86.0887 15.1432 63.2791
27020 1 111.135 22.4572 71.6561
27021 2 111.749 23.1146 72.0926
27022 2 110.349 22.9405 71.2707
27023 1 13.609 1.74044 60.0857
27024 2 14.5002 1.49361 60.4662
27025 2 12.9373 1.8034 60.8238
27026 1 15.5275 25.1509 32.7713
27027 2 14.7989 25.8182 32.617
27028 2 15.563 24.5123 32.0026
27029 1 111.05 3.14877 70.2115
27030 2 111.037 2.23688 70.6217
27031 2 111.967 3.53808 70.2943
27032 1 102.747 14.3079 27.2833
27033 2 103.321 13.4937 27.1975
27034 2 102.249 14.2749 28.1501
27035 1 36.4722 13.9539 29.6916
27036 2 36.3362 14.5103 30.5113
27037 2 37.2461 14.3129 29.1698
27038 1 113.363 9.41696 78.3689
27039 2 114.302 9.72006 78.5358
27040 2 112.734 9.96142 78.923
27041 1 99.6368 1.71831 32.1178
27042 2 100.426 2.33 32.1734
27043 2 98.8914 2.08446 32.6748
27044 1 51.6664 10.2586 32.1751
27045 2 51.6988 11.125 31.6769
27046 2 50.8693 9.73293 31.8781
27047 1 106.973 20.0472 55.9402
27048 2 106.393 19.3973 55.4489
27049 2 107.736 19.559 56.3637
27050 1 77.9326 8.16564 67.776
27051 2 77.2823 8.609 67.1591
27052 2 78.8647 8.33629 67.4565
27053 1 0.69691 9.92063 13.4269
27054 2 0.900643 10.8804 13.6202
27055 2 0.249248 9.5085 14.2205
27056 1 6.49636 13.9282 85.1321
27057 2 7.2162 14.6135 85.2424
27058 2 5.64726 14.2687 85.5359
27059 1 28.1987 6.44874 49.4408
27060 2 28.7181 6.40738 50.2943
27061 2 28.8283 6.56782 48.673
27062 1 89.6919 18.2868 83.8327
27063 2 89.546 17.6458 83.0791
27064 2 88.9372 18.2124 84.4844
27065 1 6.02603 3.21976 51.61
27066 2 6.46782 2.54948 51.0137
27067 2 5.03428 3.16752 51.4929
27068 1 3.48893 16.1224 74.8912
27069 2 2.81659 15.7553 74.2484
27070 2 3.69072 15.4365 75.5904
27071 1 78.5816 7.36351 43.1102
27072 2 77.6531 7.69654 43.2746
27073 2 79.186 7.68852 43.8376
27074 1 2.2871 8.3317 68.3393
27075 2 3.03868 8.62664 68.9294
27076 2 2.33089 7.34054 68.2141
27077 1 117.714 19.0095 51.9444
27078 2 117.695 19.3376 52.8889
27079 2 118.578 18.5369 51.7729
27080 1 57.0307 3.74947 89.2601
27081 2 57.9702 3.95035 89.5379
27082 2 56.8859 2.76004 89.2656
27083 1 88.7807 19.9096 51.196
27084 2 88.2912 19.8238 50.3283
27085 2 88.1488 20.2206 51.9059
27086 1 31.5888 25.1371 44.9191
27087 2 31.5137 24.2359 44.4922
27088 2 32.344 25.1335 45.5745
27089 1 43.4993 3.53194 68.0916
27090 2 43.3511 3.96088 67.2005
27091 2 43.9171 4.19332 68.7145
27092 1 48.9522 5.33411 75.701
27093 2 49.0303 5.00545 74.7597
27094 2 49.7369 5.01419 76.2319
27095 1 43.3186 18.2529 63.9607
27096 2 43.8538 17.4114 64.0342
27097 2 43.9205 19.0424 64.0806
27098 1 74.3361 21.4989 86.4135
27099 2 74.0516 22.0429 85.6241
27100 2 74.8317 22.081 87.0582
27101 1 98.4894 17.3211 84.6652
27102 2 98.1768 17.5398 83.7408
27103 2 98.4771 18.149 85.2258
27104 1 43.0075 28.269 39.3027
27105 2 42.3595 27.5223 39.1523
27106 2 43.9389 27.9052 39.3122
27107 1 64.7738 24.7558 56.9844
27108 2 65.7659 24.8736 56.9402
27109 2 64.3816 24.8881 56.0741
27110 1 111.287 29.826 56.44
27111 2 110.788 29.6279 55.5959
27112 2 110.677 0.282445 57.0878
27113 1 16.0542 13.5647 86.2925
27114 2 16.009 12.7974 85.6528
27115 2 16.3162 13.2291 87.1974
27116 1 18.5413 6.51545 70.9327
27117 2 17.6705 6.02845 70.8659
27118 2 19.0188 6.23203 71.7644
27119 1 99.5424 7.16243 17.2519
27120 2 99.5154 6.93829 18.2261
27121 2 99.2618 8.11325 17.1208
27122 1 63.0115 5.65043 48.6144
27123 2 62.0587 5.39224 48.7742
27124 2 63.0842 6.64689 48.5723
27125 1 31.5978 5.56302 56.608
27126 2 32.4081 6.00909 56.988
27127 2 31.0941 6.21429 56.0404
27128 1 23.6012 17.2529 10.7043
27129 2 24.2867 17.5858 11.3518
27130 2 23.5303 17.8901 9.93694
27131 1 61.5723 15.8905 39.9267
27132 2 62.3672 15.9953 39.3291
27133 2 61.5271 16.6633 40.5598
27134 1 73.7445 15.9345 43.3971
27135 2 73.7682 15.6322 42.4442
27136 2 74.6762 15.9716 43.7583
27137 1 14.3826 4.16635 74.5411
27138 2 14.0304 4.78969 75.2393
27139 2 15.2883 4.47206 74.2476
27140 1 97.3603 22.1652 65.6469
27141 2 98.1949 22.0117 65.1178
27142 2 97.0124 21.2896 65.982
27143 1 99.1973 17.3837 70.2299
27144 2 98.8967 16.4708 69.9536
27145 2 99.3785 17.3915 71.2133
27146 1 22.4212 24.5869 34.771
27147 2 23.227 24.6534 34.1825
27148 2 21.8612 25.4084 34.6635
27149 1 117.475 10.9194 62.3755
27150 2 116.994 11.5578 62.9762
27151 2 118.08 10.3396 62.9214
27152 1 42.4335 27.575 25.3128
27153 2 42.9606 26.8214 25.7054
27154 2 41.6572 27.7841 25.9074
27155 1 41.0834 29.4152 51.5001
27156 2 40.2302 28.9058 51.3879
27157 2 41.7798 29.0374 50.8899
27158 1 92.0228 0.766376 76.9976
27159 2 91.1342 1.10744 77.3043
27160 2 92.6148 0.618914 77.7898
27161 1 115.877 21.5629 44.5528
27162 2 115.03 21.4431 45.07
27163 2 116.216 20.67 44.256
27164 1 103.271 6.21227 58.9657
27165 2 103.786 5.68443 58.2901
27166 2 102.292 6.05581 58.8356
27167 1 106.577 24.1538 48.1767
27168 2 106.036 24.7937 47.6316
27169 2 106.177 23.2396 48.1128
27170 1 59.651 10.0494 63.0541
27171 2 58.9062 10.6239 63.3936
27172 2 59.8163 10.2536 62.0892
27173 1 23.4159 0.745815 45.8946
27174 2 22.9803 1.57617 45.547
27175 2 23.3342 0.0169948 45.2147
27176 1 21.4528 29.8958 89.7744
27177 2 20.6576 29.5005 90.2343
27178 2 21.1465 0.487629 89.0288
27179 1 26.0863 20.2185 40.4292
27180 2 25.6771 20.329 41.3349
27181 2 27.0358 19.9202 40.5265
27182 1 1.1937 23.1352 68.6325
27183 2 1.90094 23.8223 68.799
27184 2 1.6107 22.3165 68.2377
27185 1 66.6373 14.6367 63.3871
27186 2 65.7292 14.4957 63.7814
27187 2 66.7235 14.0992 62.5483
27188 1 1.07113 11.5584 35.8653
27189 2 1.91487 11.9938 35.5514
27190 2 0.54969 11.2343 35.0759
27191 1 16.0062 15.0339 51.8031
27192 2 15.5879 15.2844 52.6762
27193 2 15.9781 14.0404 51.6929
27194 1 107.997 0.739907 90.3935
27195 2 107.832 0.897762 89.4199
27196 2 107.511 29.9155 90.6844
27197 1 111.009 2.17575 50.6358
27198 2 110.69 1.82911 51.5179
27199 2 111.462 1.43992 50.1326
27200 1 69.0782 26.6829 34.8167
27201 2 69.8981 26.3606 34.3434
27202 2 69.1794 27.6534 35.0353
27203 1 11.5056 7.04857 15.2821
27204 2 12.2916 7.33779 15.8285
27205 2 11.0991 6.23079 15.6896
27206 1 35.8534 27.1866 46.9884
27207 2 36.1916 27.1313 47.9278
27208 2 35.046 26.6049 46.89
27209 1 102.446 7.02985 72.8703
27210 2 102.926 6.47063 72.1948
27211 2 102.714 7.98712 72.7621
27212 1 107.732 19.8669 51.9678
27213 2 108.618 19.8957 52.431
27214 2 107.171 19.1414 52.3663
27215 1 98.6933 26.0902 34.7226
27216 2 98.4236 25.1273 34.7153
27217 2 98.01 26.624 35.2208
27218 1 57.781 12.7038 55.3472
27219 2 57.5991 11.8014 54.9566
27220 2 57.2446 12.8194 56.1832
27221 1 69.8309 29.7179 83.6629
27222 2 70.043 0.437126 84.3245
27223 2 70.53 29.7059 82.948
27224 1 29.2764 10.3489 62.4015
27225 2 28.6346 9.71737 61.9666
27226 2 29.3056 11.2038 61.8836
27227 1 100.785 21.5096 15.4336
27228 2 100.477 20.7883 16.054
27229 2 101.017 21.1098 14.5468
27230 1 47.2097 9.91436 61.1623
27231 2 47.4493 10.8634 61.3671
27232 2 47.2066 9.38136 62.0084
27233 1 56.5361 17.9298 71.0487
27234 2 55.98 17.2025 71.4511
27235 2 57.3694 18.0495 71.5884
27236 1 5.72579 14.0202 23.7143
27237 2 5.35918 14.1775 22.7974
27238 2 5.11656 13.4061 24.2161
27239 1 112.025 2.03787 17.9373
27240 2 112.451 2.5331 18.694
27241 2 111.671 1.16299 18.2687
27242 1 33.848 14.0825 72.8122
27243 2 34.0661 13.9956 71.8401
27244 2 33.6786 15.0434 73.0311
27245 1 21.0152 17.5653 20.334
27246 2 21.2935 18.2842 19.6971
27247 2 21.8227 17.0632 20.6436
27248 1 95.5988 25.6314 55.3517
27249 2 95.4383 24.647 55.4236
27250 2 95.755 26.0111 56.2636
27251 1 58.9875 18.0237 41.8967
27252 2 59.6888 18.5297 42.3989
27253 2 58.7889 18.4938 41.0367
27254 1 80.6252 4.15144 44.3995
27255 2 80.0795 4.3344 43.5817
27256 2 80.3646 4.78971 45.1238
27257 1 105.301 8.67046 74.8393
27258 2 105.01 8.40302 75.7576
27259 2 106.206 8.28693 74.6518
27260 1 72.2648 3.25487 44.3302
27261 2 72.0807 4.14929 44.7378
27262 2 73.2072 2.98568 44.5289
27263 1 9.27827 16.2646 54.8811
27264 2 8.78224 16.8772 55.4965
27265 2 10.0365 15.8387 55.3747
27266 1 114.173 10.7137 63.5492
27267 2 114.797 10.5318 64.3086
27268 2 114.373 10.0873 62.7958
27269 1 30.366 6.32413 34.6244
27270 2 30.4898 7.20054 35.0897
27271 2 29.6525 6.41359 33.9295
27272 1 10.3433 11.3251 42.8345
27273 2 10.3602 10.7689 43.6654
27274 2 11.0862 11.0413 42.2282
27275 1 101.84 3.60341 31.7473
27276 2 101.507 3.56169 30.8054
27277 2 102.827 3.76868 31.7447
27278 1 118.818 6.5912 56.6138
27279 2 119.619 6.98563 57.0637
27280 2 118.3 6.04601 57.2731
27281 1 49.9452 7.83257 37.7673
27282 2 50.0982 7.51906 38.7045
27283 2 50.1674 8.80531 37.7008
27284 1 113.676 0.000859842 83.0983
27285 2 113.334 0.0333811 82.1593
27286 2 113.093 0.563436 83.685
27287 1 47.1953 0.0562096 65.8765
27288 2 48.1856 29.9219 65.8396
27289 2 46.8321 0.115158 64.9467
27290 1 94.7865 13.0162 84.5746
27291 2 94.035 12.3581 84.6195
27292 2 94.6088 13.6757 83.8442
27293 1 56.8419 10.5419 37.2166
27294 2 56.0654 10.8074 37.788
27295 2 57.1653 11.3369 36.7034
27296 1 55.5354 7.20995 45.0335
27297 2 55.2883 7.81 44.2726
27298 2 54.8875 7.33933 45.7841
27299 1 54.6992 25.4693 39.4381
27300 2 55.0813 24.9302 40.1886
27301 2 53.7087 25.336 39.4025
27302 1 65.9477 12.7612 75.2782
27303 2 65.2836 12.4533 75.9595
27304 2 65.4645 13.0975 74.4699
27305 1 29.8718 14.3571 22.0385
27306 2 29.5769 13.4341 21.7914
27307 2 30.2898 14.7974 21.2439
27308 1 97.0125 13.6255 53.5611
27309 2 97.826 13.293 53.0839
27310 2 96.2759 12.9553 53.4709
27311 1 82.6085 8.32486 48.5987
27312 2 83.2297 8.99948 48.9976
27313 2 81.6685 8.66048 48.6593
27314 1 32.1277 16.7268 23.1067
27315 2 31.7182 17.639 23.0917
27316 2 32.291 16.4193 22.1693
27317 1 49.382 8.84705 46.0142
27318 2 49.6055 8.58307 45.0759
27319 2 50.2259 8.96188 46.5381
27320 1 107.661 29.044 12.3246
27321 2 107.464 28.0748 12.1759
27322 2 108.649 29.1937 12.2865
27323 1 93.64 3.041 33.7602
27324 2 93.7822 2.44515 34.5506
27325 2 93.5974 2.48718 32.9287
27326 1 39.6007 18.774 48.8328
27327 2 40.3003 18.3242 48.2776
27328 2 39.4146 19.6837 48.4617
27329 1 56.897 4.19652 36.98
27330 2 56.1507 3.53273 36.9307
27331 2 56.5454 5.10942 36.7728
27332 1 72.0711 21.9364 73.3644
27333 2 71.3659 21.6564 74.0157
27334 2 72.4064 21.1341 72.8707
27335 1 112.254 11.0027 80.3247
27336 2 112.976 11.2084 80.9851
27337 2 111.94 11.8514 79.8996
27338 1 33.4969 10.4695 29.3795
27339 2 32.7608 10.283 28.7289
27340 2 33.7945 9.61267 29.8007
27341 1 116.269 19.318 14.4061
27342 2 116.268 20.0993 13.7818
27343 2 116.296 18.4694 13.8779
27344 1 101.432 15.188 21.8428
27345 2 100.831 15.8159 22.3368
27346 2 102.014 15.7071 21.2169
27347 1 111.888 25.3 29.7504
27348 2 112.007 24.3898 30.1471
27349 2 112.724 25.8326 29.8816
27350 1 67.5642 20.4195 61.7781
27351 2 67.5215 19.9886 62.6795
27352 2 66.6421 20.4875 61.3972
27353 1 114.012 9.13146 87.554
27354 2 114.439 9.90483 87.0853
27355 2 113.682 8.47293 86.8777
27356 1 106.068 19.786 35.2391
27357 2 105.829 20.2956 36.0654
27358 2 105.965 18.8061 35.4101
27359 1 38.0747 10.9442 31.8028
27360 2 38.7449 11.686 31.7784
27361 2 38.3912 10.19 31.2274
27362 1 8.70749 1.36114 58.9731
27363 2 8.59065 1.48436 57.9877
27364 2 8.23874 2.09874 59.4592
27365 1 39.9557 5.27237 46.2497
27366 2 40.2984 6.10213 46.6902
27367 2 38.9807 5.16887 46.4466
27368 1 5.44103 4.81427 26.6282
27369 2 5.14048 5.63341 27.1167
27370 2 5.8473 5.07818 25.7533
27371 1 8.54097 5.72168 48.2343
27372 2 8.29935 5.86032 49.1947
27373 2 9.43492 5.27728 48.1763
27374 1 11.3631 2.67219 53.8552
27375 2 11.2465 1.68491 53.9634
27376 2 10.6019 3.14795 54.2959
27377 1 85.5786 18.1151 49.9208
27378 2 85.9557 17.4858 49.2411
27379 2 84.5862 18.0007 49.9665
27380 1 19.8139 3.99212 24.2344
27381 2 19.2907 4.08991 23.3879
27382 2 20.6549 4.52936 24.1704
27383 1 34.551 1.82195 87.54
27384 2 34.8297 1.31395 88.355
27385 2 34.9383 2.74333 87.5729
27386 1 87.5166 5.25087 46.3671
27387 2 88.1683 5.99686 46.2297
27388 2 87.634 4.56866 45.6454
27389 1 98.0379 14.2916 87.7878
27390 2 97.8979 13.7204 86.9791
27391 2 97.9837 13.7247 88.6098
27392 1 19.7901 8.24121 22.7524
27393 2 20.5512 8.16677 23.3967
27394 2 20.0249 7.76852 21.9031
27395 1 73.2778 23.9986 42.0003
27396 2 73.6721 24.7285 41.4418
27397 2 73.692 24.0146 42.9103
27398 1 114.585 6.63663 11.2317
27399 2 113.71 6.15234 11.2561
27400 2 114.429 7.59443 10.9903
27401 1 52.7831 29.744 52.6237
27402 2 52.6445 0.0329878 51.6764
27403 2 51.9078 29.4647 53.0185
27404 1 38.4652 6.47876 72.4745
27405 2 37.7753 5.89695 72.9053
27406 2 39.1486 6.74475 73.1544
27407 1 69.7881 5.35903 52.7718
27408 2 70.2592 6.19924 52.5032
27409 2 69.4535 5.4498 53.7097
27410 1 117.47 23.0507 25.9903
27411 2 116.578 23.5019 25.9724
27412 2 117.342 22.0591 26.0041
27413 1 117.564 19.1143 44.0327
27414 2 118.48 19.065 43.6338
27415 2 116.977 18.426 43.6062
27416 1 13.7617 5.23709 14.3666
27417 2 13.6198 5.81947 15.1671
27418 2 13.1132 4.47616 14.3889
27419 1 44.1809 22.4986 60.1281
27420 2 43.2204 22.4221 59.8606
27421 2 44.413 23.4615 60.2656
27422 1 32.8286 11.2143 45.0553
27423 2 32.2463 10.4294 45.2674
27424 2 33.5779 10.9224 44.4608
27425 1 28.9068 17.033 83.6051
27426 2 29.6509 17.0084 84.2728
27427 2 29.0064 16.2696 82.9669
27428 1 65.9402 20.2833 42.8247
27429 2 66.2278 21.2408 42.8022
27430 2 64.9643 20.2334 43.0376
27431 1 85.6398 11.281 84.8479
27432 2 85.2091 10.6741 84.18
27433 2 85.1142 11.2669 85.6986
27434 1 21.0067 28.7979 40.5998
27435 2 20.8385 29.3786 39.8032
27436 2 20.5215 29.1693 41.3914
27437 1 68.5531 13.6206 84.9496
27438 2 68.2859 13.969 85.8481
27439 2 67.8836 12.9447 84.6417
27440 1 12.4816 0.475892 67.6803
27441 2 12.4128 0.842242 68.6083
27442 2 13.249 0.908517 67.2072
27443 1 31.4638 26.0367 20.9162
27444 2 32.0015 26.8388 21.1759
27445 2 31.9808 25.2068 21.126
27446 1 115.401 3.00445 40.3265
27447 2 114.674 3.61377 40.0101
27448 2 115.993 3.49515 40.9666
27449 1 103.035 2.7719 56.0753
27450 2 103.615 2.90697 56.8792
27451 2 102.2 3.3136 56.1714
27452 1 17.2946 23.6228 55.4703
27453 2 16.7846 22.8448 55.8372
27454 2 17.5345 23.4439 54.5161
27455 1 80.1097 16.13 63.8222
27456 2 81.0437 16.4813 63.8876
27457 2 80.125 15.2158 63.4173
27458 1 100.479 25.0125 62.849
27459 2 99.6433 25.0256 63.3987
27460 2 100.792 25.9498 62.6973
27461 1 53.9602 7.05061 86.8799
27462 2 54.2788 7.62516 86.1261
27463 2 54.6937 6.94436 87.5512
27464 1 25.6242 16.4993 23.8526
27465 2 25.7636 15.5818 23.4802
27466 2 25.0457 16.4444 24.6664
27467 1 19.7117 25.5391 65.6376
27468 2 18.9941 25.577 66.3331
27469 2 20.6075 25.5499 66.082
27470 1 71.7729 8.34699 45.3274
27471 2 72.2375 8.50695 46.1983
27472 2 71.6403 9.21854 44.8553
27473 1 59.8036 24.9743 38.7216
27474 2 60.7891 24.8385 38.6201
27475 2 59.3381 24.673 37.8894
27476 1 116.658 5.15045 10.4744
27477 2 115.913 5.79447 10.645
27478 2 116.35 4.22149 10.679
27479 1 114.593 10.8497 52.2054
27480 2 114.807 11.5274 52.9088
27481 2 115.413 10.6576 51.6664
27482 1 26.7406 7.95911 18.7835
27483 2 26.4447 8.24502 19.6949
27484 2 26.9617 6.98393 18.7955
27485 1 4.3497 3.05372 72.5413
27486 2 3.62086 2.88695 73.2054
27487 2 4.81276 2.19261 72.3314
27488 1 108.06 13.2774 49.112
27489 2 107.81 13.2277 50.079
27490 2 107.319 13.708 48.5977
27491 1 87.7515 1.25274 51.5185
27492 2 87.3076 1.38284 52.4052
27493 2 88.3986 1.99786 51.3572
27494 1 111.629 25.8985 32.9021
27495 2 110.813 26.1694 33.4129
27496 2 111.58 24.9227 32.6891
27497 1 103.257 21.687 87.7869
27498 2 103.117 21.701 88.7771
27499 2 103.106 22.6034 87.4161
27500 1 75.0275 20.3415 90.2648
27501 2 75.5647 21.181 90.3467
27502 2 74.0535 20.5631 90.3115
27503 1 20.7743 10.1804 32.3473
27504 2 21.0835 10.7673 33.0955
27505 2 21.5483 9.96291 31.7526
27506 1 93.8876 9.80819 41.3063
27507 2 94.3772 9.45128 42.1019
27508 2 94.1657 9.30282 40.4895
27509 1 23.3067 11.102 73.9984
27510 2 23.6391 10.5286 73.2496
27511 2 22.5048 11.6161 73.6938
27512 1 92.853 0.309239 33.19
27513 2 92.6501 29.3653 32.9298
27514 2 92.2817 0.570685 33.968
27515 1 10.1783 21.2066 47.2938
27516 2 10.4937 20.3212 47.6352
27517 2 10.4485 21.3102 46.3366
27518 1 82.6755 9.7508 53.8546
27519 2 83.6625 9.63342 53.9647
27520 2 82.4893 10.2101 52.9861
27521 1 78.7671 15.1558 31.401
27522 2 78.8728 14.2583 30.9728
27523 2 79.6615 15.4916 31.6963
27524 1 24.2988 14.3569 48.2644
27525 2 24.7916 15.2076 48.4476
27526 2 23.3909 14.4012 48.6813
27527 1 82.7327 21.2956 78.982
27528 2 81.9567 21.8695 78.7204
27529 2 83.3726 21.8312 79.5329
27530 1 95.3761 23.0185 76.0932
27531 2 95.5025 22.4391 76.8984
27532 2 96.2614 23.379 75.7996
27533 1 96.41 14.2503 37.1454
27534 2 96.1513 13.3392 36.8246
27535 2 95.6856 14.9015 36.9189
27536 1 4.61106 23.0209 73.9875
27537 2 4.09181 23.3268 74.7855
27538 2 4.07265 23.1775 73.1595
27539 1 26.7783 20.9815 83.8816
27540 2 27.0513 21.1124 82.9285
27541 2 26.8025 21.86 84.3588
27542 1 25.9737 21.9252 26.7781
27543 2 25.9628 22.0668 27.7679
27544 2 26.6479 22.5351 26.3615
27545 1 6.39802 15.3668 19.3047
27546 2 6.46008 16.0436 18.5712
27547 2 6.47183 15.8266 20.1896
27548 1 25.4714 24.5417 29.1474
27549 2 25.6983 23.5763 29.2759
27550 2 24.552 24.7177 29.4991
27551 1 30.6115 21.9373 61.0872
27552 2 31.4181 22.3119 61.5447
27553 2 29.9039 22.6415 61.0298
27554 1 33.6795 9.8786 24.1512
27555 2 33.8568 10.8628 24.1483
27556 2 34.0625 9.46848 23.3235
27557 1 4.26401 20.4164 41.9734
27558 2 3.83674 19.7531 41.359
27559 2 4.3116 20.0338 42.896
27560 1 95.8105 18.2886 25.9645
27561 2 95.1106 18.3215 26.6779
27562 2 95.9821 19.2126 25.6229
27563 1 107.029 24.425 32.8005
27564 2 107.054 25.4245 32.7823
27565 2 107.78 24.0623 32.2495
27566 1 6.11977 17.4748 78.6654
27567 2 5.24391 17.5482 78.1885
27568 2 6.82941 17.935 78.1319
27569 1 74.2545 12.8223 42.9248
27570 2 73.5127 13.4119 43.2443
27571 2 74.5619 13.1314 42.0249
27572 1 57.6769 20.2341 89.3985
27573 2 58.1831 21.0859 89.5339
27574 2 58.2372 19.4621 89.6985
27575 1 83.4169 28.1591 52.5233
27576 2 83.2411 27.2396 52.8747
27577 2 84.2891 28.4919 52.8819
27578 1 39.905 12.467 24.4438
27579 2 40.4353 11.6301 24.3082
27580 2 38.9389 12.2824 24.2637
27581 1 106.018 12.8976 58.8431
27582 2 105.26 13.4907 58.573
27583 2 106.38 12.4304 58.0362
27584 1 20.367 21.0343 20.6732
27585 2 19.7354 21.6438 20.1941
27586 2 20.8959 20.5106 20.0054
27587 1 56.9533 11.4259 51.8771
27588 2 55.9989 11.4799 52.1706
27589 2 57.0167 10.8668 51.0505
27590 1 107.801 1.36174 50.293
27591 2 106.885 1.7219 50.4664
27592 2 107.789 0.807123 49.4609
27593 1 45.7417 0.211944 72.193
27594 2 45.6186 0.599784 73.1064
27595 2 45.5181 29.2374 72.2117
27596 1 104.791 0.043336 13.6092
27597 2 104.247 29.4588 13.0068
27598 2 104.754 0.986901 13.2801
27599 1 26.3835 8.62111 10.6119
27600 2 26.5953 9.59803 10.5839
27601 2 25.4069 8.49662 10.7874
27602 1 18.9508 25.0858 75.3063
27603 2 18.3418 24.4217 74.8728
27604 2 18.8421 25.0393 76.2993
27605 1 48.6192 2.78627 73.2044
27606 2 49.0344 3.69418 73.2617
27607 2 48.3887 2.58461 72.2525
27608 1 12.4902 18.2951 53.8215
27609 2 11.8921 18.2118 53.0244
27610 2 12.085 17.8073 54.5947
27611 1 17.726 4.43746 31.3893
27612 2 17.3329 4.82687 32.2223
27613 2 18.5874 4.89996 31.1795
27614 1 27.4434 15.7228 15.6843
27615 2 27.1893 15.6183 14.7228
27616 2 28.346 15.3201 15.8362
27617 1 96.1645 4.87908 81.0915
27618 2 96.0445 5.37832 81.9496
27619 2 95.2799 4.52927 80.7829
27620 1 109.295 10.2141 39.958
27621 2 109.196 10.7736 40.7809
27622 2 108.459 10.2737 39.4122
27623 1 87.4528 24.8101 91.1453
27624 2 88.2677 25.2976 91.4588
27625 2 86.6471 25.1712 91.6148
27626 1 55.944 0.0171095 84.7547
27627 2 55.8184 29.949 85.7444
27628 2 55.8068 0.964553 84.4656
27629 1 37.0283 11.4456 62.4738
27630 2 37.4287 12.3194 62.7495
27631 2 37.2822 10.7393 63.1347
27632 1 41.141 20.5394 29.0468
27633 2 41.0983 21.4668 29.4185
27634 2 40.3601 20.0107 29.3795
27635 1 104.529 8.17332 44.408
27636 2 105.256 8.5902 44.9535
27637 2 104.931 7.55046 43.737
27638 1 109.131 5.60792 85.4863
27639 2 109.814 4.8838 85.5872
27640 2 109.465 6.29196 84.8375
27641 1 106.798 28.5744 91.229
27642 2 107.493 28.058 91.73
27643 2 105.906 28.1382 91.3501
27644 1 106.492 20.8294 87.5125
27645 2 106.297 21.3751 88.3276
27646 2 106.605 19.8704 87.7725
27647 1 7.23186 14.9168 49.5003
27648 2 6.82141 14.0419 49.2433
27649 2 7.12856 15.0569 50.485
27650 1 118.263 28.1972 79.4098
27651 2 118.785 28.7735 80.0385
27652 2 117.711 27.5479 79.9331
27653 1 81.924 27.9303 60.9741
27654 2 81.8308 28.7814 60.4575
27655 2 81.0218 27.5191 61.1045
27656 1 102.631 8.18735 11.1404
27657 2 102.143 7.65279 10.4503
27658 2 102.657 7.67703 12
27659 1 83.3552 28.8245 65.724
27660 2 84.261 28.6761 66.1208
27661 2 83.3856 28.6333 64.7429
27662 1 76.3424 10.3187 75.4538
27663 2 77.1279 10.8149 75.8237
27664 2 75.6538 10.2034 76.1697
27665 1 34.1251 28.0623 31.1938
27666 2 33.3098 28.5901 30.9557
27667 2 34.001 27.1113 30.9106
27668 1 3.71963 18.843 18.7927
27669 2 3.07319 19.5192 19.1459
27670 2 4.61719 19.2685 18.6771
27671 1 114.359 20.7448 74.4831
27672 2 114.545 21.5641 73.9406
27673 2 115.177 20.1704 74.5093
27674 1 6.0464 16.2559 25.2351
27675 2 5.85959 15.3947 24.7624
27676 2 6.5227 16.0681 26.0941
27677 1 104.825 2.6705 78.6755
27678 2 105.167 2.68571 77.736
27679 2 104.176 1.91671 78.782
27680 1 102.919 25.6228 47.1132
27681 2 103.807 26.0738 47.0295
27682 2 103.042 24.6317 47.0621
27683 1 75.2811 13.2153 32.0933
27684 2 75.7797 12.3492 32.1296
27685 2 74.7877 13.2797 31.2259
27686 1 101.369 15.655 47.5555
27687 2 100.478 16.0505 47.7796
27688 2 102.089 16.176 48.013
27689 1 112.556 7.37065 74.1304
27690 2 112.344 8.32367 74.3467
27691 2 112.107 7.11532 73.2743
27692 1 64.2845 11.02 54.7676
27693 2 63.8054 10.5639 54.0177
27694 2 63.7692 10.8975 55.6158
27695 1 52.8689 6.94474 51.5386
27696 2 52.2404 7.71796 51.454
27697 2 53.7084 7.14054 51.0318
27698 1 109.273 24.8975 66.51
27699 2 108.438 24.7529 67.0408
27700 2 109.84 24.0744 66.549
27701 1 27.7897 29.7199 74.706
27702 2 27.3103 0.0676693 73.9002
27703 2 27.9031 0.458167 75.3708
27704 1 35.1584 19.603 50.1534
27705 2 35.009 20.4479 49.6399
27706 2 34.2789 19.2405 50.4618
27707 1 98.7332 0.672927 29.7981
27708 2 99.3536 1.31776 30.2446
27709 2 99.2173 29.8174 29.6145
27710 1 105.658 19.1929 81.3394
27711 2 105.712 19.2711 80.3439
27712 2 104.706 19.0539 81.6119
27713 1 67.9816 24.3966 81.7241
27714 2 68.2384 25.3479 81.5535
27715 2 68.6523 23.9744 82.3339
27716 1 113.879 28.4597 28.2048
27717 2 113.558 28.0016 29.0339
27718 2 114.643 27.9461 27.8143
27719 1 100.711 6.68418 52.1153
27720 2 101.374 6.62563 51.3685
27721 2 100.099 5.89418 52.0805
27722 1 42.8721 8.6758 56.2092
27723 2 41.8888 8.83831 56.2907
27724 2 43.1093 7.82505 56.6782
27725 1 36.7543 5.69739 90.3304
27726 2 36.5682 4.72941 90.4989
27727 2 37.6177 5.78943 89.8344
27728 1 81.6475 10.6844 86.241
27729 2 81.2925 11.5806 85.9747
27730 2 82.5473 10.7944 86.6633
27731 1 86.152 26.1585 55.5187
27732 2 85.8615 25.4762 54.8479
27733 2 85.5415 26.9493 55.4756
27734 1 82.8695 3.26206 52.9055
27735 2 83.4066 3.53545 52.1075
27736 2 81.9124 3.14726 52.6396
27737 1 5.6049 8.11114 81.7768
27738 2 5.36673 9.03999 81.4931
27739 2 6.07297 7.64331 81.0271
27740 1 75.1929 20.8071 55.2947
27741 2 74.6417 20.8984 56.1241
27742 2 75.5953 21.6926 55.0627
27743 1 58.8194 14.6181 31.9895
27744 2 59.5308 15.3112 32.1062
27745 2 58.1948 14.6468 32.7699
27746 1 103.825 17.7332 67.4248
27747 2 102.864 17.5562 67.6375
27748 2 103.932 17.8479 66.4371
27749 1 23.9973 1.53337 29.9017
27750 2 24.7559 2.17965 29.8188
27751 2 23.4616 1.53813 29.0573
27752 1 104.665 14.2197 45.5412
27753 2 105.136 13.8824 46.3565
27754 2 103.78 13.7621 45.4541
27755 1 66.7277 12.5213 55.3526
27756 2 66.6987 13.416 54.9069
27757 2 65.9861 11.9498 55.0014
27758 1 80.8506 22.3726 42.7807
27759 2 80.7826 22.9026 43.626
27760 2 81.7971 22.0793 42.6465
27761 1 69.5861 19.1369 47.1383
27762 2 69.112 18.7649 47.9364
27763 2 68.9189 19.541 46.5126
27764 1 114.458 8.05162 66.673
27765 2 114.914 8.89549 66.3911
27766 2 114.997 7.60303 67.3858
27767 1 7.92612 9.28832 48.3735
27768 2 7.99385 10.2455 48.6548
27769 2 8.65985 8.76194 48.8031
27770 1 32.1514 18.8105 71.9833
27771 2 33.0946 18.5103 71.8411
27772 2 31.6656 18.8084 71.1093
27773 1 109.964 9.29501 72.6817
27774 2 109.912 9.00925 71.7248
27775 2 109.19 8.91161 73.1864
27776 1 13.9337 6.32919 32.6322
27777 2 14.6674 5.87095 33.1338
27778 2 14.0218 7.3191 32.7432
27779 1 112.833 20.3942 55.2423
27780 2 113.325 20.9655 54.5854
27781 2 111.889 20.7155 55.3224
27782 1 11.3791 14.4734 76.603
27783 2 11.1689 13.8051 75.8894
27784 2 10.5893 14.5747 77.2078
27785 1 22.5005 20.8614 66.7491
27786 2 21.9858 20.0468 66.4817
27787 2 22.3669 21.0346 67.7249
27788 1 12.4213 21.8335 50.9292
27789 2 11.5913 21.3358 51.1812
27790 2 12.5186 22.6377 51.5155
27791 1 43.0954 9.81223 30.4458
27792 2 42.2399 9.6254 29.9627
27793 2 43.7187 10.3073 29.8404
27794 1 37.9282 16.6887 57.2213
27795 2 37.8907 16.6693 56.2222
27796 2 37.4029 15.9217 57.5895
27797 1 100.41 26.514 17.1778
27798 2 101.189 26.502 17.805
27799 2 99.9977 25.6038 17.141
27800 1 24.8472 22.8653 76.6297
27801 2 24.1173 23.2118 77.2189
27802 2 25.7217 23.2558 76.9177
27803 1 69.7544 23.9045 88.6
27804 2 69.5302 22.9686 88.8718
27805 2 68.979 24.504 88.7982
27806 1 100.997 12.5783 88.737
27807 2 100.912 13.3322 88.0855
27808 2 101.942 12.521 89.0588
27809 1 101.232 4.47349 48.0531
27810 2 101.598 4.90843 48.8759
27811 2 101.908 4.53003 47.3179
27812 1 77.7205 8.02339 46.9903
27813 2 78.5544 8.33758 46.5364
27814 2 77.9423 7.27218 47.612
27815 1 79.5328 6.58095 71.5115
27816 2 78.7335 6.31274 70.9737
27817 2 79.3267 6.4852 72.4854
27818 1 2.11944 11.9106 32.8701
27819 2 2.63219 12.1699 33.6885
27820 2 1.19279 11.6385 33.1296
27821 1 93.9255 22.0178 28.8737
27822 2 93.9864 21.0725 29.1941
27823 2 94.4967 22.6025 29.4498
27824 1 3.83826 22.4046 81.9172
27825 2 4.68302 22.8675 82.1858
27826 2 3.78656 21.5152 82.3714
27827 1 89.3711 5.03217 61.8435
27828 2 89.3873 5.57328 62.6843
27829 2 90.2323 5.15617 61.3506
27830 1 37.4048 6.9641 67.9784
27831 2 37.9433 6.52465 67.2594
27832 2 36.9275 6.26553 68.5115
27833 1 94.3383 13.2235 44.8005
27834 2 93.5211 13.7617 44.5946
27835 2 94.7787 12.946 43.9466
27836 1 22.6975 11.7847 70.4119
27837 2 23.5105 11.3805 70.831
27838 2 22.5358 12.6904 70.8037
27839 1 33.0817 28.0114 25.9081
27840 2 32.4414 27.6098 26.5629
27841 2 32.6453 28.0739 25.0106
27842 1 110.457 0.262375 63.5718
27843 2 111.19 0.941771 63.6062
27844 2 109.577 0.71418 63.7165
27845 1 73.5781 29.5063 87.0252
27846 2 74.538 29.6969 86.8194
27847 2 73.5136 29.028 87.901
27848 1 32.7246 28.7794 53.0547
27849 2 33.2074 28.3971 53.8426
27850 2 32.0947 28.0958 52.686
27851 1 25.0232 22.8471 40.0219
27852 2 25.1005 21.8887 40.2965
27853 2 25.8567 23.1254 39.5445
27854 1 114.226 27.3191 40.5468
27855 2 113.896 26.5646 39.9798
27856 2 115.216 27.4096 40.4374
27857 1 33.3361 28.9032 66.1022
27858 2 32.7742 29.5671 66.5957
27859 2 33.9321 29.3838 65.459
27860 1 91.6745 1.59744 46.6429
27861 2 91.1734 2.21345 47.2507
27862 2 91.568 1.90318 45.6968
27863 1 12.6981 13.0503 72.4407
27864 2 12.3763 12.5934 71.6114
27865 2 12.2147 12.6802 73.234
27866 1 74.8999 24.8619 75.664
27867 2 75.5224 24.6267 76.4105
27868 2 75.424 24.9968 74.8231
27869 1 18.6242 18.807 25.8312
27870 2 18.0475 19.4185 26.373
27871 2 18.676 17.9142 26.2788
27872 1 80.558 2.02949 48.6636
27873 2 80.6329 2.94344 48.2648
27874 2 79.7291 1.97562 49.2204
27875 1 89.6162 9.55443 33.5469
27876 2 89.3827 8.8672 34.2348
27877 2 89.3175 10.4555 33.8612
27878 1 48.9654 15.6336 60.8551
27879 2 49.2035 14.981 61.5745
27880 2 48.8122 16.535 61.2602
27881 1 21.9747 21.9561 45.1414
27882 2 22.8091 21.9076 45.6904
27883 2 22.214 22.1275 44.1857
27884 1 5.70172 20.6986 30.3095
27885 2 4.71353 20.7602 30.1691
27886 2 6.17501 21.1291 29.5409
27887 1 32.9423 14.4961 39.8029
27888 2 33.3347 13.5785 39.8669
27889 2 33.0631 14.9717 40.6742
27890 1 44.5148 23.2879 27.7782
27891 2 44.0105 24.1154 27.5312
27892 2 45.4742 23.3915 27.5157
27893 1 34.7234 26.5028 53.2923
27894 2 34.1994 25.6515 53.2657
27895 2 34.5298 26.9869 54.1456
27896 1 84.9876 11.5723 36.1397
27897 2 85.9396 11.2752 36.0661
27898 2 84.4428 10.8452 36.5574
27899 1 108.575 6.88015 11.9996
27900 2 108.534 7.41076 11.153
27901 2 107.87 7.20429 12.6305
27902 1 115.849 6.72061 16.3065
27903 2 116.645 7.32499 16.3125
27904 2 115.046 7.22357 16.6278
27905 1 87.6484 15.3807 72.3343
27906 2 87.0693 15.177 71.5449
27907 2 87.2365 16.1193 72.8681
27908 1 87.7377 28.7481 73.7929
27909 2 87.9974 29.0235 74.7185
27910 2 88.5056 28.2784 73.3572
27911 1 64.6014 19.3398 56.6094
27912 2 64.1813 19.8141 55.8357
27913 2 65.2083 19.9683 57.0959
27914 1 23.2484 15.239 53.576
27915 2 22.8085 16.0572 53.2059
27916 2 23.1397 14.4818 52.9319
27917 1 4.95393 25.7756 59.2238
27918 2 4.04142 26.1772 59.1458
27919 2 5.30321 25.562 58.3115
27920 1 81.03 19.461 37.9359
27921 2 80.3906 19.8417 38.6039
27922 2 80.9504 19.9629 37.0747
27923 1 82.5218 12.9765 69.6636
27924 2 81.6749 13.2601 69.2137
27925 2 82.4747 13.2036 70.6363
27926 1 18.3776 13.3556 65.6024
27927 2 18.2867 14.3053 65.9021
27928 2 18.738 12.8021 66.3532
27929 1 41.2323 28.2962 88.9598
27930 2 41.7634 29.128 88.7984
27931 2 40.9038 27.9358 88.0868
27932 1 11.9589 9.36638 79.9194
27933 2 12.5328 9.03132 79.1721
27934 2 11.4844 8.59654 80.3463
27935 1 12.7752 27.3036 38.3631
27936 2 12.4028 27.6206 37.4908
27937 2 13.0988 28.0881 38.8922
27938 1 111.382 24.3 75.1991
27939 2 110.586 24.0877 75.7647
27940 2 111.092 24.8215 74.3967
27941 1 75.8518 28.8373 32.3067
27942 2 76.6985 29.192 31.9101
27943 2 75.1692 29.5672 32.3425
27944 1 78.5478 27.4947 64.1418
27945 2 78.9026 26.6266 63.7946
27946 2 78.7911 28.2308 63.5101
27947 1 95.0941 22.6737 51.9528
27948 2 95.7891 23.3581 51.7326
27949 2 94.2062 23.1219 52.0568
27950 1 38.4474 21.4676 82.1009
27951 2 38.5606 22.4254 82.365
27952 2 38.7948 21.3345 81.1727
27953 1 88.4393 27.975 34.7345
27954 2 87.4783 27.9162 34.4643
27955 2 88.7102 28.9357 34.7957
27956 1 11.5277 7.55396 35.1726
27957 2 11.1541 7.33491 36.074
27958 2 11.0515 8.34994 34.7989
27959 1 93.1806 16.2497 71.3019
27960 2 93.5043 15.3094 71.4075
27961 2 92.2581 16.329 71.6796
27962 1 109.787 21.3053 39.6983
27963 2 109.629 20.8183 40.5574
27964 2 110.664 21.7834 39.7422
27965 1 99.9217 8.46137 64.0559
27966 2 99.9465 7.49383 63.8044
27967 2 100.698 8.67101 64.651
27968 1 65.7453 16.8904 53.23
27969 2 66.2224 16.1378 53.6837
27970 2 64.8507 16.5753 52.9134
27971 1 39.764 18.4707 70.8159
27972 2 39.0628 17.7698 70.6853
27973 2 39.4259 19.348 70.4752
27974 1 66.7235 25.8551 38.6359
27975 2 67.092 26.0092 39.5526
27976 2 66.5446 24.8795 38.5082
27977 1 7.81719 24.6377 64.122
27978 2 8.19108 24.2179 64.9491
27979 2 8.53213 25.1659 63.6639
27980 1 19.3563 7.79607 29.4077
27981 2 18.9045 7.5761 28.5431
27982 2 20.1883 8.32001 29.2252
27983 1 99.3148 1.75325 43.2282
27984 2 99.5938 0.876812 43.6206
27985 2 99.3942 2.46934 43.9217
27986 1 91.8035 24.7209 54.7654
27987 2 92.1442 25.4212 55.3928
27988 2 91.6035 25.137 53.8783
27989 1 96.2651 2.37268 18.6976
27990 2 95.8964 1.90629 19.5017
27991 2 95.5963 3.03557 18.361
27992 1 12.2181 29.1195 84.4185
27993 2 13.1729 29.3948 84.3059
27994 2 11.6199 29.8799 84.1658
27995 1 15.6419 7.88373 79.8906
27996 2 15.1604 8.14574 79.0542
27997 2 16.5694 7.58762 79.6625
27998 1 12.6041 19.6503 29.5806
27999 2 13.5535 19.3365 29.5913
28000 2 12.2656 19.7203 30.5189
28001 1 117.645 25.6501 20.2903
28002 2 116.712 25.6819 19.9304
28003 2 117.857 26.5166 20.7419
28004 1 85.7018 23.0978 73.8324
28005 2 85.8028 22.1097 73.9481
28006 2 86.3143 23.4129 73.1075
28007 1 81.8484 27.7411 73.9409
28008 2 81.4298 27.1034 74.5876
28009 2 82.0717 28.5946 74.4117
28010 1 86.8098 2.50668 34.8008
28011 2 86.2085 3.06276 35.3746
28012 2 86.3042 2.18757 33.9992
28013 1 30.0062 7.61421 46.9082
28014 2 29.0744 7.59908 46.5455
28015 2 30.1447 8.45193 47.4364
28016 1 52.5159 14.6853 63.0064
28017 2 53.0806 14.3458 63.7586
28018 2 52.0087 13.9248 62.6008
28019 1 41.5586 10.6084 34.1087
28020 2 42.1682 9.82363 34.2203
28021 2 41.3419 10.9924 35.0062
28022 1 13.0581 29.4337 30.0124
28023 2 13.1544 0.427519 30.0679
28024 2 13.7237 29.0702 29.3606
28025 1 116.333 12.7445 35.3879
28026 2 116.625 12.0878 36.0833
28027 2 116.011 12.2524 34.5791
28028 1 9.78257 29.7923 25.1731
28029 2 10.7481 29.6767 25.4062
28030 2 9.69511 29.9675 24.1925
28031 1 28.7824 26.5432 54.052
28032 2 28.4537 27.3669 54.514
28033 2 28.0206 25.9094 53.9185
28034 1 104.627 28.0515 49.002
28035 2 105.003 27.5095 48.2504
28036 2 105.095 27.811 49.8527
28037 1 29.996 15.1486 13.843
28038 2 29.2179 14.5422 13.6789
28039 2 30.1477 15.2373 14.8274
28040 1 105.351 5.70038 75.8718
28041 2 105.825 4.82678 75.9811
28042 2 104.392 5.53275 75.642
28043 1 29.8484 0.295034 78.9701
28044 2 30.0666 29.8739 79.8505
28045 2 29.1164 29.7784 78.5258
28046 1 94.6909 9.39692 76.5365
28047 2 95.5556 9.85582 76.7406
28048 2 94.8754 8.52111 76.0905
28049 1 22.139 7.14898 26.8975
28050 2 21.8858 7.84228 27.5722
28051 2 22.6548 7.57816 26.156
28052 1 110.542 27.9469 49.9881
28053 2 109.769 28.3795 50.4518
28054 2 111.211 28.645 49.7342
28055 1 44.6466 19.5066 28.4717
28056 2 44.7668 18.6372 28.951
28057 2 45.1633 20.2213 28.943
28058 1 45.3793 24.9499 52.8276
28059 2 46.2579 24.8205 53.2872
28060 2 45.5328 25.0983 51.8506
28061 1 46.0867 28.3326 31.1675
28062 2 46.8085 28.9973 31.3603
28063 2 46.1854 27.9955 30.2312
28064 1 99.3139 9.2307 44.0054
28065 2 99.5268 8.40524 43.4826
28066 2 98.3903 9.53986 43.7788
28067 1 33.6003 5.60899 45.8695
28068 2 34.1583 4.98121 46.4122
28069 2 33.7907 6.55025 46.1483
28070 1 105.104 29.5603 84.4367
28071 2 105.801 29.7048 85.1382
28072 2 104.249 29.2755 84.8706
28073 1 73.8249 14.4045 86.3821
28074 2 74.5586 14.4353 87.0609
28075 2 73.5654 15.3365 86.1291
28076 1 100.651 23.9208 73.5204
28077 2 100.9 23.6717 72.5847
28078 2 101.38 24.4737 73.9239
28079 1 46.8835 18.0946 62.8772
28080 2 47.0053 18.2401 61.8954
28081 2 46.2404 18.7705 63.2371
28082 1 21.8183 2.67295 82.1003
28083 2 20.9397 2.79367 81.6383
28084 2 22.2694 3.5603 82.1956
28085 1 45.8779 14.6719 53.651
28086 2 46.5657 14.053 53.2716
28087 2 45.0516 14.155 53.8748
28088 1 98.5238 25.1924 59.0493
28089 2 98.1083 24.8025 59.8712
28090 2 98.9687 24.4667 58.5244
28091 1 86.8433 25.7385 80.5802
28092 2 87.6381 26.2185 80.2086
28093 2 86.1089 25.7348 79.9015
28094 1 92.7601 15.2159 43.3447
28095 2 93.0357 15.9621 43.9507
28096 2 91.8274 15.3762 43.0215
28097 1 17.8035 7.30782 41.3967
28098 2 18.4125 7.96021 40.9455
28099 2 17.0256 7.11055 40.8001
28100 1 22.7108 5.51405 69.9864
28101 2 23.699 5.62176 70.0949
28102 2 22.2906 5.371 70.8825
28103 1 59.8299 10.0132 68.9022
28104 2 59.2559 10.7688 68.5866
28105 2 59.3875 9.559 69.6755
28106 1 108.713 8.30976 31.075
28107 2 108.821 7.31584 31.0521
28108 2 107.802 8.53856 31.4179
28109 1 17.3971 17.9827 33.6289
28110 2 16.649 18.2914 34.2163
28111 2 17.4334 16.9834 33.633
28112 1 71.5404 3.57759 53.5677
28113 2 70.7001 4.01197 53.2434
28114 2 71.5354 2.61055 53.3131
28115 1 28.369 12.8761 17.9117
28116 2 27.9486 12.5674 17.0585
28117 2 28.9792 13.6456 17.7233
28118 1 87.8232 16.0129 65.669
28119 2 87.4905 16.8061 65.159
28120 2 88.8056 15.9062 65.5157
28121 1 81.3851 21.3692 73.5769
28122 2 81.5701 21.2466 74.552
28123 2 80.8513 20.594 73.2389
28124 1 22.5298 4.64232 61.2833
28125 2 21.6486 5.06941 61.4858
28126 2 23.058 5.23843 60.6786
28127 1 37.2564 22.7223 19.8702
28128 2 36.7765 23.0787 20.6719
28129 2 36.746 22.9593 19.0435
28130 1 72.5487 4.45021 32.6877
28131 2 72.4091 4.31239 33.6682
28132 2 72.1502 5.32563 32.4141
28133 1 11.3832 27.1824 27.2264
28134 2 12.1413 27.6375 26.7593
28135 2 11.745 26.5544 27.9153
28136 1 113.507 0.437484 11.0117
28137 2 113.207 29.5251 10.7328
28138 2 114.42 0.615375 10.6443
28139 1 21.5045 21.4191 59.8049
28140 2 21.5865 20.8603 58.9797
28141 2 22.3984 21.4941 60.2469
28142 1 14.3456 28.0923 47.1044
28143 2 14.962 27.5186 47.6438
28144 2 13.4682 27.6258 46.9928
28145 1 78.0595 14.954 80.4513
28146 2 78.491 14.9723 79.5494
28147 2 78.4086 14.1749 80.9721
28148 1 87.8941 19.785 64.3545
28149 2 88.6366 19.1157 64.3801
28150 2 87.6144 20.0084 65.2883
28151 1 67.7353 6.24535 75.5731
28152 2 68.0752 7.17476 75.4293
28153 2 67.2679 6.19427 76.4557
28154 1 107.106 24.9274 22.59
28155 2 107.407 25.8445 22.3285
28156 2 106.749 24.4516 21.786
28157 1 114.34 12.5448 59.7791
28158 2 114.247 13.401 60.2873
28159 2 114.26 12.7282 58.7994
28160 1 28.7994 14.757 28.4235
28161 2 28.419 13.8728 28.1523
28162 2 29.7861 14.668 28.5589
28163 1 105.99 16.9884 11.503
28164 2 105.079 16.974 11.915
28165 2 106.168 17.8945 11.1193
28166 1 116.637 29.8023 66.1096
28167 2 117.633 29.8807 66.0763
28168 2 116.244 0.669249 66.417
28169 1 64.813 21.8668 64.6676
28170 2 65.295 22.1827 63.8503
28171 2 65.4186 21.938 65.4601
28172 1 100.958 16.6628 50.6168
28173 2 100.343 17.0183 49.9133
28174 2 101.89 16.6238 50.2559
28175 1 49.226 12.0645 59.8535
28176 2 48.6109 12.0433 60.6417
28177 2 49.0384 11.2795 59.2631
28178 1 108.652 20.2975 45.0218
28179 2 108.017 21.0614 45.1358
28180 2 109.088 20.3576 44.1238
28181 1 89.7087 22.603 26.7688
28182 2 90.5642 22.5404 26.2547
28183 2 89.2139 21.7368 26.6991
28184 1 109.699 4.97961 14.0219
28185 2 108.93 5.09304 14.6513
28186 2 109.771 4.01899 13.7535
28187 1 92.213 24.7461 79.9548
28188 2 91.5529 24.424 80.6334
28189 2 91.7987 24.7136 79.0452
28190 1 81.045 3.37009 73.1958
28191 2 80.4675 2.57342 73.3744
28192 2 80.5727 4.19838 73.4973
28193 1 103.699 22.4878 60.7564
28194 2 103.511 22.6029 61.7316
28195 2 104.636 22.7795 60.5613
28196 1 90.6197 11.6573 42.9818
28197 2 90.7355 12.204 42.1525
28198 2 90.9637 12.169 43.7691
28199 1 34.9873 2.57259 25.1622
28200 2 35.1423 3.35295 25.7681
28201 2 35.1103 2.85876 24.212
28202 1 21.5095 21.6502 71.7388
28203 2 20.5192 21.5974 71.6104
28204 2 21.9703 21.269 70.9373
28205 1 45.4263 4.74448 33.7305
28206 2 45.5994 4.3103 34.6145
28207 2 45.9568 5.58964 33.6647
28208 1 117.228 22.0355 32.8824
28209 2 116.529 21.4288 33.2616
28210 2 117.337 21.8493 31.906
28211 1 115.821 5.38753 65.3076
28212 2 115.425 5.48907 66.2202
28213 2 115.564 4.498 64.9298
28214 1 19.4413 4.91641 11.4491
28215 2 19.9874 4.11708 11.1983
28216 2 19.4724 5.04366 12.4405
28217 1 28.8902 22.3391 65.166
28218 2 28.4573 22.8078 65.936
28219 2 29.2395 23.0157 64.5178
28220 1 68.0644 3.78966 74.5638
28221 2 67.7642 4.66653 74.9392
28222 2 67.3011 3.14369 74.5744
28223 1 16.9735 13.4725 28.5603
28224 2 16.634 13.1559 29.446
28225 2 17.1171 14.4616 28.5926
28226 1 6.07801 12.1022 59.7274
28227 2 5.89528 12.1325 58.7447
28228 2 5.23961 12.3153 60.229
28229 1 67.7653 21.052 75.9847
28230 2 67.2378 21.6191 75.3521
28231 2 68.7253 21.045 75.7048
28232 1 85.7714 20.5651 89.6134
28233 2 85.7745 19.5901 89.8355
28234 2 85.4387 20.6931 88.6791
28235 1 100.707 7.26718 82.969
28236 2 100.883 8.23908 82.813
28237 2 100.673 6.78957 82.0911
28238 1 108.585 21.4604 29.5476
28239 2 108.443 20.6687 30.1417
28240 2 108.522 22.2989 30.0889
28241 1 2.23105 24.3961 44.3167
28242 2 2.88511 25.1466 44.4108
28243 2 1.52709 24.6486 43.6529
28244 1 85.3532 1.29715 87.2618
28245 2 84.9383 0.459754 86.906
28246 2 85.3783 1.25823 88.2608
28247 1 43.5212 21.9344 55.5939
28248 2 43.0834 22.8333 55.5809
28249 2 42.8418 21.2298 55.3889
28250 1 3.37895 22.0359 14.3414
28251 2 3.48718 21.4499 13.5383
28252 2 4.13855 21.8797 14.9727
28253 1 63.6519 29.2633 64.0534
28254 2 63.5672 28.3303 63.7037
28255 2 64.1871 29.2554 64.8981
28256 1 74.3459 24.3208 44.4308
28257 2 74.3933 23.7509 45.2512
28258 2 73.8929 25.1847 44.6508
28259 1 8.13909 28.3831 84.6284
28260 2 8.49516 29.3169 84.5923
28261 2 7.13984 28.4083 84.6578
28262 1 75.8124 8.44679 81.0679
28263 2 75.6934 9.12497 81.7931
28264 2 76.7653 8.14408 81.0478
28265 1 45.0314 10.332 71.232
28266 2 44.8759 9.36155 71.4165
28267 2 44.1828 10.8397 71.3809
28268 1 53.3162 4.57817 34.3368
28269 2 52.5075 4.22379 33.8674
28270 2 54.0868 3.95869 34.1869
28271 1 37.1243 13.687 54.0291
28272 2 36.3262 13.4677 54.5903
28273 2 37.9519 13.3576 54.4835
28274 1 34.3545 1.84637 61.5623
28275 2 33.5648 1.28199 61.8027
28276 2 35.0227 1.81868 62.3058
28277 1 48.9544 4.24421 68.9158
28278 2 48.773 3.34882 69.3225
28279 2 48.5199 4.95544 69.4684
28280 1 11.9064 13.4536 11.6365
28281 2 11.1272 12.8667 11.8565
28282 2 12.7564 12.9469 11.7804
28283 1 9.73664 6.56047 68.9055
28284 2 10.4223 7.07173 69.4236
28285 2 8.85593 6.61246 69.3762
28286 1 110.606 18.3707 40.5075
28287 2 111.229 17.7121 40.9303
28288 2 110.186 18.9351 41.2177
28289 1 44.2256 13.0634 46.3461
28290 2 45.0056 13.557 46.7307
28291 2 44.1072 12.1971 46.8313
28292 1 118.548 13.3017 31.9156
28293 2 118.095 14.1751 32.0947
28294 2 118.169 12.8936 31.0852
28295 1 83.0111 26.3392 33.7058
28296 2 83.9994 26.4455 33.5968
28297 2 82.6844 26.9666 34.4128
28298 1 79.1586 15.8857 88.8156
28299 2 79.2597 15.7192 87.8348
28300 2 78.2904 15.5027 89.131
28301 1 12.1115 3.50617 24.3016
28302 2 12.6941 4.23845 23.9489
28303 2 11.4148 3.27774 23.6216
28304 1 53.3328 11.9171 66.5277
28305 2 54.3044 11.7233 66.6638
28306 2 53.0751 11.6858 65.5895
28307 1 69.5379 28.2677 37.6046
28308 2 69.3581 28.7548 36.7499
28309 2 70.4636 27.8899 37.5845
28310 1 69.2455 8.81213 54.233
28311 2 69.5165 9.06246 55.1625
28312 2 69.9834 9.04009 53.5978
28313 1 106.957 2.93007 14.2824
28314 2 107.901 3.25427 14.3389
28315 2 106.787 2.26852 15.0129
28316 1 13.4269 1.6668 27.5903
28317 2 13.1741 1.596 28.5552
28318 2 13.4131 2.62712 27.3117
28319 1 99.4165 17.9833 59.6972
28320 2 98.6456 18.6105 59.8082
28321 2 99.1653 17.2563 59.0581
28322 1 27.0415 13.5813 44.596
28323 2 27.9903 13.6064 44.9109
28324 2 26.905 14.2796 43.8934
28325 1 8.29709 25.4583 45.4671
28326 2 7.36706 25.8089 45.357
28327 2 8.58952 25.5812 46.4155
28328 1 118.445 5.0477 18.7386
28329 2 117.859 4.51045 18.1325
28330 2 118.085 5.01013 19.6706
28331 1 91.9365 20.5822 76.3978
28332 2 91.9808 19.7311 75.8746
28333 2 92.4097 21.3066 75.8965
28334 1 49.68 29.8264 89.8733
28335 2 50.4323 29.3318 90.3086
28336 2 49.7251 0.792559 90.1272
28337 1 22.0635 2.56404 35.6987
28338 2 21.343 2.22668 36.3046
28339 2 22.9327 2.13411 35.9429
28340 1 76.8051 22.9985 59.944
28341 2 77.6872 23.2488 59.5451
28342 2 76.0752 23.196 59.2896
28343 1 33.9753 20.8233 90.1455
28344 2 33.4704 21.2741 89.4094
28345 2 33.3573 20.2256 90.6561
28346 1 83.5905 7.31064 82.6083
28347 2 83.7028 6.98183 81.6706
28348 2 84.0601 8.1873 82.7126
28349 1 108.099 6.57069 15.7349
28350 2 107.591 5.93427 16.3154
28351 2 107.473 6.99753 15.0816
28352 1 109.1 7.12547 19.6411
28353 2 108.181 6.82936 19.9012
28354 2 109.697 6.32723 19.5595
28355 1 102.813 11.8058 30.625
28356 2 103.789 11.9536 30.4619
28357 2 102.282 12.452 30.077
28358 1 67.4283 0.333712 73.923
28359 2 66.8524 0.472997 73.1175
28360 2 68.3905 0.415016 73.663
28361 1 0.0154117 5.48097 37.191
28362 2 0.154383 6.41606 36.865
28363 2 0.385125 5.39205 38.1159
28364 1 84.276 19.4929 77.5972
28365 2 83.7083 20.0932 78.1607
28366 2 83.9792 18.5454 77.7161
28367 1 43.2059 12.577 26.5162
28368 2 43.2113 11.8231 25.8592
28369 2 42.4027 13.1513 26.3579
28370 1 50.6977 7.99523 56.1252
28371 2 50.1807 7.14514 56.2256
28372 2 50.1106 8.69664 55.7211
28373 1 95.995 16.8837 58.0555
28374 2 96.9394 16.5733 57.947
28375 2 95.9098 17.8187 57.711
28376 1 102.423 23.3563 30.2396
28377 2 102.245 22.5434 29.6849
28378 2 101.677 23.4833 30.8933
28379 1 12.9328 19.0406 35.4478
28380 2 12.8677 18.8094 34.4771
28381 2 13.1243 18.213 35.9755
28382 1 0.967006 19.9478 48.7566
28383 2 0.254984 20.6465 48.8261
28384 2 1.67033 20.2515 48.1138
28385 1 72.6841 18.9723 31.5111
28386 2 71.9565 18.2868 31.5395
28387 2 72.303 19.8719 31.7246
28388 1 38.5714 7.7509 44.4865
28389 2 37.8562 7.26607 44.9899
28390 2 38.195 8.59335 44.101
28391 1 6.22763 20.7855 76.1469
28392 2 6.97678 20.1481 76.3272
28393 2 5.90448 21.1728 77.0104
28394 1 55.2114 17.9388 35.5985
28395 2 55.7428 17.5709 34.8354
28396 2 55.0348 17.2122 36.2625
28397 1 37.3251 24.4203 57.2546
28398 2 37.374 24.6761 56.2891
28399 2 37.2182 25.2433 57.8125
28400 1 58.5907 20.9897 43.8517
28401 2 58.0669 20.4028 44.469
28402 2 59.5258 20.6435 43.776
28403 1 106.23 10.7508 19.1821
28404 2 106.765 11.4619 18.7257
28405 2 106.724 10.429 19.9898
28406 1 21.3612 2.97448 11.4974
28407 2 22.1454 2.8448 10.8906
28408 2 20.966 2.0848 11.7262
28409 1 23.0454 28.5015 17.016
28410 2 23.7255 28.0252 17.5733
28411 2 22.2447 28.7136 17.5764
28412 1 4.89486 22.8515 62.3567
28413 2 3.90507 22.9043 62.4891
28414 2 5.29903 22.2952 63.0828
28415 1 34.1873 3.7558 36.3745
28416 2 34.7385 4.36701 35.8066
28417 2 34.7506 3.39136 37.116
28418 1 63.112 9.14302 79.428
28419 2 63.4715 8.79009 80.2918
28420 2 63.8591 9.23853 78.7702
28421 1 42.372 8.14983 81.2716
28422 2 43.0971 8.03762 80.5922
28423 2 42.2389 9.12298 81.4594
28424 1 21.1902 0.341824 26.2883
28425 2 21.3336 0.504362 27.2645
28426 2 22.0566 0.080125 25.8631
28427 1 0.743891 15.267 59.2534
28428 2 1.6946 15.3338 58.9506
28429 2 0.14462 15.1931 58.4563
28430 1 25.6427 28.7649 79.7457
28431 2 25.4778 27.7787 79.7575
28432 2 24.7779 29.249 79.8795
28433 1 53.1471 10.9781 57.4576
28434 2 53.4394 10.3012 56.782
28435 2 53.0248 10.5326 58.3444
28436 1 21.7038 1.88165 63.77
28437 2 21.6658 1.01489 63.2727
28438 2 21.6021 1.70861 64.7497
28439 1 33.6789 11.8838 14.4369
28440 2 32.7193 11.7869 14.1728
28441 2 34.0699 12.6853 13.9846
28442 1 25.8296 26.1157 48.2855
28443 2 25.8762 26.5309 49.194
28444 2 26.2404 25.2045 48.314
28445 1 107.014 15.4845 58.0315
28446 2 106.278 15.2818 57.3851
28447 2 107.83 14.9629 57.7822
28448 1 14.0563 4.37978 27.712
28449 2 14.268 5.02112 26.9745
28450 2 13.1944 4.64299 28.1455
28451 1 6.87438 17.6151 20.893
28452 2 6.57963 18.3262 20.2547
28453 2 6.19315 17.5149 21.6182
28454 1 111.555 25.7974 23.4313
28455 2 111.698 24.9141 23.8777
28456 2 110.633 26.1281 23.6342
28457 1 32.0947 3.67461 59.4073
28458 2 32.4391 2.85041 58.9577
28459 2 32.2693 4.46917 58.8257
28460 1 48.9079 26.7291 43.0558
28461 2 49.1955 27.5535 43.5435
28462 2 47.9492 26.5358 43.2644
28463 1 117.898 16.4606 76.3745
28464 2 118.465 16.1493 75.6122
28465 2 117.854 15.745 77.0717
28466 1 82.6501 9.38034 67.3243
28467 2 82.1584 8.86287 68.0247
28468 2 81.9936 9.79909 66.6969
28469 1 96.4129 23.0786 90.2327
28470 2 96.6215 22.1833 90.6263
28471 2 97.2325 23.6512 90.254
28472 1 107.429 21.8069 19.3253
28473 2 106.773 22.5063 19.6099
28474 2 106.996 21.1941 18.6639
28475 1 51.2394 4.13393 76.4615
28476 2 51.7983 4.01309 77.2819
28477 2 51.8348 4.2715 75.6699
28478 1 100.463 1.81846 84.4759
28479 2 99.6608 2.00279 83.9082
28480 2 101.16 1.35526 83.9281
28481 1 72.2213 8.29871 69.9953
28482 2 71.3613 8.08925 70.4607
28483 2 72.9499 8.40264 70.6724
28484 1 112.464 29.715 22.3282
28485 2 113.077 29.0802 21.857
28486 2 111.554 29.6662 21.9178
28487 1 72.0752 20.1382 81.1376
28488 2 71.2792 19.8291 80.6172
28489 2 72.0073 21.123 81.297
28490 1 108.303 1.97982 63.9616
28491 2 107.806 2.30001 63.1548
28492 2 108.137 2.60443 64.7247
28493 1 31.8204 23.8162 38.8839
28494 2 31.4752 24.4665 39.5606
28495 2 32.8148 23.8996 38.8186
28496 1 112.303 6.02468 53.9922
28497 2 112.007 6.30436 54.9057
28498 2 112.769 6.78793 53.5444
28499 1 31.1816 23.4633 29.3251
28500 2 30.4815 23.6885 28.6475
28501 2 31.9766 23.0687 28.8644
28502 1 84.0922 19.0994 71.4343
28503 2 83.9088 18.6867 72.3265
28504 2 84.9409 18.7241 71.0617
28505 1 22.3905 22.7759 27.0808
28506 2 21.4885 22.7807 27.5126
28507 2 22.454 23.5351 26.433
28508 1 97.7146 21.6726 43.6502
28509 2 97.5386 20.7169 43.8864
28510 2 97.4134 22.2621 44.3997
28511 1 57.0571 22.8917 79.6713
28512 2 57.1397 22.3205 78.8547
28513 2 56.1054 22.8991 79.9781
28514 1 100.828 20.3626 42.0459
28515 2 100.28 20.6044 41.2447
28516 2 100.918 21.161 42.6412
28517 1 77.8237 19.4775 38.9767
28518 2 77.9099 18.6345 38.4458
28519 2 77.308 20.1525 38.4491
28520 1 60.9074 22.721 41.8206
28521 2 60.8966 22.0423 42.5549
28522 2 60.571 23.5955 42.1699
28523 1 108.415 18.0711 66.6328
28524 2 109.069 17.9219 65.8912
28525 2 108.684 18.8785 67.1575
28526 1 98.3845 21.656 19.1771
28527 2 98.0468 21.7688 20.1116
28528 2 97.6477 21.3105 18.5959
28529 1 93.4013 21.0381 67.8899
28530 2 92.8305 20.2978 67.5346
28531 2 92.8192 21.7969 68.1821
28532 1 89.5017 8.84395 40.2918
28533 2 89.2814 8.10413 39.6561
28534 2 88.8902 8.79796 41.0817
28535 1 100.02 28.9591 74.275
28536 2 100.172 28.5197 75.1605
28537 2 100.48 29.847 74.2605
28538 1 106.875 25.8605 57.3728
28539 2 106.461 25.448 56.5617
28540 2 107.351 26.7008 57.1132
28541 1 20.0102 15.2853 56.8124
28542 2 20.836 14.8556 57.1775
28543 2 19.6434 15.9278 57.4852
28544 1 103.562 29.26 25.8792
28545 2 102.71 29.1854 26.3971
28546 2 103.652 28.4721 25.2701
28547 1 110.758 2.60779 75.8996
28548 2 109.806 2.30571 75.9584
28549 2 111.263 2.27477 76.6958
28550 1 25.522 20.5129 11.3292
28551 2 26.181 20.638 10.5875
28552 2 25.7331 19.6699 11.824
28553 1 12.728 9.62132 40.3274
28554 2 12.0063 9.46058 39.6541
28555 2 13.1948 10.4803 40.117
28556 1 24.555 18.408 34.358
28557 2 24.3548 18.138 35.2998
28558 2 24.0169 19.217 34.1216
28559 1 93.5666 25.1313 28.6432
28560 2 94.2117 24.8027 29.333
28561 2 92.6824 24.6826 28.7731
28562 1 115.332 19.7393 29.1821
28563 2 115.662 18.7983 29.256
28564 2 114.617 19.788 28.4846
28565 1 68.9565 19.9167 72.6539
28566 2 69.3242 20.2465 73.5233
28567 2 69.4072 20.3933 71.8991
28568 1 105.107 20.2688 78.4004
28569 2 106.054 19.9577 78.3159
28570 2 104.543 19.8104 77.7137
28571 1 59.2149 0.486351 72.4171
28572 2 59.1951 0.36461 71.4247
28573 2 59.593 1.38608 72.6351
28574 1 50.4748 16.0761 76.7647
28575 2 49.8309 16.5947 77.3273
28576 2 50.7146 15.2248 77.2313
28577 1 53.8523 21.3059 74.7938
28578 2 54.2709 21.2796 75.7016
28579 2 52.8619 21.1977 74.8801
28580 1 118.237 29.9016 31.9652
28581 2 119.231 29.9691 32.044
28582 2 118 29.1063 31.4072
28583 1 15.2275 15.1382 54.7411
28584 2 14.46 14.4973 54.7522
28585 2 15.4752 15.378 55.6798
28586 1 69.8797 25.5036 79.0551
28587 2 70.3191 25.541 79.9526
28588 2 69.1368 26.1722 79.0196
28589 1 29.4184 23.484 79.6523
28590 2 30.0783 24.2177 79.8142
28591 2 29.737 22.9095 78.8983
28592 1 59.9351 9.94635 74.2553
28593 2 59.0635 9.4623 74.178
28594 2 59.7846 10.9266 74.1267
28595 1 57.6111 1.85113 57.7987
28596 2 57.0304 1.38837 57.1289
28597 2 57.041 2.2372 58.5239
28598 1 98.8656 7.81863 25.7314
28599 2 99.6006 7.18706 25.4847
28600 2 98.1093 7.30699 26.1392
28601 1 4.83395 10.9045 50.533
28602 2 5.29657 11.163 51.3811
28603 2 5.30671 11.3194 49.7556
28604 1 66.5175 14.9498 90.5718
28605 2 66.7079 15.7476 91.1439
28606 2 67.3263 14.3626 90.5387
28607 1 52.1428 6.1849 36.7594
28608 2 52.5109 6.57079 35.9135
28609 2 51.6568 6.89663 37.2667
28610 1 45.81 2.35449 70.1197
28611 2 45.5828 1.58418 70.7155
28612 2 46.7929 2.53271 70.1655
28613 1 75.4061 11.6871 86.856
28614 2 76.3355 11.3929 86.6331
28615 2 75.444 12.4584 87.4913
28616 1 84.8567 4.4133 32.3229
28617 2 84.3937 4.04969 33.1313
28618 2 84.2471 5.04678 31.8464
28619 1 46.0804 7.34379 40.7817
28620 2 45.713 6.42035 40.8925
28621 2 46.3894 7.68818 41.6682
28622 1 89.698 22.0279 54.2663
28623 2 89.2856 21.133 54.4366
28624 2 90.6798 21.983 54.4505
28625 1 50.0975 2.62902 90.154
28626 2 50.5982 2.34516 89.3362
28627 2 50.177 3.61951 90.2664
28628 1 43.7468 9.46644 68.0554
28629 2 44.654 9.88183 68.1227
28630 2 43.8081 8.49391 68.28
28631 1 30.6312 11.3803 38.0774
28632 2 29.8791 11.5265 37.4348
28633 2 31.4899 11.2961 37.5719
28634 1 85.1107 24.9986 78.4577
28635 2 84.457 24.9167 77.7054
28636 2 84.9849 24.2365 79.0928
28637 1 108.393 1.8589 44.6305
28638 2 108.417 0.904858 44.9292
28639 2 108.236 1.89536 43.6436
28640 1 119.805 19.6278 79.4384
28641 2 0.622654 20.1846 79.2897
28642 2 119.305 19.5337 78.5777
28643 1 13.8645 6.65463 43.8186
28644 2 14.7327 6.93419 44.2286
28645 2 13.8325 6.95826 42.8664
28646 1 10.4438 21.9949 62.2707
28647 2 10.6997 21.0429 62.1028
28648 2 11.2559 22.5747 62.2062
28649 1 65.5834 10.2675 40.6105
28650 2 64.9715 9.68866 41.1495
28651 2 65.0794 10.6597 39.8411
28652 1 27.1545 18.9691 28.9081
28653 2 27.4101 19.9032 28.6591
28654 2 26.349 18.6929 28.3837
28655 1 42.216 7.59893 71.0223
28656 2 41.8495 6.68024 71.1697
28657 2 43.0424 7.72033 71.5721
28658 1 93.3216 20.7901 78.6139
28659 2 94.0526 21.4558 78.4642
28660 2 92.9782 20.468 77.7317
28661 1 95.9574 16.2143 24.1677
28662 2 96.0068 16.8666 24.924
28663 2 95.937 16.7109 23.3
28664 1 45.7701 2.55921 38.8036
28665 2 45.13 3.32373 38.7273
28666 2 46.5626 2.84069 39.3447
28667 1 18.6061 9.81805 65.7395
28668 2 19.1097 10.6735 65.8599
28669 2 19.1949 9.04743 65.9832
28670 1 50.7103 29.9705 81.7104
28671 2 50.4851 29.0011 81.8089
28672 2 49.9684 0.524982 82.0873
28673 1 111.093 6.27931 67.9601
28674 2 112.041 6.12776 68.2401
28675 2 111.07 6.56833 67.0031
28676 1 6.16167 28.9678 59.5468
28677 2 6.11704 29.7637 60.1506
28678 2 5.65079 28.211 59.9546
28679 1 39.2064 0.363107 82.693
28680 2 39.7626 0.297708 83.5215
28681 2 38.3701 29.8273 82.8098
28682 1 76.4679 20.551 48.6482
28683 2 75.5559 20.3381 48.9987
28684 2 77.0319 19.7254 48.6631
28685 1 89.0551 10.4089 53.1012
28686 2 88.3693 10.3698 52.3745
28687 2 89.9675 10.3083 52.7044
28688 1 28.3979 19.3491 14.3597
28689 2 28.8315 20.2251 14.5709
28690 2 28.5647 19.1172 13.4013
28691 1 37.992 0.650097 63.3963
28692 2 37.7299 29.8127 62.9166
28693 2 37.2312 1.29875 63.3746
28694 1 99.6898 11.2835 81.0261
28695 2 99.7575 10.7697 81.8813
28696 2 98.7396 11.2884 80.7144
28697 1 73.9985 18.5056 57.1979
28698 2 74.7361 18.2857 57.8362
28699 2 73.9029 19.4986 57.1283
28700 1 118.28 19.2493 26.691
28701 2 117.644 20.0157 26.6037
28702 2 119.184 19.5282 26.3666
28703 1 118.925 29.7984 22.9204
28704 2 118.649 28.8931 22.5979
28705 2 118.774 29.8613 23.9069
28706 1 108.85 27.962 83.9766
28707 2 108.279 28.5633 83.4184
28708 2 109.383 27.3607 83.3808
28709 1 70.0749 25.2323 43.2349
28710 2 70.1465 24.9453 44.1902
28711 2 70.622 24.6222 42.6617
28712 1 111.322 17.1987 24.8969
28713 2 110.875 17.9885 24.4769
28714 2 112.314 17.307 24.8379
28715 1 22.289 17.6008 30.8992
28716 2 22.0274 17.5368 29.9362
28717 2 22.0879 18.5195 31.239
28718 1 0.497793 29.0898 29.7396
28719 2 0.564779 29.6426 30.5703
28720 2 119.624 28.6041 29.732
28721 1 3.77859 28.8605 80.5486
28722 2 3.43813 28.4237 79.7159
28723 2 3.01172 29.2522 81.057
28724 1 96.7219 18.575 30.954
28725 2 97.0072 18.8886 31.8596
28726 2 97.5171 18.5362 30.3488
28727 1 61.6376 2.47154 62.9844
28728 2 60.6617 2.65844 62.8723
28729 2 62.1619 3.29459 62.7658
28730 1 36.8406 11.2813 35.1409
28731 2 37.1009 12.1953 35.4521
28732 2 36.3491 10.8077 35.8717
28733 1 92.0262 0.800635 49.8189
28734 2 92.1129 29.815 49.6737
28735 2 91.8159 0.978741 50.7801
28736 1 53.952 28.932 45.8017
28737 2 53.2604 28.3037 45.4455
28738 2 53.8781 28.9791 46.7979
28739 1 72.0406 0.521817 63.6497
28740 2 71.6831 29.5928 63.5544
28741 2 71.8094 1.05317 62.8347
28742 1 98.0956 2.64309 55.7401
28743 2 99.0029 2.99739 55.9665
28744 2 97.4854 2.76471 56.523
28745 1 32.4975 10.4638 63.3134
28746 2 33.0773 10.0078 63.9886
28747 2 31.8948 9.79159 62.8834
28748 1 103.055 3.16764 15.1199
28749 2 102.298 3.44493 14.5282
28750 2 103.743 2.68432 14.5776
28751 1 44.0199 13.9204 51.2036
28752 2 44.1299 12.9313 51.3009
28753 2 44.6404 14.2567 50.4951
28754 1 42.8222 8.72518 46.4273
28755 2 43.4649 7.96626 46.3227
28756 2 43.3248 9.55804 46.6592
28757 1 76.291 0.611641 86.2894
28758 2 76.9575 29.9216 86.5715
28759 2 76.6329 1.52132 86.5251
28760 1 97.2785 11.7367 67.7427
28761 2 96.8702 12.0377 68.6045
28762 2 98.0982 12.2779 67.5552
28763 1 28.055 24.3769 40.8422
28764 2 28.0273 25.2941 40.4445
28765 2 27.9735 23.6956 40.1147
28766 1 85.7384 27.799 78.4836
28767 2 84.7997 28.1394 78.5383
28768 2 85.7353 26.801 78.5465
28769 1 108.153 19.0982 78.0721
28770 2 108.77 18.6573 77.4207
28771 2 108.673 19.723 78.6542
28772 1 103.151 0.193077 60.7755
28773 2 102.778 29.3377 60.4164
28774 2 103.759 29.9945 61.5438
28775 1 99.4503 8.06453 73.3879
28776 2 98.9954 8.85028 73.807
28777 2 100.408 8.28984 73.21
28778 1 113.042 16.1765 72.2936
28779 2 112.203 15.7365 71.9725
28780 2 112.907 17.1668 72.327
28781 1 62.8699 13.169 87.9594
28782 2 62.905 12.4289 87.2879
28783 2 63.3372 13.9737 87.5934
28784 1 74.1347 15.45 52.304
28785 2 74.1076 14.4636 52.1418
28786 2 73.401 15.7044 52.934
28787 1 34.918 14.4268 80.2108
28788 2 34.7434 15.3468 79.86
28789 2 35.0739 14.4704 81.1976
28790 1 38.3173 16.5358 54.4955
28791 2 38.6655 17.3647 54.0576
28792 2 37.7492 16.0296 53.8467
28793 1 4.92476 22.8232 39.8647
28794 2 5.10173 22.0761 39.2241
28795 2 5.69351 23.4626 39.8516
28796 1 68.6085 25.727 60.875
28797 2 68.732 26.154 61.7707
28798 2 68.1529 26.3698 60.2592
28799 1 64.232 25.8249 74.3868
28800 2 64.0691 25.6828 73.4104
28801 2 63.7916 25.094 74.908
28802 1 31.3603 9.99065 70.1303
28803 2 32.3276 10.186 69.969
28804 2 30.8064 10.458 69.4413
28805 1 65.7876 27.8719 46.6872
28806 2 66.4696 27.1609 46.8584
28807 2 66.2445 28.7019 46.3671
28808 1 113.191 9.31698 55.3351
28809 2 113.796 8.7979 54.7322
28810 2 112.657 8.68435 55.8961
28811 1 38.9787 1.18408 70.2843
28812 2 39.0039 0.431157 70.9419
28813 2 38.1512 1.11273 69.7274
28814 1 13.9557 17.0381 81.518
28815 2 14.9234 16.787 81.5405
28816 2 13.8162 17.7681 80.849
28817 1 99.5893 6.23967 56.1987
28818 2 99.9075 5.29378 56.2621
28819 2 100.156 6.73887 55.5434
28820 1 106.911 26.3815 77.4723
28821 2 107.252 26.6481 78.3736
28822 2 107.37 26.9224 76.7681
28823 1 79.9422 9.11729 69.7472
28824 2 80.739 8.58264 69.4658
28825 2 79.1072 8.61922 69.5134
28826 1 40.8145 26.7212 86.317
28827 2 41.5341 26.8861 85.6424
28828 2 40.0405 27.3272 86.1335
28829 1 69.1287 27.0542 76.0628
28830 2 69.7995 27.7892 76.1616
28831 2 68.2072 27.4425 76.0573
28832 1 17.4519 1.0027 57.9223
28833 2 16.6879 0.445187 58.2471
28834 2 18.0118 0.4657 57.2913
28835 1 80.3227 13.752 62.5305
28836 2 80.6597 14.2032 61.7042
28837 2 80.6444 12.8053 62.5482
28838 1 46.7913 8.35104 29.6696
28839 2 45.8892 8.72842 29.4604
28840 2 46.6867 7.44427 30.0781
28841 1 109.345 27.3094 18.4936
28842 2 110.014 27.1714 17.7631
28843 2 108.601 27.8879 18.1594
28844 1 77.2709 6.33627 52.9978
28845 2 77.519 5.66263 52.3016
28846 2 77.9449 6.31599 53.7363
28847 1 76.4665 9.72821 38.8947
28848 2 75.7187 9.07605 38.7699
28849 2 76.0898 10.6356 39.081
28850 1 44.3277 4.09673 84.0323
28851 2 44.9366 3.34488 83.7795
28852 2 44.3625 4.8052 83.3274
28853 1 81.5753 4.78432 41.3831
28854 2 80.616 4.84096 41.6598
28855 2 81.8843 5.68102 41.0662
28856 1 35.5979 14.8584 83.0138
28857 2 35.9792 14.4603 83.8482
28858 2 34.9896 15.6151 83.2534
28859 1 35.1808 0.751374 90.8344
28860 2 35.5277 29.8143 90.8732
28861 2 34.5711 0.91351 91.6103
28862 1 23.8214 1.61468 14.5861
28863 2 23.0271 2.15746 14.313
28864 2 24.6441 1.9894 14.1586
28865 1 4.7696 3.6837 37.421
28866 2 5.26534 2.92505 37.8437
28867 2 4.7669 4.46738 38.0422
28868 1 81.134 4.56412 85.4458
28869 2 81.9201 5.14476 85.6575
28870 2 81.2019 3.71011 85.9616
28871 1 17.0264 14.0931 38.7695
28872 2 16.2906 13.7092 39.3274
28873 2 17.4113 14.893 39.2299
28874 1 48.6145 28.6978 55.8152
28875 2 48.3951 29.1544 54.953
28876 2 48.1847 27.7951 55.8332
28877 1 82.8291 20.4223 84.0961
28878 2 83.7501 20.0348 84.056
28879 2 82.1694 19.7489 83.7623
28880 1 17.8111 17.02 63.5185
28881 2 17.9465 17.8754 64.0185
28882 2 17.3811 17.2139 62.6367
28883 1 114.039 6.5056 63.4075
28884 2 114.071 7.37333 62.9115
28885 2 114.799 6.46359 64.0555
28886 1 29.7365 22.4782 31.2839
28887 2 30.1531 22.9082 30.4829
28888 2 30.3958 21.8592 31.7107
28889 1 3.08366 29.0607 19.1861
28890 2 4.01247 29.3994 19.3363
28891 2 2.61483 28.9726 20.065
28892 1 98.7098 26.7783 22.2883
28893 2 99.6243 27.1495 22.1271
28894 2 98.0398 27.3029 21.7631
28895 1 99.3452 21.1564 29.595
28896 2 98.4524 21.0687 29.1532
28897 2 100.02 21.4642 28.9243
28898 1 117.208 5.12583 26.5293
28899 2 117.427 5.19169 25.5557
28900 2 117.519 5.95332 26.9972
28901 1 60.7587 28.0191 75.3213
28902 2 60.3001 28.6383 75.9587
28903 2 60.7185 27.0852 75.6766
28904 1 53.2134 3.79751 85.5894
28905 2 53.4173 4.27053 84.7322
28906 2 52.2767 3.44837 85.5627
28907 1 65.3822 28.6917 70.1003
28908 2 64.6524 28.8889 70.7549
28909 2 65.1078 29.0043 69.191
28910 1 87.9142 25.7969 73.4159
28911 2 87.9359 26.0689 74.3779
28912 2 88.7195 26.1614 72.9482
28913 1 99.5676 13.7004 77.444
28914 2 98.5992 13.9382 77.5188
28915 2 99.6993 13.0774 76.6729
28916 1 102.387 7.75106 86.2391
28917 2 102.914 8.47098 85.7878
28918 2 102.68 6.85855 85.8961
28919 1 96.2916 0.712466 24.1639
28920 2 95.6524 1.35175 23.7364
28921 2 97.2131 1.10033 24.1456
28922 1 56.7626 8.28605 60.4261
28923 2 55.9847 7.80142 60.026
28924 2 56.446 8.85588 61.1844
28925 1 36.3105 22.4925 63.9081
28926 2 36.5759 22.4162 62.947
28927 2 35.3136 22.5308 63.9767
28928 1 99.751 1.97955 12.3326
28929 2 100.173 2.73483 11.8309
28930 2 98.8708 2.2759 12.7033
28931 1 6.26793 26.9787 47.7641
28932 2 5.51894 26.5641 48.281
28933 2 6.08295 26.896 46.7849
28934 1 11.4743 6.04477 63.1118
28935 2 11.8549 6.78789 63.6622
28936 2 10.6393 6.35865 62.6598
28937 1 104.534 23.0028 18.2815
28938 2 105.002 23.3563 19.0915
28939 2 103.566 23.2497 18.3215
28940 1 58.0503 5.51121 58.4272
28941 2 57.3366 4.89386 58.0963
28942 2 58.6444 5.02206 59.0658
28943 1 103.954 28.8865 41.3136
28944 2 103.049 28.663 41.676
28945 2 104.657 28.4935 41.9065
28946 1 93.5121 26.6772 39.5875
28947 2 94.4138 26.3071 39.8111
28948 2 93.0721 26.0933 38.9052
28949 1 41.7241 24.2709 42.0947
28950 2 42.6018 23.8337 42.291
28951 2 41.7475 25.2205 42.4072
28952 1 1.90565 25.6974 75.9527
28953 2 1.45317 24.8277 75.7555
28954 2 1.88269 26.2772 75.1382
28955 1 101.115 13.4752 42.2003
28956 2 101.153 14.4736 42.2416
28957 2 101.826 13.1396 41.5824
28958 1 25.0142 20.0711 63.9051
28959 2 24.0943 19.9736 64.2849
28960 2 24.953 20.2257 62.919
28961 1 100.235 14.7597 25.3209
28962 2 100.96 15.0073 25.9644
28963 2 100.231 13.7685 25.1889
28964 1 95.3068 6.90066 75.887
28965 2 94.5144 6.44985 75.476
28966 2 95.7669 6.26565 76.5076
28967 1 30.6841 17.5279 49.1176
28968 2 30.9064 17.5302 48.1426
28969 2 31.4089 17.9932 49.6257
28970 1 8.01588 9.05603 43.2007
28971 2 7.2138 8.46272 43.1324
28972 2 8.74417 8.7007 42.6147
28973 1 63.3696 23.5155 49.3792
28974 2 64.3457 23.7201 49.453
28975 2 62.9093 23.7765 50.2277
28976 1 101.582 19.9506 86.3487
28977 2 102.07 20.4973 87.029
28978 2 100.621 20.2272 86.3259
28979 1 73.6806 1.72821 52.9763
28980 2 73.7415 2.66599 52.6345
28981 2 74.5676 1.44939 53.3445
28982 1 91.0264 3.04112 80.2629
28983 2 91.9237 3.48144 80.2933
28984 2 90.7478 2.91763 79.3104
28985 1 113.596 25.8226 88.0648
28986 2 114.376 26.3369 87.7084
28987 2 113.778 24.8426 87.9829
28988 1 19.1828 16.9936 35.4327
28989 2 19.6733 16.3707 34.8233
28990 2 19.7222 17.1425 36.2615
28991 1 28.9661 8.84582 52.4475
28992 2 28.0185 8.932 52.7552
28993 2 29.1415 7.90159 52.1688
28994 1 55.6877 13.3451 62.9388
28995 2 55.0791 12.6414 62.5723
28996 2 55.2762 13.7492 63.7558
28997 1 36.7361 8.7146 89.8638
28998 2 36.621 7.80296 90.2584
28999 2 37.1365 8.63459 88.951
29000 1 97.1835 7.85572 62.8221
29001 2 96.9642 7.06808 63.3979
29002 2 98.0314 8.27751 63.1433
29003 1 10.6865 2.37066 40.37
29004 2 9.96651 2.52315 39.693
29005 2 10.4676 2.87101 41.2077
29006 1 106.697 12.5537 66.2737
29007 2 106.91 13.2548 65.5936
29008 2 105.707 12.4144 66.3089
29009 1 72.3515 3.06745 77.9679
29010 2 72.1507 2.22494 77.4681
29011 2 73.1813 3.48496 77.5976
29012 1 55.0677 0.625922 69.3792
29013 2 55.1121 29.8295 68.7761
29014 2 55.9626 0.776093 69.7994
29015 1 15.2445 6.15781 21.6633
29016 2 15.9952 6.37627 22.2867
29017 2 14.3875 6.11197 22.1766
29018 1 13.8733 0.0703188 79.8705
29019 2 13.0121 0.249128 79.3946
29020 2 13.8126 0.410882 80.8088
29021 1 65.1438 4.25342 90.2212
29022 2 65.7709 4.27729 89.4427
29023 2 64.7875 3.32588 90.3339
29024 1 58.8994 13.2965 61.6308
29025 2 58.2384 12.6175 61.3112
29026 2 59.5084 13.5486 60.8788
29027 1 118.529 3.78438 39.9377
29028 2 118.021 4.18805 40.6984
29029 2 119.301 4.37441 39.7026
29030 1 36.5765 3.7065 87.5799
29031 2 36.9116 3.38903 88.4669
29032 2 37.0636 3.22841 86.849
29033 1 61.889 12.507 67.4478
29034 2 60.9804 12.5656 67.0344
29035 2 62.555 12.238 66.752
29036 1 13.0815 15.0037 45.0745
29037 2 12.5125 14.6588 44.328
29038 2 12.5443 15.6273 45.6424
29039 1 88.0529 22.215 90.3243
29040 2 87.347 21.5982 89.9759
29041 2 87.621 22.9778 90.8056
29042 1 61.375 7.67237 52.3336
29043 2 61.3802 6.82432 52.8635
29044 2 60.5079 7.75302 51.8421
29045 1 63.1147 3.91866 80.7413
29046 2 62.1812 3.56695 80.8109
29047 2 63.1521 4.84254 81.1221
29048 1 108.431 7.05439 53.5813
29049 2 108.809 6.14083 53.4315
29050 2 108.624 7.62936 52.7862
29051 1 101.259 11.2636 16.5716
29052 2 100.503 10.611 16.6234
29053 2 101.142 11.9656 17.2741
29054 1 34.6994 8.51472 55.6995
29055 2 35.416 8.27552 55.0443
29056 2 34.3589 7.68366 56.1393
29057 1 31.7648 2.37756 63.6101
29058 2 32.5078 2.30671 64.2757
29059 2 31.855 1.64897 62.9311
29060 1 88.6479 22.4004 57.1111
29061 2 88.8607 21.479 56.786
29062 2 89.4002 22.736 57.678
29063 1 36.1682 28.2186 90.5893
29064 2 36.8746 28.4661 89.9261
29065 2 35.7188 27.3741 90.2981
29066 1 50.6119 20.1537 89.4959
29067 2 50.348 21.0125 89.9349
29068 2 51.5369 19.9035 89.7819
29069 1 4.2313 19.0721 39.5529
29070 2 4.90061 19.7189 39.1873
29071 2 3.34966 19.2148 39.1031
29072 1 21.6581 19.1964 27.4201
29073 2 20.7016 19.4212 27.6061
29074 2 21.8366 18.2502 27.6897
29075 1 89.7758 27.6978 72.4018
29076 2 90.2805 27.7825 71.5427
29077 2 90.3918 27.8759 73.1692
29078 1 26.7143 22.2285 73.589
29079 2 27.3693 22.1782 72.835
29080 2 27.0579 22.8559 74.2877
29081 1 99.3455 23.8506 17.9254
29082 2 98.9079 23.1325 18.4666
29083 2 100.322 23.8817 18.1401
29084 1 20.2155 25.8163 15.5084
29085 2 20.3021 26.6045 14.8992
29086 2 19.3124 25.8244 15.9376
29087 1 76.6938 16.2711 39.6616
29088 2 77.031 16.6086 38.7827
29089 2 77.3408 16.5166 40.3834
29090 1 40.5515 5.88732 23.4525
29091 2 40.4162 6.47548 22.6551
29092 2 39.9803 6.21161 24.2066
29093 1 24.393 23.5097 52.7806
29094 2 23.8947 22.868 53.3636
29095 2 24.5425 23.0968 51.8822
29096 1 40.3496 22.7202 44.9852
29097 2 40.4933 23.709 45.0261
29098 2 41.1162 22.2534 45.4261
29099 1 64.5631 5.6648 54.057
29100 2 65.2171 6.30945 53.6612
29101 2 64.501 5.81656 55.0435
29102 1 97.6999 7.38762 81.0115
29103 2 97.541 8.36987 81.111
29104 2 97.3719 6.91243 81.8279
29105 1 48.0754 26.375 57.4005
29106 2 48.7114 25.6062 57.3344
29107 2 47.289 26.2091 56.8054
29108 1 107.237 29.5997 82.7138
29109 2 106.365 29.5692 83.2019
29110 2 107.218 0.340656 82.0425
29111 1 88.7308 7.17009 73.5688
29112 2 88.0634 7.08581 72.8289
29113 2 88.2589 7.12965 74.4495
29114 1 93.9539 26.9985 42.7488
29115 2 94.466 27.4252 43.4942
29116 2 94.4914 26.2498 42.3609
29117 1 23.4857 8.48133 49.4897
29118 2 23.4274 8.49079 50.4879
29119 2 23.5872 9.41741 49.1528
29120 1 41.8055 6.24857 84.9171
29121 2 41.3458 6.70932 84.1578
29122 2 41.2328 5.49845 85.2476
29123 1 96.9783 6.26957 26.9916
29124 2 96.9875 6.17331 27.9869
29125 2 96.0456 6.45664 26.6834
29126 1 14.4075 16.1512 62.3695
29127 2 15.0795 16.8628 62.5742
29128 2 14.783 15.5247 61.6865
29129 1 118.171 6.48837 84.0052
29130 2 118.726 7.2943 83.7981
29131 2 117.693 6.19109 83.1785
29132 1 73.5569 23.1655 84.1672
29133 2 73.0015 23.8089 84.6942
29134 2 73.4028 23.3145 83.1905
29135 1 113.087 15.3517 90.7321
29136 2 113.707 14.5753 90.6189
29137 2 112.157 15.0164 90.8841
29138 1 95.9111 17.0676 21.4053
29139 2 96.7782 16.903 20.9353
29140 2 95.7793 18.0514 21.527
29141 1 40.7345 9.36693 85.1201
29142 2 41.334 10.0643 84.7274
29143 2 39.8145 9.46635 84.741
29144 1 81.039 16.328 69.4614
29145 2 82.0028 16.5944 69.4725
29146 2 80.9591 15.3783 69.1585
29147 1 20.5207 3.96448 51.9401
29148 2 19.6494 3.86746 52.4212
29149 2 21.017 3.09688 51.9712
29150 1 60.7599 22.0378 63.939
29151 2 59.853 22.1895 63.5458
29152 2 60.6686 21.8042 64.907
29153 1 97.5575 2.02139 37.672
29154 2 97.4106 2.45612 36.7835
29155 2 96.8356 1.3494 37.8376
29156 1 53.109 24.3989 72.6865
29157 2 52.2478 24.3607 72.1797
29158 2 53.033 25.0715 73.4226
29159 1 16.0132 21.6676 56.7497
29160 2 16.3267 20.8014 56.3607
29161 2 15.0597 21.8232 56.4916
29162 1 114.002 18.0583 50.5033
29163 2 113.724 17.1401 50.7856
29164 2 113.835 18.1709 49.5239
29165 1 19.7157 18.9605 84.912
29166 2 20.0567 18.2371 84.3116
29167 2 19.9657 19.8522 84.5347
29168 1 111.013 3.8983 62.1785
29169 2 111.624 4.17952 61.4384
29170 2 111.469 3.21112 62.7441
29171 1 98.5424 24.5601 89.9839
29172 2 98.3047 25.4913 90.2605
29173 2 99.5112 24.5223 89.7388
29174 1 86.4448 3.40451 80.8618
29175 2 87.1325 3.13889 80.1862
29176 2 86.8533 4.03268 81.524
29177 1 86.6093 21.4135 86.0896
29178 2 87.3856 20.9942 86.5602
29179 2 86.7924 21.4446 85.107
29180 1 19.9058 3.19563 90.4531
29181 2 20.8312 2.87285 90.2547
29182 2 19.9161 3.74372 91.2894
29183 1 39.2768 18.2286 63.8144
29184 2 39.8846 18.4195 63.0436
29185 2 38.3261 18.2666 63.5066
29186 1 101.517 12.5889 34.0357
29187 2 101.175 13.5132 34.205
29188 2 101.444 12.0477 34.8734
29189 1 74.2767 2.24072 46.0602
29190 2 75.2609 2.24618 46.2375
29191 2 73.785 2.45974 46.903
29192 1 114.546 5.11076 51.0381
29193 2 113.957 4.64057 51.6955
29194 2 115.329 5.50855 51.5166
29195 1 44.2112 4.58001 70.8172
29196 2 44.4459 3.61556 70.6958
29197 2 44.5656 4.90127 71.6954
29198 1 37.7321 12.9527 50.3735
29199 2 38.2875 13.7772 50.4819
29200 2 37.1165 13.0657 49.5936
29201 1 48.0167 21.68 59.1229
29202 2 48.003 21.0767 59.9203
29203 2 48.8654 21.5393 58.6131
29204 1 90.2945 19.7248 81.4621
29205 2 90.1178 19.2619 82.3307
29206 2 89.7602 20.5691 81.4197
29207 1 45.769 27.4541 87.6808
29208 2 45.6442 26.564 87.2425
29209 2 45.745 28.1737 86.9868
29210 1 45.4189 2.44827 50.8732
29211 2 45.2613 3.27185 51.4181
29212 2 44.9978 1.66286 51.3269
29213 1 0.10704 11.6373 44.2775
29214 2 119.908 10.9455 43.5833
29215 2 1.06428 11.563 44.5571
29216 1 115.392 25.2761 65.7656
29217 2 115.071 25.0444 64.8473
29218 2 115.873 24.4921 66.1583
29219 1 102.034 3.07824 18.9841
29220 2 102.304 3.99383 19.2818
29221 2 101.262 2.76263 19.5359
29222 1 2.82043 12.5738 80.4575
29223 2 3.39301 11.7946 80.7125
29224 2 3.18575 13.4063 80.874
29225 1 5.36276 24.7599 90.5518
29226 2 5.81031 25.5373 90.1098
29227 2 5.97211 23.9673 90.529
29228 1 78.1461 12.0942 85.3425
29229 2 78.4915 11.9621 86.2716
29230 2 78.3934 11.3055 84.7796
29231 1 87.4766 6.48172 59.1599
29232 2 87.6097 5.71987 58.526
29233 2 86.854 6.20224 59.8909
29234 1 47.564 2.81025 43.2351
29235 2 47.011 2.66705 44.0559
29236 2 48.2691 3.49396 43.4233
29237 1 61.4745 4.691 34.6178
29238 2 60.7609 4.20139 35.1189
29239 2 61.2321 4.73284 33.6485
29240 1 66.1998 1.7181 46.1884
29241 2 66.3417 2.31599 46.9773
29242 2 66.9484 1.05758 46.1317
29243 1 68.1981 16.682 69.3061
29244 2 67.9914 16.7538 68.3303
29245 2 67.3502 16.5404 69.8169
29246 1 45.7481 17.7645 59.6701
29247 2 46.4967 18.2745 60.0937
29248 2 45.7647 16.8183 59.9933
29249 1 79.1238 25.7191 41.8689
29250 2 78.1787 25.9795 42.0665
29251 2 79.7125 26.001 42.6265
29252 1 58.1919 13.0849 84.8223
29253 2 58.8065 12.6686 84.1523
29254 2 58.1763 14.076 84.6897
29255 1 93.8579 6.89079 26.6574
29256 2 93.9265 7.41035 25.8058
29257 2 93.8867 5.91211 26.4541
29258 1 88.8041 8.70328 89.6541
29259 2 88.013 8.92194 90.2253
29260 2 89.5234 8.30129 90.2207
29261 1 29.6324 19.2643 61.2733
29262 2 29.1659 19.0448 60.4165
29263 2 30.0321 20.1788 61.2105
29264 1 96.4599 10.3975 90.3583
29265 2 96.042 10.437 91.266
29266 2 96.9508 9.53248 90.2548
29267 1 73.5286 14.0667 35.9489
29268 2 73.2258 14.6567 36.6973
29269 2 73.685 14.6199 35.1307
29270 1 0.0839429 11.8997 65.3979
29271 2 119.134 11.9504 65.7048
29272 2 0.160237 11.2307 64.6586
29273 1 69.8933 6.56568 48.5515
29274 2 68.9008 6.44378 48.5548
29275 2 70.2157 6.70009 49.4885
29276 1 43.4935 8.4383 90.6044
29277 2 43.2776 9.36681 90.9065
29278 2 42.6485 7.9615 90.3624
29279 1 49.6476 15.3499 66.6087
29280 2 49.5159 16.2012 67.1166
29281 2 49.1159 14.6199 67.0381
29282 1 87.3564 27.7486 63.9518
29283 2 88.2905 27.754 63.5948
29284 2 86.7189 27.993 63.2212
29285 1 63.5582 20.6625 43.9591
29286 2 62.57 20.6017 43.8182
29287 2 63.7582 21.4018 44.6022
29288 1 108.374 17.6842 57.2564
29289 2 108.218 18.2981 58.0301
29290 2 107.801 16.8706 57.3552
29291 1 19.6786 2.44775 85.2829
29292 2 19.2244 1.97194 84.5298
29293 2 19.036 3.08248 85.7121
29294 1 10.0008 6.31916 72.0678
29295 2 10.1141 6.35666 73.0607
29296 2 10.8268 6.66756 71.6247
29297 1 96.5363 29.4082 45.7637
29298 2 97.09 0.239229 45.8169
29299 2 95.7308 29.5064 46.3482
29300 1 48.1062 7.3737 86.639
29301 2 48.865 7.32435 87.2884
29302 2 47.2941 6.95226 87.0426
29303 1 86.9529 23.6472 76.1208
29304 2 86.6135 23.459 75.1991
29305 2 86.5628 22.9856 76.7611
29306 1 5.22131 29.3688 22.5634
29307 2 4.31861 28.9581 22.4352
29308 2 5.69806 29.4066 21.6852
29309 1 56.0222 24.0991 51.348
29310 2 56.5515 23.2559 51.2543
29311 2 55.0511 23.8756 51.4312
29312 1 93.7678 21.0345 24.213
29313 2 93.4398 21.2574 25.131
29314 2 93.145 20.3785 23.7867
29315 1 13.8671 9.83235 72.3512
29316 2 13.2984 9.08998 71.9971
29317 2 14.4088 10.2217 71.6063
29318 1 76.6556 22.7585 68.0193
29319 2 75.8929 22.213 68.3668
29320 2 76.3802 23.7181 67.9622
29321 1 96.4341 16.2515 32.9654
29322 2 97.3522 16.4187 32.606
29323 2 95.7868 16.1812 32.2064
29324 1 41.068 15.5079 55.0253
29325 2 40.203 16.0002 54.9292
29326 2 41.7522 16.1126 55.433
29327 1 43.4341 16.4464 86.7041
29328 2 43.4531 16.8278 87.6283
29329 2 43.1207 15.4975 86.7415
29330 1 23.246 21.8925 86.5622
29331 2 22.6411 21.8504 85.767
29332 2 22.7886 21.4819 87.351
29333 1 104.222 7.11034 23.2628
29334 2 105.186 7.37424 23.235
29335 2 103.65 7.92539 23.1678
29336 1 36.5981 9.961 67.4842
29337 2 36.9923 9.08958 67.7761
29338 2 37.3172 10.6547 67.442
29339 1 10.1799 0.240437 60.7984
29340 2 10.5418 1.08436 61.1945
29341 2 9.59385 0.46247 60.0192
29342 1 80.6785 23.9013 61.2379
29343 2 80.2518 24.4282 61.9729
29344 2 79.9768 23.6025 60.5912
29345 1 36.163 10.4435 79.6322
29346 2 37.0196 10.8377 79.2994
29347 2 35.485 11.1693 79.7487
29348 1 22.8941 19.5915 79.6126
29349 2 23.4554 20.4065 79.756
29350 2 23.4842 18.8151 79.3912
29351 1 56.4765 26.5238 90.905
29352 2 55.5976 26.6451 91.3664
29353 2 56.5734 27.2124 90.1863
29354 1 77.6776 8.36439 35.5724
29355 2 76.73 8.38325 35.8913
29356 2 78.171 9.14943 35.9468
29357 1 64.0095 17.2733 58.392
29358 2 64.2295 17.8976 57.6425
29359 2 63.3483 17.7072 59.004
29360 1 30.267 3.03247 28.9044
29361 2 30.8901 2.29694 28.6383
29362 2 29.3973 2.92311 28.4231
29363 1 16.6777 27.9993 26.6158
29364 2 15.9172 27.6368 26.0772
29365 2 17.5296 27.8941 26.1027
29366 1 18.6871 16.1131 14.7466
29367 2 18.9546 16.6089 13.9204
29368 2 17.8095 15.6589 14.5933
29369 1 17.8621 0.00883232 63.5885
29370 2 17.3222 0.845325 63.6818
29371 2 17.8972 29.7404 62.6258
29372 1 32.14 16.9617 61.9366
29373 2 31.5224 17.7314 61.7748
29374 2 31.63 16.1045 61.8659
29375 1 85.1742 7.08484 55.7657
29376 2 84.4915 6.43526 55.4311
29377 2 86.0898 6.75125 55.5412
29378 1 38.2489 2.27529 46.9452
29379 2 38.3493 2.12542 45.9616
29380 2 38.1587 3.25473 47.1256
29381 1 104.336 4.98938 51.8152
29382 2 104.629 4.39947 51.0629
29383 2 103.58 5.56862 51.5095
29384 1 61.1405 5.69013 40.3053
29385 2 61.4387 5.33448 41.191
29386 2 60.1924 6.00088 40.3729
29387 1 89.8163 11.586 55.4371
29388 2 89.5676 10.9761 54.6846
29389 2 90.493 12.2497 55.1185
29390 1 22.6747 9.89301 36.0085
29391 2 22.0725 9.34631 35.4268
29392 2 23.4903 9.36138 36.2367
29393 1 98.5184 16.7381 54.0349
29394 2 97.7314 16.9334 53.4498
29395 2 98.759 15.7705 53.9579
29396 1 20.2073 10.5447 46.6135
29397 2 19.5504 10.4081 45.8721
29398 2 20.8125 11.3076 46.3863
29399 1 16.9022 29.944 81.9311
29400 2 16.3154 29.7227 82.7099
29401 2 16.3628 0.408091 81.2285
29402 1 18.9918 1.80367 70.7885
29403 2 19.8773 1.75651 71.2507
29404 2 18.6175 0.881572 70.6904
29405 1 10.4759 27.0317 32.5611
29406 2 10.0338 26.185 32.2652
29407 2 10.8324 26.9152 33.4881
29408 1 17.0132 18.0507 57.6474
29409 2 17.9051 17.6007 57.6032
29410 2 16.8883 18.6234 56.8371
29411 1 55.7689 22.6585 38.6927
29412 2 55.0183 23.1519 39.1324
29413 2 56.4257 22.3636 39.3867
29414 1 28.1606 5.01864 66.2802
29415 2 27.7089 4.12963 66.2054
29416 2 27.8252 5.49559 67.0926
29417 1 119.082 5.36927 12.3863
29418 2 119.907 5.66876 11.9072
29419 2 118.648 4.63017 11.8716
29420 1 114.965 14.8417 32.9529
29421 2 114.413 15.4257 33.5483
29422 2 115.905 15.1827 32.9296
29423 1 46.2007 10.9673 41.936
29424 2 46.7571 10.399 41.3299
29425 2 46.2446 10.6042 42.8667
29426 1 92.327 20.2487 84.3186
29427 2 93.0694 20.3775 84.9761
29428 2 92.5981 20.6238 83.4321
29429 1 113.613 12.9629 16.9983
29430 2 113.658 12.0592 16.5724
29431 2 113.735 12.8721 17.9866
29432 1 15.0503 5.72533 62.8451
29433 2 14.4342 4.9517 62.993
29434 2 15.9052 5.39831 62.4423
29435 1 27.4924 29.7468 36.1453
29436 2 27.5061 29.8209 37.1424
29437 2 28.4265 29.6341 35.8065
29438 1 113.147 1.32326 33.9417
29439 2 113.484 2.25582 34.0704
29440 2 112.658 1.02944 34.7631
29441 1 65.8856 29.0766 66.153
29442 2 65.397 29.5291 66.899
29443 2 65.7139 28.0921 66.1908
29444 1 14.8244 9.18414 16.2914
29445 2 15.7796 8.90881 16.3994
29446 2 14.2342 8.5359 16.7726
29447 1 50.5433 23.5236 42.4546
29448 2 49.6927 23.7025 41.9602
29449 2 51.2139 23.1231 41.8301
29450 1 116.355 1.46042 22.8269
29451 2 116.806 2.19559 22.3211
29452 2 116.292 0.647404 22.2481
29453 1 40.9816 20.5141 84.5117
29454 2 41.3143 19.9482 85.266
29455 2 40.8033 21.4405 84.8435
29456 1 102.301 8.52098 75.5537
29457 2 103.079 8.58634 74.9285
29458 2 101.665 7.82443 75.2224
29459 1 16.972 4.23978 35.8791
29460 2 16.737 4.4467 34.9294
29461 2 16.7554 3.28343 36.0753
29462 1 45.0535 22.8012 81.3043
29463 2 44.5045 22.8175 80.4686
29464 2 44.6787 22.1226 81.9361
29465 1 60.8511 10.7973 49.3688
29466 2 61.8394 10.9492 49.3584
29467 2 60.6243 10.0365 48.7607
29468 1 42.1189 21.6855 74.7621
29469 2 42.5517 21.4332 75.6276
29470 2 41.4175 22.3783 74.9296
29471 1 52.1826 18.7328 76.1806
29472 2 51.9099 18.7661 77.1421
29473 2 51.8481 19.5497 75.7107
29474 1 115.676 22.3065 55.6941
29475 2 116.661 22.477 55.72
29476 2 115.459 21.7223 54.912
29477 1 63.5279 29.6256 42.8976
29478 2 63.4135 28.6368 42.9932
29479 2 63.7802 29.8423 41.9545
29480 1 20.4122 25.3422 21.9281
29481 2 21.1303 24.6742 21.7332
29482 2 19.5354 24.8709 22.0235
29483 1 7.68272 26.6731 58.531
29484 2 7.26808 27.4353 59.0282
29485 2 7.02087 26.2997 57.881
29486 1 110.771 11.7219 25.3846
29487 2 110.338 11.3248 26.1941
29488 2 111.763 11.7377 25.5106
29489 1 95.7748 19.4941 74.0828
29490 2 95.5799 20.4128 73.7394
29491 2 95.6731 19.4816 75.0775
29492 1 69.9236 25.406 53.4125
29493 2 69.9602 26.2999 52.9657
29494 2 70.4398 25.4398 54.2683
29495 1 26.3967 10.1484 16.6311
29496 2 26.5891 11.0849 16.3379
29497 2 26.1648 9.59065 15.8341
29498 1 110.485 22.5278 27.9972
29499 2 111.384 22.3671 28.4049
29500 2 109.857 21.8019 28.278
29501 1 28.1016 17.2232 24.6755
29502 2 27.2146 16.765 24.7318
29503 2 28.035 18.1305 25.0906
29504 1 54.3815 3.64867 70.6548
29505 2 54.3036 4.63838 70.5348
29506 2 55.1112 3.44861 71.3086
29507 1 39.6544 19.0553 90.1424
29508 2 39.537 18.7184 89.2082
29509 2 38.7802 19.3999 90.4847
29510 1 16.982 9.83911 28.4523
29511 2 16.4827 10.5052 29.0065
29512 2 17.9496 10.0899 28.4212
29513 1 42.2302 16.3799 49.7418
29514 2 41.8817 16.9782 49.0203
29515 2 41.5906 16.3773 50.5105
29516 1 22.2753 27.3378 87.8775
29517 2 22.0895 27.3468 86.8949
29518 2 22.7672 28.1707 88.1312
29519 1 12.5769 13.5837 86.741
29520 2 12.8729 14.3799 87.2687
29521 2 12.7017 12.756 87.2881
29522 1 30.5945 8.74615 35.9776
29523 2 31.3947 9.22191 36.3427
29524 2 29.9837 9.40729 35.542
29525 1 79.4137 26.7219 60.7741
29526 2 78.6559 27.3198 60.5127
29527 2 79.2078 26.2867 61.6506
29528 1 15.0007 5.24018 59.6177
29529 2 15.4166 4.44035 59.1849
29530 2 15.7046 5.92882 59.7917
29531 1 29.3957 18.5945 45.5412
29532 2 29.2327 19.4013 46.1091
29533 2 30.2416 18.1475 45.8322
29534 1 89.7122 27.3804 85.987
29535 2 89.187 27.8832 86.6736
29536 2 89.2579 27.4551 85.0993
29537 1 82.0098 22.8838 49.9079
29538 2 81.9048 21.9139 50.1276
29539 2 81.6221 23.0646 49.004
29540 1 44.6214 19.5857 80.333
29541 2 44.2694 20.0821 81.1266
29542 2 44.2031 18.6782 80.2951
29543 1 40.9157 16.8628 84.0435
29544 2 41.2039 17.2592 83.1718
29545 2 41.0981 17.5125 84.7815
29546 1 87.2485 23.1207 65.5724
29547 2 86.6716 22.9285 64.7785
29548 2 87.2976 22.3082 66.1533
29549 1 40.5007 12.8395 77.6564
29550 2 41.187 13.1751 78.3017
29551 2 39.9474 12.132 78.0963
29552 1 33.9829 14.5608 59.3698
29553 2 33.4217 15.2831 59.774
29554 2 34.5191 14.9384 58.6149
29555 1 16.5013 4.8397 45.6172
29556 2 17.2714 4.71439 46.2428
29557 2 16.3649 5.81576 45.4479
29558 1 35.818 13.3595 45.3719
29559 2 36.8069 13.227 45.3051
29560 2 35.6221 14.324 45.5492
29561 1 116.722 5.6292 81.7705
29562 2 116.633 6.5764 81.4625
29563 2 117.045 5.06157 81.0132
29564 1 90.6078 15.6304 85.6332
29565 2 91.0654 15.0391 84.9692
29566 2 89.6299 15.4221 85.6467
29567 1 14.2339 1.04254 85.5325
29568 2 13.8512 1.92585 85.2617
29569 2 14.3933 0.484569 84.7181
29570 1 62.336 11.5153 56.8467
29571 2 62.7389 11.1677 57.6933
29572 2 61.5156 12.0453 57.061
29573 1 44.2388 25.2503 86.6491
29574 2 43.8262 25.1287 87.5518
29575 2 43.521 25.4271 85.9756
29576 1 116.103 0.417498 86.495
29577 2 115.979 0.481173 87.4853
29578 2 116.875 29.8152 86.2933
29579 1 10.735 29.3474 50.4907
29580 2 10.0713 29.7644 51.1116
29581 2 10.3152 29.2175 49.5924
29582 1 12.4647 16.3262 36.1444
29583 2 13.1531 15.6011 36.125
29584 2 11.9857 16.3076 37.022
29585 1 91.1341 13.0452 45.4161
29586 2 91.3254 12.2397 45.977
29587 2 91.2469 13.8708 45.969
29588 1 84.9373 23.8246 48.0321
29589 2 84.3808 23.0829 47.6576
29590 2 85.8699 23.4974 48.1845
29591 1 70.2717 16.1011 86.7952
29592 2 69.7798 15.3022 86.4491
29593 2 70.2414 16.8322 86.1136
29594 1 82.0746 21.0454 76.0536
29595 2 83.0222 20.9637 76.3625
29596 2 81.5716 21.645 76.676
29597 1 77.4738 7.52766 83.5587
29598 2 76.8876 6.7384 83.376
29599 2 76.934 8.36669 83.4906
29600 1 19.2438 19.5168 28.9267
29601 2 18.6603 19.0684 29.6038
29602 2 18.6729 19.9869 28.2537
29603 1 108.393 4.42296 77.9378
29604 2 108.646 3.73489 78.6179
29605 2 108.514 4.04463 77.02
29606 1 40.8059 0.144624 63.1131
29607 2 39.8119 0.21177 63.1998
29608 2 41.2326 0.363673 63.9905
29609 1 77.9312 0.239819 55.6221
29610 2 77.0997 0.455262 55.11
29611 2 78.7072 0.192556 54.9932
29612 1 105.099 16.2744 43.2995
29613 2 104.381 16.2536 42.6041
29614 2 104.715 16.5919 44.1664
29615 1 92.9965 18.4725 73.1301
29616 2 92.9093 17.9527 72.2803
29617 2 93.9632 18.5572 73.3714
29618 1 14.1012 28.4647 24.1898
29619 2 14.253 27.5191 24.4775
29620 2 13.4937 28.4781 23.3957
29621 1 21.0196 0.141043 29.2758
29622 2 20.8459 1.11957 29.1649
29623 2 20.6399 29.8319 30.1477
29624 1 75.856 4.51232 85.7005
29625 2 76.6808 4.01449 85.9688
29626 2 75.2421 4.58811 86.4862
29627 1 108.389 8.45201 59.6972
29628 2 108.971 8.89452 59.0154
29629 2 108.961 8.03216 60.4021
29630 1 7.26571 19.3646 87.7985
29631 2 6.68239 18.6801 87.3613
29632 2 7.18483 20.233 87.3092
29633 1 44.3246 10.0133 63.4857
29634 2 43.7151 9.95934 62.6947
29635 2 45.2149 9.62508 63.2476
29636 1 98.7693 6.74474 22.4674
29637 2 99.5508 6.50933 23.0451
29638 2 97.9442 6.31174 22.8302
29639 1 52.7174 1.11203 32.5226
29640 2 53.2645 1.80155 32.0479
29641 2 53.3232 0.429436 32.9314
29642 1 58.5708 25.0739 78.8206
29643 2 59.3416 24.6734 78.3251
29644 2 58.0748 24.3529 79.3044
29645 1 54.2103 3.80658 76.7544
29646 2 53.9677 4.15157 75.8477
29647 2 53.9039 2.85886 76.8434
29648 1 37.7579 26.468 72.3554
29649 2 38.1112 27.3436 72.0259
29650 2 38.5214 25.8792 72.6207
29651 1 96.7384 19.0682 44.4235
29652 2 96.025 18.4011 44.6377
29653 2 97.6072 18.7642 44.8144
29654 1 64.5177 26.6916 87.8014
29655 2 65.3188 27.2577 87.6074
29656 2 63.7059 27.1133 87.3975
29657 1 0.490412 13.1631 90.4108
29658 2 0.180171 12.227 90.2448
29659 2 1.45054 13.2482 90.1446
29660 1 110.674 1.3155 67.6566
29661 2 110.99 1.86314 68.4317
29662 2 109.841 0.825142 67.912
29663 1 80.0177 10.5765 49.1293
29664 2 80.629 10.6581 49.9165
29665 2 79.1564 10.1584 49.418
29666 1 119.139 10.9486 21.4106
29667 2 0.017163 11.4263 21.403
29668 2 118.45 11.5251 21.8496
29669 1 56.662 26.7016 42.0232
29670 2 57.5756 27.086 41.8907
29671 2 55.9977 27.4439 42.1115
29672 1 49.7241 20.1294 35.8941
29673 2 50.0869 19.45 36.5319
29674 2 50.0446 21.0391 36.1582
29675 1 90.203 6.98845 63.7622
29676 2 90.9015 6.34492 64.0751
29677 2 90.4532 7.91484 64.0436
29678 1 108.59 12.3068 21.4947
29679 2 108.503 12.0198 22.4487
29680 2 107.908 13.01 21.2948
29681 1 98.2683 6.4911 49.9747
29682 2 98.4482 5.91668 50.7732
29683 2 97.2957 6.44902 49.7461
29684 1 84.7787 10.7798 66.6778
29685 2 85.6058 10.5782 67.2024
29686 2 84.0068 10.2762 67.0658
29687 1 2.17381 8.85786 11.1875
29688 2 3.1656 8.73724 11.145
29689 2 1.91416 9.16337 12.1036
29690 1 86.9593 20.5809 54.0453
29691 2 86.1948 20.1826 53.5385
29692 2 86.6199 21.3041 54.6468
29693 1 18.2622 13.8525 48.7042
29694 2 18.1321 14.2012 47.776
29695 2 17.738 13.0088 48.8198
29696 1 4.9268 5.67367 16.0126
29697 2 4.13387 5.83942 16.599
29698 2 4.98242 6.38984 15.3169
29699 1 7.22512 11.8908 37.9422
29700 2 7.61454 11.9642 38.8604
29701 2 7.0163 10.9331 37.7444
29702 1 33.3173 18.734 81.4608
29703 2 33.9487 18.75 82.2361
29704 2 33.7004 18.1685 80.7305
29705 1 73.8787 29.2027 51.4438
29706 2 74.1025 29.882 52.1426
29707 2 74.721 28.7845 51.1036
29708 1 30.0276 3.04286 87.8161
29709 2 29.239 3.20771 87.2237
29710 2 30.3283 3.9073 88.219
29711 1 27.7361 1.72589 59.8941
29712 2 27.2444 2.57739 60.0762
29713 2 27.356 1.28941 59.0786
29714 1 14.1109 1.43653 82.1094
29715 2 13.4773 2.05976 82.5678
29716 2 14.4229 0.742042 82.7577
29717 1 2.914 9.1842 59.8379
29718 2 2.47074 9.99011 59.4454
29719 2 2.40707 8.88558 60.6465
29720 1 18.3331 24.7008 70.2788
29721 2 17.7493 23.8898 70.3165
29722 2 18.5528 24.9092 69.3257
29723 1 91.9389 16.1534 81.4161
29724 2 92.7651 15.7872 81.8443
29725 2 92.1742 16.9592 80.8726
29726 1 40.6231 0.823152 44.9121
29727 2 40.8978 29.8836 44.7079
29728 2 39.6936 0.978801 44.5777
29729 1 7.00878 18.6068 90.4518
29730 2 7.3465 19.0665 89.6305
29731 2 6.76384 17.6633 90.2288
29732 1 67.9658 24.2508 51.941
29733 2 68.4151 24.9909 52.4414
29734 2 67.9743 23.4195 52.4967
29735 1 95.2913 1.17617 20.8789
29736 2 95.4134 0.200222 21.0595
29737 2 94.6595 1.56292 21.5507
29738 1 81.8085 17.5376 39.9069
29739 2 81.5103 18.1634 39.1862
29740 2 81.0928 17.4638 40.6014
29741 1 83.0079 16.6432 89.3635
29742 2 82.2956 17.1192 88.8476
29743 2 83.8541 17.1751 89.3318
29744 1 73.4081 6.53963 68.0682
29745 2 73.6056 5.90328 68.8138
29746 2 72.7551 7.22881 68.3822
29747 1 78.2009 14.7802 36.9283
29748 2 78.0302 15.7259 37.2049
29749 2 78.7986 14.7701 36.1266
29750 1 79.8383 11.3066 72.3482
29751 2 80.8291 11.187 72.4111
29752 2 79.6353 12.1831 71.9117
29753 1 109.906 7.73595 70.119
29754 2 110.354 7.23516 70.8601
29755 2 109.785 7.12993 69.3328
29756 1 118.563 15.025 63.8397
29757 2 117.676 14.9217 63.3896
29758 2 119.294 14.8349 63.1839
29759 1 20.9574 27.6499 67.6077
29760 2 20.5488 27.5352 66.7022
29761 2 20.9217 28.6143 67.8697
29762 1 57.4429 29.3072 50.6933
29763 2 58.3366 29.6289 50.3805
29764 2 56.8209 29.2403 49.913
29765 1 42.2148 22.4024 52.3448
29766 2 41.9579 21.4376 52.2887
29767 2 41.9366 22.7704 53.232
29768 1 34.8442 6.83389 66.6332
29769 2 35.8322 6.98599 66.6569
29770 2 34.4466 7.08775 67.5149
29771 1 64.9882 6.14668 77.0469
29772 2 65.6791 6.39767 77.7249
29773 2 64.5169 5.31596 77.3431
29774 1 27.8261 27.0411 61.4967
29775 2 27.0174 26.518 61.2275
29776 2 28.5388 26.9331 60.8036
29777 1 61.049 9.02279 88.2984
29778 2 60.2373 9.09075 87.7183
29779 2 61.7153 8.41301 87.8692
29780 1 94.3928 15.2807 26.6274
29781 2 94.5261 15.3861 25.642
29782 2 94.1478 16.1641 27.0269
29783 1 116.129 12.4369 12.9994
29784 2 115.423 13.0839 13.2865
29785 2 117.029 12.7886 13.2588
29786 1 62.0966 15.1824 57.0813
29787 2 62.8376 15.8533 57.1105
29788 2 62.2419 14.4941 57.792
29789 1 103.611 12.3165 40.8345
29790 2 103.184 12.3758 39.9319
29791 2 103.954 11.3887 40.9807
29792 1 80.6168 22.4521 70.2948
29793 2 81.1787 21.7098 69.9296
29794 2 81.1466 23.3002 70.2988
29795 1 84.8259 25.2492 30.761
29796 2 84.6225 24.4307 31.2982
29797 2 85.7645 25.199 30.4195
29798 1 119.942 19.9726 36.4448
29799 2 119.149 19.5983 35.9641
29800 2 119.697 20.8481 36.8612
29801 1 15.0328 16.1402 14.1799
29802 2 14.7037 15.9073 13.2648
29803 2 14.2958 16.5732 14.6989
29804 1 80.8453 7.74405 64.3825
29805 2 80.9212 7.52359 65.355
29806 2 79.9309 8.10111 64.1921
29807 1 113.048 27.8694 10.0841
29808 2 113.725 27.2013 10.3934
29809 2 112.131 27.5479 10.319
29810 1 72.0809 10.7812 54.5059
29811 2 72.3434 10.1737 55.2556
29812 2 71.5214 10.2767 53.8484
29813 1 4.67818 10.6029 83.7011
29814 2 5.49684 11.1251 83.94
29815 2 4.62115 10.5088 82.7071
29816 1 112.499 12.2986 50.2647
29817 2 111.509 12.4226 50.1975
29818 2 112.705 11.6525 50.9998
29819 1 23.0686 28.9966 24.6793
29820 2 23.3037 29.9622 24.568
29821 2 23.8948 28.4749 24.8922
29822 1 22.6687 25.3058 19.0527
29823 2 23.3539 24.5784 19.0161
29824 2 23.1231 26.1949 18.9978
29825 1 21.3458 28.2205 74.3612
29826 2 21.9625 28.9231 74.006
29827 2 21.3142 28.2785 75.359
29828 1 115.432 10.5408 14.9192
29829 2 115.985 11.2246 14.4439
29830 2 116.03 9.84634 15.3186
29831 1 50.3792 27.1947 82.4185
29832 2 50.2961 27.0136 83.3984
29833 2 50.6025 26.3453 81.9403
29834 1 6.86104 10.9273 17.9083
29835 2 7.05509 10.0573 17.4551
29836 2 6.86384 11.6636 17.2316
29837 1 83.881 10.769 70.2561
29838 2 83.3768 11.415 69.683
29839 2 83.557 10.8373 71.1997
29840 1 101.326 24.2002 89.3434
29841 2 100.964 23.2845 89.5167
29842 2 101.801 24.2098 88.4631
29843 1 105.968 19.747 73.0604
29844 2 105.218 19.7389 72.3989
29845 2 106.351 18.8269 73.1409
29846 1 1.0209 22.002 31.921
29847 2 1.86787 22.5149 32.0608
29848 2 0.56999 21.8567 32.8017
29849 1 19.8332 21.3569 76.6578
29850 2 19.4123 21.8479 77.4206
29851 2 19.1815 20.6953 76.2871
29852 1 112.698 21.1714 25.5018
29853 2 112.853 20.5131 26.2384
29854 2 112.628 20.6861 24.6302
29855 1 48.0246 25.6223 67.2435
29856 2 47.4479 25.0696 67.8451
29857 2 47.9961 25.2468 66.3171
29858 1 28.1468 9.06719 32.957
29859 2 28.3523 8.09234 33.0433
29860 2 28.2589 9.51146 33.8458
29861 1 103.502 24.4841 42.5175
29862 2 103.504 24.8483 41.5862
29863 2 102.695 23.9081 42.6482
29864 1 38.1481 5.05087 56.5582
29865 2 38.2655 4.3324 57.2438
29866 2 37.1775 5.27676 56.475
29867 1 36.3709 18.3359 28.9131
29868 2 37.3268 18.5776 29.0796
29869 2 36.2527 18.0863 27.952
29870 1 95.959 22.2468 87.3861
29871 2 95.9031 22.7351 88.2569
29872 2 95.052 21.9088 87.1346
29873 1 5.17259 27.2549 89.1798
29874 2 5.46533 26.9539 88.2722
29875 2 5.65877 28.0934 89.4258
29876 1 108.622 19.7449 47.826
29877 2 108.838 20.1739 46.9489
29878 2 109.435 19.7491 48.4083
29879 1 44.6777 8.3608 27.4144
29880 2 45.4014 7.70579 27.1974
29881 2 43.8052 8.0224 27.062
29882 1 33.2082 20.7266 47.092
29883 2 34.1517 20.9928 46.8946
29884 2 33.143 19.7292 47.1234
29885 1 41.1227 5.79598 58.0459
29886 2 40.4864 6.5659 57.9972
29887 2 40.6289 4.944 57.8717
29888 1 4.54755 20.2787 54.1059
29889 2 4.50374 20.6611 53.1829
29890 2 4.01186 19.4351 54.1429
29891 1 9.76047 19.9231 19.2825
29892 2 9.50504 19.0108 19.6025
29893 2 9.39507 20.6108 19.9098
29894 1 0.281369 1.83681 44.9551
29895 2 0.109175 2.35739 44.1188
29896 2 119.646 1.06646 45.005
29897 1 26.5873 6.46764 21.8668
29898 2 25.852 7.1204 22.0493
29899 2 26.4763 6.08893 20.9479
29900 1 20.1543 11.4365 83.2022
29901 2 20.6799 11.278 84.0381
29902 2 19.4893 12.1664 83.36
29903 1 74.7185 7.82122 74.9982
29904 2 74.244 8.00619 74.1376
29905 2 75.2241 8.63604 75.2818
29906 1 53.6565 0.0669826 73.3466
29907 2 54.0839 29.3489 73.8959
29908 2 54.0094 0.9585 73.6307
29909 1 102.567 21.4008 57.1542
29910 2 101.883 22.128 57.1005
29911 2 103.121 21.4025 56.3219
29912 1 32.2475 0.104506 69.6737
29913 2 31.7859 0.488428 68.874
29914 2 31.5688 29.8698 70.3696
29915 1 20.9731 28.4252 45.4865
29916 2 21.6849 28.6438 44.8191
29917 2 20.2479 29.1119 45.4374
29918 1 92.2052 27.4785 87.1857
29919 2 91.2107 27.4886 87.0811
29920 2 92.6328 27.3332 86.2935
29921 1 65.0068 18.911 64.1131
29922 2 64.7018 18.4983 63.2548
29923 2 64.9685 18.2287 64.8432
29924 1 27.8025 12.4814 49.5667
29925 2 27.8288 13.407 49.1893
29926 2 28.7346 12.1703 49.7521
29927 1 7.89078 19.7181 83.946
29928 2 7.00672 19.7077 83.4787
29929 2 7.8887 20.4308 84.6474
29930 1 36.8652 21.0601 23.9034
29931 2 36.1577 20.413 24.1872
29932 2 37.4576 20.6289 23.2229
29933 1 94.502 10.8321 33.9135
29934 2 93.6501 10.394 34.2002
29935 2 94.9681 11.21 34.7134
29936 1 78.8612 6.10741 55.1495
29937 2 79.5531 6.59439 55.6825
29938 2 79.1091 5.14074 55.0856
29939 1 114.783 16.456 69.9681
29940 2 113.98 16.1416 70.4732
29941 2 115.029 17.3768 70.2714
29942 1 97.7363 5.46982 71.4589
29943 2 97.2474 6.27578 71.1252
29944 2 97.1114 4.68969 71.4892
29945 1 86.9045 24.4264 85.2274
29946 2 86.0673 24.295 84.6966
29947 2 87.2635 23.5366 85.5093
29948 1 50.7221 27.9322 33.728
29949 2 49.8323 28.1127 34.1471
29950 2 51.3546 28.6721 33.9569
29951 1 110.247 3.76759 41.7007
29952 2 110.692 3.57415 40.8263
29953 2 109.301 3.44488 41.6719
29954 1 66.2188 2.20195 82.9219
29955 2 66.3117 3.18092 83.1036
29956 2 66.3167 1.69345 83.7774
29957 1 28.6723 9.05781 81.7511
29958 2 28.5024 9.34438 82.6939
29959 2 29.6578 8.99037 81.5955
29960 1 105.587 20.8531 31.1323
29961 2 106.487 20.4481 31.2909
29962 2 105.08 20.8862 31.9936
29963 1 98.1966 28.7143 82.4117
29964 2 99.1617 28.7026 82.6734
29965 2 97.6485 29.057 83.1747
29966 1 81.3218 21.6469 63.3557
29967 2 81.8685 20.8229 63.2065
29968 2 81.2541 22.1613 62.5008
29969 1 79.642 20.6185 59.9147
29970 2 79.4906 21.5425 59.5638
29971 2 80.5832 20.5366 60.2427
29972 1 79.1606 5.03542 83.6175
29973 2 78.5336 5.7127 84.0024
29974 2 79.8934 4.84959 84.2721
29975 1 25.2599 7.88099 83.6434
29976 2 26.1085 7.76097 84.1586
29977 2 25.2156 7.20148 82.9111
29978 1 69.4313 21.3467 36.7994
29979 2 68.6892 20.8613 36.3372
29980 2 69.6925 20.8475 37.6255
29981 1 35.2463 18.4979 56.9893
29982 2 34.4416 18.2719 57.5382
29983 2 34.9761 18.6135 56.0335
29984 1 66.587 14.3039 67.4281
29985 2 66.2492 13.6609 66.7407
29986 2 66.8459 15.1614 66.9836
29987 1 85.7431 2.98527 56.5437
29988 2 86.6049 2.99591 56.0366
29989 2 85.1695 3.74679 56.242
29990 1 40.3169 19.1188 45.0128
29991 2 41.0639 19.6637 44.6319
29992 2 40.6788 18.2534 45.3595
29993 1 49.8057 2.49836 59.0176
29994 2 49.6799 2.82539 59.9542
29995 2 49.0167 1.94584 58.7487
29996 1 24.9725 13.1255 73.8476
29997 2 24.2927 13.8413 73.688
29998 2 24.5189 12.2346 73.8727
29999 1 101.793 9.66363 77.9254
30000 2 102.503 10.2546 78.3083
30001 2 102.158 9.17335 77.1341
30002 1 10.7669 1.46969 83.3688
30003 2 10.4882 1.49703 82.4088
30004 2 11.6085 1.99668 83.4867
30005 1 115.615 11.33 33.1919
30006 2 116.253 10.5607 33.1485
30007 2 115.548 11.7583 32.2908
30008 1 26.7655 19.4334 19.4368
30009 2 27.3875 20.212 19.3537
30010 2 25.8728 19.7524 19.7553
30011 1 90.1171 4.67838 70.7252
30012 2 90.8195 5.05219 71.331
30013 2 90.2032 5.09296 69.8193
30014 1 61.9397 22.0588 36.2076
30015 2 62.1686 21.1664 35.8186
30016 2 62.3383 22.1362 37.1214
30017 1 53.1356 20.6038 81.4053
30018 2 52.2003 20.7437 81.7303
30019 2 53.6369 21.4679 81.4503
30020 1 119.295 26.2605 46.0893
30021 2 118.816 25.3838 46.0452
30022 2 119.068 26.7214 46.9473
30023 1 69.9555 18.4982 32.9809
30024 2 69.7113 17.7664 32.3446
30025 2 69.4117 18.4096 33.8154
30026 1 103.326 7.56161 36.5716
30027 2 104.062 6.88975 36.4896
30028 2 103.671 8.37915 37.0329
30029 1 117.393 28.3544 74.067
30030 2 116.985 28.4773 74.9718
30031 2 118.296 28.7835 74.0473
30032 1 10.1774 6.34563 44.585
30033 2 10.3064 5.41448 44.2439
30034 2 10.09 6.97448 43.8124
30035 1 38.6676 15.3197 47.5646
30036 2 39.342 15.9029 47.1117
30037 2 38.7721 15.3972 48.5561
30038 1 47.5265 24.6392 70.3373
30039 2 47.8616 24.2345 71.1881
30040 2 46.6103 24.2902 70.1405
30041 1 92.1967 9.93545 52.9135
30042 2 92.0811 9.29281 53.6708
30043 2 92.5416 9.44724 52.1118
30044 1 100.784 4.21722 10.8611
30045 2 100.565 5.18567 10.9791
30046 2 101.774 4.08905 10.929
30047 1 66.2708 7.2841 90.0559
30048 2 65.7963 8.13844 89.8439
30049 2 65.5992 6.56901 90.2497
30050 1 78.3152 25.5598 67.7555
30051 2 77.4639 25.5884 68.2793
30052 2 78.5664 26.4867 67.4768
30053 1 46.6717 24.824 85.5468
30054 2 45.7828 24.7503 85.999
30055 2 47.3675 25.0778 86.2187
30056 1 112.681 10.9174 35.8334
30057 2 111.834 11.3064 36.1954
30058 2 113.414 11.5954 35.8973
30059 1 105.323 4.49259 38.8621
30060 2 105.391 3.67965 38.2838
30061 2 104.415 4.52862 39.2812
30062 1 108.516 11.785 24.1546
30063 2 108.089 10.9231 24.4271
30064 2 109.369 11.9094 24.6628
30065 1 88.0611 17.5748 42.4214
30066 2 87.6028 18.2238 43.0287
30067 2 87.8277 16.6414 42.694
30068 1 54.9698 6.25192 63.1042
30069 2 54.4525 5.64358 62.5022
30070 2 54.6959 7.1989 62.9363
30071 1 115.443 12.7351 44.1146
30072 2 115.917 12.9259 43.2553
30073 2 114.93 11.8808 44.0296
30074 1 45.8278 5.46569 76.6982
30075 2 46.1433 4.58057 76.3562
30076 2 45.8965 5.48125 77.6958
30077 1 111.476 27.8802 44.4282
30078 2 110.771 27.255 44.7647
30079 2 111.157 28.32 43.5884
30080 1 13.1472 3.50754 47.5223
30081 2 13.3533 2.52904 47.5153
30082 2 13.3001 3.88695 46.6098
30083 1 65.3623 24.0727 34.0102
30084 2 64.4228 23.9752 34.3387
30085 2 65.555 23.3604 33.3353
30086 1 82.3654 1.10051 70.5895
30087 2 81.5746 1.24677 71.1839
30088 2 82.233 1.59557 69.7308
30089 1 102.124 26.1875 31.3287
30090 2 101.747 25.2975 31.5859
30091 2 103.113 26.1081 31.2073
30092 1 106.266 22.8798 72.3529
30093 2 105.361 22.6531 72.713
30094 2 106.964 22.3782 72.8647
30095 1 83.3926 21.6259 55.9674
30096 2 82.4876 22.0233 56.1192
30097 2 83.3462 20.9693 55.2145
30098 1 0.704807 3.82653 76.1377
30099 2 1.38872 3.36526 75.5725
30100 2 0.451949 4.6955 75.7123
30101 1 25.1956 9.59962 87.5353
30102 2 25.3152 10.5723 87.3365
30103 2 24.8713 9.12911 86.7147
30104 1 20.627 7.23749 52.2362
30105 2 20.2845 8.17546 52.1824
30106 2 21.6265 7.24539 52.2061
30107 1 81.4017 13.8105 38.2337
30108 2 80.464 13.5333 38.4432
30109 2 82.0381 13.1199 38.5773
30110 1 112.609 28.1387 86.4034
30111 2 112.331 27.2254 86.1053
30112 2 111.818 28.7503 86.3844
30113 1 65.9531 13.4439 38.9576
30114 2 65.8673 13.5784 39.9448
30115 2 65.286 12.7632 38.6548
30116 1 31.3239 6.85644 12.0048
30117 2 31.8179 7.63242 11.6126
30118 2 31.6602 6.6803 12.9299
30119 1 113.998 21.1406 70.0916
30120 2 114.521 20.7299 69.3446
30121 2 114.628 21.5334 70.7622
30122 1 3.91855 20.2782 69.3081
30123 2 3.61546 19.4177 69.7178
30124 2 3.1472 20.7185 68.8486
30125 1 108.9 13.1019 80.1343
30126 2 109.886 13.0942 79.9712
30127 2 108.723 13.2689 81.1043
30128 1 40.4879 19.8566 58.3409
30129 2 40.4829 18.9368 58.7332
30130 2 40.6563 20.5265 59.0639
30131 1 3.27289 27.947 56.4518
30132 2 2.59232 28.6464 56.2335
30133 2 3.13087 27.6244 57.3876
30134 1 100.113 23.8236 79.3927
30135 2 100.236 24.3519 78.5527
30136 2 99.9986 24.4479 80.1655
30137 1 87.3538 26.7175 38.5338
30138 2 88.0987 26.1065 38.2658
30139 2 86.6338 26.6893 37.8404
30140 1 67.061 19.0658 37.8017
30141 2 67.8909 18.5163 37.705
30142 2 66.9908 19.7016 37.033
30143 1 95.9868 0.18542 68.0953
30144 2 95.15 0.732916 68.1003
30145 2 96.6462 0.590296 67.4618
30146 1 33.5248 18.2176 47.195
30147 2 32.6234 17.9699 46.8398
30148 2 33.802 17.5558 47.8916
30149 1 102.583 8.39012 28.9345
30150 2 101.648 8.54416 29.2535
30151 2 103.058 7.78561 29.5739
30152 1 72.2184 17.1257 72.7178
30153 2 72.3376 16.3345 72.1179
30154 2 72.7712 17.0051 73.5423
30155 1 54.1032 6.97509 74.193
30156 2 54.5318 7.23666 73.3282
30157 2 53.7301 6.05066 74.1139
30158 1 21.9113 17.3849 58.0649
30159 2 22.4762 17.5337 58.8765
30160 2 20.952 17.3067 58.3363
30161 1 76.2869 17.3874 87.2211
30162 2 75.9253 16.9027 88.0175
30163 2 76.645 18.2764 87.5062
30164 1 0.775825 11.3781 50.0666
30165 2 119.951 11.4075 50.6305
30166 2 1.02061 10.426 49.8833
30167 1 42.2001 5.7362 35.0144
30168 2 41.483 5.89652 35.6927
30169 2 42.8355 5.04481 35.3582
30170 1 9.28991 10.0055 19.3447
30171 2 8.45504 10.4806 19.0667
30172 2 9.04953 9.18475 19.863
30173 1 91.9832 16.2263 32.5649
30174 2 91.3365 15.8188 31.9201
30175 2 91.491 16.8244 33.1974
30176 1 15.1529 23.0962 23.2006
30177 2 15.4645 23.1293 24.1503
30178 2 15.9188 23.3011 22.5912
30179 1 103.196 9.54492 80.9665
30180 2 102.231 9.75333 81.1232
30181 2 103.481 9.92861 80.0882
30182 1 96.6177 8.54836 17.4104
30183 2 97.4249 9.13478 17.344
30184 2 96.506 8.24071 18.3554
30185 1 112.232 20.8902 59.3198
30186 2 111.934 20.1505 58.7165
30187 2 113.014 21.3591 58.9106
30188 1 106.024 0.533644 46.5711
30189 2 105.369 29.829 46.2992
30190 2 105.546 1.26365 47.0589
30191 1 104.891 10.0857 41.5233
30192 2 105.786 10.381 41.8553
30193 2 104.96 9.15724 41.1583
30194 1 112.602 11.7858 56.7436
30195 2 112.865 10.9361 56.287
30196 2 113.12 12.5476 56.3552
30197 1 105.762 0.36089 87.023
30198 2 105.494 29.4482 87.332
30199 2 106.509 0.700617 87.5941
30200 1 97.8162 3.69049 49.2623
30201 2 96.8793 3.35422 49.1669
30202 2 97.9233 4.13043 50.154
30203 1 70.5691 8.49498 86.8775
30204 2 70.0263 8.99367 87.5533
30205 2 71.142 7.82 87.3425
30206 1 10.7359 8.67032 74.0153
30207 2 11.3149 9.14398 74.6789
30208 2 11.3113 8.17225 73.3666
30209 1 2.62151 3.31081 86.5926
30210 2 1.99663 3.59459 87.3199
30211 2 2.12325 2.7644 85.9194
30212 1 65.0513 12.9764 52.4883
30213 2 65.8597 13.5202 52.7135
30214 2 64.4899 12.8588 53.3074
30215 1 70.3524 25.7467 73.3105
30216 2 70.5701 26.3325 72.5299
30217 2 71.1945 25.3468 73.6723
30218 1 6.37807 14.2156 75.4598
30219 2 6.26812 13.2298 75.5871
30220 2 6.56121 14.6473 76.343
30221 1 106.9 4.94622 49.7732
30222 2 106.184 5.58304 49.4879
30223 2 106.481 4.11418 50.1366
30224 1 109.564 9.77314 36.1554
30225 2 108.707 9.38211 36.4915
30226 2 109.884 10.4738 36.7933
30227 1 13.4709 18.7079 49.104
30228 2 12.5365 18.8854 48.7952
30229 2 13.9469 19.5764 49.2422
30230 1 114.122 12.0521 47.0697
30231 2 114.94 11.5786 47.3983
30232 2 113.532 11.4036 46.5893
30233 1 44.2039 24.8613 40.3762
30234 2 44.131 24.0019 40.8823
30235 2 44.5639 24.6797 39.4611
30236 1 8.84374 22.5407 79.4377
30237 2 9.39269 21.754 79.1554
30238 2 9.22047 22.9247 80.2807
30239 1 70.9637 24.8491 69.1469
30240 2 70.4089 24.3582 69.8187
30241 2 71.7764 25.2221 69.5946
30242 1 65.4127 21.6466 81.0786
30243 2 66.3325 21.5673 80.6943
30244 2 64.95 22.4364 80.6758
30245 1 84.696 14.5792 89.9065
30246 2 85.6814 14.7385 89.8461
30247 2 84.2095 15.4402 89.7579
30248 1 48.3613 7.22946 59.1037
30249 2 47.9836 8.1159 59.3712
30250 2 48.3626 6.61576 59.8933
30251 1 90.5115 14.1367 78.7761
30252 2 90.5541 13.2558 78.3047
30253 2 89.5843 14.5054 78.7104
30254 1 90.6409 6.56499 46.9994
30255 2 90.2402 6.7563 47.8954
30256 2 90.4348 7.31794 46.3744
30257 1 18.5368 22.1149 73.7871
30258 2 17.8492 22.8221 73.9516
30259 2 18.7585 22.0858 72.8124
30260 1 83.6958 8.00004 90.3442
30261 2 83.7763 8.08498 89.3511
30262 2 83.6988 7.0326 90.5973
30263 1 21.0359 0.224161 68.5688
30264 2 21.581 0.750405 69.2214
30265 2 20.9048 0.760521 67.7351
30266 1 85.5883 19.1514 80.9401
30267 2 85.0076 19.9252 80.6868
30268 2 85.5573 19.0219 81.9312
30269 1 19.4144 26.1717 81.2931
30270 2 19.2955 25.2047 81.0677
30271 2 19.2968 26.7234 80.4674
30272 1 35.653 7.1746 19.8298
30273 2 35.3049 7.84654 20.4835
30274 2 36.5669 6.88003 20.1094
30275 1 89.5881 27.7976 89.0549
30276 2 88.7423 28.0315 88.5753
30277 2 89.5352 26.8545 89.3832
30278 1 47.6739 17.3033 70.219
30279 2 47.9389 17.9244 70.9566
30280 2 48.4899 17.011 69.7202
30281 1 5.37541 3.61939 40.5639
30282 2 5.61961 3.14143 39.7201
30283 2 6.20735 3.92915 41.0242
30284 1 84.5353 26.1152 60.1729
30285 2 84.996 26.6772 60.8598
30286 2 83.7407 26.6076 59.8176
30287 1 115.494 16.9737 83.047
30288 2 114.89 16.8395 83.8324
30289 2 116.031 16.1442 82.8942
30290 1 15.984 2.27282 45.4199
30291 2 15.083 2.17511 44.9971
30292 2 16.2151 3.2431 45.4916
30293 1 15.3811 14.5134 46.6563
30294 2 16.2801 14.1028 46.5041
30295 2 14.851 14.4786 45.8091
30296 1 34.8959 20.7978 26.9488
30297 2 34.3415 21.5224 27.3583
30298 2 34.4269 19.9206 27.0521
30299 1 9.59021 16.6689 44.825
30300 2 9.12346 16.0828 44.1627
30301 2 9.00433 17.4466 45.053
30302 1 37.9281 24.4031 47.8539
30303 2 36.9905 24.2648 48.1729
30304 2 38.5672 24.1722 48.5876
30305 1 93.1896 6.28559 51.1097
30306 2 93.3053 7.26211 50.928
30307 2 93.7563 6.02239 51.8905
30308 1 22.055 9.35305 58.8567
30309 2 21.1947 8.85337 58.9579
30310 2 21.9234 10.119 58.2273
30311 1 90.6593 0.11379 52.267
30312 2 91.2029 29.6137 52.9411
30313 2 89.6874 29.9447 52.4309
30314 1 63.9804 26.4597 50.7961
30315 2 63.6015 25.5644 51.03
30316 2 64.9248 26.5169 51.1199
30317 1 72.2932 19.7668 86.7342
30318 2 71.8925 19.1657 86.0427
30319 2 73.1077 20.2096 86.3593
30320 1 6.36461 27.5643 12.6277
30321 2 5.91383 26.7027 12.861
30322 2 7.20329 27.3742 12.1173
30323 1 95.6416 0.629008 50.1294
30324 2 95.0367 0.327817 50.8665
30325 2 95.1396 1.2359 49.5132
30326 1 42.3316 18.2011 82.2105
30327 2 42.6834 19.1121 82.4259
30328 2 41.5825 18.28 81.5528
30329 1 38.9705 15.7227 60.8287
30330 2 39.2232 14.762 60.9438
30331 2 38.0575 15.8748 61.2072
30332 1 110.827 5.39972 50.394
30333 2 111.385 4.67258 50.7932
30334 2 111.398 6.2025 50.2224
30335 1 64.0425 18.176 72.5606
30336 2 64.8183 17.7366 72.1077
30337 2 64.007 19.1407 72.2999
30338 1 25.6814 5.91487 87.216
30339 2 25.1417 5.67331 86.4095
30340 2 26.5041 6.40698 86.9314
30341 1 50.0866 9.27283 77.0041
30342 2 49.7789 9.2593 77.9555
30343 2 50.4161 10.1884 76.7734
30344 1 6.89688 27.1569 40.2565
30345 2 6.29427 27.5651 40.9423
30346 2 7.0911 26.2081 40.5059
30347 1 1.68605 29.8574 81.8625
30348 2 1.00047 29.9087 81.1363
30349 2 1.25233 29.549 82.7091
30350 1 83.8171 19.3034 87.4448
30351 2 84.3164 18.8006 88.1504
30352 2 83.8902 18.817 86.5741
30353 1 98.7213 21.6104 34.5809
30354 2 98.2613 22.4695 34.3566
30355 2 98.2707 20.8563 34.103
30356 1 100.605 3.412 51.0166
30357 2 99.8142 3.74275 51.5313
30358 2 101.037 4.17804 50.5406
30359 1 102.221 13.0323 44.7788
30360 2 101.79 13.4938 44.0034
30361 2 102.345 12.0637 44.5632
30362 1 29.1306 19.6592 71.2355
30363 2 29.758 19.4982 71.9974
30364 2 29.6296 19.5872 70.3719
30365 1 14.6042 26.6634 88.9756
30366 2 14.5105 25.8985 89.6129
30367 2 15.5411 27.0116 89.0083
30368 1 23.4197 7.69022 56.6704
30369 2 22.9922 7.9178 55.7955
30370 2 23.181 8.38507 57.3488
30371 1 22.2418 5.17675 86.7401
30372 2 21.6346 4.55124 87.23
30373 2 22.9735 4.65538 86.3009
30374 1 17.8477 26.3696 33.2942
30375 2 17.556 26.7092 34.1884
30376 2 17.0784 25.9187 32.8418
30377 1 89.3493 11.6523 88.8483
30378 2 89.0992 12.4677 89.3703
30379 2 88.5383 11.2877 88.3907
30380 1 75.0998 21.4434 33.2066
30381 2 74.1362 21.4176 33.4727
30382 2 75.2632 20.7752 32.4809
30383 1 31.9195 28.7459 41.7473
30384 2 31.9801 28.1521 40.945
30385 2 31.3988 29.5675 41.5154
30386 1 101.574 12.5646 84.1421
30387 2 101.892 12.9186 83.2625
30388 2 101.299 11.6088 84.0371
30389 1 106.102 9.67937 72.1794
30390 2 106.792 9.01087 72.4576
30391 2 105.194 9.3446 72.4294
30392 1 5.32349 19.8662 83.1873
30393 2 5.31403 19.1098 82.5333
30394 2 4.81462 19.6041 84.0073
30395 1 105.953 20.1352 25.3603
30396 2 106.074 20.7318 26.1536
30397 2 106.581 19.3599 25.4268
30398 1 58.886 16.3943 46.4528
30399 2 58.481 16.3892 45.5385
30400 2 58.7753 15.4929 46.8713
30401 1 30.4718 14.1608 65.3702
30402 2 29.883 13.3525 65.38
30403 2 31.3457 13.9419 65.8042
30404 1 19.4947 20.8471 81.5864
30405 2 19.8288 20.7441 82.5233
30406 2 18.5547 20.511 81.5288
30407 1 58.0935 7.19976 84.4918
30408 2 59.0074 7.48076 84.7849
30409 2 57.5359 6.98958 85.2948
30410 1 24.4763 19.9028 54.2028
30411 2 23.8298 20.6493 54.0458
30412 2 24.9162 20.0245 55.0926
30413 1 107.818 16.3865 21.1843
30414 2 107.305 15.5281 21.1955
30415 2 108.732 16.2238 20.8133
30416 1 15.4086 24.9205 35.6341
30417 2 15.8955 25.7472 35.916
30418 2 15.4546 24.8294 34.6393
30419 1 8.37045 23.4986 84.2122
30420 2 7.48563 23.3308 83.7776
30421 2 8.48311 22.879 84.989
30422 1 104.958 27.7234 71.9445
30423 2 105.444 28.2397 71.2392
30424 2 104.176 27.254 71.5348
30425 1 101.821 28.1933 42.722
30426 2 102.229 27.551 43.3706
30427 2 101.019 28.6224 43.138
30428 1 109.285 21.4736 57.6233
30429 2 109.712 22.1887 58.1765
30430 2 109.619 21.5355 56.6828
30431 1 46.736 25.1327 74.8861
30432 2 46.1058 25.314 74.1311
30433 2 47.4532 25.8295 74.8964
30434 1 47.9559 2.31442 51.9255
30435 2 47.7451 1.70539 52.6901
30436 2 47.3083 2.15126 51.1811
30437 1 13.5017 12.26 20.5873
30438 2 12.783 12.2873 21.282
30439 2 13.1966 11.7047 19.8137
30440 1 24.0168 25.2105 84.2751
30441 2 24.7279 24.9728 84.9368
30442 2 23.2985 25.7353 84.7319
30443 1 13.4001 3.76955 34.2365
30444 2 14.1917 4.01175 34.7976
30445 2 12.8683 3.06008 34.699
30446 1 40.3821 13.4676 52.1363
30447 2 40.2249 12.4979 52.3233
30448 2 39.5038 13.9312 52.0195
30449 1 66.675 8.97605 48.9669
30450 2 66.1267 8.95656 49.8029
30451 2 67.0536 8.06654 48.7953
30452 1 94.8047 12.9578 31.9663
30453 2 95.7445 13.0679 31.643
30454 2 94.7564 12.1788 32.5915
30455 1 14.6969 8.68948 35.5811
30456 2 14.8513 8.79501 34.5988
30457 2 14.8192 7.73044 35.8366
30458 1 108.924 15.1654 35.555
30459 2 108.522 15.3085 34.6503
30460 2 108.2 14.9499 36.2105
30461 1 24.5448 12.8662 36.5617
30462 2 23.8008 13.1662 35.9647
30463 2 25.1924 12.3148 36.0358
30464 1 17.7066 1.0621 52.8859
30465 2 16.7613 0.83176 53.1168
30466 2 17.9042 0.762603 51.9525
30467 1 46.4368 13.9871 43.5024
30468 2 46.1982 13.8366 44.4618
30469 2 45.6202 13.8801 42.9352
30470 1 40.6742 6.40627 65.6622
30471 2 41.1551 5.74119 66.2335
30472 2 39.7351 6.09793 65.5103
30473 1 47.5707 22.2515 33.3751
30474 2 47.4789 23.0622 32.797
30475 2 47.2623 21.4453 32.8701
30476 1 5.50635 6.1171 19.2847
30477 2 4.99458 6.83835 18.8179
30478 2 6.47115 6.17327 19.0278
30479 1 69.9592 3.00362 89.6691
30480 2 69.4509 2.17969 89.9196
30481 2 70.9161 2.90037 89.9407
30482 1 20.328 19.8539 61.4849
30483 2 20.5083 20.0419 62.4503
30484 2 20.5382 20.6669 60.942
30485 1 98.9643 21.5633 84.0622
30486 2 98.1391 21.3949 83.5231
30487 2 98.9762 20.9517 84.8533
30488 1 90.9836 13.7969 64.4594
30489 2 90.79 14.6551 64.9347
30490 2 90.2911 13.1176 64.7025
30491 1 83.6704 12.121 89.6139
30492 2 84.0856 13.0189 89.7605
30493 2 83.9261 11.7792 88.7096
30494 1 1.50305 23.0749 16.2941
30495 2 0.972183 22.514 16.9293
30496 2 2.47885 22.9172 16.4456
30497 1 8.9945 23.9944 68.4761
30498 2 8.8065 24.3286 69.3997
30499 2 9.68673 24.5742 68.0464
30500 1 25.734 11.8769 63.7689
30501 2 25.3246 11.6086 62.897
30502 2 25.0708 12.4037 64.3006
30503 1 19.5183 22.8943 27.4306
30504 2 19.4736 23.5859 26.7097
30505 2 18.7831 22.2292 27.3004
30506 1 44.708 27.383 59.4329
30507 2 44.0014 27.9907 59.0704
30508 2 44.8847 26.6488 58.7773
30509 1 105.003 10.935 23.8355
30510 2 104.173 10.435 23.5891
30511 2 105.67 10.3011 24.2272
30512 1 12.8895 12.0084 53.2035
30513 2 12.6543 12.977 53.1233
30514 2 13.8111 11.9193 53.5811
30515 1 35.0491 24.3327 73.6889
30516 2 35.8009 23.7991 73.3013
30517 2 34.2103 24.1473 73.1771
30518 1 38.2562 20.8898 70.8122
30519 2 37.9546 21.0613 69.8744
30520 2 38.9824 21.5342 71.0519
30521 1 86.9923 3.646 49.6075
30522 2 87.1216 4.36917 48.9291
30523 2 86.0493 3.66554 49.9399
30524 1 44.6783 12.4607 54.4579
30525 2 43.8966 11.9414 54.1124
30526 2 45.4997 11.8916 54.4195
30527 1 77.8832 19.7982 66.8447
30528 2 77.2261 19.062 66.6828
30529 2 77.7839 20.4957 66.135
30530 1 62.8387 24.3057 34.7036
30531 2 62.2898 23.4786 34.825
30532 2 62.2995 25.1053 34.9678
30533 1 57.3669 21.3737 41.2673
30534 2 57.7609 21.0199 42.1155
30535 2 57.7166 20.8473 40.4923
30536 1 23.9469 2.76614 79.8386
30537 2 24.6699 3.34367 79.4596
30538 2 23.8127 2.99049 80.8039
30539 1 30.1588 12.156 71.5332
30540 2 29.6439 12.7998 70.9672
30541 2 30.3316 11.3195 71.0132
30542 1 84.2164 29.381 31.2345
30543 2 83.5014 28.7019 31.0686
30544 2 85.0418 28.9224 31.5637
30545 1 112.791 19.9142 52.1963
30546 2 113.092 19.3943 51.397
30547 2 113.567 20.412 52.5824
30548 1 102.836 27.6344 74.9811
30549 2 101.994 27.8281 75.4859
30550 2 103.026 28.386 74.3494
30551 1 9.64543 11.5555 76.2874
30552 2 8.69549 11.3646 76.0401
30553 2 10.1065 12.0012 75.5201
30554 1 72.5499 22.0105 54.4433
30555 2 72.1696 22.0992 55.3639
30556 2 73.4715 21.6264 54.499
30557 1 65.1481 17.0917 34.5563
30558 2 65.0334 16.1546 34.8858
30559 2 66.115 17.262 34.3658
30560 1 92.6678 6.77102 70.0262
30561 2 93.291 6.01514 70.2269
30562 2 93.1704 7.63493 70.0584
30563 1 91.4037 13.6589 54.435
30564 2 91.8012 13.7914 53.527
30565 2 90.9436 14.4987 54.7232
30566 1 85.9129 26.1515 49.9311
30567 2 86.3049 26.657 50.6997
30568 2 86.4899 26.2728 49.1234
30569 1 17.3067 6.6549 60.1135
30570 2 18.0543 7.10172 59.622
30571 2 17.6438 6.30763 60.9886
30572 1 8.3985 0.872591 20.2743
30573 2 7.56456 0.361271 20.0667
30574 2 8.85697 0.457643 21.0602
30575 1 111.763 8.77558 10.8714
30576 2 111.335 9.61691 10.5423
30577 2 112.724 8.95256 11.0848
30578 1 82.1246 23.7985 80.9504
30579 2 82.9852 23.4434 80.5855
30580 2 82.0598 24.7777 80.7583
30581 1 1.41837 13.9382 31.3052
30582 2 1.95527 13.2307 31.7648
30583 2 0.580574 14.1102 31.8234
30584 1 115.104 0.404966 79.8621
30585 2 114.419 29.7342 80.1453
30586 2 114.968 0.634344 78.8983
30587 1 56.484 12.7461 70.769
30588 2 56.9241 13.5057 71.2478
30589 2 57.022 12.5047 69.9613
30590 1 58.7833 19.4343 50.8712
30591 2 58.3551 20.338 50.872
30592 2 59.0146 19.1743 51.8087
30593 1 89.467 25.2932 41.8857
30594 2 89.9351 24.5345 42.3387
30595 2 88.5437 25.3854 42.2585
