LAMMPS (22 Jul 2025 - Update 5)
  using 1 OpenMP thread(s) per MPI task
Lattice spacing in x,y,z = 3.524 3.524 3.524
Created orthogonal box = (0 0 0) to (28.192 28.192 101.144)
  1 by 1 by 1 MPI processor grid
Lattice spacing in x,y,z = 4.9836886 5.7546679 6.103747
Created 884 atoms
  using lattice units in orthogonal box = (0 0 0) to (28.192 28.192 101.144)
  create_atoms CPU = 0.003 seconds
Created 770 atoms
  using lattice units in orthogonal box = (0 0 0) to (28.192 28.192 101.144)
  create_atoms CPU = 0.001 seconds
Read molecule template h2o:
# SPC/E water molecule template
  1 molecules
  0 fragments
  0 bodies
  3 atoms with max type 2
  2 bonds with max type 1
  1 angles with max type 1
  0 dihedrals with max type 0
  0 impropers with max type 0
Lattice spacing in x,y,z = 3.5 3.5 3.5
Created 2352 atoms
  using lattice units in orthogonal box = (0 0 0) to (28.192 28.192 101.144)
  create_atoms CPU = 0.001 seconds
2352 atoms in group watr
884 atoms in group bot
770 atoms in group top
1654 atoms in group elec
Setting atom values ...
  1654 settings made for charge
Finding SHAKE clusters ...
       0 = # of size 2 clusters
       0 = # of size 3 clusters
       0 = # of size 4 clusters
     784 = # of frozen angles
  find clusters CPU = 0.001 seconds
1654 atoms in group conp_group
RUNMODE: CONSTANT POTENTIAL (fix electrode/conp)

CITE-CITE-CITE-CITE-CITE-CITE-CITE-CITE-CITE-CITE-CITE-CITE-CITE

Your simulation uses code contributions which should be cited:
- kspace_style pppm/electrode command:
- fix electrode command:
The log file lists these citations in BibTeX format.

CITE-CITE-CITE-CITE-CITE-CITE-CITE-CITE-CITE-CITE-CITE-CITE-CITE

PPPM/electrode initialization ...
  using 12-bit tables for long-range coulomb
  G vector (1/distance) = 0.25325225
  grid = 15 15 90
  stencil order = 5
  estimated absolute RMS force accuracy = 0.022918289
  estimated relative force accuracy = 6.9017746e-05
  using double precision FFTW3
  3d grid and FFT values/proc = 44528 20250
Generated 0 of 6 mixed pair_coeff terms from geometric mixing rule
WARNING: Neighbor exclusions used with KSpace solver may give inconsistent Coulombic energies (src/lammps/src/neighbor.cpp:671)
Neighbor list info ...
  update: every = 1 steps, delay = 0 steps, check = yes
  max neighbors/atom: 2000, page size: 100000
  master list distance cutoff = 12
  ghost atom cutoff = 12
  binsize = 6, bins = 5 5 17
  2 neighbor lists, perpetual/occasional/extra = 2 0 0
  (1) pair lj/cut/coul/long, perpetual
      attributes: half, newton on
      pair build: half/bin/newton
      stencil: half/bin/3d
      bin: standard
  (2) fix electrode/conp, perpetual, copy from (1)
      attributes: half, newton on
      pair build: copy
      stencil: none
      bin: none
Setting up Verlet run ...
  Unit style    : real
  Current step  : 0
  Time step     : 1
Per MPI rank memory allocation (min/avg/max) = 37.57 | 37.57 | 37.57 Mbytes
   Step          Temp          PotEng         KinEng         TotEng         Press     
         0   162.00279     -590.55616      1555.4195      964.86331      2118.7788    
        20   337.04404     -2784.9533      3236.0236      451.07027     -1682.214     
        40   336.36119     -2942.6105      3229.4674      286.85692     -1782.2899    
        60   343.76236     -3195.0884      3300.5274      105.43901     -1506.1133    
        80   332.77765     -3303.0157      3195.0612     -107.95452     -943.91025    
       100   328.12284     -3490.6245      3150.3694     -340.25513     -464.6294     
       120   320.74086     -3643.0046      3079.4937     -563.51095     -138.3172     
       140   319.03812     -3863.7155      3063.1454     -800.57015     -40.493447    
       160   312.15997     -4050.7395      2997.1069     -1053.6326     -132.47504    
       180   300.93458     -4181.8716      2889.3298     -1292.5418     -36.316746    
       200   295.05301     -4366.1519      2832.8597     -1533.2922     -175.10869    
Loop time of 6.03278 on 1 procs for 200 steps with 4006 atoms

Performance: 2.864 ns/day, 8.379 hours/ns, 33.152 timesteps/s, 132.808 katom-step/s
99.9% CPU use with 1 MPI tasks x 1 OpenMP threads

MPI task timing breakdown:
Section |  min time  |  avg time  |  max time  |%varavg| %total
---------------------------------------------------------------
Pair    | 1.7096     | 1.7096     | 1.7096     |   0.0 | 28.34
Bond    | 0.00063119 | 0.00063119 | 0.00063119 |   0.0 |  0.01
Kspace  | 0.79047    | 0.79047    | 0.79047    |   0.0 | 13.10
Neigh   | 0.54678    | 0.54678    | 0.54678    |   0.0 |  9.06
Comm    | 0.042633   | 0.042633   | 0.042633   |   0.0 |  0.71
Output  | 0.0019596  | 0.0019596  | 0.0019596  |   0.0 |  0.03
Modify  | 2.927      | 2.927      | 2.927      |   0.0 | 48.52
Other   |            | 0.01364    |            |       |  0.23

Nlocal:           4006 ave        4006 max        4006 min
Histogram: 1 0 0 0 0 0 0 0 0 0
Nghost:           9745 ave        9745 max        9745 min
Histogram: 1 0 0 0 0 0 0 0 0 0
Neighs:         520140 ave      520140 max      520140 min
Histogram: 1 0 0 0 0 0 0 0 0 0

Total # of neighbors = 520140
Ave neighs/atom = 129.84024
Ave special neighs/atom = 1.1742386
Neighbor list builds = 16
Dangerous builds = 0
ATOMS_TOTAL: 4006  WATER: 2352  ELECTRODE: 1654
Total wall time: 0:00:55
