LAMMPS (22 Jul 2025 - Update 5)
  using 1 OpenMP thread(s) per MPI task
Reading data file ...
  orthogonal box = (0 0 0) to (37.095719 37.095719 37.095719)
  1 by 1 by 1 MPI processor grid
  reading atoms ...
  4912 atoms
  scanning bonds ...
  2 = max bonds/atom
  scanning angles ...
  1 = max angles/atom
  orthogonal box = (0 0 0) to (37.095719 37.095719 37.095719)
  1 by 1 by 1 MPI processor grid
  reading bonds ...
  3000 bonds
  reading angles ...
  1500 angles
Finding 1-2 1-3 1-4 neighbors ...
  special bond factors lj:    0        0        0       
  special bond factors coul:  0        0        0       
     2 = max # of 1-2 neighbors
     1 = max # of 1-3 neighbors
     1 = max # of 1-4 neighbors
     2 = max # of special neighbors
  special bonds CPU = 0.001 seconds
  read_data CPU = 0.027 seconds
4500 atoms in group watr
206 atoms in group kion
206 atoms in group ohion
412 atoms in group ions
Finding SHAKE clusters ...
       0 = # of size 2 clusters
       0 = # of size 3 clusters
       0 = # of size 4 clusters
    1500 = # of frozen angles
  find clusters CPU = 0.001 seconds
PPPM initialization ...
  using 12-bit tables for long-range coulomb
  G vector (1/distance) = 0.30441929
  grid = 32 32 32
  stencil order = 5
  estimated absolute RMS force accuracy = 0.0035943975
  estimated relative force accuracy = 1.0824421e-05
  using double precision FFTW3
  3d grid and FFT values/proc = 59319 32768
Generated 6 of 6 mixed pair_coeff terms from arithmetic mixing rule
Neighbor list info ...
  update: every = 1 steps, delay = 0 steps, check = yes
  max neighbors/atom: 2000, page size: 100000
  master list distance cutoff = 12
  ghost atom cutoff = 12
  binsize = 6, bins = 7 7 7
  1 neighbor lists, perpetual/occasional/extra = 1 0 0
  (1) pair lj/cut/coul/long, perpetual
      attributes: half, newton on
      pair build: half/bin/newton
      stencil: half/bin/3d
      bin: standard
Setting up Verlet run ...
  Unit style    : real
  Current step  : 0
  Time step     : 1
Per MPI rank memory allocation (min/avg/max) = 27.67 | 27.67 | 27.67 Mbytes
   Step          Temp          Press         Density         PotEng         Volume    
         0   298            34268.392      1.2550109     -5626.0101      51047.136    
       500   436.3339      -3050.5218      1.1294529     -55970.755      56721.897    
Loop time of 26.0512 on 1 procs for 500 steps with 4912 atoms

Performance: 1.658 ns/day, 14.473 hours/ns, 19.193 timesteps/s, 94.276 katom-step/s
100.0% CPU use with 1 MPI tasks x 1 OpenMP threads

MPI task timing breakdown:
Section |  min time  |  avg time  |  max time  |%varavg| %total
---------------------------------------------------------------
Pair    | 14.351     | 14.351     | 14.351     |   0.0 | 55.09
Bond    | 0.0027717  | 0.0027717  | 0.0027717  |   0.0 |  0.01
Kspace  | 3.7894     | 3.7894     | 3.7894     |   0.0 | 14.55
Neigh   | 2.0972     | 2.0972     | 2.0972     |   0.0 |  8.05
Comm    | 0.23032    | 0.23032    | 0.23032    |   0.0 |  0.88
Output  | 7.1907e-05 | 7.1907e-05 | 7.1907e-05 |   0.0 |  0.00
Modify  | 5.4552     | 5.4552     | 5.4552     |   0.0 | 20.94
Other   |            | 0.1254     |            |       |  0.48

Nlocal:           4912 ave        4912 max        4912 min
Histogram: 1 0 0 0 0 0 0 0 0 0
Nghost:          16324 ave       16324 max       16324 min
Histogram: 1 0 0 0 0 0 0 0 0 0
Neighs:    1.53615e+06 ave 1.53615e+06 max 1.53615e+06 min
Histogram: 1 0 0 0 0 0 0 0 0 0

Total # of neighbors = 1536149
Ave neighs/atom = 312.73392
Ave special neighs/atom = 1.8322476
Neighbor list builds = 55
Dangerous builds = 0
PPPM initialization ...
  using 12-bit tables for long-range coulomb
  G vector (1/distance) = 0.30181563
  grid = 32 32 32
  stencil order = 5
  estimated absolute RMS force accuracy = 0.0039932282
  estimated relative force accuracy = 1.2025488e-05
  using double precision FFTW3
  3d grid and FFT values/proc = 59319 32768
Generated 6 of 6 mixed pair_coeff terms from arithmetic mixing rule
Setting up Verlet run ...
  Unit style    : real
  Current step  : 0
  Time step     : 1
Per MPI rank memory allocation (min/avg/max) = 27.67 | 27.67 | 27.67 Mbytes
   Step          Temp          Press         Density         PotEng         Volume    
         0   436.3339      -3363.2025      1.1294529     -55970.748      56721.897    
       500   286.18097     -2139.9511      1.2371432     -60147.024      51784.392    
Loop time of 25.0791 on 1 procs for 500 steps with 4912 atoms

Performance: 1.723 ns/day, 13.933 hours/ns, 19.937 timesteps/s, 97.930 katom-step/s
100.0% CPU use with 1 MPI tasks x 1 OpenMP threads

MPI task timing breakdown:
Section |  min time  |  avg time  |  max time  |%varavg| %total
---------------------------------------------------------------
Pair    | 14.441     | 14.441     | 14.441     |   0.0 | 57.58
Bond    | 0.0026474  | 0.0026474  | 0.0026474  |   0.0 |  0.01
Kspace  | 3.753      | 3.753      | 3.753      |   0.0 | 14.96
Neigh   | 0.9846     | 0.9846     | 0.9846     |   0.0 |  3.93
Comm    | 0.21201    | 0.21201    | 0.21201    |   0.0 |  0.85
Output  | 0.00010865 | 0.00010865 | 0.00010865 |   0.0 |  0.00
Modify  | 5.5639     | 5.5639     | 5.5639     |   0.0 | 22.19
Other   |            | 0.1214     |            |       |  0.48

Nlocal:           4912 ave        4912 max        4912 min
Histogram: 1 0 0 0 0 0 0 0 0 0
Nghost:          17045 ave       17045 max       17045 min
Histogram: 1 0 0 0 0 0 0 0 0 0
Neighs:    1.67964e+06 ave 1.67964e+06 max 1.67964e+06 min
Histogram: 1 0 0 0 0 0 0 0 0 0

Total # of neighbors = 1679643
Ave neighs/atom = 341.94686
Ave special neighs/atom = 1.8322476
Neighbor list builds = 26
Dangerous builds = 0
RESULT density_g_cm3 0
PPPM initialization ...
  using 12-bit tables for long-range coulomb
  G vector (1/distance) = 0.3040668
  grid = 32 32 32
  stencil order = 5
  estimated absolute RMS force accuracy = 0.0036461654
  estimated relative force accuracy = 1.0980319e-05
  using double precision FFTW3
  3d grid and FFT values/proc = 59319 32768
Generated 6 of 6 mixed pair_coeff terms from arithmetic mixing rule
Setting up Verlet run ...
  Unit style    : real
  Current step  : 0
  Time step     : 1
Per MPI rank memory allocation (min/avg/max) = 29.92 | 29.92 | 29.92 Mbytes
   Step          Temp          Press         Density         PotEng         Volume    
         0   286.18097     -2423.7292      1.2371432     -60147.039      51784.392    
       500   297.57903     -3259.9213      1.2371432     -60250.961      51784.392    
Loop time of 24.1357 on 1 procs for 500 steps with 4912 atoms

Performance: 1.790 ns/day, 13.409 hours/ns, 20.716 timesteps/s, 101.758 katom-step/s
99.7% CPU use with 1 MPI tasks x 1 OpenMP threads

MPI task timing breakdown:
Section |  min time  |  avg time  |  max time  |%varavg| %total
---------------------------------------------------------------
Pair    | 19.05      | 19.05      | 19.05      |   0.0 | 78.93
Bond    | 0.0026087  | 0.0026087  | 0.0026087  |   0.0 |  0.01
Kspace  | 3.5643     | 3.5643     | 3.5643     |   0.0 | 14.77
Neigh   | 0.79492    | 0.79492    | 0.79492    |   0.0 |  3.29
Comm    | 0.17551    | 0.17551    | 0.17551    |   0.0 |  0.73
Output  | 3.8392e-05 | 3.8392e-05 | 3.8392e-05 |   0.0 |  0.00
Modify  | 0.49268    | 0.49268    | 0.49268    |   0.0 |  2.04
Other   |            | 0.05566    |            |       |  0.23

Nlocal:           4912 ave        4912 max        4912 min
Histogram: 1 0 0 0 0 0 0 0 0 0
Nghost:          16993 ave       16993 max       16993 min
Histogram: 1 0 0 0 0 0 0 0 0 0
Neighs:    1.68468e+06 ave 1.68468e+06 max 1.68468e+06 min
Histogram: 1 0 0 0 0 0 0 0 0 0

Total # of neighbors = 1684683
Ave neighs/atom = 342.97292
Ave special neighs/atom = 1.8322476
Neighbor list builds = 22
Dangerous builds = 0
DONE smoke
Total wall time: 0:01:15
