LAMMPS (22 Jul 2025 - Update 5)
  using 1 OpenMP thread(s) per MPI task
Reading data file ...
  orthogonal box = (0 0 0) to (37.095719 37.095719 37.095719)
  1 by 1 by 1 MPI processor grid
  reading atoms ...
  4912 atoms
  scanning bonds ...
  2 = max bonds/atom
  scanning angles ...
  1 = max angles/atom
  orthogonal box = (0 0 0) to (37.095719 37.095719 37.095719)
  1 by 1 by 1 MPI processor grid
  reading bonds ...
  3000 bonds
  reading angles ...
  1500 angles
Finding 1-2 1-3 1-4 neighbors ...
  special bond factors lj:    0        0        0       
  special bond factors coul:  0        0        0       
     2 = max # of 1-2 neighbors
     1 = max # of 1-3 neighbors
     1 = max # of 1-4 neighbors
     2 = max # of special neighbors
  special bonds CPU = 0.001 seconds
  read_data CPU = 0.025 seconds
4500 atoms in group watr
206 atoms in group kion
206 atoms in group ohion
412 atoms in group ions
Finding SHAKE clusters ...
       0 = # of size 2 clusters
       0 = # of size 3 clusters
       0 = # of size 4 clusters
    1500 = # of frozen angles
  find clusters CPU = 0.001 seconds
PPPM initialization ...
  using 12-bit tables for long-range coulomb
  G vector (1/distance) = 0.30441929
  grid = 32 32 32
  stencil order = 5
  estimated absolute RMS force accuracy = 0.0035943975
  estimated relative force accuracy = 1.0824421e-05
  using double precision FFTW3
  3d grid and FFT values/proc = 59319 32768
Generated 6 of 6 mixed pair_coeff terms from arithmetic mixing rule
WARNING: Using fix shake with minimization.
  Substituting constraints with harmonic restraint forces using kbond=1987206.7 (src/lammps/src/RIGID/fix_shake.cpp:385)
Neighbor list info ...
  update: every = 1 steps, delay = 0 steps, check = yes
  max neighbors/atom: 2000, page size: 100000
  master list distance cutoff = 12
  ghost atom cutoff = 12
  binsize = 6, bins = 7 7 7
  1 neighbor lists, perpetual/occasional/extra = 1 0 0
  (1) pair lj/cut/coul/long, perpetual
      attributes: half, newton on
      pair build: half/bin/newton
      stencil: half/bin/3d
      bin: standard
Setting up cg style minimization ...
  Unit style    : real
  Current step  : 0
Per MPI rank memory allocation (min/avg/max) = 29.92 | 29.92 | 29.92 Mbytes
   Step          Temp          Press         Density         PotEng         Volume    
         0   0              29257.821      1.2550109     -5625.8281      51047.136    
        21   0              26934.53       1.2550109     -8279.1322      51047.136    
Loop time of 3.11017 on 1 procs for 21 steps with 4912 atoms

100.0% CPU use with 1 MPI tasks x 1 OpenMP threads

Minimization stats:
  Stopping criterion = energy tolerance
  Energy initial, next-to-last, final = 
      -5625.8281000746  -8278.37734703568  -8279.13218322828
  Force two-norm initial, final = 3863.1319 3451.2667
  Force max component initial, final = 178.15358 755.26781
  Final line search alpha, max atom move = 1.8857043e-05 0.014242118
  Iterations, force evaluations = 21 95

MPI task timing breakdown:
Section |  min time  |  avg time  |  max time  |%varavg| %total
---------------------------------------------------------------
Pair    | 2.6103     | 2.6103     | 2.6103     |   0.0 | 83.93
Bond    | 0.00021778 | 0.00021778 | 0.00021778 |   0.0 |  0.01
Kspace  | 0.42343    | 0.42343    | 0.42343    |   0.0 | 13.61
Neigh   | 0          | 0          | 0          |   0.0 |  0.00
Comm    | 0.0072359  | 0.0072359  | 0.0072359  |   0.0 |  0.23
Output  | 0          | 0          | 0          |   0.0 |  0.00
Modify  | 0.062298   | 0.062298   | 0.062298   |   0.0 |  2.00
Other   |            | 0.006659   |            |       |  0.21

Nlocal:           4912 ave        4912 max        4912 min
Histogram: 1 0 0 0 0 0 0 0 0 0
Nghost:          18324 ave       18324 max       18324 min
Histogram: 1 0 0 0 0 0 0 0 0 0
Neighs:    1.69614e+06 ave 1.69614e+06 max 1.69614e+06 min
Histogram: 1 0 0 0 0 0 0 0 0 0

Total # of neighbors = 1696139
Ave neighs/atom = 345.30517
Ave special neighs/atom = 1.8322476
Neighbor list builds = 0
Dangerous builds = 0
PPPM initialization ...
  using 12-bit tables for lon