LAMMPS (22 Jul 2025 - Update 5)
  using 1 OpenMP thread(s) per MPI task
Reading data file ...
  orthogonal box = (0 0 0) to (37.095719 37.095719 37.095719)
  1 by 1 by 1 MPI processor grid
  reading atoms ...
  4912 atoms
  scanning bonds ...
  2 = max bonds/atom
  scanning angles ...
  1 = max angles/atom
  orthogonal box = (0 0 0) to (37.095719 37.095719 37.095719)
  1 by 1 by 1 MPI processor grid
  reading bonds ...
  3000 bonds
  reading angles ...
  1500 angles
Finding 1-2 1-3 1-4 neighbors ...
  special bond factors lj:    0        0        0       
  special bond factors coul:  0        0        0       
     2 = max # of 1-2 neighbors
     1 = max # of 1-3 neighbors
     1 = max # of 1-4 neighbors
     2 = max # of special neighbors
  special bonds CPU = 0.001 seconds
  read_data CPU = 0.026 seconds
4500 atoms in group watr
206 atoms in group kion
206 atoms in group ohion
412 atoms in group ions
Finding SHAKE clusters ...
       0 = # of size 2 clusters
       0 = # of size 3 clusters
       0 = # of size 4 clusters
    1500 = # of frozen angles
  find clusters CPU = 0.001 seconds
PPPM initialization ...
  using 12-bit tables for long-range coulomb
  G vector (1/distance) = 0.30441929
  grid = 32 32 32
  stencil order = 5
  estimated absolute RMS force accuracy = 0.0035943975
  estimated relative force accuracy = 1.0824421e-05
  using double precision FFTW3
  3d grid and FFT values/proc = 59319 32768
Generated 6 of 6 mixed pair_coeff terms from arithmetic mixing rule
WARNING: Should not use fix nve/limit with fix shake or fix rattle (src/lammps/src/fix_nve_limit.cpp:76)
Neighbor list info ...
  update: every = 1 steps, delay = 0 steps, check = yes
  max neighbors/atom: 2000, page size: 100000
  master list distance cutoff = 12
  ghost atom cutoff = 12
  binsize = 6, bins = 7 7 7
  1 neighbor lists, perpetual/occasional/extra = 1 0 0
  (1) pair lj/cut/coul/long, perpetual
      attributes: half, newton on
      pair build: half/bin/newton
      stencil: half/bin/3d
      bin: standard
Setting up Verlet run ...
  Unit style    : real
  Current step  : 0
  Time step     : 0.2
Per MPI rank memory allocation (min/avg/max) = 27.67 | 27.67 | 27.67 Mbytes
   Step          Temp          Press         Density         PotEng         Volume    
         0   298            94780.775      1.2550109      3225.5907      51047.136    
       500   721.68864      18679.799      1.2550109     -44574.181      51047.136    
      1000   378.224        8342.7456      1.2550109     -49241.79       51047.136    
      1500   320.52182      4896.4872      1.2550109     -50564.131      51047.136    
      2000   307.20483      4742.7885      1.2550109     -51058.374      51047.136    
      2500   314.58422      4974.7675      1.2550109     -51364.18       51047.136    
      3000   304.13506      5404.9005      1.2550109     -51506.473      51047.136    
      3500   305.48582      4091.834       1.2550109     -51661.075      51047.136    
      4000   299.91403      5912.5378      1.2550109     -51725.149      51047.136    
      4500   298.49829      4096.3981      1.2550109     -51850.277      51047.136    
      5000   295.87842      3623.4202      1.2550109     -51943.09       51047.136    
      5500   302.46917      4555.3531      1.2550109     -52007.336      51047.136    
      6000   303.58335      5489.5566      1.2550109     -52077.856      51047.136    
      6500   305.32337      3675.7349      1.2550109     -52116.253      51047.136    
      7000   301.44304      4284.7721      1.2550109     -52108.262      51047.136    
      7500   303.30303      4974.7272      1.2550109     -52101.583      51047.136    
      8000   305.66124      4515.1813      1.2550109     -52216.549      51047.136    
      8500   296.2934       3287.6993      1.2550109     -52317.341      51047.136    
      9000   296.46683      3578.8083      1.2550109     -52315.251      51047.136    
      9500   302.85712      4218.936       1.2550109     -52345.631      51047.136    
     10000   299.63653      3081.8564      1.2550109     -52399.391      51047.136    
     10500   302.09177      2288.6111      1.2550109     -52414.048      51047.136    
     11000   298.64694      4777.6309      1.2550109     -52406.339      51047.136    
     11500   300.85434      4716.9913      1.2550109     -52363.436      51047.136    
     12000   295.04513      4731.0228      1.2550109     -52344.376      51047.136    
     12500   301.50563      5199.2673      1.2550109     -52439.934      51047.136    
     13000   301.89105      5789.8356      1.2550109     -52403.276      51047.136    
     13500   299.19539      4535.4258      1.2550109     -52494.407      51047.136    
     14000   298.07884      5517.3214      1.2550109     -52470.609      51047.136    
     14500   295.83452      4306.37        1.2550109     -52500.967      51047.136    
     15000   302.72095      3434.4554      1.2550109     -52503.124      51047.136    
     15500   296.45061      3611.0153      1.2550109     -52599.625      51047.136    
     16000   298.86595      4389.4044      1.2550109     -52570.718      51047.136    
     16500   301.72424      4145.5091      1.2550109     -52527.878      51047.136    
     17000   294.01657      5131.272       1.2550109     -52528.683      51047.136    
     17500   299.94935      3431.7338      1.2550109     -52552.347      51047.136    
     18000   286.74952      4297.9196      1.2550109     -52614.793      51047.136    
     18500   298.97128      3409.097       1.2550109     -52559.81       51047.136    
     19000   297.58715      3867.0485      1.2550109     -52585.891      51047.136    
     19500   305.81885      3782.0575      1.2550109     -52706.857      51047.136    
     20000   308.32273      3101.4228      1.2550109     -52639.55       51047.136    
Loop time of 602.552 on 1 procs for 20000 steps with 4912 atoms

Performance: 0.574 ns/day, 41.844 hours/ns, 33.192 timesteps/s, 163.040 katom-step/s
100.0% CPU use with 1 MPI tasks x 1 OpenMP threads

MPI task timing breakdown:
Section |  min time  |  avg time  |  max time  |%varavg| %total
---------------------------------------------------------------
Pair    | 470.92     | 470.92     | 470.92     |   0.0 | 78.15
Bond    | 0.035402   | 0.035402   | 0.035402   |   0.0 |  0.01
Kspace  | 107.27     | 107.27     | 107.27     |   0.0 | 17.80
Neigh   | 6.8482     | 6.8482     | 6.8482     |   0.0 |  1.14
Comm    | 3.5044     | 3.5044     | 3.5044     |   0.0 |  0.58
Output  | 0.0026887  | 0.0026887  | 0.0026887  |   0.0 |  0.00
Modify  | 12.916     | 12.916     | 12.916     |   0.0 |  2.14
Other   |            | 1.064      |            |       |  0.18

Nlocal:           4912 ave        4912 max        4912 min
Histogram: 1 0 0 0 0 0 0 0 0 0
Nghost:          17331 ave       17331 max       17331 min
Histogram: 1 0 0 0 0 0 0 0 0 0
Neighs:    1.70938e+06 ave 1.70938e+06 max 1.70938e+06 min
Histogram: 1 0 0 0 0 0 0 0 0 0

Total # of neighbors = 1709376
Ave neighs/atom = 348
Ave special neighs/atom = 1.8322476
Neighbor list builds = 189
Dangerous builds = 0
PPPM initialization ...
  using 12-bit tables for long-range coulomb
  G vector (1/distance) = 0.30441929
  grid = 32 32 32
  stencil order = 5
  estimated absolute RMS force accuracy = 0.0035943975
  estimated relative force accuracy = 1.0824421e-05
  using double precision FFTW3
  3d grid and FFT values/proc = 59319 32768
Generated 6 of 6 mixed pair_coeff terms from arithmetic mixing rule
Setting up Verlet run ...
  Unit style    : real
  Current step  : 20000
  Time step     : 0.5
Per MPI rank memory allocation (min/avg/max) = 27.67 | 27.67 | 27.67 Mbytes
   Step          Temp          Press         Density         PotEng         Volume    
     20000   308.32273      3707.1047      1.2550109     -52639.55       51047.136    
     20500   297.63166      4734.8914      1.2550109     -52581.101      51047.136    
     21000   294.17742      3734.3252      1.2550109     -52651.859      51047.136    
     21500   294.31324      3470.9825      1.2550109     -52759.951      51047.136    
     22000   306.46139      3306.5747      1.2550109     -52602.398      51047.136    
     22500   296.02302      3045.1762      1.2550109     -52732.009      51047.136    
     23000   295.4198       4679.5696      1.2550109     -52647.334      51047.136    
     23500   298.94049      3812.6546      1.2550109     -52736.12       51047.136    
     24000   296.27999      4747.618       1.2550109     -52728.42       51047.136    
     24500   297.7183       4065.0407      1.2550109     -52630.613      51047.136    
     25000   299.06496      3624.3561      1.2550109     -52716.873      51047.136    
     25500   296.60805      3500.0404      1.2550109     -52734.279      51047.136    
     26000   292.6106       3171.3305      1.2550109     -52753.357      51047.136    
     26500   295.42959      4248.0521      1.2550109     -52706.007      51047.136    
     27000   298.30758      2752.6893      1.2550109     -52754.161      51047.136    
     27500   307.60737      3914.1514      1.2550109     -52800.438      51047.136    
     28000   299.84344      3523.4503      1.2550109     -52744.125      51047.136    
     28500   299.38604      3426.5819      1.2550109     -52816.452      51047.136    
     29000   301.82611      3964.2199      1.2550109     -52814.195      51047.136    
     29500   301.56732      3462.1207      1.2550109     -52802.618      51047.136    
     30000   305.30792      3678.5934      1.2550109     -52815.082      51047.136    
     30500   294.40214      3287.0108      1.2550109     -52824.324      51047.136    
     31000   300.89329      3800.0221      1.2550109     -52917.624      51047.136    
     31500   308.18015      4402.6109      1.2550109     -52823.874      51047.136    
     32000   292.15562      3788.3845      1.2550109     -52900.405      51047.136    
     32500   295.89665      4287.4829      1.2550109     -52794.998      51047.136    
     33000   302.16339      3391.7516      1.2550109     -52667.02       51047.136    
     33500   303.16897      3746.034       1.2550109     -52734.388      51047.136    
     34000   303.93266      3352.2873      1.2550109     -52800.504      51047.136    
     34500   299.17979      3561.5732      1.2550109     -52779.011      51047.136    
     35000   301.96719      4023.8782      1.2550109     -52869.729      51047.136    
     35500   296.21721      3384.425       1.2550109     -52936.658      51047.136    
     36000   302.80129      2841.0686      1.2550109     -52856.611      51047.136    
     36500   295.4846       4149.578       1.2550109     -52867.122      51047.136    
     37000   295.11549      3592.4167      1.2550109     -52867.592      51047.136    
     37500   298.70792      3419.3326      1.2550109     -52912.064      51047.136    
     38000   298.58164      4142.8983      1.2550109     -52904.618      51047.136    
     38500   290.40114      3547.0971      1.2550109     -52848.394      51047.136    
     39000   298.82813      3538.0723      1.2550109     -52925.447      51047.136    
     39500   294.26983      4400.7853      1.2550109     -52917.408      51047.136    
     40000   302.07818      4315.409       1.2550109     -52934.531      51047.136    
Loop time of 516.68 on 1 procs for 20000 steps with 4912 atoms

Performance: 1.672 ns/day, 14.352 hours/ns, 38.709 timesteps/s, 190.137 katom-step/s
100.0% CPU use with 1 MPI tasks x 1 OpenMP threads

MPI task timing breakdown:
Section |  min time  |  avg time  |  max time  |%varavg| %total
---------------------------------------------------------------
Pair    | 399.11     | 399.11     | 399.11     |   0.0 | 77.25
Bond    | 0.021493   | 0.021493   | 0.021493   |   0.0 |  0.00
Kspace  | 90.902     | 90.902     | 90.902     |   0.0 | 17.59
Neigh   | 13.857     | 13.857     | 13.857     |   0.0 |  2.68
Comm    | 1.8284     | 1.8284     | 1.8284     |   0.0 |  0.35
Output  | 0.0022388  | 0.0022388  | 0.0022388  |   0.0 |  0.00
Modify  | 10.38      | 10.38      | 10.38      |   0.0 |  2.01
Other   |            | 0.5767     |            |       |  0.11

Nlocal:           4912 ave        4912 max        4912 min
Histogram: 1 0 0 0 0 0 0 0 0 0
Nghost:          17189 ave       17189 max       17189 min
Histogram: 1 0 0 0 0 0 0 0 0 0
Neighs:    1.70948e+06 ave 1.70948e+06 max 1.70948e+06 min
Histogram: 1 0 0 0 0 0 0 0 0 0

Total # of neighbors = 1709476
Ave neighs/atom = 348.02036
Ave special neighs/atom = 1.8322476
Neighbor list builds = 452
Dangerous builds = 0
PPPM initialization ...
  using 12-bit tables for long-range coulomb
  G vector (1/distance) = 0.30441929
  grid = 32 32 32
  stencil order = 5
  estimated absolute RMS force accuracy = 0.0035943975
  estimated relative force accuracy = 1.0824421e-05
  using double precision FFTW3
  3d grid and FFT values/proc = 59319 32768
Generated 6 of 6 mixed pair_coeff terms from arithmetic mixing rule
Setting up Verlet run ...
  Unit style    : real
  Current step  : 40000
  Time step     : 1
Per MPI rank memory allocation (min/avg/max) = 27.67 | 27.67 | 27.67 Mbytes
   Step          Temp          Press         Density         PotEng         Volume    
     40000   302.07818      3941.7493      1.2550109     -52934.531      51047.136    
     40500   301.64545     -236.11131      1.1886856     -52689.357      53895.418    
     41000   288.06193      471.56563      1.1904508     -52693.376      53815.505    
     41500   295.70931      86.085824      1.1832522     -52542.545      54142.904    
     42000   298.3513       170.23372      1.1785522     -52616.05       54358.824    
     42500   296.5006      -95.204871      1.1728985     -52687.298      54620.846    
     43000   293.78568     -31.139607      1.1699503     -52622.194      54758.49     
     43500   297.04688      3.5798212      1.1683412     -52564.127      54833.907    
     44000   296.64037      264.78692      1.1696044     -52671.862      54774.685    
     44500   291.91297     -359.40953      1.1631377     -52680.491      55079.213    
     45000   303.31472      623.44161      1.1746656     -52776.984      54538.678    
     45500   302.61552     -24.136676      1.1684685     -52669.209      54827.931    
     46000   295.04898     -282.54863      1.1665157     -52598.939      54919.718    
     46500   294.72279     -262.32356      1.1626032     -52583.288      55104.538    
     47000   298.33988     -863.56956      1.1585698     -52558.393      55296.373    
     47500   298.13905     -217.8187       1.1596555     -52573.01       55244.605    
     48000   292.75249      223.10748      1.1609512     -52622.059      55182.949    
     48500   292.92999      1.1656691      1.1577363     -52659.608      55336.187    
     49000   296.37154      164.62632      1.1587031     -52615.957      55290.013    
     49500   296.83746      150.49243      1.1645103     -52566.673      55014.294    
     50000   296.90089      75.389322      1.1612056     -52533.315      55170.858    
     50500   298.46723     -427.36946      1.160872      -52710.703      55186.713    
     51000   294.17941     -197.73213      1.1579341     -52623.281      55326.732    
     51500   301.50314     -530.50845      1.1601573     -52639.172      55220.709    
     52000   300.21735     -140.52247      1.161435      -52699.543      55159.964    
     52500   298.88777      293.79586      1.1638503     -52595.394      55045.49     
     53000   302.00726      873.08852      1.1705401     -52636.974      54730.898    
     53500   292.24934     -601.96817      1.1566824     -52721.529      55386.602    
     54000   301.87191     -94.996686      1.1674802     -52645.234      54874.344    
     54500   298.25345     -111.4067       1.163612      -52636.437      55056.761    
     55000   295.05321      393.96479      1.1642986     -52813.299      55024.296    
     55500   295.94173      292.92501      1.159219      -52615.917      55265.408    
     56000   295.36206      341.1149       1.1640771     -52665.089      55034.766    
     56500   302.97218      151.95847      1.1554881     -52638.039      55443.849    
     57000   297.99779     -208.20854      1.1543856     -52698.302      55496.801    
     57500   296.6945       416.76162      1.1555752     -52692.351      55439.671    
     58000   293.29538     -76.933618      1.1480086     -52532.484      55805.077    
     58500   299.24487      416.34277      1.1631726     -52673.057      55077.562    
     59000   299.57935     -84.339354      1.1676835     -52685.264      54864.79     
     59500   300.3416      -7.5269967      1.1581172     -52608.82       55317.986    
     60000   298.20984      231.02276      1.1655338     -52630.171      54965.983    
     60500   294.84508     -11.144529      1.1541015     -52621.869      55510.465    
     61000   296.80084     -557.76748      1.15799       -52595.292      55324.063    
     61500   295.88612     -732.45687      1.1564623     -52692.734      55397.144    
     62000   298.1634      -169.32129      1.1571762     -52594.872      55362.969    
     62500   298.72904      91.333075      1.1625583     -52646.556      55106.662    
     63000   301.31218      679.77242      1.1636937     -52651.133      55052.897    
     63500   305.80297      231.6583       1.166596      -52717.398      54915.934    
     64000   292.93546     -234.50229      1.1633954     -52662.86       55067.012    
     64500   290.03674      80.773539      1.1672258     -52652.082      54886.303    
     65000   289.73967      266.82716      1.1684328     -52642.25       54829.604    
     65500   296.24349      170.94466      1.1687789     -52712.978      54813.37     
     66000   297.89358      8.937393       1.1684541     -52643.629      54828.608    
     66500   297.05769      455.90016      1.1686596     -52669.257      54818.964    
     67000   299.07166      18.177775      1.1654113     -52617.799      54971.758    
     67500   291.1846      -339.95899      1.1691404     -52772.27       54796.423    
     68000   295.03207     -500.14469      1.1603083     -52784.553      55213.524    
     68500   297.13354     -817.53745      1.1605953     -52631.765      55199.871    
     69000   297.65671     -250.76772      1.1596828     -52697.123      55243.304    
     69500   293.15639     -176.06744      1.1668541     -52663.752      54903.787    
     70000   302.64186     -89.578022      1.1632853     -52636.902      55072.223    
Loop time of 1061.36 on 1 procs for 30000 steps with 4912 atoms

Performance: 2.442 ns/day, 9.827 hours/ns, 28.266 timesteps/s, 138.841 katom-step/s
100.0% CPU use with 1 MPI tasks x 1 OpenMP threads

MPI task timing breakdown:
Section |  min time  |  avg time  |  max time  |%varavg| %total
---------------------------------------------------------------
Pair    | 558.65     | 558.65     | 558.65     |   0.0 | 52.64
Bond    | 0.057703   | 0.057703   | 0.057703   |   0.0 |  0.01
Kspace  | 137.98     | 137.98     | 137.98     |   0.0 | 13.00
Neigh   | 42.479     | 42.479     | 42.479     |   0.0 |  4.00
Comm    | 3.1299     | 3.1299     | 3.1299     |   0.0 |  0.29
Output  | 0.0031809  | 0.0031809  | 0.0031809  |   0.0 |  0.00
Modify  | 317.47     | 317.47     | 317.47     |   0.0 | 29.91
Other   |            | 1.58       |            |       |  0.15

Nlocal:           4912 ave        4912 max        4912 min
Histogram: 1 0 0 0 0 0 0 0 0 0
Nghost:          16401 ave       16401 max       16401 min
Histogram: 1 0 0 0 0 0 0 0 0 0
Neighs:    1.58334e+06 ave 1.58334e+06 max 1.58334e+06 min
Histogram: 1 0 0 0 0 0 0 0 0 0

Total # of neighbors = 1583342
Ave neighs/atom = 322.34161
Ave special neighs/atom = 1.8322476
Neighbor list builds = 1428
Dangerous builds = 0
PPPM initialization ...
  using 12-bit tables for long-range coulomb
  G vector (1/distance) = 0.30254749
  grid = 32 32 32
  stencil order = 5
  estimated absolute RMS force accuracy = 0.003877206
  estimated relative force accuracy = 1.1676091e-05
  using double precision FFTW3
  3d grid and FFT values/proc = 59319 32768
Generated 6 of 6 mixed pair_coeff terms from arithmetic mixing rule
Setting up Verlet run ...
  Unit style    : real
  Current step  : 0
  Time step     : 1
Per MPI rank memory allocation (min/avg/max) = 27.67 | 27.67 | 27.67 Mbytes
   Step          Temp          Press         Density         PotEng         Volume    
         0   302.64186