LAMMPS (22 Jul 2025 - Update 5)
  using 1 OpenMP thread(s) per MPI task
Reading data file ...
  orthogonal box = (0 0 0) to (37.095719 37.095719 37.095719)
  1 by 1 by 1 MPI processor grid
  reading atoms ...
  4912 atoms
  scanning bonds ...
  2 = max bonds/atom
  scanning angles ...
  1 = max angles/atom
  orthogonal box = (0 0 0) to (37.095719 37.095719 37.095719)
  1 by 1 by 1 MPI processor grid
  reading bonds ...
  3000 bonds
  reading angles ...
  1500 angles
Finding 1-2 1-3 1-4 neighbors ...
  special bond factors lj:    0        0        0       
  special bond factors coul:  0        0        0       
     2 = max # of 1-2 neighbors
     1 = max # of 1-3 neighbors
     1 = max # of 1-4 neighbors
     2 = max # of special neighbors
  special bonds CPU = 0.001 seconds
  read_data CPU = 0.030 seconds
4500 atoms in group watr
206 atoms in group kion
206 atoms in group ohion
412 atoms in group ions
Finding SHAKE clusters ...
       0 = # of size 2 clusters
       0 = # of size 3 clusters
       0 = # of size 4 clusters
    1500 = # of frozen angles
  find clusters CPU = 0.001 seconds
PPPM initialization ...
  using 12-bit tables for long-range coulomb
  G vector (1/distance) = 0.30441929
  grid = 32 32 32
  stencil order = 5
  estimated absolute RMS force accuracy = 0.0035943975
  estimated relative force accuracy = 1.0824421e-05
  using double precision FFTW3
  3d grid and FFT values/proc = 59319 32768
Generated 6 of 6 mixed pair_coeff terms from arithmetic mixing rule
WARNING: Should not use fix nve/limit with fix shake or fix rattle (src/lammps/src/fix_nve_limit.cpp:76)
Neighbor list info ...
  update: every = 1 steps, delay = 0 steps, check = yes
  max neighbors/atom: 2000, page size: 100000
  master list distance cutoff = 12
  ghost atom cutoff = 12
  binsize = 6, bins = 7 7 7
  1 neighbor lists, perpetual/occasional/extra = 1 0 0
  (1) pair lj/cut/coul/long, perpetual
      attributes: half, newton on
      pair build: half/bin/newton
      stencil: half/bin/3d
      bin: standard
Setting up Verlet run ...
  Unit style    : real
  Current step  : 0
  Time step     : 0.2
Per MPI rank memory allocation (min/avg/max) = 27.67 | 27.67 | 27.67 Mbytes
   Step          Temp          Press         Density         PotEng         Volume    
         0   298            65230.996      1.2550109     -2686.9848      51047.136    
       500   714.53336      10773.616      1.2550109     -47999.74       51047.136    
      1000   377.54207      2235.3272      1.2550109     -52608.7        51047.136    
      1500   318.05961     -492.6584       1.2550109     -54024.491      51047.136    
      2000   309.54102     -757.14101      1.2550109     -54514.15       51047.136    
      2500   302.89881      183.85334      1.2550109     -54863.834      51047.136    
      3000   301.00926     -722.56386      1.2550109     -55028.15       51047.136    
      3500   293.5334       516.46634      1.2550109     -55097.239      51047.136    
      4000   295.09392      2125.5146      1.2550109     -55278.372      51047.136    
      4500   297.43302     -56.810011      1.2550109     -55366.04       51047.136    
      5000   299.97797     -755.89302      1.2550109     -55390.673      51047.136    
      5500   304.10413     -1940.3221      1.2550109     -55448.814      51047.136    
      6000   301.31247     -1024.0994      1.2550109     -55604.986      51047.136    
      6500   296.63722      977.39483      1.2550109     -55563.118      51047.136    
      7000   306.04124     -803.5336       1.2550109     -55681.08       51047.136    
      7500   299.93922     -907.38813      1.2550109     -55720.711      51047.136    
      8000   301.71654      809.48798      1.2550109     -55799.278      51047.136    
      8500   303.45396      125.67441      1.2550109     -55887.349      51047.136    
      9000   287.86126     -301.70631      1.2550109     -55825.168      51047.136    
      9500   300.67184     -102.37929      1.2550109     -55944.049      51047.136    
     10000   304.02328     -1061.625       1.2550109     -55918.98       51047.136    
     10500   296.77219      83.978643      1.2550109     -55930.361      51047.136    
     11000   300.19611     -230.37457      1.2550109     -55933.697      51047.136    
     11500   300.07969      1066.5646      1.2550109     -55952.87       51047.136    
     12000   302.65011     -143.05479      1.2550109     -55916.778      51047.136    
     12500   302.92172     -540.48676      1.2550109     -55918.443      51047.136    
     13000   299.89032     -848.9398       1.2550109     -55970.859      51047.136    
     13500   295.62164     -477.54073      1.2550109     -55999.877      51047.136    
     14000   299.11562      605.82548      1.2550109     -56045.285      51047.136    
     14500   299.00957     -27.976259      1.2550109     -56055.056      51047.136    
     15000   306.79745      586.26181      1.2550109     -56053.372      51047.136    
     15500   296.38052      464.56283      1.2550109     -56114.066      51047.136    
     16000   295.51531      266.92303      1.2550109     -56142.185      51047.136    
     16500   295.23058      1786.8974      1.2550109     -56042.953      51047.136    
     17000   289.87252     -770.16027      1.2550109     -56079.976      51047.136    
     17500   292.58839     -1097.1442      1.2550109     -56116.143      51047.136    
     18000   296.27883      407.12555      1.2550109     -56193.683      51047.136    
     18500   305.20324      128.10754      1.2550109     -56157.481      51047.136    
     19000   300.26385      1078.93        1.2550109     -56226.698      51047.136    
     19500   297.79596      1368.531       1.2550109     -56215.86       51047.136    
     20000   302.53165     -1572.2432      1.2550109     -56228.406      51047.136    
Loop time of 599.982 on 1 procs for 20000 steps with 4912 atoms

Performance: 0.576 ns/day, 41.665 hours/ns, 33.334 timesteps/s, 163.738 katom-step/s
100.0% CPU use with 1 MPI tasks x 1 OpenMP threads

MPI task timing breakdown:
Section |  min time  |  avg time  |  max time  |%varavg| %total
---------------------------------------------------------------
Pair    | 466.12     | 466.12     | 466.12     |   0.0 | 77.69
Bond    | 0.031357   | 0.031357   | 0.031357   |   0.0 |  0.01
Kspace  | 109.88     | 109.88     | 109.88     |   0.0 | 18.31
Neigh   | 6.4777     | 6.4777     | 6.4777     |   0.0 |  1.08
Comm    | 3.5269     | 3.5269     | 3.5269     |   0.0 |  0.59
Output  | 0.0026135  | 0.0026135  | 0.0026135  |   0.0 |  0.00
Modify  | 12.891     | 12.891     | 12.891     |   0.0 |  2.15
Other   |            | 1.054      |            |       |  0.18

Nlocal:           4912 ave        4912 max        4912 min
Histogram: 1 0 0 0 0 0 0 0 0 0
Nghost:          17296 ave       17296 max       17296 min
Histogram: 1 0 0 0 0 0 0 0 0 0
Neighs:    1.70874e+06 ave 1.70874e+06 max 1.70874e+06 min
Histogram: 1 0 0 0 0 0 0 0 0 0

Total # of neighbors = 1708743
Ave neighs/atom = 347.87113
Ave special neighs/atom = 1.8322476
Neighbor list builds = 185
Dangerous builds = 0
PPPM initialization ...
  using 12-bit tables for long-range coulomb
  G vector (1/distance) = 0.30441929
  grid = 32 32 32
  stencil order = 5
  estimated absolute RMS force accuracy = 0.0035943975
  estimated relative force accuracy = 1.0824421e-05
  using double precision FFTW3
  3d grid and FFT values/proc = 59319 32768
Generated 6 of 6 mixed pair_coeff terms from arithmetic mixing rule
Setting up Verlet run ...
  Unit style    : real
  Current step  : 20000
  Time step     : 0.5
Per MPI rank memory allocation (min/avg/max) = 27.67 | 27.67 | 27.67 Mbytes
   Step          Temp          Press         Density         PotEng         Volume    
     20000   302.53165     -209.49591      1.2550109     -56228.406      51047.136    
     20500   306.44979      562.51998      1.2550109     -56227.422      51047.136    
     21000   304.17513     -220.10858      1.2550109     -56251.7        51047.136    
     21500   303.30987      44.932624      1.2550109     -56356.401      51047.136    
     22000   302.7007       0.051064154    1.2550109     -56191.318      51047.136    
     22500   298.38834     -391.16969      1.2550109     -56194.313      51047.136    
     23000   294.22856      606.2039       1.2550109     -56211.246      51047.136    
     23500   305.93551     -825.57324      1.2550109     -56239.529      51047.136    
     24000   295.14786     -418.40878      1.2550109     -56260.029      51047.136    
     24500   297.71402      576.87076      1.2550109     -56267.598      51047.136    
     25000   296.07849     -281.89528      1.2550109     -56364.42       51047.136    
     25500   296.78849     -529.29151      1.2550109     -56331.87       51047.136    
     26000   293.56881     -1126.3189      1.2550109     -56440.112      51047.136    
     26500   296.29379     -75.589836      1.2550109     -56253.775      51047.136    
     27000   297.75886      431.45811      1.2550109     -56429.733      51047.136    
     27500   305.38956      310.76748      1.2550109     -56338.804      51047.136    
     28000   301.56142     -420.24059      1.2550109     -56328.343      51047.136    
     28500   308.11445     -857.00893      1.2550109     -56403.968      51047.136    
     29000   300.47324     -112.79524      1.2550109     -56404.446      51047.136    
     29500   296.16213     -1518.0718      1.2550109     -56345.841      51047.136    
     30000   300.22495     -1226.9883      1.2550109     -56323.384      51047.136    
     30500   295.20988     -270.7427       1.2550109     -56450.86       51047.136    
     31000   285.84829     -725.91099      1.2550109     -56460.626      51047.136    
     31500   307.00106     -669.79639      1.2550109     -56429.281      51047.136    
     32000   303.34426     -1019.8563      1.2550109     -56442.327      51047.136    
     32500   296.06521     -1612.2259      1.2550109     -56433.598      51047.136    
     33000   298.74537     -1684.2047      1.2550109     -56365.903      51047.136    
     33500   296.64472     -1514.317       1.2550109     -56428.636      51047.136    
     34000   301.62788     -2116.3065      1.2550109     -56513.659      51047.136    
     34500   299.82868     -1598.2878      1.2550109     -56499.441      51047.136    
     35000   298.24325     -946.53112      1.2550109     -56433.314      51047.136    
     35500   297.14676     -858.92059      1.2550109     -56427.535      51047.136    
     36000   294.96418      148.60054      1.2550109     -56491.957      51047.136    
     36500   300.7887      -1321.0523      1.2550109     -56471.867      51047.136    
     37000   302.41193     -1475.7266      1.2550109     -56526.625      51047.136    
     37500   299.49744     -737.09059      1.2550109     -56468.787      51047.136    
     38000   305.04044     -1112.8107      1.2550109     -56454.296      51047.136    
     38500   301.85652     -640.49115      1.2550109     -56432.886      51047.136    
     39000   295.17761     -1035.0641      1.2550109     -56419.973      51047.136    
     39500   293.68668     -879.11904      1.2550109     -56413.637      51047.136    
     40000   300.10475     -1283.0498      1.2550109     -56572.392      51047.136    
Loop time of 513.871 on 1 procs for 20000 steps with 4912 atoms

Performance: 1.681 ns/day, 14.274 hours/ns, 38.920 timesteps/s, 191.177 katom-step/s
100.0% CPU use with 1 MPI tasks x 1 OpenMP threads

MPI task timing breakdown:
Section |  min time  |  avg time  |  max time  |%varavg| %total
---------------------------------------------------------------
Pair    | 397.55     | 397.55     | 397.55     |   0.0 | 77.36
Bond    | 0.01904    | 0.01904    | 0.01904    |   0.0 |  0.00
Kspace  | 89.602     | 89.602     | 89.602     |   0.0 | 17.44
Neigh   | 13.741     | 13.741     | 13.741     |   0.0 |  2.67
Comm    | 1.8678     | 1.8678     | 1.8678     |   0.0 |  0.36
Output  | 0.0022504  | 0.0022504  | 0.0022504  |   0.0 |  0.00
Modify  | 10.489     | 10.489     | 10.489     |   0.0 |  2.04
Other   |            | 0.6034     |            |       |  0.12

Nlocal:           4912 ave        4912 max        4912 min
Histogram: 1 0 0 0 0 0 0 0 0 0
Nghost:          17054 ave       17054 max       17054 min
Histogram: 1 0 0 0 0 0 0 0 0 0
Neighs:    1.70876e+06 ave 1.70876e+06 max 1.70876e+06 min
Histogram: 1 0 0 0 0 0 0 0 0 0

Total # of neighbors = 1708765
Ave neighs/atom = 347.87561
Ave special neighs/atom = 1.8322476
Neighbor list builds = 449
Dangerous builds = 0
PPPM initialization ...
  using 12-bit tables for long-range coulomb
  G vector (1/distance) = 0.30441929
  grid = 32 32 32
  stencil order = 5
  estimated absolute RMS force accuracy = 0.0035943975
  estimated relative force accuracy = 1.0824421e-05
  using double precision FFTW3
  3d grid and FFT values/proc = 59319 32768
Generated 6 of 6 mixed pair_coeff terms from arithmetic mixing rule
Setting up Verlet run ...
  Unit style    : real
  Current step  : 40000
  Time step     : 1
Per MPI rank memory allocation (min/avg/max) = 27.67 | 27.67 | 27.67 Mbytes
   Step          Temp          Press         Density         PotEng         Volume    
     40000   300.10475     -1512.2243      1.2550109     -56572.392      51047.136    
     40500   296.45549     -226.8515       1.2620517     -56508.712      50762.348    
     41000   293.85966     -64.383428      1.2689793     -56484.942      50485.227    
     41500   293.42766     -381.01522      1.2685437     -56543.46       50502.564    
     42000   300.08916     -226.48138      1.2675928     -56502.383      50540.451    
     42500   298.15121      417.46041      1.2754259     -56558.623      50230.052    
     43000   297.83792     -264.32417      1.2700788     -56659.488      50441.522    
     43500   300.30956     -559.12961      1.2678952     -56584.44       50528.394    
     44000   299.47017      375.87341      1.2766556     -56592.858      50181.67     
     44500   300.22123      125.20498      1.2706128     -56623.928      50420.323    
     45000   302.44055      484.08015      1.2712229     -56685.915      50396.125    
     45500   295.63192     -203.21062      1.2638608     -56616.206      50689.687    
     46000   297.60472      624.90112      1.2721726     -56538.215      50358.505    
     46500   300.24343      509.11168      1.2730499     -56617.101      50323.8      
     47000   296.56533     -27.908655      1.2650321     -56574.987      50642.755    
     47500   301.01392     -609.59655      1.2710108     -56683.428      50404.538    
     48000   301.41621     -308.01209      1.2696329     -56592.708      50459.238    
     48500   293.25603     -367.8967       1.2702188     -56569.961      50435.966    
     49000   293.26011      44.832347      1.2712666     -56580.079      50394.393    
     49500   300.39382     -133.48447      1.2787822     -56694.542      50098.219    
     50000   299.2137      -200.34757      1.2720162     -56472.637      50364.695    
     50500   299.81582     -2.2029269      1.2729673     -56577.01       50327.067    
     51000   298.00871     -434.86575      1.2650855     -56649.13       50640.617    
     51500   292.66366     -228.72899      1.2683773     -56649.578      50509.188    
     52000   292.6885       52.73777       1.2733985     -56643.506      50310.026    
     52500   296.39189      181.21573      1.2680211     -56652.939      50523.378    
     53000   299.5854       832.3349       1.2730139     -56624.198      50325.226    
     53500   293.15619      120.47993      1.2740664     -56614.667      50283.649    
     54000   294.9453      -79.528842      1.2665372     -56615.068      50582.574    
     54500   293.75319      572.48751      1.2737733     -56621.922      50295.221    
     55000   295.05017     -547.04939      1.265393      -56591.758      50628.312    
     55500   303.15268      588.16248      1.2812489     -56640.433      50001.769    
     56000   298.80255      89.221911      1.2823281     -56741.776      49959.685    
     56500   295.88899     -276.70109      1.27946       -56599.665      50071.677    
     57000   299.1314      -333.5871       1.2738276     -56573.326      50293.077    
     57500   298.81961      296.16015      1.2748794     -56710.989      50251.585    
     58000   299.88418      272.84689      1.2782851     -56631.91       50117.702    
     58500   297.83969     -84.38691       1.2746355     -56635.541      50261.2      
     59000   304.34789      591.77929      1.2733082     -56547.924      50313.592    
     59500   295.39756     -118.08763      1.2774166     -56620.681      50151.774    
     60000   294.65355     -34.360693      1.2756027     -56776.436      50223.09     
     60500   298.81218      931.70173      1.2846624     -56761.015      49868.907    
     61000   298.42313      117.48493      1.2794284     -56647.5        50072.914    
     61500   298.94879      462.89212      1.2805503     -56689.432      50029.045    
     62000   304.79578      43.537949      1.2808281     -56660.229      50018.195    
     62500   310.97383      180.55843      1.2788263     -56696.571      50096.491    
     63000   302.85521      742.59604      1.2840255     -56723.637      49893.644    
     63500   303.02223      590.57576      1.2743768     -56686.068      50271.403    
     64000   296.23492     -573.59914      1.2732773     -56699.484      50314.815    
     64500   294.40254      253.69195      1.2795128     -56741.574      50069.612    
     65000   291.06542     -383.54468      1.2775767     -56754.298      50145.489    
     65500   295.86415     -445.37073      1.2764094     -56654.253      50191.351    
     66000   299.93933     -445.1656       1.2765204     -56655.935      50186.987    
     66500   290.1168       201.5712       1.2878243     -56773.761      49746.466    
     67000   297.45621     -463.02279      1.2770132     -56628.861      50167.619    
     67500   301.24329     -455.68776      1.2781193     -56598.036      50124.203    
     68000   291.39243     -3.2079746      1.2755916     -56545.781      50223.527    
     68500   289.81645     -1053.9642      1.2645947     -56669.227      50660.269    
     69000   301.26436      68.212258      1.2739233     -56549.465      50289.3      
     69500   296.63485      120.80301      1.2799255     -56670.458      50053.467    
     70000   296.21066     -14.584476      1.2732117     -56586.3        50317.406    
Loop time of 1108.49 on 1 procs for 30000 steps with 4912 atoms

Performance: 2.338 ns/day, 10.264 hours/ns, 27.064 timesteps/s, 132.937 katom-step/s
100.0% CPU use with 1 MPI tasks x 1 OpenMP threads

MPI task timing breakdown:
Section |  min time  |  avg time  |  max time  |%varavg| %total
---------------------------------------------------------------
Pair    | 607.5      | 607.5      | 607.5      |   0.0 | 54.80
Bond    | 0.062149   | 0.062149   | 0.062149   |   0.0 |  0.01
Kspace  | 139.4      | 139.4      | 139.4      |   0.0 | 12.58
Neigh   | 43.095     | 43.095     | 43.095     |   0.0 |  3.89
Comm    | 3.2736     | 3.2736     | 3.2736     |   0.0 |  0.30
Output  | 0.0031854  | 0.0031854  | 0.0031854  |   0.0 |  0.00
Modify  | 313.46     | 313.46     | 313.46     |   0.0 | 28.28
Other   |            | 1.701      |            |       |  0.15

Nlocal:           4912 ave        4912 max        4912 min
Histogram: 1 0 0 0 0 0 0 0 0 0
Nghost:          17086 ave       17086 max       17086 min
Histogram: 1 0 0 0 0 0 0 0 0 0
Neighs:    1.73408e+06 ave 1.73408e+06 max 1.73408e+06 min
Histogram: 1 0 0 0 0 0 0 0 0 0

Total # of neighbors = 1734085
Ave neighs/atom = 353.03033
Ave special neighs/atom = 1.8322476
Neighbor list builds = 1400
Dangerous builds = 0
PPPM initialization ...
  using 12-bit tables for long-range coulomb
  G vector (1/distance) = 0.30477268
  grid = 32 32 32
  stencil order = 5
  estimated absolute RMS force accuracy = 0.0035431742
  estimated relative force accuracy = 1.0670164e-05
  using double precision FFTW3
  3d grid and FFT values/proc = 59319 32768
Generated 6 of 6 mixed pair_coeff terms from arithmetic mixing rule
Setting up Verlet run ...
  Unit style    : real
  Current step  : 0
  Time step     : 1
Per MPI rank memory allocation (min/avg/max) = 27.67 | 27.67 | 27.67 Mbytes
   Step          Temp          Press         Density         PotEng         Volume    
         0   296.21066      21.381827      1.2732117     -56586.3        50317.406    
       500   297.33759     -408.21932      1.2780401     -56787.379      50127.309    
      1000   291.23446     -291.87745      1.2748843     -56702.713      50251.392    
      1500   293.30952      331.00863      1.2819671     -56665.157      49973.756    
      2000   298.38822      85.204506      1.2748581     -56705.809      50252.423    
      2500   294.66485     -128.5544       1.2720466     -56580.455      50363.494    
      3000   289.3507      -102.39669      1.2720257     -56564.634      50364.321    
      3500   289.49342     -250.49716      1.2693505     -56579.234      50470.464    
      4000   295.27125      84.027452      1.2771093     -56726.295      50163.842    
      4500   296.04624      23.794789      1.27789       -56685.788      50133.196    
      5000   299.57329     -584.51162      1.2781814     -56659.182      50121.767    
      5500   297.74851     -419.23745      1.274517      -56668.515      50265.872    
      6000   299.28124      128.36715      1.2716433     -56600.723      50379.467    
      6500   292.19522      455.32334      1.279206      -56686.033      50081.619    
      7000   298.39536     -126.37725      1.2770765     -56561.683      50165.13     
      7500   300.52079      175.34028      1.2831271     -56626.752      49928.579    
      8000   297.24491      436.70013      1.2748225     -56543.067      50253.828    
      8500   293.23347     -1.31742        1.2762239     -56596.048      50198.646    
      9000   295.25413      272.31072      1.2746895     -56606.494      50259.072    
      9500   303.88423      347.45507      1.2782532     -56697.279      50118.95     
     10000   290.24942      473.32211      1.2761958     -56587.909      50199.75     
     10500   296.70935      197.00043      1.2726752     -56598.077      50338.618    
     11000   292.34895      670.36268      1.2771904     -56706.097      50160.659    
     11500   297.46027      11.941628      1.2662546     -56526.528      50593.864    
     12000   293.63277     -470.2649       1.2650718     -56602.85       50641.166    
     12500   300.40849     -1097.1152      1.2651191     -56662.004      50639.273    
     13000   297.04065      451.49768      1.2755182     -56579.098      50226.417    
     13500   294.62399      499.46673      1.2785256     -56635.735      50108.272    
     14000   300.33483     -722.56419      1.2682922     -56596.112      50512.58     
     14500   295.41811     -941.01068      1.2675736     -56584.073      50541.217    
     15000   292.49596     -853.09459      1.2719389     -56620.265      50367.757    
     15500   300.74862      155.61721      1.2828594     -56665.165      49938.994    
     16000   300.33199      531.74318      1.2831488     -56644.694      49927.734    
     16500   300.59046     -71.526677      1.2784746     -56622.575      50110.272    
     17000   302.93708      269.23953      1.2767451     -56597.758      50178.154    
     17500   297.74991     -5.2411955      1.2837567     -56712.243      49904.089    
     18000   299.47845      314.17179      1.2783323     -56683.064      50115.851    
     18500   296.8821       185.751        1.2816829     -56616.563      49984.838    
     19000   294.18806      9.34759        1.27825       -56605.101      50119.078    
     19500   303.51815     -640.56913      1.2719599     -56548.71       50366.925    
     20000   300.091       -113.92468      1.2826451     -56662.175      49947.341    
     20500   291.81149     -302.54013      1.2775777     -56618.975      50145.452    
     21000   294.75358      284.22564      1.2805794     -56617.744      50027.91     
     21500   297.79426     -1156.5109      1.2611736     -56638.347      50797.695    
     22000   302.45192     -344.48576      1.2728311     -56621.917      50332.453    
     22500   298.02401     -688.64362      1.271908      -56635.036      50368.981    
     23000   297.9264      -444.8641       1.2786584     -56728.789      50103.07     
     23500   302.89945      420.33984      1.2830206     -56754.688      49932.722    
     24000   302.77511     -148.17622      1.2737801     -56646.964      50294.953    
     24500   293.00827      67.990149      1.2833552     -56728.877      49919.703    
     25000   302.47645      80.566819      1.2703518     -56600.501      50430.685    
     25500   295.68157     -84.506009      1.2751532     -56661.726      50240.793    
     26000   302.51202      469.47423      1.2736183     -56634.688      50301.343    
     26500   293.45014     -370.91403      1.2821513     -56702.23       49966.575    
     27000   298.60428     -59.026502      1.27813       -56761.09       50123.782    
     27500   298.41598     -395.60116      1.2793363     -56682.973      50076.521    
     28000   291.59677     -133.88741      1.2816748     -56702.606      49985.154    
     28500   292.98025     -329.16088      1.2808485     -56646.22       50017.398    
     29000   293.55694     -75.374171      1.284138      -56710.182      49889.272    
     29500   295.23462      301.11312      1.2829251     -56797.343      49936.437    
     30000   297.19541     -629.61601      1.2749667     -56664.273      50248.143    
     30500   295.38861     -294.22622      1.2866141     -56735.741      49793.259    
     31000   289.51993     -348.48225      1.2859099     -56820.23       49820.527    
     31500   299.45046      78.140566      1.2792873     -56669.476      50078.437    
     32000   292.51385      399.8803       1.2890677     -56835.124      49698.484    
     32500   294.57084      170.25913      1.2826832     -56718.063      49945.857    
     33000   302.91321      642.34268      1.2892952     -56830.52       49689.715    
     33500   298.568       -55.3756        1.2831266     -56808.101      49928.598    
     34000   296.59547     -762.97914      1.2763872     -56743.489      50192.224    
     34500   292.35465      758.70781      1.2852689     -56767.542      49845.376    
     35000   296.7048      -665.48066      1.2775238     -56729.898      50147.566    
     35500   301.05977     -136.30251      1.2805317     -56681.955      50029.774    
     36000   299.91281      203.056        1.2824781     -56623.237      49953.842    
     36500   295.48693     -256.10764      1.2750955     -56678.044      50243.068    
     37000   300.64706      13.274451      1.278961      -56786.83       50091.215    
     37500   294.68616     -42.545649      1.2811374     -56577.55       50006.121    
     38000   302.4837      -152.34249      1.2850012     -56808.195      49855.757    
     38500   297.68057     -225.31648      1.2854124     -56768.12       49839.81     
     39000   295.72089      412.12561      1.2862381     -56682.561      49807.817    
     39500   300.91225     -171.43121      1.2842247     -56731.947      49885.903    
     40000   301.04283     -610.80985      1.2822106     -56806.265      49964.265    
     40500   299.00568      133.6042       1.2772091     -56593.561      50159.923    
     41000   296.77135     -486.64704      1.2722549     -56637.237      50355.246    
     41500   296.04025     -485.04683      1.273787      -56715.534      50294.679    
     42000   296.9559       127.99352      1.2775168     -56867.037      50147.842    
     42500   299.71711     -49.749622      1.2806476     -56781.968      50025.243    
     43000   296.29704      247.89289      1.2814113     -56752.924      49995.431    
     43500   297.03963      250.17412      1.2788814     -56751.284      50094.332    
     44000   301.48161     -653.03594      1.2721986     -56767.144      50357.476    
     44500   296.82552     -121.87084      1.282016      -56786.837      49971.851    
     45000   298.40329      1.9218099      1.2844885     -56792.134      49875.658    
     45500   299.5472      -657.87516      1.2793347     -56738.818      50076.584    
     46000   301.13081     -507.41909      1.2779733     -56739.315      50129.928    
     46500   295.00405      108.67403      1.2862659     -56773.285      49806.738    
     47000   294.0467       155.17153      1.2849392     -56727.482      49858.163    
     47500   290.04148     -331.12179      1.2880488     -56820.929      49737.796    
     48000   299.42719     -225.31825      1.2785919     -56669.056      50105.674    
     48500   297.27314      465.67966      1.2782245     -56681.619      50120.077    
     49000   297.13982     -327.39892      1.2863902     -56804.138      49801.925    
     49500   298.02505      410.11019      1.2766559     -56612.953      50181.66     
     50000   299.227        639.20357      1.2803709     -56672.728      50036.056    
Loop time of 2493.77 on 1 procs for 50000 steps with 4912 atoms

Performance: 1.732 ns/day, 13.854 hours/ns, 20.050 timesteps/s, 98.485 katom-step/s
100.0% CPU use with 1 MPI tasks x 1 OpenMP threads

MPI task timing breakdown:
Section |  min time  |  avg time  |  max time  |%varavg| %total
---------------------------------------------------------------
Pair    | 1541.5     | 1541.5     | 1541.5     |   0.0 | 61.81
Bond    | 0.25827    | 0.25827    | 0.25827    |   0.0 |  0.01
Kspace  | 377.05     | 377.05     | 377.05     |   0.0 | 15.12
Neigh   | 96.291     | 96.291     | 96.291     |   0.0 |  3.86
Comm    | 20.196     | 20.196     | 20.196     |   0.0 |  0.81
Output  | 0.0078143  | 0.0078143  | 0.0078143  |   0.0 |  0.00
Modify  | 447.31     | 447.31     | 447.31     |   0.0 | 17.94
Other   |            | 11.18      |            |       |  0.45

Nlocal:           4912 ave        4912 max        4912 min
Histogram: 1 0 0 0 0 0 0 0 0 0
Nghost:          17043 ave       17043 max       17043 min
Histogram: 1 0 0 0 0 0 0 0 0 0
Neighs:    1.74397e+06 ave 1.74397e+06 max 1.74397e+06 min
Histogram: 1 0 0 0 0 0 0 0 0 0

Total # of neighbors = 1743969
Ave neighs/atom = 355.04255
Ave special neighs/atom = 1.8322476
Neighbor list builds = 2340
Dangerous builds = 0
RESULT density_g_cm3 1.28053910530862
DONE sig3.700_eps0.1553
Total wall time: 1:18:36
