LAMMPS (22 Jul 2025 - Update 5)
  using 1 OpenMP thread(s) per MPI task
Reading data file ...
  orthogonal box = (0 0 0) to (37.095719 37.095719 37.095719)
  1 by 1 by 1 MPI processor grid
  reading atoms ...
  4912 atoms
  scanning bonds ...
  2 = max bonds/atom
  scanning angles ...
  1 = max angles/atom
  orthogonal box = (0 0 0) to (37.095719 37.095719 37.095719)
  1 by 1 by 1 MPI processor grid
  reading bonds ...
  3000 bonds
  reading angles ...
  1500 angles
Finding 1-2 1-3 1-4 neighbors ...
  special bond factors lj:    0        0        0       
  special bond factors coul:  0        0        0       
     2 = max # of 1-2 neighbors
     1 = max # of 1-3 neighbors
     1 = max # of 1-4 neighbors
     2 = max # of special neighbors
  special bonds CPU = 0.001 seconds
  read_data CPU = 0.027 seconds
4500 atoms in group watr
206 atoms in group kion
206 atoms in group ohion
412 atoms in group ions
Finding SHAKE clusters ...
       0 = # of size 2 clusters
       0 = # of size 3 clusters
       0 = # of size 4 clusters
    1500 = # of frozen angles
  find clusters CPU = 0.001 seconds
PPPM initialization ...
  using 12-bit tables for long-range coulomb
  G vector (1/distance) = 0.30441929
  grid = 32 32 32
  stencil order = 5
  estimated absolute RMS force accuracy = 0.0035943975
  estimated relative force accuracy = 1.0824421e-05
  using double precision FFTW3
  3d grid and FFT values/proc = 59319 32768
Generated 6 of 6 mixed pair_coeff terms from arithmetic mixing rule
WARNING: Should not use fix nve/limit with fix shake or fix rattle (src/lammps/src/fix_nve_limit.cpp:76)
Neighbor list info ...
  update: every = 1 steps, delay = 0 steps, check = yes
  max neighbors/atom: 2000, page size: 100000
  master list distance cutoff = 12
  ghost atom cutoff = 12
  binsize = 6, bins = 7 7 7
  1 neighbor lists, perpetual/occasional/extra = 1 0 0
  (1) pair lj/cut/coul/long, perpetual
      attributes: half, newton on
      pair build: half/bin/newton
      stencil: half/bin/3d
      bin: standard
Setting up Verlet run ...
  Unit style    : real
  Current step  : 0
  Time step     : 0.2
Per MPI rank memory allocation (min/avg/max) = 27.67 | 27.67 | 27.67 Mbytes
   Step          Temp          Press         Density         PotEng         Volume    
         0   298            89071.887      1.2550109      1323.0477      51047.136    
       500   719.89053      15627.666      1.2550109     -46152.819      51047.136    
      1000   380.56131      5542.3697      1.2550109     -50746.783      51047.136    
      1500   329.48083      2831.5609      1.2550109     -52097.84       51047.136    
      2000   307.46643      2542.0792      1.2550109     -52466.402      51047.136    
      2500   311.7244       3995.8983      1.2550109     -52799.658      51047.136    
      3000   306.9278       3659.2704      1.2550109     -53024.647      51047.136    
      3500   297.80801      2353.6148      1.2550109     -53214.307      51047.136    
      4000   298.93132      3028.2901      1.2550109     -53363.51       51047.136    
      4500   306.54131      2502.7872      1.2550109     -53467.373      51047.136    
      5000   295.63064      3902.8492      1.2550109     -53464.426      51047.136    
      5500   303.47343      2536.7252      1.2550109     -53551.057      51047.136    
      6000   293.19896      1475.7239      1.2550109     -53629.132      51047.136    
      6500   298.44624      4780.761       1.2550109     -53687.5        51047.136    
      7000   300.85427      2757.6342      1.2550109     -53736.055      51047.136    
      7500   304.11153      2082.6437      1.2550109     -53713.552      51047.136    
      8000   300.02933      2807.7945      1.2550109     -53795.576      51047.136    
      8500   298.5451       1824.6608      1.2550109     -53749.981      51047.136    
      9000   298.59519      1797.8359      1.2550109     -53828.648      51047.136    
      9500   298.10498      1382.6793      1.2550109     -53843.581      51047.136    
     10000   303.2634       699.9603       1.2550109     -53844.607      51047.136    
     10500   301.08608      1006.5645      1.2550109     -53897.841      51047.136    
     11000   301.99296      782.79936      1.2550109     -53873.179      51047.136    
     11500   298.60646      784.17733      1.2550109     -53936.181      51047.136    
     12000   296.49028      1677.2623      1.2550109     -53960.838      51047.136    
     12500   296.3475       2296.9995      1.2550109     -54052.109      51047.136    
     13000   297.69187      2780.3001      1.2550109     -54046.286      51047.136    
     13500   295.34544      1371.4316      1.2550109     -53985.83       51047.136    
     14000   298.9446       32.589138      1.2550109     -54026.718      51047.136    
     14500   308.43131      2177.847       1.2550109     -53966.322      51047.136    
     15000   299.39614      1766.9305      1.2550109     -53996.772      51047.136    
     15500   296.89082      3534.7003      1.2550109     -54069.137      51047.136    
     16000   305.77953      3069.3235      1.2550109     -54029.246      51047.136    
     16500   300.73449      2659.2706      1.2550109     -53936.886      51047.136    
     17000   293.76697      1873.3591      1.2550109     -54014.649      51047.136    
     17500   298.25392      1389.8324      1.2550109     -54036.037      51047.136    
     18000   294.87422      2954.9896      1.2550109     -54100.031      51047.136    
     18500   298.8398       420.54634      1.2550109     -54102.406      51047.136    
     19000   295.21799      1859.0649      1.2550109     -54106.723      51047.136    
     19500   306.50195      709.07935      1.2550109     -54105.668      51047.136    
     20000   310.64828      789.77012      1.2550109     -54095.238      51047.136    
Loop time of 606.062 on 1 procs for 20000 steps with 4912 atoms

Performance: 0.570 ns/day, 42.088 hours/ns, 33.000 timesteps/s, 162.096 katom-step/s
100.0% CPU use with 1 MPI tasks x 1 OpenMP threads

MPI task timing breakdown:
Section |  min time  |  avg time  |  max time  |%varavg| %total
---------------------------------------------------------------
Pair    | 473.93     | 473.93     | 473.93     |   0.0 | 78.20
Bond    | 0.031266   | 0.031266   | 0.031266   |   0.0 |  0.01
Kspace  | 108.03     | 108.03     | 108.03     |   0.0 | 17.82
Neigh   | 6.5726     | 6.5726     | 6.5726     |   0.0 |  1.08
Comm    | 3.5271     | 3.5271     | 3.5271     |   0.0 |  0.58
Output  | 0.002739   | 0.002739   | 0.002739   |   0.0 |  0.00
Modify  | 12.93      | 12.93      | 12.93      |   0.0 |  2.13
Other   |            | 1.034      |            |       |  0.17

Nlocal:           4912 ave        4912 max        4912 min
Histogram: 1 0 0 0 0 0 0 0 0 0
Nghost:          17215 ave       17215 max       17215 min
Histogram: 1 0 0 0 0 0 0 0 0 0
Neighs:     1.7092e+06 ave  1.7092e+06 max  1.7092e+06 min
Histogram: 1 0 0 0 0 0 0 0 0 0

Total # of neighbors = 1709199
Ave neighs/atom = 347.96397
Ave special neighs/atom = 1.8322476
Neighbor list builds = 185
Dangerous builds = 0
PPPM initialization ...
  using 12-bit tables for long-range coulomb
  G vector (1/distance) = 0.30441929
  grid = 32 32 32
  stencil order = 5
  estimated absolute RMS force accuracy = 0.0035943975
  estimated relative force accuracy = 1.0824421e-05
  using double precision FFTW3
  3d grid and FFT values/proc = 59319 32768
Generated 6 of 6 mixed pair_coeff terms from arithmetic mixing rule
Setting up Verlet run ...
  Unit style    : real
  Current step  : 20000
  Time step     : 0.5
Per MPI rank memory allocation (min/avg/max) = 27.67 | 27.67 | 27.67 Mbytes
   Step          Temp          Press         Density         PotEng         Volume    
     20000   310.64828      1801.1418      1.2550109     -54095.238      51047.136    
     20500   304.67517      2168.0138      1.2550109     -54163.049      51047.136    
     21000   293.78053      492.63298      1.2550109     -54179.362      51047.136    
     21500   301.92367      2025.6647      1.2550109     -54180.937      51047.136    
     22000   300.06236      1125.0087      1.2550109     -54284.93       51047.136    
     22500   297.78128      1275.5409      1.2550109     -54244.317      51047.136    
     23000   301.7388       1973.1926      1.2550109     -54194.937      51047.136    
     23500   303.26706      1743.5733      1.2550109     -54251.444      51047.136    
     24000   294.12199      977.45151      1.2550109     -54288.115      51047.136    
     24500   308.19849      2201.5914      1.2550109     -54261.531      51047.136    
     25000   302.37755      1269.0188      1.2550109     -54306.901      51047.136    
     25500   295.65575      1818.9775      1.2550109     -54382.781      51047.136    
     26000   296.22122      1423.3087      1.2550109     -54313.42       51047.136    
     26500   302.77476      1314.7785      1.2550109     -54242.502      51047.136    
     27000   294.64479      1669.351       1.2550109     -54281.635      51047.136    
     27500   296.69107      2137.8157      1.2550109     -54317.094      51047.136    
     28000   301.70274      882.23046      1.2550109     -54320.482      51047.136    
     28500   298.75901      2225.3839      1.2550109     -54335.72       51047.136    
     29000   301.15688      1797.6025      1.2550109     -54239.077      51047.136    
     29500   305.23529      2030.7646      1.2550109     -54302.385      51047.136    
     30000   298.74083      2114.8258      1.2550109     -54357.844      51047.136    
     30500   307.71341      1795.7861      1.2550109     -54467.948      51047.136    
     31000   298.74585      1173.4706      1.2550109     -54411.988      51047.136    
     31500   300.80768      2332.2383      1.2550109     -54416.557      51047.136    
     32000   299.14006      2402.4057      1.2550109     -54359.463      51047.136    
     32500   301.21034      2122.163       1.2550109     -54370.453      51047.136    
     33000   297.70665      1952.6863      1.2550109     -54420.374      51047.136    
     33500   301.99623      2214.1164      1.2550109     -54309.033      51047.136    
     34000   298.2742       2216.8186      1.2550109     -54422.052      51047.136    
     34500   290.80495      1002.5605      1.2550109     -54306.962      51047.136    
     35000   293.29207      1766.5081      1.2550109     -54459.325      51047.136    
     35500   292.43474      2143.8939      1.2550109     -54470.919      51047.136    
     36000   297.62037      1714.769       1.2550109     -54436.832      51047.136    
     36500   299.06043      1594.2077      1.2550109     -54525.552      51047.136    
     37000   304.63125      1195.8391      1.2550109     -54459.572      51047.136    
     37500   304.35335      763.13161      1.2550109     -54495.307      51047.136    
     38000   297.73377      1464.1016      1.2550109     -54481.76       51047.136    
     38500   302.83912      1800.9496      1.2550109     -54567.82       51047.136    
     39000   298.84119      978.81674      1.2550109     -54482.195      51047.136    
     39500   295.05202      1299.1356      1.2550109     -54551.861      51047.136    
     40000   292.39649      1777.483       1.2550109     -54500.302      51047.136    
Loop time of 519.314 on 1 procs for 20000 steps with 4912 atoms

Performance: 1.664 ns/day, 14.425 hours/ns, 38.512 timesteps/s, 189.173 katom-step/s
100.0% CPU use with 1 MPI tasks x 1 OpenMP threads

MPI task timing breakdown:
Section |  min time  |  avg time  |  max time  |%varavg| %total
---------------------------------------------------------------
Pair    | 403.05     | 403.05     | 403.05     |   0.0 | 77.61
Bond    | 0.021804   | 0.021804   | 0.021804   |   0.0 |  0.00
Kspace  | 89.454     | 89.454     | 89.454     |   0.0 | 17.23
Neigh   | 14.052     | 14.052     | 14.052     |   0.0 |  2.71
Comm    | 1.8235     | 1.8235     | 1.8235     |   0.0 |  0.35
Output  | 0.0022495  | 0.0022495  | 0.0022495  |   0.0 |  0.00
Modify  | 10.338     | 10.338     | 10.338     |   0.0 |  1.99
Other   |            | 0.5682     |            |       |  0.11

Nlocal:           4912 ave        4912 max        4912 min
Histogram: 1 0 0 0 0 0 0 0 0 0
Nghost:          17072 ave       17072 max       17072 min
Histogram: 1 0 0 0 0 0 0 0 0 0
Neighs:    1.70852e+06 ave 1.70852e+06 max 1.70852e+06 min
Histogram: 1 0 0 0 0 0 0 0 0 0

Total # of neighbors = 1708516
Ave neighs/atom = 347.82492
Ave special neighs/atom = 1.8322476
Neighbor list builds = 454
Dangerous builds = 0
PPPM initialization ...
  using 12-bit tables for long-range coulomb
  G vector (1/distance) = 0.30441929
  grid = 32 32 32
  stencil order = 5
  estimated absolute RMS force accuracy = 0.0035943975
  estimated relative force accuracy = 1.0824421e-05
  using double precision FFTW3
  3d grid and FFT values/proc = 59319 32768
Generated 6 of 6 mixed pair_coeff terms from arithmetic mixing rule
Setting up Verlet run ...
  Unit style    : real
  Current step  : 40000
  Time step     : 1
Per MPI rank memory allocation (min/avg/max) = 27.67 | 27.67 | 27.67 Mbytes
   Step          Temp          Press         Density         PotEng         Volume    
     40000   292.39649      1494.4938      1.2550109     -54500.302      51047.136    
     40500   301.46616      336.78846      1.225767      -54371.187      52265        
     41000   302.71593      94.496655      1.2329338     -54452.237      51961.194    
     41500   293.58805     -529.21475      1.2323464     -54347.979      51985.958    
     42000   303.65163     -77.555781      1.2281        -54483.932      52165.71     
     42500   304.80615      72.467135      1.2245743     -54330.339      52315.902    
     43000   300.95747      659.50603      1.2283826     -54337.294      52153.712    
     43500   302.37137     -204.86669      1.2181399     -54345.593      52592.245    
     44000   302.08617     -141.23969      1.2229658     -54353.526      52384.712    
     44500   294.12201     -374.66603      1.218892      -54341.109      52559.791    
     45000   301.82633      15.206062      1.2188681     -54268.98       52560.822    
     45500   299.83176     -322.01073      1.2184522     -54450.812      52578.763    
     46000   301.83086      81.396762      1.2124983     -54253.895      52836.948    
     46500   300.73299      629.98746      1.2211686     -54426.448      52461.808    
     47000   295.98677      371.38014      1.2114361     -54388.521      52883.274    
     47500   298.69838     -323.58194      1.2085345     -54398.086      53010.243    
     48000   299.627        227.57875      1.2123842     -54304.42       52841.921    
     48500   302.17857      523.65585      1.2144452     -54337.704      52752.245    
     49000   302.71631      356.82398      1.2154863     -54462.407      52707.063    
     49500   301.29954     -531.31824      1.2062964     -54340.544      53108.598    
     50000   301.58598     -486.7291       1.2111819     -54346.308      52894.376    
     50500   306.55625     -301.98044      1.2053048     -54395.378      53152.292    
     51000   294.07578      388.79106      1.2085279     -54237.81       53010.535    
     51500   295.86263      500.55495      1.2176282     -54281.129      52614.345    
     52000   298.72933      139.42943      1.2072846     -54256.962      53065.125    
     52500   302.13491     -332.70696      1.2121948     -54251.425      52850.179    
     53000   298.06879      178.2742       1.2188643     -54359.89       52560.988    
     53500   292.912       -295.68404      1.2112154     -54322.399      52892.912    
     54000   298.13669     -230.17345      1.2124026     -54335.28       52841.119    
     54500   303.90313     -139.05253      1.2249565     -54526.627      52299.58     
     55000   301.57494      488.51164      1.2189419     -54274.217      52557.638    
     55500   302.27245     -387.79633      1.2111651     -54342.348      52895.109    
     56000   293.87954     -877.87847      1.2078858     -54361.433      53038.713    
     56500   302.72566     -35.565447      1.2173983     -54475.348      52624.281    
     57000   292.78718      181.66714      1.2124688     -54313.625      52838.236    
     57500   302.50683     -110.55434      1.2046766     -54222.591      53180.006    
     58000   292.82442      509.79623      1.210648      -54391.133      52917.703    
     58500   301.76331     -154.64894      1.2056386     -54255.543      53137.573    
     59000   292.89303     -714.70886      1.2019073     -54434.875      53302.537    
     59500   295.6664      -223.14341      1.1988404     -54329.211      53438.896    
     60000   302.79095      268.41263      1.212463      -54372.192      52838.488    
     60500   305.5437       219.07028      1.2102277     -54282.48       52936.078    
     61000   289.98994     -118.99167      1.2136057     -54410.124      52788.736    
     61500   291.6876       702.86525      1.2138601     -54229.538      52777.67     
     62000   296.73025     -58.401669      1.2051556     -54311.723      53158.868    
     62500   298.67321     -190.58684      1.205835      -54342.165      53128.917    
     63000   305.36403      658.10403      1.2112632     -54357.072      52890.827    
     63500   300.42165      215.02214      1.2165622     -54320.59       52660.449    
     64000   301.13733      93.073012      1.2119168     -54276.148      52862.299    
     64500   290.89236      303.34253      1.2145502     -54279.198      52747.685    
     65000   301.62008      356.36823      1.2180571     -54394.729      52595.818    
     65500   300.99628      185.51259      1.2151572     -54375.91       52721.335    
     66000   296.92311      105.21499      1.2177352     -54453.913      52609.72     
     66500   301.24895      70.098845      1.2130004     -54320.282      52815.077    
     67000   299.65208      139.07697      1.2109815     -54363.852      52903.127    
     67500   294.26787     -256.02097      1.2106639     -54431.835      52917.007    
     68000   303.20233     -116.886        1.2057337     -54212.38       53133.381    
     68500   298.21227     -181.77569      1.2183515     -54321.8        52583.11     
     69000   293.68483     -71.847066      1.2133275     -54385.02       52800.839    
     69500   297.41905     -261.69359      1.2101883     -54394.079      52937.802    
     70000   297.22168     -177.0091       1.2044581     -54295.699      53189.653    
Loop time of 1092.65 on 1 procs for 30000 steps with 4912 atoms

Performance: 2.372 ns/day, 10.117 hours/ns, 27.456 timesteps/s, 134.865 katom-step/s
100.0% CPU use with 1 MPI tasks x 1 OpenMP threads

MPI task timing breakdown:
Section |  min time  |  avg time  |  max time  |%varavg| %total
---------------------------------------------------------------
Pair    | 577.84     | 577.84     | 577.84     |   0.0 | 52.88
Bond    | 0.059579   | 0.059579   | 0.059579   |   0.0 |  0.01
Kspace  | 138.41     | 138.41     | 138.41     |   0.0 | 12.67
Neigh   | 43.298     | 43.298     | 43.298     |   0.0 |  3.96
Comm    | 3.1824     | 3.1824     | 3.1824     |   0.0 |  0.29
Output  | 0.0031274  | 0.0031274  | 0.0031274  |   0.0 |  0.00
Modify  | 328.22     | 328.22     | 328.22     |   0.0 | 30.04
Other   |            | 1.638      |            |       |  0.15

Nlocal:           4912 ave        4912 max        4912 min
Histogram: 1 0 0 0 0 0 0 0 0 0
Nghost:          16878 ave       16878 max       16878 min
Histogram: 1 0 0 0 0 0 0 0 0 0
Neighs:    1.63961e+06 ave 1.63961e+06 max 1.63961e+06 min
Histogram: 1 0 0 0 0 0 0 0 0 0

Total # of neighbors = 1639614
Ave neighs/atom = 333.79764
Ave special neighs/atom = 1.8322476
Neighbor list builds = 1426
Dangerous builds = 0
PPPM initialization ...
  using 12-bit tables for long-range coulomb
  G vector (1/distance) = 0.30340715
  grid = 32 32 32
  stencil order = 5
  estimated absolute RMS force accuracy = 0.0037448811
  estimated relative force accuracy = 1.1277598e-05
  using double precision FFTW3
  3d grid and FFT values/proc = 59319 32768
Generated 6 of 6 mixed pair_coeff terms from arithmetic mixing rule
Setting up Verlet run ...
  Unit style    : real
  Current step  : 0
  Time step     : 1
Per MPI rank memory allocation (min/avg/max) = 27.67 | 27.67 | 27.67 Mbytes
   Step          Temp          Press         Density         PotEng         Volume    
         0   297.22168     -196.91047      1.2044581     -54295.703      53189.653    
       500   291.91694     -499.89668      1.21161       -54441.238      52875.686    
      1000   306.18036     -860.01795      1.2141748     -54429.115      52763.991    
      1500   292.86564     -112.97469      1.2150465     -54407.987      52726.138    
      2000   298.82701     -59.453383      1.2117603     -54448.778      52869.126    
      2500   302.67279      31.991717      1.2120646     -54307.959      52855.853    
      3000   297.22428      418.64101      1.2120424     -54337.99       52856.821    
      3500   300.22559      723.53075      1.2170221     -54356.976      52640.548    
      4000   291.90496      210.81021      1.2092321     -54286.647      52979.664    
      4500   293.92034     -22.424593      1.206133      -54329.58       53115.792    
      5000   294.56829     -289.25652      1.2100626     -54310.872      52943.303    
      5500   295.9327      -907.84975      1.2014334     -54413.612      53323.564    
      6000   293.93827     -261.21911      1.2072631     -54325.395      53066.07     
      6500   298.60365      697.1281       1.2135785     -54363.915      52789.921    
      7000   301.65232     -491.68597      1.2086645     -54397.646      53004.543    
      7500   299.35383     -218.93207      1.2163807     -54384.61       52668.306    
      8000   306.2714      -751.0095       1.202986      -54396.473      53254.741    
      8500   302.45718      95.018122      1.210685      -54478.079      52916.083    
      9000   305.61767      180.89174      1.2159868     -54437.157      52685.366    
      9500   297.66024     -31.939908      1.2121777     -54456.902      52850.921    
     10000   294.5375      -228.25673      1.2094125     -54480.468      52971.761    
     10500   299.84559     -182.86259      1.2100591     -54432.286      52943.454    
     11000   295.49156      3.3316171      1.2158821     -54446.732      52689.905    
     11500   292.92871      272.66061      1.2163086     -54397.411      52671.427    
     12000   295.00053     -177.1578       1.2006856     -54277.023      53356.772    
     12500   301.92565     -7.1986108      1.2087223     -54355.18       53002.01     
     13000   293.60073      271.15101      1.2047408     -54334.791      53177.173    
     13500   297.55841      52.373198      1.2041984     -54361.757      53201.127    
     14000   293.34486     -16.2679        1.2070451     -54435.255      53075.654    
     14500   300.05525     -94.336794      1.2126176     -54436.439      52831.751    
     15000   302.42712      53.84804       1.2153711     -54408.527      52712.057    
     15500   295.80938     -669.59005      1.2021177     -54293.533      53293.209    
     16000   295.13489     -748.48254      1.2060015     -54469.589      53121.585    
     16500   295.13887      453.09677      1.2167383     -54271.843      52652.828    
     17000   298.45188     -28.03156       1.2135257     -54289.16       52792.215    
     17500   299.49674      119.7946       1.2061406     -54228.626      53115.459    
     18000   295.18813      327.18778      1.2050401     -54261.995      53163.966    
     18500   296.76341      181.45366      1.2108257     -54316.783      52909.937    
     19000   303.1576       169.27104      1.2139723     -54307.603      52772.794    
     19500   303.5999       45.051702      1.204926      -54339.494      53168.998    
     20000   290.90683      118.88804      1.211064      -54375.785      52899.525    
     20500   297.2696      -65.823041      1.2074258     -54246.841      53058.919    
     21000   293.1218       367.98905      1.2128638     -54249.719      52821.027    
     21500   305.74955      21.123517      1.2082135     -54443.083      53024.328    
     22000   297.34343     -152.87034      1.2080559     -54314.39       53031.247    
     22500   299.1643       42.917152      1.2118685     -54399.208      52864.41     
     23000   302.52446     -616.88908      1.2067046     -54274.945      53090.631    
     23500   293.30326     -588.70576      1.2081276     -54279.747      53028.1      
     24000   292.05684     -475.56151      1.209563      -54258.839      52965.169    
     24500   293.29573      550.10401      1.2088631     -54373.298      52995.836    
     25000   298.64748     -565.06066      1.2042411     -54330.862      53199.241    
     25500   302.28942     -15.345671      1.211503      -54378.971      52880.355    
     26000   297.6186       309.39143      1.2142113     -54352.489      52762.408    
     26500   295.19179      28.22723       1.203791      -54338.851      53219.13     
     27000   290.70039     -197.72177      1.2140097     -54414.186      52771.167    
     27500   299.09491      420.59364      1.2123878     -54316.632      52841.765    
     28000   305.29866     -506.48743      1.1992594     -54355.943      53420.228    
     28500   291.93034     -306.45952      1.2040711     -54303.943      53206.751    
     29000   299.86637      442.95281      1.2082156     -54316.776      53024.238    
     29500   299.88516      315.18994      1.2063114     -54266.023      53107.936    
     30000   307.43526      176.79338      1.2095596     -54383.138      52965.319    
     30500   303.77549      733.79393      1.2097993     -54328.113      52954.824    
     31000   303.75809      70.096146      1.2091754     -54302.738      52982.148    
     31500   297.87926     -287.78723      1.2086255     -54397.008      53006.254    
     32000   296.23698     -562.60884      1.2051727     -54401.343      53158.115    
     32500   289.74777      365.85033      1.2138431     -54416.565      52778.41     
     33000   298.0143       670.59527      1.2126609     -54402.919      52829.862    
     33500   295.67423     -651.27741      1.2062476     -54333.929      53110.746    
     34000   301.52796      60.099855      1.2122952     -54406.826      52845.799    
     34500   291.45561     -91.513883      1.2150728     -54423.607      52724.996    
     35000   299.40848     -203.0162       1.2190474     -54381.512      52553.094    
     35500   293.98039     -235.89382      1.2179423     -54288.697      52600.776    
     36000   294.50571      340.86747      1.2172836     -54435.428      52629.239    
     36500   294.42074     -270.82972      1.2125432     -54474.243      52834.991    
     37000   302.17957      80.768666      1.2172197     -54381.91       52632.001    
     37500   295.81565      591.69617      1.2211989     -54403.409      52460.504    
     38000   298.5022       285.38552      1.2099856     -54367.083      52946.671    
     38500   292.09541      174.46471      1.2051194     -54362.409      53160.468    
     39000   297.4874      -552.83904      1.206869      -54332.062      53083.399    
     39500   300.32396     -379.17517      1.2111728     -54399.855      52894.771    
     40000   298.14898     -260.55896      1.2083957     -54319.026      53016.335    
     40500   299.0412       330.39888      1.2180608     -54493.092      52595.66     
     41000   303.38515      500.53486      1.2157463     -54352.091      52695.789    
     41500   304.53692      247.19429      1.2146143     -54390.847      52744.901    
     42000   299.71836     -32.955725      1.2136252     -54431.407      52787.887    
     42500   300.75585     -1025.3952      1.2059843     -54370.298      53122.341    
     43000   297.87301      268.92027      1.2135617     -54440.888      52790.651    
     43500   295.39274     -26.230771      1.219623      -54389.164      52528.288    
     44000   305.28734     -580.28286      1.2170182     -54422.679      52640.718    
     44500   297.38078     -665.05847      1.2163294     -54344.579      52670.526    
     45000   290.26618      231.44337      1.2220417     -54436.052      52424.324    
     45500   302.05049     -339.20575      1.2103642     -54433.84       52930.11     
     46000   302.80501     -336.33156      1.2131095     -54407.979      52810.325    
     46500   298.08515      37.611795      1.2143766     -54349.661      52755.225    
     47000   303.07183     -423.74421      1.2044532     -54335.31       53189.869    
     47500   294.07222     -167.57449      1.207167      -54425.153      53070.297    
     48000   305.02113     -143.07478      1.210523      -54439.989      52923.164    
     48500   287.89327     -208.53436      1.205346      -54280.296      53150.473    
     49000   304.80464      33.920164      1.2087232     -54429.816      53001.968    
     49500   303.23834      903.48163      1.2188515     -54474.985      52561.541    
     50000   293.72423      120.44746      1.219855      -54409.416      52518.3      
Loop time of 2398.94 on 1 procs for 50000 steps with 4912 atoms

Performance: 1.801 ns/day, 13.327 hours/ns, 20.843 timesteps/s, 102.379 katom-step/s
100.0% CPU use with 1 MPI tasks x 1 OpenMP threads

MPI task timing breakdown:
Section |  min time  |  avg time  |  max time  |%varavg| %total
---------------------------------------------------------------
Pair    | 1459.5     | 1459.5     | 1459.5     |   0.0 | 60.84
Bond    | 0.24139    | 0.24139    | 0.24139    |   0.0 |  0.01
Kspace  | 371.33     | 371.33     | 371.33     |   0.0 | 15.48
Neigh   | 95.409     | 95.409     | 95.409     |   0.0 |  3.98
Comm    | 19.354     | 19.354     | 19.354     |   0.0 |  0.81
Output  | 0.007448   | 0.007448   | 0.007448   |   0.0 |  0.00
Modify  | 442.42     | 442.42     | 442.42     |   0.0 | 18.44
Other   |            | 10.71      |            |       |  0.45

Nlocal:           4912 ave        4912 max        4912 min
Histogram: 1 0 0 0 0 0 0 0 0 0
Nghost:          16887 ave       16887 max       16887 min
Histogram: 1 0 0 0 0 0 0 0 0 0
Neighs:    1.65972e+06 ave 1.65972e+06 max 1.65972e+06 min
Histogram: 1 0 0 0 0 0 0 0 0 0

Total # of neighbors = 1659721
Ave neighs/atom = 337.89108
Ave special neighs/atom = 1.8322476
Neighbor list builds = 2364
Dangerous builds = 0
RESULT density_g_cm3 1.21325874936706
DONE sig4.000_eps0.1553
Total wall time: 1:16:57
