LAMMPS (22 Jul 2025 - Update 5)
  using 1 OpenMP thread(s) per MPI task
Reading data file ...
  orthogonal box = (0 0 0) to (37.095719 37.095719 37.095719)
  1 by 1 by 1 MPI processor grid
  reading atoms ...
  4912 atoms
  scanning bonds ...
  2 = max bonds/atom
  scanning angles ...
  1 = max angles/atom
  orthogonal box = (0 0 0) to (37.095719 37.095719 37.095719)
  1 by 1 by 1 MPI processor grid
  reading bonds ...
  3000 bonds
  reading angles ...
  1500 angles
Finding 1-2 1-3 1-4 neighbors ...
  special bond factors lj:    0        0        0       
  special bond factors coul:  0        0        0       
     2 = max # of 1-2 neighbors
     1 = max # of 1-3 neighbors
     1 = max # of 1-4 neighbors
     2 = max # of special neighbors
  special bonds CPU = 0.001 seconds
  read_data CPU = 0.027 seconds
4500 atoms in group watr
206 atoms in group kion
206 atoms in group ohion
412 atoms in group ions
Finding SHAKE clusters ...
       0 = # of size 2 clusters
       0 = # of size 3 clusters
       0 = # of size 4 clusters
    1500 = # of frozen angles
  find clusters CPU = 0.001 seconds
PPPM initialization ...
  using 12-bit tables for long-range coulomb
  G vector (1/distance) = 0.30441929
  grid = 32 32 32
  stencil order = 5
  estimated absolute RMS force accuracy = 0.0035943975
  estimated relative force accuracy = 1.0824421e-05
  using double precision FFTW3
  3d grid and FFT values/proc = 59319 32768
Generated 6 of 6 mixed pair_coeff terms from arithmetic mixing rule
WARNING: Should not use fix nve/limit with fix shake or fix rattle (src/lammps/src/fix_nve_limit.cpp:76)
Neighbor list info ...
  update: every = 1 steps, delay = 0 steps, check = yes
  max neighbors/atom: 2000, page size: 100000
  master list distance cutoff = 12
  ghost atom cutoff = 12
  binsize = 6, bins = 7 7 7
  1 neighbor lists, perpetual/occasional/extra = 1 0 0
  (1) pair lj/cut/coul/long, perpetual
      attributes: half, newton on
      pair build: half/bin/newton
      stencil: half/bin/3d
      bin: standard
Setting up Verlet run ...
  Unit style    : real
  Current step  : 0
  Time step     : 0.2
Per MPI rank memory allocation (min/avg/max) = 27.67 | 27.67 | 27.67 Mbytes
   Step          Temp          Press         Density         PotEng         Volume    
         0   298            132292.15      1.2550109      8824.4947      51047.136    
       500   743.75675      21255.64       1.2550109     -44135.166      51047.136    
      1000   386.02457      9777.9726      1.2550109     -48951.145      51047.136    
      1500   330.51093      6708.7976      1.2550109     -50335.79       51047.136    
      2000   308.10817      4948.0287      1.2550109     -50824.234      51047.136    
      2500   308.59565      6406.3354      1.2550109     -51134.98       51047.136    
      3000   296.88782      3811.1748      1.2550109     -51393.623      51047.136    
      3500   301.37578      5161.9721      1.2550109     -51560.613      51047.136    
      4000   306.63248      5867.6321      1.2550109     -51718.135      51047.136    
      4500   301.6378       5426.0057      1.2550109     -51743.673      51047.136    
      5000   300.57781      5789.2732      1.2550109     -51730.752      51047.136    
      5500   298.99805      5293.3441      1.2550109     -51765.155      51047.136    
      6000   299.74658      4401.9054      1.2550109     -51852.77       51047.136    
      6500   294.37471      5101.9906      1.2550109     -51842.278      51047.136    
      7000   305.35347      5759.9512      1.2550109     -51911.449      51047.136    
      7500   305.06928      5538.1084      1.2550109     -51940.242      51047.136    
      8000   309.2749       4913.5888      1.2550109     -52047.323      51047.136    
      8500   295.49899      4752.9909      1.2550109     -52040.833      51047.136    
      9000   299.71299      5258.1834      1.2550109     -52008.159      51047.136    
      9500   300.27253      5667.742       1.2550109     -51993.952      51047.136    
     10000   302.00494      5321.8593      1.2550109     -52114.048      51047.136    
     10500   303.93114      5675.9622      1.2550109     -52169.182      51047.136    
     11000   303.27988      4250.5389      1.2550109     -52163.501      51047.136    
     11500   296.70521      5759.2243      1.2550109     -52188.174      51047.136    
     12000   298.742        3545.1617      1.2550109     -52270.388      51047.136    
     12500   295.45905      4742.3709      1.2550109     -52255.632      51047.136    
     13000   299.55285      4369.7308      1.2550109     -52225.283      51047.136    
     13500   296.33622      7078.0352      1.2550109     -52260.288      51047.136    
     14000   292.23781      5842.1342      1.2550109     -52310.951      51047.136    
     14500   298.57129      5114.1156      1.2550109     -52266.942      51047.136    
     15000   296.37934      4654.2812      1.2550109     -52282.244      51047.136    
     15500   295.0111       3665.5986      1.2550109     -52400.184      51047.136    
     16000   303.94464      3016.246       1.2550109     -52384.238      51047.136    
     16500   298.09355      6074.8277      1.2550109     -52339.128      51047.136    
     17000   300.2429       3911.0713      1.2550109     -52287.264      51047.136    
     17500   295.63849      3630.4184      1.2550109     -52372.585      51047.136    
     18000   296.58969      3734.5691      1.2550109     -52350.952      51047.136    
     18500   297.53688      4461.2133      1.2550109     -52297.784      51047.136    
     19000   296.05366      4130.232       1.2550109     -52395.416      51047.136    
     19500   291.85745      4981.1708      1.2550109     -52336.601      51047.136    
     20000   299.2481       4884.6403      1.2550109     -52277.96       51047.136    
Loop time of 605.997 on 1 procs for 20000 steps with 4912 atoms

Performance: 0.570 ns/day, 42.083 hours/ns, 33.003 timesteps/s, 162.113 katom-step/s
100.0% CPU use with 1 MPI tasks x 1 OpenMP threads

MPI task timing breakdown:
Section |  min time  |  avg time  |  max time  |%varavg| %total
---------------------------------------------------------------
Pair    | 472.34     | 472.34     | 472.34     |   0.0 | 77.94
Bond    | 0.034617   | 0.034617   | 0.034617   |   0.0 |  0.01
Kspace  | 109.02     | 109.02     | 109.02     |   0.0 | 17.99
Neigh   | 6.7321     | 6.7321     | 6.7321     |   0.0 |  1.11
Comm    | 3.706      | 3.706      | 3.706      |   0.0 |  0.61
Output  | 0.0025146  | 0.0025146  | 0.0025146  |   0.0 |  0.00
Modify  | 13.054     | 13.054     | 13.054     |   0.0 |  2.15
Other   |            | 1.109      |            |       |  0.18

Nlocal:           4912 ave        4912 max        4912 min
Histogram: 1 0 0 0 0 0 0 0 0 0
Nghost:          17251 ave       17251 max       17251 min
Histogram: 1 0 0 0 0 0 0 0 0 0
Neighs:    1.70928e+06 ave 1.70928e+06 max 1.70928e+06 min
Histogram: 1 0 0 0 0 0 0 0 0 0

Total # of neighbors = 1709279
Ave neighs/atom = 347.98025
Ave special neighs/atom = 1.8322476
Neighbor list builds = 186
Dangerous builds = 0
PPPM initialization ...
  using 12-bit tables for long-range coulomb
  G vector (1/distance) = 0.30441929
  grid = 32 32 32
  stencil order = 5
  estimated absolute RMS force accuracy = 0.0035943975
  estimated relative force accuracy = 1.0824421e-05
  using double precision FFTW3
  3d grid and FFT values/proc = 59319 32768
Generated 6 of 6 mixed pair_coeff terms from arithmetic mixing rule
Setting up Verlet run ...
  Unit style    : real
  Current step  : 20000
  Time step     : 0.5
Per MPI rank memory allocation (min/avg/max) = 27.67 | 27.67 | 27.67 Mbytes
   Step          Temp          Press         Density         PotEng         Volume    
     20000   299.2481       4984.0841      1.2550109     -52277.96       51047.136    
     20500   303.30461      4651.1215      1.2550109     -52392.901      51047.136    
     21000   304.99642      5700.8061      1.2550109     -52388.911      51047.136    
     21500   304.91843      4208.4298      1.2550109     -52477.166      51047.136    
     22000   301.86073      4715.1192      1.2550109     -52496.802      51047.136    
     22500   294.7013       4183.3494      1.2550109     -52573.141      51047.136    
     23000   295.69233      4062.9741      1.2550109     -52614.473      51047.136    
     23500   292.45525      4341.4554      1.2550109     -52572.463      51047.136    
     24000   295.52681      4742.4521      1.2550109     -52529.701      51047.136    
     24500   298.5355       5555.7095      1.2550109     -52482.582      51047.136    
     25000   300.10829      5008.741       1.2550109     -52596.055      51047.136    
     25500   299.49783      5073.9662      1.2550109     -52483.577      51047.136    
     26000   306.73611      5023.7483      1.2550109     -52587.675      51047.136    
     26500   294.2151       4621.2521      1.2550109     -52625.72       51047.136    
     27000   310.19231      4964.9504      1.2550109     -52563.243      51047.136    
     27500   296.26881      5027.8168      1.2550109     -52537.17       51047.136    
     28000   304.02545      4567.0046      1.2550109     -52649.932      51047.136    
     28500   296.33492      4860.1021      1.2550109     -52620.498      51047.136    
     29000   299.55986      4753.6861      1.2550109     -52638.566      51047.136    
     29500   296.88507      4704.4253      1.2550109     -52622.004      51047.136    
     30000   304.47306      5548.1763      1.2550109     -52640.734      51047.136    
     30500   299.18366      4215.2587      1.2550109     -52674.481      51047.136    
     31000   298.94484      3822.4667      1.2550109     -52687.331      51047.136    
     31500   293.33328      5317.5033      1.2550109     -52650.017      51047.136    
     32000   300.28654      4121.8877      1.2550109     -52729.12       51047.136    
     32500   290.43714      4885.0645      1.2550109     -52627.688      51047.136    
     33000   304.85795      3640.0571      1.2550109     -52762.242      51047.136    
     33500   299.74567      5203.9842      1.2550109     -52636.35       51047.136    
     34000   295.97943      5039.7036      1.2550109     -52614.513      51047.136    
     34500   302.1994       5454.412       1.2550109     -52624.026      51047.136    
     35000   296.16943      4764.4309      1.2550109     -52706.647      51047.136    
     35500   294.78701      3756.3565      1.2550109     -52767.926      51047.136    
     36000   304.71875      5153.8696      1.2550109     -52693.015      51047.136    
     36500   294.3359       4925.1737      1.2550109     -52651.906      51047.136    
     37000   304.81223      5026.9884      1.2550109     -52686.975      51047.136    
     37500   302.05749      5100.0294      1.2550109     -52704.735      51047.136    
     38000   302.31761      4239.6324      1.2550109     -52641.003      51047.136    
     38500   299.79366      3882.7565      1.2550109     -52784.945      51047.136    
     39000   300.50557      4661.9332      1.2550109     -52714.189      51047.136    
     39500   302.36861      5219.5072      1.2550109     -52727.256      51047.136    
     40000   300.20747      4515.6222      1.2550109     -52812.072      51047.136    
Loop time of 516.938 on 1 procs for 20000 steps with 4912 atoms

Performance: 1.671 ns/day, 14.359 hours/ns, 38.689 timesteps/s, 190.042 katom-step/s
100.0% CPU use with 1 MPI tasks x 1 OpenMP threads

MPI task timing breakdown:
Section |  min time  |  avg time  |  max time  |%varavg| %total
---------------------------------------------------------------
Pair    | 400.38     | 400.38     | 400.38     |   0.0 | 77.45
Bond    | 0.022877   | 0.022877   | 0.022877   |   0.0 |  0.00
Kspace  | 89.605     | 89.605     | 89.605     |   0.0 | 17.33
Neigh   | 13.974     | 13.974     | 13.974     |   0.0 |  2.70
Comm    | 1.9237     | 1.9237     | 1.9237     |   0.0 |  0.37
Output  | 0.002223   | 0.002223   | 0.002223   |   0.0 |  0.00
Modify  | 10.432     | 10.432     | 10.432     |   0.0 |  2.02
Other   |            | 0.6022     |            |       |  0.12

Nlocal:           4912 ave        4912 max        4912 min
Histogram: 1 0 0 0 0 0 0 0 0 0
Nghost:          17146 ave       17146 max       17146 min
Histogram: 1 0 0 0 0 0 0 0 0 0
Neighs:    1.70897e+06 ave 1.70897e+06 max 1.70897e+06 min
Histogram: 1 0 0 0 0 0 0 0 0 0

Total # of neighbors = 1708967
Ave neighs/atom = 347.91673
Ave special neighs/atom = 1.8322476
Neighbor list builds = 453
Dangerous builds = 0
PPPM initialization ...
  using 12-bit tables for long-range coulomb
  G vector (1/distance) = 0.30441929
  grid = 32 32 32
  stencil order = 5
  estimated absolute RMS force accuracy = 0.0035943975
  estimated relative force accuracy = 1.0824421e-05
  using double precision FFTW3
  3d grid and FFT values/proc = 59319 32768
Generated 6 of 6 mixed pair_coeff terms from arithmetic mixing rule
Setting up Verlet run ...
  Unit style    : real
  Current step  : 40000
  Time step     : 1
Per MPI rank memory allocation (min/avg/max) = 27.67 | 27.67 | 27.67 Mbytes
   Step          Temp          Press         Density         PotEng         Volume    
     40000   300.20747      4603.8937      1.2550109     -52812.072      51047.136    
     40500   301.40755      158.92498      1.1863275     -52524.242      54002.552    
     41000   297.37438     -706.75624      1.1758942     -52620.812      54481.697    
     41500   291.61554      428.98096      1.1678886     -52400.52       54855.155    
     42000   293.59119      391.31839      1.1663894     -52476.076      54925.66     
     42500   300.13099      286.85271      1.1684062     -52483.711      54830.854    
     43000   297.6798       302.73933      1.1629584     -52518.912      55087.707    
     43500   295.75789      41.604942      1.1650009     -52513.916      54991.124    
     44000   302.04996     -176.21807      1.1521222     -52402.831      55605.827    
     44500   298.50857      409.92775      1.1626309     -52542.652      55103.224    
     45000   298.12779     -63.742305      1.1518522     -52436.089      55618.865    
     45500   294.89475      52.12122       1.1509966     -52390.216      55660.208    
     46000   295.51705     -266.05298      1.1568778     -52504.956      55377.249    
     46500   299.98494      211.48082      1.1524081     -52505.18       55592.035    
     47000   298.73401      250.71385      1.1495749     -52389.155      55729.044    
     47500   305.79095      60.332676      1.1501742     -52413.923      55700.004    
     48000   286.91579      102.20706      1.1533441     -52461.911      55546.918    
     48500   295.25834     -593.92528      1.1509885     -52464.637      55660.599    
     49000   299.76118      706.28588      1.1617494     -52431.636      55145.033    
     49500   296.68683      746.89493      1.1514632     -52339.142      55637.653    
     50000   299.80117      294.0041       1.147334      -52486.314      55837.89     
     50500   299.2898       249.21075      1.1559174     -52402.482      55423.258    
     51000   297.61271      87.493296      1.1530229     -52513.175      55562.394    
     51500   292.04218      711.44641      1.161089      -52592.759      55176.4      
     52000   299.1995      -477.46899      1.1496382     -52422.366      55725.974    
     52500   298.92658     -139.50439      1.1530609     -52478.996      55560.563    
     53000   296.27234      329.52597      1.1604693     -52517.238      55205.863    
     53500   299.51684     -715.94759      1.1502422     -52440.393      55696.712    
     54000   298.82352     -463.94925      1.1521382     -52471.915      55605.057    
     54500   294.39056      319.32732      1.1560803     -52480.92       55415.449    
     55000   302.46256      62.889665      1.1502001     -52473.726      55698.751    
     55500   298.65459      72.395761      1.1519225     -52490.29       55615.469    
     56000   297.05835      464.28348      1.1545045     -52379.208      55491.088    
     56500   303.85458      69.30106       1.1450913     -52310.404      55947.252    
     57000   305.37844     -38.682123      1.1488449     -52375.414      55764.457    
     57500   303.62067      115.42375      1.1567861     -52407.701      55381.637    
     58000   297.92934      159.1355       1.1513628     -52482.212      55642.504    
     58500   288.60211     -531.81046      1.1449553     -52310.87       55953.898    
     59000   300.31438      288.25472      1.159735      -52484.69       55240.82     
     59500   294.62235      94.069693      1.1553741     -52361.586      55449.32     
     60000   304.5657       236.00878      1.1521761     -52422.059      55603.227    
     60500   294.2509       120.04103      1.1474168     -52359.077      55833.86     
     61000   298.42549     -126.64936      1.1432952     -52333.776      56035.141    
     61500   296.56665     -86.215641      1.1468915     -52305.975      55859.434    
     62000   301.67062     -520.02725      1.1489223     -52411.255      55760.7      
     62500   296.21935     -197.23764      1.1522581     -52429.273      55599.269    
     63000   295.94981      689.65831      1.1592778     -52420.191      55262.603    
     63500   299.73434      286.44469      1.1520589     -52425.452      55608.885    
     64000   295.0488       163.69859      1.1487252     -52358.364      55770.264    
     64500   296.61814      32.357985      1.1506727     -52408.155      55675.877    
     65000   302.55782      456.06181      1.1548412     -52416.384      55474.91     
     65500   300.34905      127.84778      1.1535755     -52390.125      55535.776    
     66000   290.05644     -100.27377      1.1428226     -52328.997      56058.317    
     66500   292.33568      251.31584      1.1556762     -52443.078      55434.827    
     67000   295.62888      305.49574      1.1448973     -52516.6        55956.732    
     67500   298.30691     -672.08674      1.145854      -52515.568      55910.014    
     68000   292.36591     -7.1753002      1.1475976     -52512.352      55825.062    
     68500   293.58215      288.45927      1.1479393     -52429.504      55808.447    
     69000   291.82534      632.39054      1.1539064     -52444.901      55519.851    
     69500   299.77758      436.86694      1.1450785     -52455.114      55947.874    
     70000   301.25972     -245.5402       1.1430326     -52368.824      56048.017    
Loop time of 1062.85 on 1 procs for 30000 steps with 4912 atoms

Performance: 2.439 ns/day, 9.841 hours/ns, 28.226 timesteps/s, 138.647 katom-step/s
100.0% CPU use with 1 MPI tasks x 1 OpenMP threads

MPI task timing breakdown:
Section |  min time  |  avg time  |  max time  |%varavg| %total
---------------------------------------------------------------
Pair    | 550.87     | 550.87     | 550.87     |   0.0 | 51.83
Bond    | 0.060818   | 0.060818   | 0.060818   |   0.0 |  0.01
Kspace  | 138.23     | 138.23     | 138.23     |   0.0 | 13.01
Neigh   | 42.767     | 42.767     | 42.767     |   0.0 |  4.02
Comm    | 3.2578     | 3.2578     | 3.2578     |   0.0 |  0.31
Output  | 0.0031241  | 0.0031241  | 0.0031241  |   0.0 |  0.00
Modify  | 325.93     | 325.93     | 325.93     |   0.0 | 30.67
Other   |            | 1.721      |            |       |  0.16

Nlocal:           4912 ave        4912 max        4912 min
Histogram: 1 0 0 0 0 0 0 0 0 0
Nghost:          16327 ave       16327 max       16327 min
Histogram: 1 0 0 0 0 0 0 0 0 0
Neighs:    1.55706e+06 ave 1.55706e+06 max 1.55706e+06 min
Histogram: 1 0 0 0 0 0 0 0 0 0

Total # of neighbors = 1557062
Ave neighs/atom = 316.99145
Ave special neighs/atom = 1.8322476
Neighbor list builds = 1437
Dangerous builds = 0
PPPM initialization ...
  using 12-bit tables for long-range coulomb
  G vector (1/distance) = 0.30211225
  grid = 32 32 32
  stencil order = 5
  estimated absolute RMS force accuracy = 0.0039458268
  estimated relative force accuracy = 1.188274e-05
  using double precision FFTW3
  3d grid and FFT values/proc = 59319 32768
Generated 6 of 6 mixed pair_coeff terms from arithmetic mixing rule
Setting up Verlet run ...
  Unit style    : real
  Current step  : 0
  Time step     : 1
Per MPI rank memory allocation (min/avg/max) = 27.67 | 27.67 | 27.67 Mbytes
   Step          Temp          Press         Density         PotEng         Volume    
         0   301.25972     -260.36789      1.1430326     -52368.838      56048.017    
       500   296.23773     -19.54317       1.1554898     -52487.165      55443.772    
      1000   295.02068      371.45673      1.1480913     -52442.71       55801.06     
      1500   296.73015      362.54462      1.1472861     -52382.348      55840.22     
      2000   299.829       -26.929554      1.1488935     -52552.535      55762.098    
      2500   295.33816     -94.05522       1.1460519     -52427.958      55900.355    
      3000   300.2705      -350.86376      1.1432264     -52518.552      56038.513    
      3500   295.39885      109.00627      1.1432891     -52477.13       56035.443    
      4000   298.23125     -182.41156      1.1471403     -52409.885      55847.317    
      4500   291.49544      778.96812      1.1580436     -52493.578      55321.5      
      5000   301.98221     -25.98052       1.1483535     -52409.711      55788.317    
      5500   294.17303     -390.46303      1.1477666     -52493.441      55816.844    
      6000   296.52487     -97.432584      1.1557252     -52393.633      55432.475    
      6500   298.18452      211.71042      1.153862      -52485.942      55521.988    
      7000   298.9271      -431.05962      1.1490904     -52384.086      55752.542    
      7500   298.36753     -523.9828       1.1443363     -52493.368      55984.165    
      8000   294.35689     -433.466        1.1475708     -52425.649      55826.366    
      8500   299.8332      -163.00552      1.1547066     -52493.682      55481.376    
      9000   301.66644     -42.233334      1.1480755     -52417.548      55801.827    
      9500   298.92816      137.79144      1.1507767     -52479.027      55670.843    
     10000   307.68678     -363.65531      1.1472019     -52402.676      55844.321    
     10500   303.05864      105.99409      1.1508027     -52397.73       55669.587    
     11000   310.85041      715.35752      1.1603834     -52569.922      55209.95     
     11500   297.8676      -311.07282      1.1484955     -52372.042      55781.42     
     12000   298.69526      306.43361      1.1560225     -52465.415      55418.223    
     12500   298.94637      437.77937      1.1494963     -52402.717      55732.853    
     13000   297.1928       114.75754      1.1550781     -52407.313      55463.531    
     13500   296.95601     -344.39065      1.1466326     -52316.3        55872.047    
     14000   300.45596      188.82127      1.1496977     -52502.906      55723.091    
     14500   301.12026     -346.41956      1.1406448     -52331.1        56165.347    
     15000   293.40731      221.19505      1.1468725     -52365.546      55860.359    
     15500   298.49618     -283.63108      1.139578      -52346.748      56217.925    
     16000   303.35833      160.06257      1.1478206     -52318.124      55814.218    
     16500   301.20678     -48.314554      1.1438031     -52338.715      56010.261    
     17000   296.26372      176.99117      1.1372961     -52371.849      56330.72     
     17500   293.07118      77.455771      1.1439014     -52438.291      56005.449    
     18000   290.4074      -171.94855      1.1453563     -52383.983      55934.306    
     18500   301.81555     -225.24452      1.1413437     -52378.942      56130.953    
     19000   303.39221      531.11882      1.1440432     -52406.618      55998.508    
     19500   303.57054      506.07495      1.1428487     -52316.302      56057.033    
     20000   295.62452      496.33125      1.1498472     -52445.384      55715.844    
     20500   294.00888      0.34932231     1.150409      -52445.268      55688.636    
     21000   300.62344     -280.82858      1.1477281     -52348.783      55818.716    
     21500   297.21124      1181.8662      1.1527482     -52340.88       55575.634    
     22000   300.92074     -180.36619      1.1465244     -52386.586      55877.317    
     22500   297.34849      190.61016      1.1491216     -52396.647      55751.029    
     23000   301.28196      399.01829      1.1596559     -52450.735      55244.584    
     23500   305.47887      56.032782      1.1557343     -52312.864      55432.042    
     24000   299.41736      96.322355      1.1557536     -52470.452      55431.113    
     24500   295.90197     -431.5405       1.1495054     -52400.069      55732.415    
     25000   293.67542      137.62332      1.153         -52429.25       55563.497    
     25500   302.4725      -401.1747       1.1429331     -52367.321      56052.897    
     26000   290.20394      358.90044      1.1516777     -52506.783      55627.29     
     26500   302.38114      306.92922      1.1451289     -52414.833      55945.415    
     27000   301.83761      91.680856      1.1495001     -52448.863      55732.672    
     27500   295.01077      311.89016      1.1484575     -52373.327      55783.267    
     28000   298.53077     -72.4231        1.1423922     -52397.661      56079.434    
     28500   297.02636      518.33194      1.1489556     -52342.63       55759.083    
     29000   302.62453      439.46558      1.1519904     -52352.339      55612.19     
     29500   302.99052      80.744968      1.1455535     -52347.315      55924.68     
     30000   301.24834     -492.04809      1.1509658     -52544.085      55661.696    
     30500   296.15913      481.10691      1.1458543     -52458.152      55909.996    
     31000   294.23286     -51.197292      1.1504333     -52257.046      55687.463    
     31500   298.06533     -176.97408      1.1476334     -52326.652      55823.323    
     32000   296.66834     -68.344995      1.152738      -52338.878      55576.123    
     32500   296.43109     -112.77031      1.1465508     -52308.239      55876.033    
     33000   296.1135       799.30224      1.1487167     -52433.188      55770.679    
     33500   306.72317     -132.2838       1.1449806     -52466.024      55952.659    
     34000   301.44872     -117.80897      1.1450894     -52413.795      55947.344    
     34500   295.75039      237.91122      1.1519443     -52475.038      55614.415    
     35000   291.1739      -194.25099      1.1482246     -52437.805      55794.581    
     35500   292.13652     -650.43462      1.1478207     -52437.79       55814.216    
     36000   294.83737      68.69851       1.1455986     -52341.527      55922.475    
     36500   298.86432      223.14432      1.1528439     -52475.901      55571.02     
     37000   293.4752       78.623559      1.1528271     -52351.506      55571.83     
     37500   289.06649      380.92112      1.1504504     -52521.441      55686.632    
     38000   300.25844     -482.0906       1.1426106     -52427.441      56068.717    
     38500   294.01246     -104.66874      1.1479173     -52452.525      55809.516    
     39000   291.0849      -18.538624      1.1438702     -52363.162      56006.976    
     39500   296.89766     -253.06061      1.1535778     -52398.272      55535.664    
     40000   303.98803      145.12634      1.1443419     -52442.52       55983.891    
     40500   292.49089      86.788951      1.148717      -52346.374      55770.665    
     41000   290.54142     -512.76244      1.1526688     -52383.818      55579.459    
     41500   295.38051      328.14         1.1520983     -52434.304      55606.981    
     42000   292.72602      408.89293      1.1533608     -52473.085      55546.114    
     42500   299.07866     -420.41045      1.1457284     -52410.4        55916.142    
     43000   300.5499       615.55403      1.1515123     -52325.15       55635.279    
     43500   293.22993     -8.8001796      1.1498758     -52456.163      55714.459    
     44000   297.95713     -491.47508      1.1489006     -52430.475      55761.754    
     44500   292.6252       483.80427      1.1557529     -52385.732      55431.149    
     45000   295.33992      296.50264      1.1545514     -52503.359      55488.833    
     45500   300.94056     -27.260961      1.1445189     -52370.48       55975.231    
     46000   303.18968      319.82381      1.1463179     -52444.823      55887.387    
     46500   298.72765     -118.66648      1.1404764     -52414.265      56173.64     
     47000   297.99306     -98.063714      1.1483554     -52469.32       55788.225    
     47500   295.6955      -478.84014      1.1511865     -52413.296      55651.024    
     48000   298.71787      79.521222      1.1506646     -52340.871      55676.267    
     48500   300.57231      548.90243      1.1445178     -52330.207      55975.284    
     49000   296.68394      471.96965      1.1505349     -52358.887      55682.544    
     49500   298.56512      67.26895       1.1428452     -52374.943      56057.205    
     50000   294.07435     -167.52627      1.1484534     -52382.707      55783.465    
Loop time of 2306.69 on 1 procs for 50000 steps with 4912 atoms

Performance: 1.873 ns/day, 12.815 hours/ns, 21.676 timesteps/s, 106.473 katom-step/s
100.0% CPU use with 1 MPI tasks x 1 OpenMP threads

MPI task timing breakdown:
Section |  min time  |  avg time  |  max time  |%varavg| %total
---------------------------------------------------------------
Pair    | 1375.1     | 1375.1     | 1375.1     |   0.0 | 59.61
Bond    | 0.24739    | 0.24739    | 0.24739    |   0.0 |  0.01
Kspace  | 365.52     | 365.52     | 365.52     |   0.0 | 15.85
Neigh   | 94.524     | 94.524     | 94.524     |   0.0 |  4.10
Comm    | 18.663     | 18.663     | 18.663     |   0.0 |  0.81
Output  | 0.0072669  | 0.0072669  | 0.0072669  |   0.0 |  0.00
Modify  | 441.93     | 441.93     | 441.93     |   0.0 | 19.16
Other   |            | 10.69      |            |       |  0.46

Nlocal:           4912 ave        4912 max        4912 min
Histogram: 1 0 0 0 0 0 0 0 0 0
Nghost:          16332 ave       16332 max       16332 min
Histogram: 1 0 0 0 0 0 0 0 0 0
Neighs:    1.56513e+06 ave 1.56513e+06 max 1.56513e+06 min
Histogram: 1 0 0 0 0 0 0 0 0 0

Total # of neighbors = 1565132
Ave neighs/atom = 318.63436
Ave special neighs/atom = 1.8322476
Neighbor list builds = 2398
Dangerous builds = 0
RESULT density_g_cm3 1.14881306288122
DONE sig4.300_eps0.1553
Total wall time: 1:14:52
