LAMMPS (22 Jul 2025 - Update 5)
  using 1 OpenMP thread(s) per MPI task
Reading data file ...
  orthogonal box = (0 0 0) to (37.095719 37.095719 37.095719)
  1 by 1 by 1 MPI processor grid
  reading atoms ...
  4912 atoms
  scanning bonds ...
  2 = max bonds/atom
  scanning angles ...
  1 = max angles/atom
  orthogonal box = (0 0 0) to (37.095719 37.095719 37.095719)
  1 by 1 by 1 MPI processor grid
  reading bonds ...
  3000 bonds
  reading angles ...
  1500 angles
Finding 1-2 1-3 1-4 neighbors ...
  special bond factors lj:    0        0        0       
  special bond factors coul:  0        0        0       
     2 = max # of 1-2 neighbors
     1 = max # of 1-3 neighbors
     1 = max # of 1-4 neighbors
     2 = max # of special neighbors
  special bonds CPU = 0.001 seconds
  read_data CPU = 0.027 seconds
4500 atoms in group watr
206 atoms in group kion
206 atoms in group ohion
412 atoms in group ions
Finding SHAKE clusters ...
       0 = # of size 2 clusters
       0 = # of size 3 clusters
       0 = # of size 4 clusters
    1500 = # of frozen angles
  find clusters CPU = 0.001 seconds
PPPM initialization ...
  using 12-bit tables for long-range coulomb
  G vector (1/distance) = 0.30441929
  grid = 32 32 32
  stencil order = 5
  estimated absolute RMS force accuracy = 0.0035943975
  estimated relative force accuracy = 1.0824421e-05
  using double precision FFTW3
  3d grid and FFT values/proc = 59319 32768
Generated 6 of 6 mixed pair_coeff terms from arithmetic mixing rule
WARNING: Should not use fix nve/limit with fix shake or fix rattle (src/lammps/src/fix_nve_limit.cpp:76)
Neighbor list info ...
  update: every = 1 steps, delay = 0 steps, check = yes
  max neighbors/atom: 2000, page size: 100000
  master list distance cutoff = 12
  ghost atom cutoff = 12
  binsize = 6, bins = 7 7 7
  1 neighbor lists, perpetual/occasional/extra = 1 0 0
  (1) pair lj/cut/coul/long, perpetual
      attributes: half, newton on
      pair build: half/bin/newton
      stencil: half/bin/3d
      bin: standard
Setting up Verlet run ...
  Unit style    : real
  Current step  : 0
  Time step     : 0.2
Per MPI rank memory allocation (min/avg/max) = 27.67 | 27.67 | 27.67 Mbytes
   Step          Temp          Press         Density         PotEng         Volume    
         0   298            52276.824      1.2550109     -4764.5388      51047.136    
       500   720.72695      7144.2121      1.2550109     -49904.87       51047.136    
      1000   386.31166      159.17294      1.2550109     -54756.322      51047.136    
      1500   335.20765     -1852.0634      1.2550109     -56215.618      51047.136    
      2000   313.48271     -2718.4619      1.2550109     -56758.929      51047.136    
      2500   310.24007     -1202.0999      1.2550109     -57083.039      51047.136    
      3000   300.55019     -2504.9805      1.2550109     -57278.443      51047.136    
      3500   306.74869     -2463.1883      1.2550109     -57377.719      51047.136    
      4000   299.64837     -1448.8778      1.2550109     -57507.548      51047.136    
      4500   299.71696     -1805.4035      1.2550109     -57610.102      51047.136    
      5000   293.06568     -2255.9038      1.2550109     -57703.557      51047.136    
      5500   294.87681     -626.38195      1.2550109     -57754.099      51047.136    
      6000   299.99459     -2242.1935      1.2550109     -57805.845      51047.136    
      6500   297.30258     -2465.1805      1.2550109     -57838.919      51047.136    
      7000   298.88705     -3610.397       1.2550109     -57852.56       51047.136    
      7500   298.74334     -835.06807      1.2550109     -57886.708      51047.136    
      8000   298.11511     -2395.1477      1.2550109     -57930.59       51047.136    
      8500   303.36427     -2262.6861      1.2550109     -58071.435      51047.136    
      9000   302.68527     -2273.3742      1.2550109     -58054.987      51047.136    
      9500   302.58885     -2461.6069      1.2550109     -58056.147      51047.136    
     10000   302.05735     -2352.3281      1.2550109     -58172.768      51047.136    
     10500   298.69486     -4339.2567      1.2550109     -58222.95       51047.136    
     11000   292.18208     -2324.9588      1.2550109     -58086.053      51047.136    
     11500   294.84633     -2259.3065      1.2550109     -58196.451      51047.136    
     12000   297.53631     -2690.1575      1.2550109     -58318.446      51047.136    
     12500   300.02325     -3389.716       1.2550109     -58289.713      51047.136    
     13000   300.26421     -3192.6688      1.2550109     -58196.844      51047.136    
     13500   297.92193     -1205.3958      1.2550109     -58248.335      51047.136    
     14000   298.18291     -3035.6576      1.2550109     -58303.092      51047.136    
     14500   303.30212     -2335.9071      1.2550109     -58297.761      51047.136    
     15000   305.30551     -3959.0152      1.2550109     -58209.682      51047.136    
     15500   293.3614      -1812.2993      1.2550109     -58329.658      51047.136    
     16000   303.93773     -2285.1805      1.2550109     -58388.942      51047.136    
     16500   297.47127     -1131.2782      1.2550109     -58380.253      51047.136    
     17000   303.81418     -3616.3849      1.2550109     -58360.684      51047.136    
     17500   304.08433     -939.57693      1.2550109     -58313.329      51047.136    
     18000   292.4811      -2202.6372      1.2550109     -58346.216      51047.136    
     18500   304.94887     -2698.0439      1.2550109     -58324.456      51047.136    
     19000   295.36045     -1561.1483      1.2550109     -58274.757      51047.136    
     19500   303.29076     -3498.3224      1.2550109     -58431.142      51047.136    
     20000   300.51992     -2205.2732      1.2550109     -58346.016      51047.136    
Loop time of 581.185 on 1 procs for 20000 steps with 4912 atoms

Performance: 0.595 ns/day, 40.360 hours/ns, 34.412 timesteps/s, 169.034 katom-step/s
100.0% CPU use with 1 MPI tasks x 1 OpenMP threads

MPI task timing breakdown:
Section |  min time  |  avg time  |  max time  |%varavg| %total
---------------------------------------------------------------
Pair    | 452.09     | 452.09     | 452.09     |   0.0 | 77.79
Bond    | 0.040116   | 0.040116   | 0.040116   |   0.0 |  0.01
Kspace  | 105.72     | 105.72     | 105.72     |   0.0 | 18.19
Neigh   | 6.4986     | 6.4986     | 6.4986     |   0.0 |  1.12
Comm    | 3.3128     | 3.3128     | 3.3128     |   0.0 |  0.57
Output  | 0.0026013  | 0.0026013  | 0.0026013  |   0.0 |  0.00
Modify  | 12.536     | 12.536     | 12.536     |   0.0 |  2.16
Other   |            | 0.9852     |            |       |  0.17

Nlocal:           4912 ave        4912 max        4912 min
Histogram: 1 0 0 0 0 0 0 0 0 0
Nghost:          17273 ave       17273 max       17273 min
Histogram: 1 0 0 0 0 0 0 0 0 0
Neighs:     1.7092e+06 ave  1.7092e+06 max  1.7092e+06 min
Histogram: 1 0 0 0 0 0 0 0 0 0

Total # of neighbors = 1709204
Ave neighs/atom = 347.96498
Ave special neighs/atom = 1.8322476
Neighbor list builds = 187
Dangerous builds = 0
PPPM initialization ...
  using 12-bit tables for long-range coulomb
  G vector (1/distance) = 0.30441929
  grid = 32 32 32
  stencil order = 5
  estimated absolute RMS force accuracy = 0.0035943975
  estimated relative force accuracy = 1.0824421e-05
  using double precision FFTW3
  3d grid and FFT values/proc = 59319 32768
Generated 6 of 6 mixed pair_coeff terms from arithmetic mixing rule
Setting up Verlet run ...
  Unit style    : real
  Current step  : 20000
  Time step     : 0.5
Per MPI rank memory allocation (min/avg/max) = 27.67 | 27.67 | 27.67 Mbytes
   Step          Temp          Press         Density         PotEng         Volume    
     20000   300.51992     -2341.3206      1.2550109     -58346.016      51047.136    
     20500   304.49962     -1964.8996      1.2550109     -58445.644      51047.136    
     21000   298.18653     -2254.9145      1.2550109     -58460.714      51047.136    
     21500   297.52271     -2055.5947      1.2550109     -58513.575      51047.136    
     22000   300.11458     -2300.9656      1.2550109     -58571.993      51047.136    
     22500   302.40154     -2713.3669      1.2550109     -58545.127      51047.136    
     23000   292.86602     -3179.8744      1.2550109     -58598.103      51047.136    
     23500   307.41718     -2317.8134      1.2550109     -58545.57       51047.136    
     24000   299.89606     -2396.0606      1.2550109     -58545.822      51047.136    
     24500   293.11182     -2787.7391      1.2550109     -58519.124      51047.136    
     25000   296.78369     -2517.7795      1.2550109     -58548.853      51047.136    
     25500   301.39402     -3074.7896      1.2550109     -58579.327      51047.136    
     26000   300.31308     -2564.6929      1.2550109     -58528.652      51047.136    
     26500   301.08776     -3819.9346      1.2550109     -58537.436      51047.136    
     27000   300.95911     -2352.9694      1.2550109     -58594.622      51047.136    
     27500   298.27795     -2315.5832      1.2550109     -58592.478      51047.136    
     28000   299.96742     -2098.6587      1.2550109     -58531.684      51047.136    
     28500   296.71949     -3159.6356      1.2550109     -58645.283      51047.136    
     29000   305.39933     -2231.612       1.2550109     -58691.027      51047.136    
     29500   291.82733     -1884.346       1.2550109     -58670.714      51047.136    
     30000   292.38784     -3238.7564      1.2550109     -58645.785      51047.136    
     30500   297.31212     -2945.1201      1.2550109     -58649.669      51047.136    
     31000   295.713       -2441.8041      1.2550109     -58700.111      51047.136    
     31500   301.40102     -1499.0613      1.2550109     -58612.337      51047.136    
     32000   293.83872     -1683.1118      1.2550109     -58677.636      51047.136    
     32500   302.38505     -1073.9928      1.2550109     -58695.464      51047.136    
     33000   301.65524     -2381.5026      1.2550109     -58726.205      51047.136    
     33500   299.25955     -2152.8832      1.2550109     -58618.657      51047.136    
     34000   296.28502     -2260.0838      1.2550109     -58728.788      51047.136    
     34500   303.83235     -1714.2319      1.2550109     -58638.473      51047.136    
     35000   293.41195     -2741.7975      1.2550109     -58662.435      51047.136    
     35500   295.65105     -2196.9615      1.2550109     -58649.68       51047.136    
     36000   301.37979     -2727.4598      1.2550109     -58678.278      51047.136    
     36500   299.9455      -2677.9003      1.2550109     -58780.961      51047.136    
     37000   302.79853     -1646.3         1.2550109     -58689          51047.136    
     37500   297.13055     -2962.7054      1.2550109     -58703.335      51047.136    
     38000   305.24692     -2346.0085      1.2550109     -58766.308      51047.136    
     38500   309.45206     -3102.9718      1.2550109     -58772.692      51047.136    
     39000   303.04404     -2669.4894      1.2550109     -58667.362      51047.136    
     39500   292.75614     -2316.0227      1.2550109     -58798.867      51047.136    
     40000   295.44663     -2347.4573      1.2550109     -58729.418      51047.136    
Loop time of 515.698 on 1 procs for 20000 steps with 4912 atoms

Performance: 1.675 ns/day, 14.325 hours/ns, 38.782 timesteps/s, 190.499 katom-step/s
100.0% CPU use with 1 MPI tasks x 1 OpenMP threads

MPI task timing breakdown:
Section |  min time  |  avg time  |  max time  |%varavg| %total
---------------------------------------------------------------
Pair    | 398.87     | 398.87     | 398.87     |   0.0 | 77.35
Bond    | 0.023876   | 0.023876   | 0.023876   |   0.0 |  0.00
Kspace  | 90.099     | 90.099     | 90.099     |   0.0 | 17.47
Neigh   | 13.813     | 13.813     | 13.813     |   0.0 |  2.68
Comm    | 1.8557     | 1.8557     | 1.8557     |   0.0 |  0.36
Output  | 0.0039731  | 0.0039731  | 0.0039731  |   0.0 |  0.00
Modify  | 10.44      | 10.44      | 10.44      |   0.0 |  2.02
Other   |            | 0.5883     |            |       |  0.11

Nlocal:           4912 ave        4912 max        4912 min
Histogram: 1 0 0 0 0 0 0 0 0 0
Nghost:          17086 ave       17086 max       17086 min
Histogram: 1 0 0 0 0 0 0 0 0 0
Neighs:    1.70852e+06 ave 1.70852e+06 max 1.70852e+06 min
Histogram: 1 0 0 0 0 0 0 0 0 0

Total # of neighbors = 1708519
Ave neighs/atom = 347.82553
Ave special neighs/atom = 1.8322476
Neighbor list builds = 448
Dangerous builds = 0
PPPM initialization ...
  using 12-bit tables for long-range coulomb
  G vector (1/distance) = 0.30441929
  grid = 32 32 32
  stencil order = 5
  estimated absolute RMS force accuracy = 0.0035943975
  estimated relative force accuracy = 1.0824421e-05
  using double precision FFTW3
  3d grid and FFT values/proc = 59319 32768
Generated 6 of 6 mixed pair_coeff terms from arithmetic mixing rule
Setting up Verlet run ...
  Unit style    : real
  Current step  : 40000
  Time step     : 1
Per MPI rank memory allocation (min/avg/max) = 27.67 | 27.67 | 27.67 Mbytes
   Step          Temp          Press         Density         PotEng         Volume    
     40000   295.44663     -2256.6057      1.2550109     -58729.418      51047.136    
     40500   298.8087       557.55512      1.3009366     -58878.482      49245.066    
     41000   299.14029     -380.52164      1.3076378     -58956.539      48992.703    
     41500   302.90862     -29.185281      1.3218084     -58983.67       48467.471    
     42000   297.41145      270.43056      1.3286957     -59108.233      48216.24     
     42500   300.36733      605.69286      1.3381611     -59015.197      47875.185    
     43000   298.11316      81.633375      1.3339737     -59047.34       48025.468    
     43500   299.31609     -143.59925      1.3336049     -59226.845      48038.75     
     44000   299.23932     -467.50138      1.3276319     -59054.692      48254.873    
     44500   300.48205      1193.7537      1.345038      -59219.235      47630.408    
     45000   300.41166     -49.488752      1.3332239     -59179.516      48052.475    
     45500   300.45622     -288.47405      1.3320774     -59171.243      48093.835    
     46000   298.54972     -242.9115       1.3448098     -59211.066      47638.491    
     46500   295.33081     -103.26412      1.3434363     -59225.888      47687.195    
     47000   300.44228     -207.63099      1.3357023     -59232.74       47963.315    
     47500   300.26891      295.92108      1.3384777     -59210.96       47863.861    
     48000   298.75849     -145.09131      1.3443044     -59186.717      47656.402    
     48500   297.95792      311.52038      1.3475003     -59128.549      47543.374    
     49000   298.07901      379.14897      1.3457922     -59191.53       47603.716    
     49500   298.3683      -157.23364      1.3437856     -59314.226      47674.801    
     50000   300.39278     -183.86181      1.3488891     -59293.484      47494.424    
     50500   299.26206      323.98172      1.3443755     -59205.342      47653.879    
     51000   293.45207      191.93372      1.341863      -59187.611      47743.107    
     51500   288.75856     -439.39877      1.3476699     -59219.648      47537.389    
     52000   298.47607     -856.5252       1.3367222     -59179.251      47926.721    
     52500   292.70205     -137.4668       1.3406562     -59317.5        47786.085    
     53000   302.64097      113.33056      1.3399963     -59270.385      47809.619    
     53500   297.56445      302.03306      1.3452156     -59335.945      47624.119    
     54000   300.25602     -607.04453      1.3404898     -59268.709      47792.015    
     54500   288.97533     -942.44358      1.3435283     -59375.176      47683.931    
     55000   292.25312      37.957455      1.3467304     -59344.83       47570.552    
     55500   303.41824     -592.4891       1.3459137     -59311.214      47599.42     
     56000   298.49971     -269.47919      1.3503014     -59299.141      47444.75     
     56500   294.56818     -597.90702      1.343574      -59290.007      47682.308    
     57000   293.20971     -195.90171      1.3424053     -59237.759      47723.819    
     57500   299.80723     -269.03743      1.3401166     -59230.455      47805.325    
     58000   293.7206      -308.69181      1.3439228     -59293.643      47669.935    
     58500   297.84831      37.456439      1.348452      -59228.061      47509.82     
     59000   301.51644      74.951379      1.3535443     -59275.348      47331.078    
     59500   291.16676      724.44727      1.3543685     -59286.588      47302.273    
     60000   298.42067      490.82339      1.3547414     -59349.554      47289.256    
     60500   304.73806      141.1317       1.3478467     -59152.355      47531.154    
     61000   303.72005     -226.09635      1.3563586     -59364.118      47232.871    
     61500   300.94125     -334.43532      1.3491406     -59294.548      47485.568    
     62000   306.46117     -140.49921      1.3537692     -59244.057      47323.213    
     62500   303.37402     -411.68654      1.3493313     -59265.912      47478.859    
     63000   297.96887      857.81696      1.3607441     -59331.504      47080.646    
     63500   304.35045     -480.54402      1.3506135     -59295.234      47433.783    
     64000   301.69206     -230.17564      1.3538344     -59286.964      47320.936    
     64500   301.23345     -36.906163      1.3496064     -59255.233      47469.18     
     65000   293.45347      690.77349      1.3619377     -59311.815      47039.383    
     65500   294.04687      600.33534      1.352023      -59354.857      47384.333    
     66000   292.381        480.45514      1.3491719     -59369.075      47484.469    
     66500   297.0401       667.61352      1.3496815     -59281.893      47466.54     
     67000   296.79553      163.88828      1.3518661     -59360.604      47389.833    
     67500   297.11215      265.04277      1.3570889     -59266.68       47207.454    
     68000   298.63308      193.93711      1.3486929     -59197.787      47501.333    
     68500   299.98754      223.09231      1.3518395     -59399.811      47390.768    
     69000   298.54498      159.50465      1.3497937     -59351.934      47462.594    
     69500   300.16816      443.58436      1.3481944     -59243.376      47518.898    
     70000   296.65259     -147.12647      1.3512727     -59342.224      47410.643    
Loop time of 1148.48 on 1 procs for 30000 steps with 4912 atoms

Performance: 2.257 ns/day, 10.634 hours/ns, 26.122 timesteps/s, 128.309 katom-step/s
100.0% CPU use with 1 MPI tasks x 1 OpenMP threads

MPI task timing breakdown:
Section |  min time  |  avg time  |  max time  |%varavg| %total
---------------------------------------------------------------
Pair    | 635.43     | 635.43     | 635.43     |   0.0 | 55.33
Bond    | 0.06228    | 0.06228    | 0.06228    |   0.0 |  0.01
Kspace  | 139.41     | 139.41     | 139.41     |   0.0 | 12.14
Neigh   | 43.885     | 43.885     | 43.885     |   0.0 |  3.82
Comm    | 3.2916     | 3.2916     | 3.2916     |   0.0 |  0.29
Output  | 0.0031719  | 0.0031719  | 0.0031719  |   0.0 |  0.00
Modify  | 324.76     | 324.76     | 324.76     |   0.0 | 28.28
Other   |            | 1.639      |            |       |  0.14

Nlocal:           4912 ave        4912 max        4912 min
Histogram: 1 0 0 0 0 0 0 0 0 0
Nghost:          17693 ave       17693 max       17693 min
Histogram: 1 0 0 0 0 0 0 0 0 0
Neighs:    1.83944e+06 ave 1.83944e+06 max 1.83944e+06 min
Histogram: 1 0 0 0 0 0 0 0 0 0

Total # of neighbors = 1839435
Ave neighs/atom = 374.47781
Ave special neighs/atom = 1.8322476
Neighbor list builds = 1390
Dangerous builds = 0
PPPM initialization ...
  using 12-bit tables for long-range coulomb
  G vector (1/distance) = 0.30622698
  grid = 32 32 32
  stencil order = 5
  estimated absolute RMS force accuracy = 0.003339313
  estimated relative force accuracy = 1.0056242e-05
  using double precision FFTW3
  3d grid and FFT values/proc = 59319 32768
Generated 6 of 6 mixed pair_coeff terms from arithmetic mixing rule
Setting up Verlet run ...
  Unit style    : real
  Current step  : 0
  Time step     : 1
Per MPI rank memory allocation (min/avg/max) = 28.05 | 28.05 | 28.05 Mbytes
   Step          Temp          Press         Density         PotEng         Volume    
         0   296.65259     -160.80328      1.3512727     -59342.227      47410.643    
       500   297.49643     -405.04104      1.3511456     -59298.957      47415.106    
      1000   307.91155     -48.091651      1.3492829     -59252.651      47480.563    
      1500   300.42158     -501.81732      1.3439551     -59284.799      47668.789    
      2000   293.96126     -471.842        1.35057       -59347.327      47435.313    
      2500   299.30384      310.14527      1.352686      -59408.761      47361.11     
      3000   290.18469     -311.69317      1.3502579     -59281.49       47446.276    
      3500   300.71059     -103.05988      1.3473599     -59309.831      47548.328    
      4000   305.0054       103.80827      1.3509756     -59184.888      47421.071    
      4500   296.52711      433.13495      1.3532892     -59292.762      47339.999    
      5000   302.75364      860.71626      1.3582482     -59326.566      47167.159    
      5500   301.99619      455.04428      1.3519325     -59293.785      47387.507    
      6000   297.48443      634.38734      1.3502607     -59345.174      47446.177    
      6500   298.81732      101.8969       1.3466044     -59254.415      47575.003    
      7000   299.88096     -180.45239      1.3481968     -59339.48       47518.811    
      7500   303.50457      313.23641      1.3483708     -59312.821      47512.68     
      8000   299.63686      232.57182      1.3537297     -59265.554      47324.595    
      8500   300.84792      445.88931      1.3495038     -59336.107      47472.791    
      9000   298.95098     -80.796134      1.351457      -59298.641      47404.178    
      9500   302.03992     -428.43264      1.3485808     -59392.6        47505.282    
     10000   297.30295      13.617532      1.3502548     -59349.947      47446.387    
     10500   293.01075     -1078.375       1.3506447     -59331.893      47432.689    
     11000   301.53048     -650.65547      1.3451163     -59404.102      47627.636    
     11500   289.3215       5.3417033      1.3497603     -59305.621      47463.767    
     12000   295.72644     -210.80892      1.3493047     -59274.207      47479.795    
     12500   307.88309     -633.93728      1.3458942     -59322.402      47600.109    
     13000   292.35229      60.101247      1.356331      -59291.419      47233.833    
     13500   295.60683     -228.32162      1.3474372     -59310.936      47545.598    
     14000   299.36606     -603.23254      1.34763       -59263.322      47538.797    
     14500   301.28079     -57.461519      1.3449885     -59268.54       47632.163    
     15000   307.99212      398.20712      1.3568694     -59359.382      47215.09     
     15500   298.13122     -121.41843      1.3447414     -59209.14       47640.914    
     16000   296.20628     -245.88872      1.3544559     -59309.855      47299.22     
     16500   296.13478     -467.53767      1.3513899     -59276.955      47406.534    
     17000   285.38467      114.89357      1.3547428     -59217.929      47289.204    
     17500   298.25552      164.24536      1.355475      -59267.502      47263.659    
     18000   300.81299     -125.10145      1.3509582     -59333.203      47421.681    
     18500   295.40095      517.62633      1.3587287     -59334.159      47150.478    
     19000   295.58711     -549.71987      1.3468891     -59195.443      47564.948    
     19500   297.095        82.825567      1.3425755     -59290.588      47717.771    
     20000   294.08706     -411.67955      1.3464946     -59310.085      47578.885    
     20500   293.00584      191.90923      1.350931      -59302.702      47422.635    
     21000   293.86634     -420.80833      1.3523005     -59311.923      47374.612    
     21500   301.90356      4.4633032      1.3458502     -59258.423      47601.664    
     22000   304.1322       631.2289       1.3499335     -59344.832      47457.679    
     22500   291.82221      70.268065      1.3532851     -59314.027      47340.143    
     23000   294.75154     -309.81619      1.3476074     -59293.235      47539.595    
     23500   302.62236      1359.2828      1.357388      -59272.516      47197.051    
     24000   294.17226      211.91419      1.3539857     -59312.436      47315.648    
     24500   298.2258       367.31508      1.3562133     -59384.566      47237.931    
     25000   296.77047      761.20513      1.3562575     -59347.837      47236.391    
     25500   301.73209     -265.10015      1.3487155     -59319.568      47500.538    
     26000   295.4306       0.80632311     1.3486622     -59302.745      47502.414    
     26500   289.89257     -208.14263      1.3522366     -59333.497      47376.85     
     27000   302.32247      142.41978      1.3511592     -59291.107      47414.629    
     27500   295.57557     -1002.9433      1.3424545     -59315.933      47722.071    
     28000   291.79552      656.54587      1.3520091     -59299.931      47384.823    
     28500   301.24068      7.2217289      1.3496444     -59274.022      47467.844    
     29000   301.17251      498.85538      1.3543615     -59252.493      47302.518    
     29500   302.23371      142.56779      1.3528407     -59227.012      47355.695    
     30000   293.87749     -303.55984      1.3517893     -59319.9        47392.527    
     30500   297.22421     -392.74468      1.3528245     -59363.75       47356.259    
     31000   296.96184     -172.39257      1.3527173     -59368.387      47360.014    
     31500   303.58789      61.138557      1.3601875     -59353.462      47099.911    
     32000   300.729       -935.8775       1.351365      -59319.462      47407.406    
     32500   295.44226      111.13064      1.3547173     -59358.011      47290.095    
     33000   292.80836     -424.54922      1.3520014     -59398.35       47385.093    
     33500   295.52509      77.130686      1.3552031     -59390.531      47273.142    
     34000   297.00262     -360.23739      1.3562575     -59329.724      47236.391    
     34500   296.88271      195.11194      1.3496505     -59342.43       47467.63     
     35000   301.6621       290.68081      1.3579478     -59374.598      47177.595    
     35500   301.24069     -248.72979      1.3572147     -59519.803      47203.076    
     36000   302.60306      368.32063      1.3455818     -59274.331      47611.159    
     36500   298.74991      613.36405      1.357484      -59365.949      47193.713    
     37000   294.63499      481.04935      1.3560513     -59406.95       47243.573    
     37500   302.50105     -298.25168      1.3489332     -59376.772      47492.871    
     38000   303.76257     -476.88264      1.3421749     -59420.551      47732.012    
     38500   286.90003      477.62601      1.3526557     -59418.525      47362.172    
     39000   290.53906     -596.37515      1.3406797     -59383.712      47785.246    
     39500   288.47899      768.29253      1.350382      -59395.178      47441.915    
     40000   303.24634      302.18023      1.3542551     -59382.733      47306.234    
     40500   302.11749     -168.12142      1.3477129     -59368.161      47535.873    
     41000   303.62799     -747.96589      1.3432017     -59539.388      47695.527    
     41500   297.45097      420.09603      1.3419053     -59394.871      47741.602    
     42000   298.14938      551.97992      1.3437143     -59367.124      47677.332    
     42500   293.90471     -758.8938       1.3417478     -59367.61       47747.207    
     43000   291.54857     -530.81507      1.3433905     -59332.916      47688.822    
     43500   289.29275      225.15945      1.350317      -59381.853      47444.202    
     44000   302.04677      368.93258      1.3518384     -59352.078      47390.804    
     44500   304.99424      317.05646      1.3528672     -59387.696      47354.767    
     45000   297.51242     -242.73217      1.3563865     -59487.765      47231.899    
     45500   294.86035     -566.89735      1.3552602     -59368.157      47271.152    
     46000   299.47874      762.40544      1.3565671     -59535.173      47225.611    
     46500   296.75594     -268.13671      1.3558172     -59426.366      47251.732    
     47000   294.08043     -96.381015      1.3592039     -59340.246      47133.996    
     47500   297.49883     -64.295444      1.3566862     -59427.846      47221.464    
     48000   297.44533      274.69181      1.3532422     -59454.24       47341.645    
     48500   296.59315     -178.66388      1.3588235     -59455.072      47147.191    
     49000   297.81822     -125.42299      1.3496145     -59382.71       47468.894    
     49500   296.14506     -15.778481      1.3520978     -59345.847      47381.713    
     50000   292.9271       299.04277      1.3524559     -59377.448      47369.167    
Loop time of 2594.91 on 1 procs for 50000 steps with 4912 atoms

Performance: 1.665 ns/day, 14.416 hours/ns, 19.269 timesteps/s, 94.647 katom-step/s
100.0% CPU use with 1 MPI tasks x 1 OpenMP threads

MPI task timing breakdown:
Section |  min time  |  avg time  |  max time  |%varavg| %total
---------------------------------------------------------------
Pair    | 1636.6     | 1636.6     | 1636.6     |   0.0 | 63.07
Bond    | 0.27574    | 0.27574    | 0.27574    |   0.0 |  0.01
Kspace  | 381.1      | 381.1      | 381.1      |   0.0 | 14.69
Neigh   | 98.019     | 98.019     | 98.019     |   0.0 |  3.78
Comm    | 20.793     | 20.793     | 20.793     |   0.0 |  0.80
Output  | 0.0073217  | 0.0073217  | 0.0073217  |   0.0 |  0.00
Modify  | 446.71     | 446.71     | 446.71     |   0.0 | 17.21
Other   |            | 11.37      |            |       |  0.44

Nlocal:           4912 ave        4912 max        4912 min
Histogram: 1 0 0 0 0 0 0 0 0 0
Nghost:          17654 ave       17654 max       17654 min
Histogram: 1 0 0 0 0 0 0 0 0 0
Neighs:    1.84104e+06 ave 1.84104e+06 max 1.84104e+06 min
Histogram: 1 0 0 0 0 0 0 0 0 0

Total # of neighbors = 1841036
Ave neighs/atom = 374.80375
Ave special neighs/atom = 1.8322476
Neighbor list builds = 2313
Dangerous builds = 0
RESULT density_g_cm3 1.35167056732218
DONE sig3.400_eps0.1553
Total wall time: 1:20:40
