LAMMPS (22 Jul 2025 - Update 5)
  using 1 OpenMP thread(s) per MPI task
# Rhodopsin model

units           real
neigh_modify    delay 5 every 1

atom_style      full
bond_style      harmonic
angle_style     charmm
dihedral_style  charmm
improper_style  harmonic
pair_style      lj/charmm/coul/long 8.0 10.0
pair_modify     mix arithmetic
kspace_style    pppm 1e-4

read_data       data.rhodo
Reading data file ...
  orthogonal box = (-27.5 -38.5 -36.3646) to (27.5 38.5 36.3615)
  2 by 2 by 2 MPI processor grid
  reading atoms ...
  32000 atoms
  reading velocities ...
  32000 velocities
  scanning bonds ...
  4 = max bonds/atom
  scanning angles ...
  8 = max angles/atom
  scanning dihedrals ...
  18 = max dihedrals/atom
  scanning impropers ...
  2 = max impropers/atom
  orthogonal box = (-27.5 -38.5 -36.3646) to (27.5 38.5 36.3615)
  2 by 2 by 2 MPI processor grid
  reading bonds ...
  27723 bonds
  reading angles ...
  40467 angles
  reading dihedrals ...
  56829 dihedrals
  reading impropers ...
  1034 impropers
Finding 1-2 1-3 1-4 neighbors ...
  special bond factors lj:    0        0        0       
  special bond factors coul:  0        0        0       
     4 = max # of 1-2 neighbors
    12 = max # of 1-3 neighbors
    24 = max # of 1-4 neighbors
    26 = max # of special neighbors
  special bonds CPU = 0.005 seconds
  read_data CPU = 0.739 seconds

fix             1 all shake 0.0001 5 0 m 1.0 a 232
Finding SHAKE clusters ...
    1617 = # of size 2 clusters
    3633 = # of size 3 clusters
     747 = # of size 4 clusters
    4233 = # of frozen angles
  find clusters CPU = 0.004 seconds
fix             2 all npt temp 300.0 300.0 100.0                 z 0.0 0.0 1000.0 mtk no pchain 0 tchain 1

special_bonds   charmm

thermo          50
thermo_style    multi
timestep        2.0

run		500
PPPM initialization ...
  using 12-bit tables for long-range coulomb
  G vector (1/distance) = 0.24883488
  grid = 25 32 32
  stencil order = 5
  estimated absolute RMS force accuracy = 0.035547797
  estimated relative force accuracy = 0.00010705113
  using double precision FFTW3
  3d grid and FFT values/proc = 7938 3328
Generated 2278 of 2278 mixed pair_coeff terms from arithmetic mixing rule
Neighbor list info ...
  update: every = 1 steps, delay = 5 steps, check = yes
  max neighbors/atom: 2000, page size: 100000
  master list distance cutoff = 12
  ghost atom cutoff = 12
  binsize = 6, bins = 10 13 13
  1 neighbor lists, perpetual/occasional/extra = 1 0 0
  (1) pair lj/charmm/coul/long, perpetual
      attributes: half, newton on
      pair build: half/bin/newton
      stencil: half/bin/3d
      bin: standard
Per MPI rank memory allocation (min/avg/max) = 41.74 | 42.03 | 42.14 Mbytes
------------ Step              0 ----- CPU =            0 (sec) -------------
TotEng   =    -25356.2057 KinEng   =     21444.8313 Temp     =       299.0397 
PotEng   =    -46801.0370 E_bond   =      2537.9940 E_angle  =     10921.3742 
E_dihed  =      5211.7865 E_impro  =       213.5116 E_vdwl   =     -2307.8634 
E_coul   =    207025.8934 E_long   =   -270403.7333 Press    =      -149.3300 
Volume   =    307995.0335
------------ Step             50 ----- CPU =     3.221917 (sec) -------------
TotEng   =    -25330.0307 KinEng   =     21501.0009 Temp     =       299.8229 
PotEng   =    -46831.0316 E_bond   =      2471.7035 E_angle  =     10836.5102 
E_dihed  =      5239.6319 E_impro  =       227.1218 E_vdwl   =     -1993.2873 
E_coul   =    206797.6807 E_long   =   -270410.3925 Press    =       237.6572 
Volume   =    308031.6762
------------ Step            100 ----- CPU =      6.86979 (sec) -------------
TotEng   =    -25290.7364 KinEng   =     21591.9089 Temp     =       301.0906 
PotEng   =    -46882.6453 E_bond   =      2567.9807 E_angle  =     10781.9571 
E_dihed  =      5198.7492 E_impro  =       216.7864 E_vdwl   =     -1902.6616 
E_coul   =    206659.5159 E_long   =   -270404.9730 Press    =         6.7352 
Volume   =    308134.2286
------------ Step            150 ----- CPU =      10.5012 (sec) -------------
TotEng   =    -25258.0771 KinEng   =     21529.6598 Temp     =       300.2226 
PotEng   =    -46787.7369 E_bond   =      2556.3466 E_angle  =     10852.7811 
E_dihed  =      5265.2305 E_impro  =       203.0691 E_vdwl   =     -2066.1359 
E_coul   =    206797.4473 E_long   =   -270396.4758 Press    =       251.4753 
Volume   =    308515.2404
------------ Step            200 ----- CPU =      14.2884 (sec) -------------
TotEng   =    -25078.8511 KinEng   =     21571.3618 Temp     =       300.8041 
PotEng   =    -46650.2129 E_bond   =      2488.6957 E_angle  =     11073.4386 
E_dihed  =      5221.7536 E_impro  =       232.8552 E_vdwl   =     -2167.7422 
E_coul   =    206902.9102 E_long   =   -270402.1239 Press    =        20.6655 
Volume   =    308997.5614
------------ Step            250 ----- CPU =     18.14871 (sec) -------------
TotEng   =    -24944.3166 KinEng   =     21546.5257 Temp     =       300.4578 
PotEng   =    -46490.8423 E_bond   =      2542.5397 E_angle  =     11105.5077 
E_dihed  =      5239.6627 E_impro  =       212.3530 E_vdwl   =     -2169.0759 
E_coul   =    206990.3298 E_long   =   -270412.1593 Press    =      -169.9074 
Volume   =    309388.1062
------------ Step            300 ----- CPU =     21.92351 (sec) -------------
TotEng   =    -24999.2489 KinEng   =     21497.9583 Temp     =       299.7805 
PotEng   =    -46497.2072 E_bond   =      2557.8735 E_angle  =     10921.8227 
E_dihed  =      5211.0745 E_impro  =       222.1814 E_vdwl   =     -2220.7611 
E_coul   =    207197.3593 E_long   =   -270386.7576 Press    =      -370.8595 
Volume   =    309663.8221
------------ Step            350 ----- CPU =     25.83501 (sec) -------------
TotEng   =    -25127.9697 KinEng   =     21467.2356 Temp     =       299.3521 
PotEng   =    -46595.2053 E_bond   =      2580.2788 E_angle  =     10952.2264 
E_dihed  =      5250.4014 E_impro  =       212.6703 E_vdwl   =     -2165.8153 
E_coul   =    206976.9794 E_long   =   -270401.9463 Press    =      -337.7102 
Volume   =    309801.8789
------------ Step            400 ----- CPU =     29.87184 (sec) -------------
TotEng   =    -25200.8922 KinEng   =     21418.5956 Temp     =       298.6738 
PotEng   =    -46619.4878 E_bond   =      2525.8634 E_angle  =     10966.7300 
E_dihed  =      5205.9518 E_impro  =       212.6783 E_vdwl   =     -2112.8646 
E_coul   =    206994.6035 E_long   =   -270412.4502 Press    =       251.9428 
Volume   =    309816.1209
------------ Step            450 ----- CPU =     34.00545 (sec) -------------
TotEng   =    -25149.9339 KinEng   =     21463.5232 Temp     =       299.3003 
PotEng   =    -46613.4571 E_bond   =      2500.1215 E_angle  =     10967.5370 
E_dihed  =      5241.7049 E_impro  =       225.9936 E_vdwl   =     -2223.6799 
E_coul   =    207072.4956 E_long   =   -270397.6298 Press    =       189.8443 
Volume   =    309793.5114
------------ Step            500 ----- CPU =     37.91415 (sec) -------------
TotEng   =    -24963.2474 KinEng   =     21650.8761 Temp     =       301.9129 
PotEng   =    -46614.1235 E_bond   =      2567.6224 E_angle  =     10950.2044 
E_dihed  =      5274.6074 E_impro  =       218.7401 E_vdwl   =     -2199.2752 
E_coul   =    206974.1774 E_long   =   -270400.1998 Press    =      -317.9687 
Volume   =    309759.2619
Loop time of 37.9147 on 8 procs for 500 steps with 32000 atoms

Performance: 2.279 ns/day, 10.532 hours/ns, 13.188 timesteps/s, 422.000 katom-step/s
97.9% CPU use with 8 MPI tasks x 1 OpenMP threads

MPI task timing breakdown:
Section |  min time  |  avg time  |  max time  |%varavg| %total
---------------------------------------------------------------
Pair    | 19.345     | 19.84      | 20.324     |   6.7 | 52.33
Bond    | 0.66308    | 0.72748    | 0.79533    |   4.8 |  1.92
Kspace  | 9.6407     | 10.194     | 10.66      |   9.9 | 26.89
Neigh   | 3.9198     | 3.9248     | 3.9299     |   0.2 | 10.35
Comm    | 1.2437     | 1.2556     | 1.2646     |   0.6 |  3.31
Output  | 0.0018982  | 0.0020548  | 0.0030644  |   0.8 |  0.01
Modify  | 1.6749     | 1.6906     | 1.7085     |   0.7 |  4.46
Other   |            | 0.2797     |            |       |  0.74

Nlocal:           4000 ave        4047 max        3946 min
Histogram: 2 1 0 1 0 0 0 1 0 3
Nghost:        16040.5 ave       16106 max       15990 min
Histogram: 2 0 1 1 1 0 1 1 0 1
Neighs:    1.49526e+06 ave 1.52472e+06 max 1.46022e+06 min
Histogram: 1 1 0 2 0 0 0 2 0 2

Total # of neighbors = 11962045
Ave neighs/atom = 373.81391
Ave special neighs/atom = 7.431875
Neighbor list builds = 55
Dangerous builds = 0
Total wall time: 0:00:38
